POSCAR file written by Ovito 3.7.11
1
271.6001155807 0.0 0.0
0.0 15.3640226799 0.0
0.0 0.0 10.8640046232
Sr Ti O 
800 800 2400 
Direct
0.0224868047 0.5009945312 0.7632285366
0.0124830535 0.2512877923 0.5088674519
0.0225378356 0.2513021115 0.764765723
0.0024763935 0.2499209628 0.7592695913
0.0125833848 0.2501617851 0.0127440438
0.0225132775 5.7298404919e-04 0.262260414
0.0025349355 -4.1263022094e-04 0.2618047809
0.0027081313 0.5011286107 0.2597889497
0.0125397913 0.5030005163 0.5119740412
0.0126827588 4.5615266737e-04 0.5088425992
0.0226766795 6.4223674572e-04 0.7654625195
0.0026604141 7.2053655203e-04 0.7576302327
0.0224538887 0.2508660277 0.2641961643
0.0025337573 0.2500843314 0.2597705403
0.0325307622 0.4990080723 0.0169481105
0.0425370171 0.4993198396 0.2642394264
0.0325694219 0.5010895584 0.5184955775
0.0324361378 0.2510469699 0.5133492247
0.0425587402 0.2481707701 0.7677167527
0.0324328241 0.2496788387 0.0142030822
0.0525038759 0.4982348373 0.0145774377
0.0424427609 -0.0017663772 0.760846358
0.0426982836 0.2479475213 0.2668462
0.0525730953 0.2484578043 0.5163941424
0.0525973957 0.2503349168 0.0167157836
0.0624876714 0.2469913914 0.2597429262
0.0624471706 0.4995561058 0.7651118201
0.0724416436 0.4998880502 0.0152100773
0.0625093945 0.4978456163 0.2633548539
0.0724383299 0.4986396792 0.5134136577
0.0724552665 0.2510476208 0.5136005133
0.0624110882 0.2487259632 0.7609080295
0.0724107157 0.2493833431 0.0140653797
0.0923676292 0.2503186451 0.5072741168
0.1022958282 0.2494998491 0.7546644755
0.0824582078 0.2495818589 0.7603235305
0.0924276439 0.2529514191 0.0080952056
0.1024718222 0.0012222932 0.2538381054
0.0924600445 0.0013751177 0.5092743001
0.102434267 0.2492518672 0.2562699895
0.0823661607 0.2501793586 0.2632361132
0.1024762405 0.5026542528 0.7534733861
0.0825484139 0.4979282769 0.7618910924
0.1024132803 0.4988421001 0.2544005131
0.0825230089 0.5022442039 0.2601985592
0.1224302084 0.2471026904 0.2528532015
0.1123827164 0.5006111681 0.0043640768
0.1122840419 0.24934364 0.5014079559
0.1224500906 0.4971198949 0.2510527605
0.1124007576 0.4998704766 0.5058022839
0.1223525207 0.2503960987 0.7532202567
0.1125395646 0.2504325475 0.0024897219
0.122456718 -7.6234332095e-04 0.2493885491
0.1523790175 0.249601385 0.4911833652
0.1323293206 0.2493905027 0.4992098714
0.1423749717 0.2488112273 0.7458426825
0.1523911677 0.2501884708 -0.0033225455
0.1323307933 0.248433722 -3.5515903998e-04
0.1423679761 -0.0012029831 0.2500614133
0.142275929 0.2506772751 0.2485371135
0.1424412456 0.498877898 0.746695959
0.1524751147 0.5001815931 -0.0032784641
0.1324489818 0.4964039366 1.9324831133e-04
0.1524301957 0.4983266101 0.4961511466
0.1323911762 0.4989755287 0.5001993776
0.1825266483 0.2496189585 0.2403624116
0.1725152387 0.4991317378 0.4908658028
0.1825689899 0.4991851092 0.7387476929
0.1724997748 0.2505217169 0.4909863844
0.162487997 0.2494230463 0.7471589558
0.1725148705 0.2503511886 -0.006942509
0.182553526 0.4992619121 0.2411282434
0.1623421944 -1.1355490091e-04 0.7474038011
0.1625111929 0.24865632 0.2446389193
0.1824172963 0.2510638926 0.7381346592
0.1824747337 -0.002317203 0.2372613451
0.1924224467 -0.0013854223 -0.0124765456
0.2024894527 0.250713073 0.2377648427
0.2026205278 0.5001308251 0.7415947093
0.192419133 0.4989586061 -0.0124064978
0.2026212642 0.5010583166 0.2433254074
0.1923915189 0.4998073421 0.4897446692
0.1925918133 0.2507710006 0.4903273273
0.2023764189 0.2517134621 0.7390137089
0.1925262758 0.2499827955 -0.0132662176
0.2024736206 -5.386388868e-04 0.2369520669
0.2123292865 0.2511973212 0.4889042793
0.2223546873 0.2483308844 0.7404680529
0.2123326002 0.2497601976 -0.015297117
0.2223889288 6.5056789718e-04 0.7383979139
0.2224415797 0.246902873 0.2396103869
0.2324551984 0.2489121124 0.4867402522
0.2324456255 0.2503388221 0.9897453769
0.2324353163 -2.9462727095e-04 0.4871121225
0.2224879715 0.5011715682 0.7395632301
0.2124205972 0.4997565742 -0.0122096551
0.2124747209 0.4986767788 0.4894445957
0.2423705109 0.4990686033 0.7385166547
0.2623719751 0.2501311942 0.7423844733
0.2624515038 2.9310942979e-04 0.2413279855
0.2625586466 -0.0022353495 0.7409531411
0.2525361914 0.2500264039 0.4923477609
0.2423992296 0.2507814145 0.7373826345
0.2523425243 0.2499984164 0.9889997955
0.2624132122 0.2522185381 0.2420772488
0.2424875948 -2.1190154042e-04 0.2408474997
0.2625395008 0.5011064811 0.2430336181
0.2521646893 2.2034202875e-04 0.4903715099
0.2423027642 -1.6913930206e-04 0.7401854684
0.252345838 -0.002706795 0.9903160689
0.2424205845 0.2500602492 0.2392385166
0.2725221917 0.2489374964 0.4939944833
0.2725527513 0.2495421557 0.9956548
0.2725273463 4.2927168649e-04 0.4943387394
0.2725347101 2.9864183506e-04 0.9978455207
0.2825078281 0.2501806604 0.7477195226
0.2724802182 0.5005024726 0.496898569
0.2824017899 0.2510704013 0.2466317388
0.3125343249 -0.0015282886 0.502274119
0.2924235087 0.5013876574 0.4984587671
0.292426086 0.2499821446 0.4984063003
0.3024665825 0.2491789696 0.7495742715
0.2926455263 0.2494686073 0.9966397039
0.292451491 -1.6347672256e-04 0.4988361602
0.3024680552 0.0019263406 0.7514667596
0.3123929406 0.4992293685 0.5024729407
0.3024548005 0.250051137 0.2458327701
0.3123936769 0.2482247924 0.5014558203
0.3125151791 0.2493241139 1.0010395547
0.3225317433 1.1444528322e-04 0.2519566629
0.3324374828 3.7069327778e-04 0.5001257399
0.3225549392 -0.0015435189 0.7493763702
0.3324879246 2.6290900575e-04 0.9972472147
0.3226606092 0.2495890184 0.2496877022
0.3223793133 0.4999420725 0.7507405081
0.3224956609 0.4979373891 0.2501203235
0.3325486757 0.2500270548 0.4997842452
0.3225781351 0.2477106041 0.7495411345
0.3324949202 0.2482176328 1.0015826326
0.3625346718 0.2500530896 0.2405400625
0.3525718631 0.5011657103 0.4945909484
0.3525751768 0.2492798546 0.4949370455
0.3425162709 0.250910287 0.745288559
0.3626046276 0.4952147949 0.7378640408
0.3525545582 0.2496951104 0.9953510446
0.3625493993 0.4992781838 0.2419115641
0.3425063298 -5.2555637552e-04 0.2472364882
0.3425048571 0.2494477794 0.2472815912
0.3625125805 0.248115446 0.7381024428
0.3424334285 0.4985329363 0.7504836967
0.342545726 0.4962770167 0.2505363763
0.382479435 0.2502900067 0.2357315225
0.3925493866 0.2490156009 0.4815101366
0.3923910656 0.2493351787 0.980098842
0.3924536576 -0.0026713811 0.9866341853
0.3826046191 0.5000429575 0.7322261566
0.3925825235 0.5011435807 0.9840936856
0.3725862139 0.2472439295 0.487490436
0.3824205249 0.2489231772 0.735960507
0.3724794393 0.249378787 0.98648691
0.3925272953 0.5018484742 0.4809182739
0.3726303965 -0.0032380166 0.4863011876
0.4124794223 0.4990991942 0.9789666628
0.4025530642 0.2482781638 0.7309577477
0.4025788374 -7.7158569211e-04 0.731708852
0.4025015178 0.2497836289 0.232491465
0.4125272868 0.2497953446 0.4806494964
0.4124757404 0.2500439774 0.9827313887
0.4125604237 -0.0015546488 0.4795274423
0.412486786 -0.0018548176 0.9806879434
0.4425567291 -0.0027130564 0.7312449346
0.4424794095 0.250192376 0.2275660253
0.4226487847 0.4985088541 0.730522365
0.4324867775 0.4968797234 0.9804118021
0.4323689573 0.4979347857 0.4806568601
0.4425420015 0.498160638 0.7274479922
0.4425346378 0.4997975791 0.2275660253
0.4325788246 0.2477913122 0.4810011162
0.4224020985 0.2497536889 0.728798323
0.4325751427 0.2489518155 0.9788930251
0.4226009202 2.5848308153e-04 0.2293839553
0.4324020942 -9.4797178945e-04 0.9797858819
0.4224536448 0.2482306502 0.2310564509
0.4423726349 0.2472068298 0.7271147818
0.4725309431 0.2472191964 0.4825539506
0.4623173981 0.2497289557 0.7277581909
0.472343167 0.2505828988 0.9804854398
0.4724020772 -6.5436378756e-04 0.9786352933
0.4623431713 0.2488821723 0.2273423508
0.4524609958 0.4967222126 0.9812310212
0.452298993 0.4965458265 0.482132375
0.4625677662 0.4980890421 0.7269776316
0.4724057591 0.4964755324 0.9806879434
0.4624278546 0.4967951102 0.2303955528
0.4525088603 0.2465930583 0.4779359482
0.4524609958 0.2465058415 0.9783499473
0.4524499502 -1.7877219594e-04 0.4760342553
0.4823468447 0.250222967 0.7339096979
0.4824646649 -0.0027204373 0.7334697128
0.4925014795 0.5018009606 0.9832652618
0.4923726136 0.4996303052 0.4838748264
0.482368936 0.2500986506 0.2347797556
0.4923947049 0.250091491 0.4855012984
0.4924131143 0.2486075047 0.9850049518
0.4824057548 0.4988922172 0.2358714341
0.5024572927 0.2513925826 0.7386933851
0.5123284225 0.249191987 0.4929681583
0.5124094239 0.2511244236 0.9898650381
0.5024315195 0.0011899449 0.7376237979
0.5024388833 0.2517225743 0.2364734221
0.5224131016 0.2520206733 0.2472143969
0.5223136907 0.2499092471 0.7483914664
0.512405742 0.5020678178 0.4916399188
0.5222326893 0.5005779736 0.7442171309
0.5423762742 0.4982712861 0.7493938592
0.5524830446 0.4993992459 1.0057615704
0.5425051401 0.4998698258 0.2520100502
0.5523541787 0.5020938527 0.5059688891
0.5324204611 -0.0011047016 0.5000244881
0.532357869 0.2503069294 0.4975548647
0.5323320959 0.2507573323 1.0002295403
0.5325566908 0.5004796921 1.0010211453
0.5525861373 -5.3505909515e-04 1.0089279903
0.5423578648 0.2510059651 0.2532849024
0.5525530004 0.2517134621 0.5088306331
0.5423910017 0.2502437949 0.7535175687
0.5524351801 0.2486602252 1.0075841028
0.5724756723 0.2510085685 0.5145881785
0.5724830361 0.2491698574 1.017819739
0.5623615382 0.4982517599 0.7583555637
0.5624020389 0.5000650871 0.2597861883
0.5725198549 0.5007576141 1.0122048666
0.572578765 0.4988421001 0.5098357873
0.5624535853 0.250824372 0.2606523514
0.5625124954 0.251360039 0.7615993032
0.602556661 0.4995717267 0.7630886251
0.5924093899 0.4981990394 1.0169452917
0.5924977551 0.4992111441 0.51359407
0.5825493057 0.2481336704 0.7627903925
0.6024830233 0.2474932131 0.2649712008
0.592530892 0.2505340834 0.514698635
0.602556661 0.2475726194 0.764513514
0.5925051189 0.2487526489 1.0142943355
0.5824278036 0.5007485019 0.761841387
0.5824241217 0.4980714686 0.2658456481
0.5824867137 0.2476546292 0.2634064003
0.6125897937 0.4993595427 1.0140089896
0.6126229306 0.4987705043 0.5123330248
0.6225014242 0.5005968489 0.7625888094
0.6127002502 -0.0010126033 0.5098744471
0.6225897894 0.5015588365 0.2613491479
0.6124056995 0.2495499662 0.5100493366
0.6123762444 0.2509343692 1.0130332904
0.6225787438 3.3932128555e-04 0.7580794225
0.6225456068 0.249383994 0.2623174832
0.6225787438 0.2493924553 0.7610608277
0.6426413273 0.0015634799 0.2599804076
0.6525124571 -0.0012295387 0.5078107514
0.6325750576 0.5013505578 0.508202872
0.6425271889 0.2510053142 0.2622686983
0.6524940477 0.2506102354 0.5091141381
0.6426450092 0.2518423346 0.7588562999
0.6326597409 0.0026578547 0.5082765096
0.6525271846 0.2518794342 1.0070962532
0.6425124613 0.5003651387 0.7607736408
0.6525419122 0.5020124938 0.5071793083
0.6324425098 0.2504377545 0.5105813687
0.6325529663 0.251930853 1.0118827018
0.6825198081 0.5003963806 0.753318747
0.6624940434 8.090550363e-04 0.2558576185
0.6825934458 0.4982140094 0.2499389907
0.6624977253 8.1035677872e-04 0.7542585478
0.6726229051 0.4995925546 0.5005473156
0.6625345441 0.2512448348 0.2543112274
0.6626597282 0.2502405405 0.7524986075
0.6726044957 0.0025942646 0.9991525894
0.6626081818 0.4985771955 0.7558141436
0.6625271804 0.5006059611 0.2551221623
0.6825639907 0.2502724332 0.2492974225
0.6724240834 0.251880736 0.5027039789
0.6825750363 0.2505249712 0.7495678282
0.6724130377 0.2505021907 1.0050988313
0.7025345271 0.2522510817 0.2454682636
0.6925492589 0.2486973249 0.4990764031
0.7025345271 0.2522048698 0.7468772918
0.6924940307 0.2496781878 0.9995575966
0.6925198038 0.5010752392 0.9975693795
0.692482985 0.5009574315 0.4967439299
0.732420376 0.5008858357 0.9897269675
0.732420376 0.5005050761 0.4890727255
0.7124167026 0.2520838078 0.4948376346
0.7125823873 0.2519920349 0.9955719576
0.722552928 0.001982706 0.2421490456
0.7323835571 -6.9888337818e-04 0.4897897723
0.732608152 6.8689037306e-05 0.9914022245
0.7123946113 0.5023808869 0.9967777745
0.7224130164 0.2496964122 0.2416777645
0.7323835571 0.2486589235 0.489151886
0.7224608809 0.2498265864 0.7419656591
0.7324056484 0.2514537644 0.9884291035
0.7125050678 0.501005596 0.497436124
0.7125087497 4.700162241e-04 0.4950401382
0.7124498395 0.0035289807 0.9964095862
0.7525713247 0.4995847442 -0.0179455602
0.7424056442 3.7186870843e-05 0.2348948145
0.7424535087 -0.0011293696 0.7355831139
0.742505055 0.2509395762 0.236397023
0.7425197826 0.2516464223 0.734994933
0.7624682277 1.206285597e-04 0.2335711773
0.7525381877 0.0011333191 0.4841896274
0.7625492291 -2.2498018923e-05 0.7353051317
0.752435095 0.00155235 -0.0174747394
0.7624829552 0.252754856 0.232063446
0.7525087327 0.2490898002 0.4838729854
0.7625602748 0.2528179905 0.7324424673
0.7525713247 0.2486745444 -0.0157519769
0.7825602663 5.9654558692e-04 0.2379894376
0.7824976742 0.0011783594 0.7349571937
0.7724719053 0.0021092354 -0.0161162072
0.7825418568 0.2519575388 0.2332103528
0.7724534959 0.2495122156 0.4840405111
0.7825529025 0.2516503276 0.7330536599
0.772545543 0.2497237488 -0.0160111078
0.7925087156 0.0037056272 0.4864226898
0.7924829424 0.0033930137 -0.0147308709
0.8125160709 0.5001178077 -0.0116343516
0.7924387598 0.2531206456 0.486606784
0.792435078 0.2507312974 -0.0136906191
0.8024866201 0.0019887591 0.2403127061
0.8125528897 -5.3792292847e-04 0.4866721374
0.8025050295 0.0010549542 0.7363112064
0.8124645245 0.0016503061 -0.0095494022
0.8025123933 0.2519549353 0.2415056364
0.8125786629 0.2501409572 0.4903650666
0.8024755744 0.2517206216 0.7392235763
0.8124350694 0.2520128628 -0.0069725347
0.8325307899 -6.2435862488e-04 0.490383476
0.8224939753 6.5837835167e-04 0.7400262269
0.8326044276 8.6496487306e-04 -0.0068265112
0.8226854333 0.2512910466 0.2429783898
0.832622837 0.2504110688 0.493925448
0.8226117956 0.2501396555 0.7417337004
0.8327075203 0.2501409572 -0.0037954742
0.8224682021 8.6092947157e-04 0.2393563369
0.8426375603 -9.4093851793e-05 0.7428778457
0.842678061 0.250228174 0.2454194786
0.8425676045 0.2498981823 0.7472933446
0.8625933692 -2.2361722217e-04 0.2494253679
0.8424681936 0.500566258 0.7435728013
0.852608101 0.0012463754 0.4972087677
0.8624681851 2.4481478617e-04 0.7486188227
0.8525676002 -0.0010013432 2.5175382974e-06
0.8625749597 0.2502255705 0.2472061126
0.8425676045 1.3104249902e-04 0.2417955847
0.8527148756 0.2508523595 0.4988683767
0.8626154605 0.2517193199 0.7502600223
0.8525933734 0.2506050284 -0.0040234933
0.8725049997 0.0011450998 0.4998100184
0.8924571267 0.0014167084 0.5027693323
0.8724460896 0.0038799956 -0.001126486
0.8825086773 0.2506284598 0.2496076212
0.8925602194 0.0013950344 -0.0010913332
0.8724571352 0.2510372069 0.4973275084
0.892574947 0.2512214034 0.4995780597
0.8824424034 0.2501858673 0.7505582548
0.8724608171 0.2511328849 -0.0016972056
0.8925307644 0.2511966703 4.0146803126e-04
0.9024976232 2.6395039968e-04 0.2503393955
0.9125086646 5.5944592807e-04 0.5012349073
0.9025086688 0.0018872232 0.7519923485
0.9023982123 0.2534968492 0.2504406473
0.9123761168 0.2517447039 0.5038886249
0.9025086688 0.2506193476 0.7504082181
0.9025381239 0.5017046317 0.7539133712
0.9125013008 0.2506961504 0.0045310502
0.9225123422 0.0029534153 0.2564393561
0.9225270697 5.8977652636e-04 0.755754313
0.9225528429 0.2529943766 0.2517670459
0.922486569 0.2524853953 0.7546092472
0.9425233793 0.002638654 0.2553587233
0.9325822937 -1.5468996125e-04 0.50663531
0.9426006989 4.2647294029e-04 0.7558141436
0.9324202908 -0.0012606503 0.0016124211
0.9426154264 0.2515390286 0.2528117804
0.9324681553 0.2528804741 0.5072731964
0.9425381069 0.2517076042 0.7511924593
0.9325197017 0.2502795928 0.0034839225
0.9526006946 0.0010123872 0.5067282776
0.9525381026 3.49800312e-04 0.0068892046
0.9624350056 0.2504221336 0.255637626
0.9525381026 0.2521072391 0.5051478291
0.9723061354 0.2510814661 0.5044731239
0.9625380984 0.2518820377 0.7531061183
0.9526043765 0.2520115611 0.004380185
0.9725380941 0.2509213518 0.0050540618
0.9626596005 0.0010466881 0.2557867423
0.9825049529 0.4985173154 0.7606806732
0.9825601811 0.4982406951 0.256491823
0.9825159985 -3.4585083501e-04 0.258133943
0.9924644479 -0.0017229641 0.5113913831
0.9824239515 0.2484018294 0.2561070661
0.9925233581 -5.4455795231e-05 0.0089817111
0.9923687189 0.2511517602 0.5066574013
0.9823282225 0.2500804262 0.7552222808
0.9923687189 0.2501383537 0.0051714218
0.0127165953 0.7491469897 0.0112475422
0.0025315849 0.5001783387 0.7575262195
0.0125569857 0.5022617774 0.0097137616
0.0226575705 0.7511321469 0.2629949498
0.0026247366 0.7521930669 0.2592642813
0.0126097839 0.7487434495 0.5111308899
0.0225919961 0.7515942654 0.763944663
0.0225984026 0.5018771126 0.2637202809
0.0025905687 0.75081322 0.7588121173
0.0125698723 1.000877938 0.0124305314
0.0525815636 0.9983330316 0.5153889882
0.0527085886 0.9993744256 0.0151411341
0.032493207 0.7501363139 0.013262453
0.0424011556 0.4989416834 0.7610092813
0.0425421717 0.7502274359 0.260491269
0.0325845177 0.7490363416 0.5128438862
0.0426309051 0.747422181 0.7604708058
0.0525425357 0.7451701666 0.0152710125
0.052519708 0.7480339999 0.5152094964
0.0523904739 0.497912656 0.5122170455
0.0424560157 0.9999992619 0.2670468627
0.0325664764 1.0014051437 0.5139613379
0.0326213365 1.0003507324 0.0160234975
0.0724276524 0.9992117078 0.5089990793
0.0626124872 0.9993614081 0.7655324753
0.0724965036 1.0024270115 0.0124817096
0.0725476818 0.7484440488 0.0120156752
0.0625532089 0.7466281181 0.2564540837
0.0725016583 0.7491274635 0.5129405356
0.0624957715 0.7495440211 0.7591784647
0.0626216919 0.9979685437 0.2664789321
0.0824825082 0.9975194426 0.2620174097
0.1024766087 1.000155471 0.7543321855
0.0824357483 0.9974348294 0.7625584338
0.0924364804 1.0015288093 0.0051160095
0.0924615172 0.7508848158 0.0086476722
0.0923878795 0.4996869309 0.0109447993
0.1024593038 0.7501688575 0.2563583547
0.0823775745 0.7493943207 0.2613150904
0.0924073935 0.7519327184 0.5063490436
0.1024526764 0.7516137916 0.7565192243
0.0824534213 0.7474612332 0.7593754455
0.0924489988 0.5022747949 0.5094777241
0.1123186516 1.0009430252 0.007306362
0.1124129078 0.7484245226 0.0021690299
0.1224655545 0.4997266341 0.7500087337
0.1225012688 0.7508913245 0.2534966107
0.1123293291 0.7498434219 0.5043617469
0.1224125354 0.7513339169 0.755121029
0.1124983275 1.0007998335 0.5031853851
0.1224265266 1.0008584119 0.7523366046
0.1524810057 0.999634774 0.4984366758
0.1324644457 1.0000513316 0.5015119691
0.1422906565 0.9984697146 0.748654721
0.1525288702 0.9995241259 -0.0012882772
0.1324655503 0.9996282653 -0.0011281981
0.1524526552 0.748528662 -0.0067375293
0.1324563456 0.7492901813 -0.0019685144
0.1424158406 0.7497588086 0.2480833214
0.1525082516 0.7491079374 0.496169556
0.1324681276 0.749570056 0.4971912787
0.1423436757 0.4996732627 0.245566754
0.1425491248 0.7500712268 0.7499258913
0.1725465347 0.7477476166 -0.0093032775
0.1625200294 0.5005428266 0.7432230223
0.1725443256 0.4999036711 -0.0058140209
0.1624758468 0.748619784 0.2451654287
0.1824670017 0.9985152756 0.7410387449
0.1726687732 0.7494008294 0.4930077385
0.1626102355 0.4988486088 0.2414789428
0.1624846833 0.7510280075 0.748940067
0.1825262801 0.7511581817 0.2393949967
0.1825561033 0.7501167878 0.7399332594
0.1622869662 0.9975389688 0.2444925645
0.1725980811 0.9988081676 0.4926340273
0.1725343845 0.9964585225 -0.0058591607
0.1924611065 0.9993223559 0.4866012611
0.2024854027 1.0008453945 0.7355913982
0.192559781 0.7504812757 -0.0115246038
0.202468466 0.7506960632 0.2401976473
0.1925498399 0.7468689404 0.4911704786
0.2023631641 0.7517765094 0.7389824129
0.2324128568 0.7487955192 0.991512681
0.2324371572 0.4980389251 0.988889339
0.2326024738 0.7480079651 0.4889705532
0.2323940792 0.4987555343 0.4891279537
0.2224526254 0.9993548994 0.2368462128
0.2124058697 1.0016720009 0.4869519605
0.2124187563 1.000539485 -0.0148650019
0.2124677254 0.7497067389 -0.0099903169
0.2324960673 1.0009625513 0.986864303
0.2225454088 0.7496872128 0.2398395841
0.2124971804 0.7503055404 0.4892374898
0.2225023308 0.498387792 0.2374748944
0.2224898124 0.7499670874 0.7396193788
0.2525579145 0.7496872128 0.9894600309
0.2523395788 0.5016838038 0.9901411794
0.2425612324 0.7488020279 0.2377942978
0.2526072517 0.7465695397 0.4924600583
0.242486122 0.5016024449 0.2347549029
0.2424478304 0.7469145014 0.7390781419
0.2524062209 0.502228583 0.4899757074
0.2624573948 0.5035212132 0.7433408426
0.2625299279 0.7521865582 0.2431919391
0.2626488527 0.7502599794 0.7449590304
0.2825777839 0.5009613368 0.7468312682
0.2826230711 0.7508783071 0.2479093524
0.2824754275 0.4990692542 0.2476746323
0.2826304348 0.7500582094 0.7486427549
0.2725781563 0.7499020003 0.9932247569
0.2724912639 0.5008734692 0.9962070826
0.2725788927 0.7499866135 0.4935581801
0.2826510534 1.0008649206 0.2467937417
0.2825961933 0.9993614081 0.7483537271
0.312548316 0.9980791919 1.0001374933
0.2925435381 0.7512493037 0.9997048719
0.3024091451 0.497978394 0.7514345431
0.2923900036 0.5000117157 1.0007634135
0.3023951539 0.7508067113 0.2520385848
0.2925818297 0.7519978056 0.4985995992
0.3024503822 0.4977453821 0.2493462075
0.3024437548 0.7523232412 0.7516950364
0.3025777754 1.001737088 0.2504268403
0.3124327049 0.7509759378 1.0010855783
0.3124448551 0.4985062506 1.0009567123
0.3124732056 0.749999631 0.5018286111
0.2923384572 0.9990945509 0.9984898504
0.3323483813 0.7491339723 1.00103035
0.3325236389 0.4981567327 0.9993919118
0.322441169 0.748190209 0.2525954697
0.3325026522 0.7480665435 0.4987708068
0.3224430099 0.7482943484 0.7517447418
0.3325155388 0.4980753738 0.4981191134
0.3525070619 0.9986389411 0.4915745653
0.3424768747 0.9998495615 0.7476734991
0.3627224479 0.7478192124 0.2416556732
0.3525269441 0.9964650313 0.9923595142
0.3624352609 0.7482552961 0.7397132668
0.3623542595 0.9978839305 0.2402132953
0.3523229678 0.7463677696 0.9917888223
0.3624904892 0.997760265 0.7407018526
0.3523962372 0.4972969319 0.996888231
0.3424669337 0.7482422787 0.2461015476
0.3525280487 0.7473245503 0.4925042409
0.3424801884 0.7492446204 0.7473909145
0.3924352482 0.9987495892 0.4848523664
0.3724683936 0.7489972893 0.9847288106
0.3724757574 0.5003670914 0.9871772631
0.3826156647 0.7493487598 0.2363574427
0.3723763466 0.7480144738 0.4875815626
0.3825457089 0.5001184586 0.2330750435
0.3825346633 0.7462766476 0.735944859
0.3824278887 0.9995631782 0.2327804929
0.3824867988 0.9971614635 0.7322206338
0.3724904849 0.9977667737 0.9882081905
0.3725751683 0.5004328294 0.4896710315
0.3925162496 0.7483008571 0.9833849231
0.3924573395 0.7523297499 0.4806182003
0.412519923 0.7474286897 0.9795649689
0.4125309686 0.7489322022 0.4788168388
0.4125898788 0.5005968489 0.4819004163
0.4024426077 1.001307513 0.2304848385
0.4025199272 0.5002278049 0.7316002364
0.4024573352 0.7499150177 0.2339255586
0.4024610171 0.5009255389 0.2309809723
0.4025236091 0.748710906 0.7315827475
0.4325272782 0.7494594079 0.9774478858
0.4226046021 0.74823577 0.2296821878
0.4326009159 0.7495440211 0.4796268532
0.422512555 0.4984027621 0.2253421676
0.4224941456 0.7510735685 0.7300363564
0.4426340486 0.7481381393 0.2306026587
0.4426119573 0.7503901537 0.7300998688
0.4324278674 0.9997844744 0.4810066391
0.422512555 1.0017761403 0.7272685004
0.4425383196 0.9974087945 0.2283622326
0.4525125422 0.998482732 0.9792151899
0.4624683553 0.9966668013 0.2311659869
0.472472033 0.9992767949 0.47985513
0.4625199017 0.9977993172 0.7300188674
0.4525088603 0.7471292889 0.9802737315
0.4525530429 0.7488736238 0.4829635602
0.4724683511 0.7475914075 0.9820134214
0.4624867648 0.7479624041 0.2290332559
0.4724278504 0.7478127037 0.4820872719
0.462383672 0.7504226972 0.728657491
0.4725567163 0.4966727464 0.4820246799
0.4824057548 0.9989057983 0.2336687473
0.4923873411 0.9990229551 0.489308366
0.4923357948 0.9991205858 0.9875822703
0.4824683468 0.5004139541 0.7324277397
0.4924131143 0.7493813033 0.4883814518
0.4824131186 0.7511646904 0.2314936745
0.492486752 0.7487825018 0.9886500166
0.4824720287 0.7495765647 0.7369039897
0.5124167877 1.0013205305 0.4947050868
0.5123210587 0.9997063699 0.9963635626
0.5022952898 1.001873771 0.2406726103
0.5224499204 0.7472724806 0.7462338826
0.522398374 1.0016134225 0.2481449929
0.5224793755 1.002980252 0.7474314152
0.5024867477 0.7502729969 0.2373156529
0.5024278376 0.5006996865 0.2379949604
0.5025272485 0.7510019726 0.7394297618
0.5024020644 0.5002570941 0.7415173898
0.5124278333 0.7509564116 0.9909143749
0.5123910145 0.5009782594 0.9900859511
0.5124351971 0.7493682859 0.4920937109
0.5223615552 0.5013167125 0.2450338013
0.5225751044 0.749140481 0.2464945886
0.5324057335 0.749003798 0.5018102016
0.5324462343 0.500384014 0.501054495
0.532486735 0.9994460214 1.0022453716
0.5425125039 0.9997063699 0.2524150574
0.5524020431 0.9992312339 0.5085360824
0.5524278163 0.7488866412 1.0038838098
0.5424020474 1.0003246975 0.7525952569
0.5424683213 0.7508457635 0.2562653871
0.5523468149 0.749908509 0.506289213
0.5424756851 0.7515747393 0.7557598358
0.5324204611 0.751151673 0.9994103213
0.5624904041 1.0016394574 0.2605013942
0.5624683128 0.9985543278 0.7589336195
0.5625198592 0.7500972616 0.2588721607
0.5625088135 0.7505528715 0.7611906141
0.5725971745 0.9994460214 0.5106752568
0.5725529919 0.9973697422 1.0141102414
0.5723725796 0.7511321469 1.0145796815
0.5723210332 0.7491014287 0.5135876267
0.602494069 0.998098718 0.2643922246
0.5924977551 0.746563031 1.0162457338
0.592530892 0.9979750525 0.511094071
0.6024756595 0.9999471922 0.7594454013
0.5926155754 0.99647154 1.0111095063
0.6025051146 0.7495114776 0.2650080196
0.6024682958 0.5009561298 0.2643130641
0.5926082116 0.7509303768 0.5129525018
0.60239834 0.7506635196 0.7658481968
0.582475668 0.9991726555 0.2629360397
0.582383621 0.9995631782 0.7619076609
0.5824167579 0.7470967454 0.2628476745
0.5823799391 0.7491860419 0.7624673072
0.6124093814 0.7499801048 1.0127387397
0.6125492929 0.7499410525 0.5124149468
0.6126045212 1.0003051714 1.0104283578
0.6224093771 1.0003767672 0.2566243708
0.6224572416 0.7505073105 0.2598653488
0.6226045169 0.7512688298 0.7610893623
0.6425824171 1.0026483077 0.7597031331
0.6525971404 0.9993939517 1.0068661355
0.6325492844 1.0004093108 1.0131805658
0.6324793286 0.7516007741 1.0121128195
0.6325161475 0.5013791961 1.0087070772
0.6324719649 0.7517179309 0.5098026504
0.6525750491 0.7503120491 1.0062862388
0.652545594 0.5006482677 1.0059732787
0.6425382345 0.7527853597 0.2604995532
0.642460915 0.5011162441 0.2586144288
0.6525750491 0.7500972616 0.5078420474
0.6425124613 0.7493292336 0.7583712117
0.6726449964 0.752010823 0.9995483919
0.6725529493 0.5010817479 1.0030093624
0.6824314429 1.0010862168 0.2534367801
0.6726008138 1.0002205581 0.5007314098
0.6824645798 1.0027394297 0.7533610887
0.6826781291 0.7503901537 0.2471784985
0.6726523602 0.74995407 0.5026257388
0.6825418994 0.7488996586 0.7498780269
0.6625824086 0.7501818749 0.2538638786
0.6625676811 0.7505203279 0.7512541308
0.7024903445 1.0004874153 0.2503642483
0.7024940264 0.4988030478 0.7490155456
0.6926486698 0.75081322 0.9964648144
0.6925087582 0.9996282653 0.4994399891
0.7024977083 0.9995761956 0.7483841026
0.6925234857 1.0016264399 0.9977166548
0.7025013902 0.7520238404 0.2468968344
0.7024240706 0.501409787 0.2477473495
0.6925676683 0.7511581817 0.4961410214
0.7024240706 0.7491600071 0.7432138176
0.7224166983 0.5002948447 0.7413526255
0.73254556 0.7489777632 0.987876821
0.7224203802 0.7509238681 0.2394852028
0.7224792903 0.5005968489 0.2425954739
0.7326265614 0.7510670597 0.4871056792
0.7225271548 0.7539178756 0.7425124188
0.7224130164 1.0001359449 0.742712161
0.7124572033 0.7535598965 0.9910800597
0.712468249 0.7488996586 0.4922888508
0.7424976913 0.5001926579 0.7389142981
0.7425529195 0.7511581817 0.2372088783
0.7424093261 0.500126269 0.2381081784
0.7424130079 0.7471553238 0.7369352857
0.75246455 0.5013811487 0.4851883383
0.7525565971 0.7514055128 -0.0140801716
0.762490319 0.5001178077 0.7346672454
0.7625308197 0.7486978885 0.2292376004
0.7624940009 0.499747462 0.2344971711
0.7524571863 0.7515617219 0.48472258
0.7625308197 0.7490884113 0.7345383795
0.7824866286 0.7496741954 0.2335748592
0.782471901 0.4994395999 0.2331615678
0.7725344973 0.7511646904 0.4841187511
0.7825492206 0.7507416241 0.7318901847
0.7725087241 1.0007672899 0.483964112
0.7725970893 0.5010238204 0.4813186787
0.7725565886 0.7506570109 -0.0152606479
0.7825565844 0.5008923444 0.7366573035
0.7725492249 0.5015777118 -0.0178771693
0.792464533 0.7493487598 0.4841215126
0.8125933904 0.4992391316 0.4885508185
0.8125344803 0.7492641465 -0.0128227623
0.8026817599 0.501435171 0.7399341798
0.8024424375 0.7527267813 0.2378246733
0.8025160751 0.5006372029 0.2401046797
0.7926486272 0.5015178317 0.4859661362
0.7924608511 0.7527397987 -0.0130804206
0.8126559825 0.750858781 0.4861520713
0.7925639439 0.5011266581 -0.0147030359
0.8026449411 0.7524534154 0.7366591444
0.8326449283 0.5004666747 0.4957037978
0.8326338826 0.7505268366 -0.0105479566
0.822534476 0.500747851 0.740086978
0.8325491993 0.4985706868 -0.008107977
0.8225123847 0.7497978609 0.2389881485
0.8225602492 0.5003553757 0.241235018
0.8326007457 0.7492316029 0.4882415403
0.8224056101 0.7516203003 0.7399562711
0.8626412336 0.7500191571 0.7467189708
0.8625307771 0.4990503789 0.7471617173
0.8525786459 0.748756467 -0.0029175199
0.8525933734 0.5003931262 -0.0052077895
0.8625896873 0.7513664605 0.2435426385
0.8626706887 0.4998105965 0.247400332
0.8527038299 0.7494594079 0.4950511839
0.8426044233 0.7478192124 0.243338294
0.8425639226 0.5008363695 0.2440037944
0.8427148798 0.7521344885 0.7433583315
0.8525786459 0.5006827639 0.4951321853
0.8726338656 0.5000950272 0.4982535021
0.8824534491 0.7522841889 0.75297265
0.8926596303 0.4997129658 0.5012892151
0.8726080924 0.749908509 -0.0035688635
0.8927148586 0.7513404256 -2.7233506933e-04
0.8825712694 0.5008799779 0.7466011505
0.8725860011 0.5016597216 -0.0030931181
0.8926191296 0.5000904711 9.662505597e-04
0.8827332722 0.7508978332 0.2487396171
0.882519723 0.5000963289 0.2488519146
0.8725933649 0.7516007741 0.5020762177
0.8925859926 0.7507286067 0.4994031703
0.8825344505 1.0010731994 0.2495339835
0.8823945389 1.0000057706 0.7492511862
0.9125086646 0.7513729692 0.5021286846
0.9125859841 1.0015223005 0.001289704
0.9125307559 0.5017924993 0.503806703
0.9025528514 0.7495570385 0.7549838789
0.912527074 0.7516788787 0.0019763753