POSCAR file written by Ovito 3.7.11
1
271.5926508008 0.0 0.0
0.0 15.3636004081 0.0
0.0 0.0 10.863706032
Sr Ti O 
800 800 2400 
Direct
0.0124312877 0.25134214 0.5446308136
0.0225406187 0.2517723777 0.7942426856
0.0024809816 0.2503156879 0.7972315368
0.0124414868 0.2499544444 1.0438748086
0.0225202205 -2.7798145082e-04 0.2933749354
0.0023745723 1.0000585667 0.2916683354
0.0124570984 -3.1443124027e-04 0.5402897536
0.0223980522 2.0517352606e-04 0.7910448819
0.0023726576 -5.141240153e-04 0.7950904626
0.0124617009 1.0002928868 1.0444639262
0.0225278422 0.2514462822 0.2941822105
0.0024833749 0.2496654496 0.2949204485
0.0325392692 0.2494213662 0.541281128
0.0425137659 0.250391191 0.7933286329
0.0323783665 0.2524174087 1.0428438529
0.0424765778 0.9988674397 0.2910037372
0.0324656295 0.0020674974 0.5413170273
0.042487992 0.999205902 0.7880302569
0.0325212275 6.1718632461e-04 1.0426321388
0.0424706867 0.2508227305 0.2872830916
0.0724140595 0.2513323766 0.5315119019
0.052585467 0.2510472872 0.5361567257
0.0625732188 0.2499609533 0.7839635047
0.0724681847 0.2510166954 1.0311627562
0.0524216187 0.251189181 1.0375970246
0.0624329352 0.9999283889 0.2860459447
0.0726261418 1.000878687 0.53197215
0.0523792758 0.0010523708 0.5392735258
0.0624126843 1.0013993983 0.7843105318
0.0725664937 4.4847587061e-04 1.0305276139
0.0524562293 1.0007550181 1.0381677322
0.0624439812 0.2502577587 0.285130051
0.0925486249 0.250303321 0.5293818737
0.1024645781 0.2492143835 0.7817681213
0.0825619777 0.2519084135 0.7804785061
0.0925257966 0.251729419 1.0302882849
0.1024424862 1.0011390426 0.2774208954
0.0823962884 1.0004816446 0.2786285864
0.0924481068 0.0011517615 0.5302351737
0.1025094983 6.9106223715e-04 0.7788805248
0.0823870834 0.9999348978 0.7808669555
0.0924164417 1.0005272069 1.0300673658
0.1024207625 0.2509991214 0.2809556008
0.0825107981 0.2491883479 0.2801529281
0.1125314926 0.2508936774 0.5279136823
0.1225100395 0.2511410152 0.774118798
0.1125598439 0.2479549131 1.0281251188
0.1224824246 1.3897810487e-04 0.2769790572
0.1125130827 0.9984834151 0.5293560998
0.1226054029 0.9980343016 0.7745136908
0.1124037277 -0.0017829672 1.0256121642
0.122485002 0.2519494195 0.2769726138
0.1525730768 0.250379475 0.5179069682
0.132588 0.2480076351 0.5242758814
0.1426096261 0.2508507187 0.7716325378
0.152575286 0.2526341548 1.0205218203
0.1326075145 0.2494480527 1.0265142505
0.1424921708 0.0024608297 0.2707426956
0.1525027509 1.0018615295 0.5175829536
0.1325202514 2.7657606003e-04 0.5234225814
0.1425746472 4.0753494639e-04 0.7715524546
0.1524375798 1.0016207006 1.0222615581
0.1324609715 -0.0020370548 1.0220038192
0.1426740608 0.2517072887 0.2719402611
0.1726796592 0.2496322543 0.5124088445
0.1626488281 0.2523959294 0.7669140743
0.1726277432 0.2520828518 1.0121913298
0.1625140675 3.1375502755e-06 0.2634468428
0.1726229566 3.7128042367e-04 0.512524827
0.162426068 1.0007485092 0.7633959379
0.1725029239 6.0415790833e-05 1.011427318
0.162680125 0.2504627888 0.2660104247
0.1925667952 0.2485823702 0.5093794916
0.2024967399 0.2493094133 0.7630479903
0.1825915621 0.2512021988 0.7588256743
0.1925115655 0.2494968694 1.0105436416
0.2024157363 -0.0012303624 0.255429321
0.1823938396 -4.3907650239e-04 0.2578713974
0.1924872644 -9.5861617981e-04 0.505775749
0.2025744298 0.9995378555 0.7571558942
0.182517186 0.9969082635 0.7622084978
0.1923712818 -0.002338807 1.0081319416
0.2025663294 0.2497774026 0.2565937486
0.1825216044 0.2522462249 0.2580647016
0.2125688092 0.2494877569 0.5068435246
0.222580494 0.2459866245 0.757682418
0.2125062155 0.2476476934 1.0045051866
0.2225256324 0.997715366 0.2539335147
0.2125121067 0.9985810485 0.5052004389
0.2226935309 0.9981189172 0.752725546
0.2124535631 0.9975135904 1.0059135458
0.2224081771 0.2482009492 0.2595706333
0.2524763692 0.2502239125 0.4986732004
0.232626053 0.2469610054 0.5038730833
0.2424853036 0.2491629633 0.7523499836
0.2525588457 0.247955564 1.0003629538
0.2325564635 0.2487724298 1.0031612622
0.2426333193 0.9973118147 0.248170288
0.2524656914 6.6599237256e-05 0.4989723616
0.2326974835 -0.0025855981 0.5010167837
0.2425118138 0.9976698037 0.7500579481
0.2524336582 7.4046471963e-04 0.9982181976
0.2326286304 -0.0017946181 0.9994424576
0.2425132866 0.2475611252 0.2521486726
0.272338836 0.2490601228 0.4960921291
0.2624063139 0.2478117175 0.748015367
0.2724445089 0.2491785846 0.9924558915
0.2624173598 0.9999674423 0.2480184062
0.272426099 5.3562992073e-04 0.4938755742
0.262428774 0.9981449528 0.7454260113
0.2724445089 0.0013818508 0.99282409
0.2625127232 0.250831192 0.2480819204
0.292509853 0.2481775172 0.4850176394
0.3024475299 0.247615149 0.7348108492
0.2824359428 0.2486018969 0.738613419
0.2923629419 0.2490490577 0.988958006
0.3024265426 -0.0027960761 0.2311558365
0.2822477933 0.9984508707 0.2430155094
0.2925256856 -0.0014761381 0.48752323
0.3023992959 -0.001084433 0.733419059
0.2824175328 0.9974550103 0.74137951
0.2923191262 -0.001879813 0.9875588518
0.3024372203 0.2478013033 0.2326111409
0.2823015503 0.2485198848 0.2426859717
0.3323389867 0.2503697116 0.4788926578
0.3124080351 0.2499895924 0.4816771587
0.3224035191 0.2507413693 0.7290945679
0.3324627014 0.2487815423 0.9751321532
0.3125324861 0.248683258 0.982192359
0.3223924731 -0.002498802 0.225836289
0.3324336138 3.3385430058e-04 0.4762416288
0.3123307134 -9.124030539e-04 0.4830312086
0.3223766406 -7.002132082e-04 0.7272931568
0.3324479735 -4.2566818699e-04 0.9761170841
0.312515549 0.9969538257 0.9802777269
0.3223052101 0.2499557462 0.2286797017
0.3524533013 0.2484704173 0.4758992042
0.3423698178 0.2473873378 0.7229714272
0.3524105902 0.2509997723 0.9757857055
0.3425307205 1.2993074642e-04 0.2220880285
0.3526808479 1.7646931687e-04 0.4713850909
0.3424353571 0.9992840087 0.7235007125
0.3525619198 0.0022651724 0.9719840563
0.3424747544 0.2476411846 0.2232128749
0.3725495741 0.2509236183 0.4748608845
0.3826455763 0.2467455612 0.7174309607
0.3624940737 0.2492892357 0.7199135389
0.3725422101 0.2497591777 0.9766141521
0.3825424807 1.0027467387 0.2203077889
0.362670809 1.0017573873 0.221244854
0.3726084858 0.0031709497 0.4700439279
0.3825351167 -3.1359571878e-05 0.7166034346
0.3626155792 1.0016792806 0.7199475972
0.3725311641 0.001067927 0.9675748795
0.3826603042 0.2517665197 0.2162750951
0.3626045332 0.2482146178 0.2179936615
0.3926495288 0.2492241468 0.4625069051
0.4026092976 0.2503950963 0.7083548682
0.3926900307 0.2516910165 0.966019241
0.4027160752 0.997357377 0.2105450063
0.3926973946 1.0006508758 0.4599681766
0.4026424355 9.9066648861e-04 0.7092661595
0.3926348009 1.0027011765 0.9624201009
0.4026682094 0.2491492946 0.207963935
0.4325916995 0.2492111291 0.451674506
0.41266848 0.253807057 0.4583600698
0.4224662414 0.248495151 0.7055896977
0.4325364697 0.2496198874 0.9560410623
0.4127273917 0.2506906 0.9568695088
0.4225361991 0.9999414067 0.2046630357
0.4325622436 0.9978976149 0.4529079709
0.4125727484 -3.8231897311e-04 0.4551558226
0.4225840649 0.9984769062 0.7070081823
0.4325769715 0.9991993931 0.9498553279
0.4126390241 4.062331682e-04 0.9537214119
0.4227092524 0.2496276981 0.2035142564
0.4526401065 0.248724264 0.4534436996
0.4426324719 0.2495847394 0.7039143946
0.4525296469 0.2491785846 0.9504260355
0.4425919701 0.9968041212 0.2016438082
0.4525517388 -4.4968599467e-04 0.4551871194
0.4423526411 -0.0018532567 0.7023513921
0.4525296469 0.9985354862 0.9572377073
0.4425293763 0.2481651503 0.2032914963
0.4725412341 0.2485810684 0.4478213089
0.4824899569 0.2492117799 0.6995365148
0.4625814653 0.2475715394 0.6990136729
0.4726075098 0.2504074632 0.9454645611
0.4823574054 -4.6381028808e-04 0.2014956083
0.4624894157 -0.0015377122 0.200469255
0.4724528664 0.9977218749 0.4528343312
0.4825157308 1.0005141891 0.7003677228
0.4624010481 7.0922204296e-04 0.6999719095
0.4725228241 -0.0010761668 0.949109726
0.482460501 0.2489468681 0.1971379793
0.4625704194 0.2491147975 0.2029840506
0.5125459984 -0.0013864456 0.4525278059
0.5124797227 1.9065869919e-04 0.9528745554
0.4924534076 0.2500722553 0.4471051629
0.502519954 0.2521193015 0.6998292325
0.4925123194 0.2488583472 0.946440287
0.5125938642 0.2492514842 0.4492655674
0.5124649948 0.2510498908 0.9501498867
0.5024684062 -1.620581026e-04 0.201671423
0.492372404 6.0429872049e-04 0.4517536686
0.5024205404 -1.3309353778e-04 0.7007368418
0.4925491392 0.0012103416 0.9492109805
0.5025383639 0.25131285 0.200239131
0.5225425871 1.0002733601 0.2000301783
0.5323771683 0.0028052802 0.4532117346
0.5225094492 0.998730753 0.7031071195
0.5324139882 0.9982881484 0.9523314626
0.5224763113 0.2488648561 0.2023406238
0.5324213522 0.2512249799 0.4484748612
0.5224394915 0.2476066874 0.6996488153
0.5324839459 0.2508357482 0.9531046794
0.5424473966 -6.7288650046e-05 0.204090487
0.5624663478 6.4667160072e-04 0.2078129736
0.5523850735 -5.7791114683e-04 0.4532982612
0.5424437147 0.9997721755 0.7037965711
0.5623448423 0.9997526489 0.7043709607
0.5524034834 0.0022792316 0.9566854096
0.5424768525 0.2472962133 0.2025836348
0.5624663478 0.2505454517 0.205912149
0.5523556176 0.2506476413 0.4553758211
0.5423848029 0.2499101839 0.7043838477
0.5623853441 0.2521655147 0.706239568
0.5524366213 0.2515217854 0.9541264302
0.5823122456 -5.1627194932e-04 0.2111175549
0.5723856147 -4.7969198206e-04 0.4605213948
0.5824227051 1.0002473246 0.7136854617
0.5723856147 3.9751125429e-04 0.9579004646
0.5825515746 0.2493016026 0.2146541013
0.5724923922 0.249252786 0.4613673308
0.5824374331 0.2516382945 0.7114698273
0.5725218481 0.2498125506 0.9607632077
0.6025778897 0.9970970213 0.2161094058
0.592349336 1.0002733601 0.4612817247
0.6124566548 0.0020781069 0.4715415752
0.6023974724 -8.3670465189e-04 0.7182676917
0.592360382 0.0013443596 0.9617573436
0.6125229305 -3.5953785471e-04 0.9705388772
0.6024527022 0.2492560404 0.2178298131
0.5923935199 0.2509320798 0.4638508296
0.6125671143 0.2494792954 0.4694557308
0.6024711121 0.2492072237 0.7142478848
0.5924450676 0.2500208351 0.9667740478
0.612416153 0.2494298278 0.9700510143
0.6225747489 6.4276626613e-04 0.2243202318
0.6326376132 -3.1384544008e-04 0.4768611227
0.6226631165 0.0018295974 0.7217618952
0.6324829699 1.0007224736 0.9750401036
0.6225821129 0.2481762154 0.2240624928
0.6325823835 0.2498424915 0.4760354376
0.622537929 0.2482400025 0.7242509169
0.6325529276 0.2498346808 0.9773413441
0.6425679261 0.9999153711 0.2284587826
0.6625795133 -9.7684107453e-04 0.2332785007
0.6525129669 -6.2815978514e-04 0.4800727339
0.6425679261 0.9989260197 0.7305185755
0.6625905592 0.9987047174 0.7333187249
0.6526013346 0.99998046 0.9788877777
0.6426415658 0.249111543 0.2264926028
0.662645789 0.2486995302 0.2349740547
0.6525276949 0.2487867494 0.481007958
0.6425458342 0.2468256205 0.7294185825
0.6624985096 0.2497793552 0.7315108704
0.6526749743 0.2506958071 0.9818793903
0.6824659129 0.9993035354 0.2354987375
0.6724730063 1.0002538335 0.4900444691
0.6826242383 -4.8808845141e-04 0.738858271
0.6724766883 -2.2963102524e-05 0.9863990266
0.6825027328 0.2498457459 0.2366484372
0.6725797839 0.2509418432 0.4871909309
0.6825726905 0.248953377 0.7401727395
0.6725356 0.249405094 0.9827354517
0.7026137335 -2.6867373673e-04 0.2433818668
0.6925545512 1.0000976201 0.4907109083
0.7123194453 1.0010283915 0.4919793521
0.702506956 0.9986331196 0.742106702
0.6925582331 0.9991538309 0.9906977438
0.7123636291 8.2468976881e-04 0.993054214
0.7025511398 0.2499817817 0.2419569387
0.6925398232 0.2513056902 0.4887640589
0.7125624563 0.2496153312 0.486816289
0.702484864 0.2537946901 0.7403908971
0.6925103673 0.2488674596 0.9882124041
0.7125587743 0.2501484094 0.9892985896
0.7224522674 5.9466556185e-04 0.2445647045
0.7422134796 0.999622471 0.2480119627
0.7323494424 0.0019196805 0.4952434316
0.7223896736 0.9987177352 0.7429738094
0.742338667 0.0017660707 0.7486965342
0.7323604884 1.0009567937 0.9971043973
0.7224154475 0.251171607 0.2427642139
0.7423975788 0.2522169349 0.2489932116
0.7324120361 0.2520652777 0.4939538164
0.722544317 0.2506137951 0.7414172504
0.7423202571 0.2513922584 0.7452612424
0.7324599019 0.2534536242 0.9940575549
0.7623134343 -3.8602904096e-04 0.2492435866
0.7524309873 0.0022767583 0.500097208
0.7621882469 -9.4670490933e-04 0.7515795283
0.7523831215 1.0003254313 0.9993780228
0.7622729325 0.2507569907 0.2512852471
0.7523720755 0.2516656318 0.4991665863
0.7622692505 0.2523028523 0.7524061339
0.7522763439 0.2508390027 1.0013478847
0.7824207531 0.0013717621 0.2515844084
0.7724278465 1.0004881535 0.5031698243
0.7926235328 1.0008982137 0.5107418259
0.782435481 0.0010705306 0.7554189179
0.7724830762 1.0023562052 1.004173808
0.7924983454 0.0018612957 1.0090340279
0.7824170711 0.2529348656 0.2535920106
0.7722400652 0.252298296 0.5042688967
0.7923878858 0.2518693601 0.5052142463
0.7824170711 0.2520782955 0.7563661085
0.772306341 0.2510459854 1.0019738221
0.7924615255 0.2528313742 1.0090156179
0.8024728421 1.0026556142 0.2605923841
0.8124694307 0.0030356949 0.5158128394
0.8025612097 0.0020214145 0.7624340193
0.8125504343 1.0017248428 1.0132499004
0.8025612097 0.2535636244 0.2621286922
0.8124731127 0.2523282369 0.511927425
0.80248757 0.2506593573 0.7571899526
0.8123368792 0.2496934379 1.0117126718
0.8224439274 1.0007224736 0.2697596056
0.8423929208 1.002011234 0.276553788
0.8323889682 7.8550624516e-04 0.5239150469
0.8224991572 0.0023716579 0.7678861183
0.8424371046 0.0013301702 0.7744059928
0.8323558303 4.5218593846e-04 1.0211017329
0.8225617509 0.2502108947 0.2702373432
0.8425217903 0.2510505416 0.2775083426
0.8324552439 0.2516467561 0.5197470401
0.8224954752 0.2512093586 0.7726229917
0.8425033803 0.2500676991 0.7741436514
0.832444198 0.2513545069 1.0250506615
0.8625407414 6.7348823152e-04 0.2757824122
0.8523931914 1.0040224813 0.5235772248
0.8624781476 1.0015751383 0.7765829663
0.8525036509 0.0014248095 1.0239000413
0.8626769748 0.2492241468 0.2746584864
0.8524079193 0.2520711357 0.5249975504
0.8626438369 0.2516610756 0.774228337
0.8524557851 0.2534119673 1.0250046367
0.8825302366 1.0006443669 0.2770665044
0.8725005101 0.0018569348 0.5247002301
0.8926225568 0.0014650996 0.5321783412
0.8826186042 1.0012627116 0.7782315749
0.8725925598 0.0011772764 1.0234674081
0.8827069719 0.2506892982 0.2775976307
0.8925305072 -6.2472070726e-05 1.0338045803
0.8726625175 0.2538584772 0.525332611
0.892578373 0.2511683526 0.5340478689
0.8825928304 0.2505565168 0.7750917624
0.8726477895 0.2530578836 1.0262012818
0.892574691 0.2500429653 1.0303066948
0.9026007355 -7.7604178803e-04 0.2842703076
0.9226785984 -5.6111820812e-04 0.2905241587
0.9124795006 -0.0018126478 0.5363573939
0.9025528697 0.9981774972 0.784978812
0.9225865488 1.000104129 0.790765051
0.9125457763 0.9981254261 1.0381677322
0.9025786436 0.248953377 0.2843421063
0.9225497289 0.2482868665 0.285729294
0.9125752322 0.2481280496 0.5334651948
0.9025123679 0.2480069842 0.78183992
0.9225055451 0.2502069894 0.7846004881
0.9125568223 0.2493243838 1.0360966158
0.9425281782 1.0019917074 0.2907064169
0.9325610455 0.9983597462 0.540559459
0.9424803124 1.0010934804 0.7891781156
0.9325094977 1.0002603424 1.0432120514
0.9425024043 0.2477687588 0.2890614902
0.9324800418 0.248906513 0.5381017341
0.9425318602 0.2497708937 0.7874659927
0.9325610455 0.2495821358 1.0370447269
0.9624808536 -0.0011908534 0.2912587146
0.952491629 1.0006769114 0.5455384228
0.9725142621 0.9993165532 0.542492501
0.9624550797 1.0000390401 0.7913992729
0.952480583 1.000520698 1.0416195929
0.9625360834 0.2479510078 0.2903069216
0.972521626 5.5307374853e-04 1.0447032552
0.9525284488 0.2516923183 0.5384542842
0.9725068981 0.2497552723 0.5433724953
0.9624661257 0.2502558061 0.7928288035
0.9525947245 0.2505519606 1.0394840418
0.9725731738 0.2504640906 1.0405610223
0.9824813948 -3.3637683719e-05 0.2925013845
0.9922975661 0.9994532399 0.5451821908
0.982429847 0.9983792729 0.793312064
0.9825955363 0.2517658688 0.2955454654
0.9923969797 -5.9450881881e-04 1.0434237655
0.9925037573 0.2498327281 0.5417275686
0.9825182146 0.2495515441 0.7934998452
0.9925074393 0.248037576 1.0419233567
0.0125645387 0.751991714 1.0450438388
0.0225938233 0.500756984 0.7959198297
0.0025859918 0.5022332005 0.7924072162
0.0125854524 0.5017515426 1.0436354796
0.0225050139 0.7516141983 0.292730588
0.0023056823 0.751217156 0.2950888993
0.0124732623 0.7497786911 0.5432583538
0.0224709555 0.7513863871 0.7946072021
0.0224759262 0.5023379936 0.2943368539
0.002518722 0.5010544403 0.292505987
0.0023209626 0.7499674489 0.7933636118
0.0125135432 0.5009242625 0.5429214522
0.0324678387 0.7502798757 1.0414539036
0.042527021 0.5019982295 0.7869781297
0.0326250594 0.5017905959 1.0428530578
0.0425432218 0.7521739629 0.2865503766
0.0325083405 0.7509307648 0.5431147564
0.0424172979 0.7504751424 0.7909942546
0.0425701003 0.5010791741 0.2877424192
0.0327075359 0.503380718 0.5418656431
0.0724913812 0.7505792847 1.0293861986
0.0624988427 0.5008813038 0.7812379155
0.0525121955 0.7503319468 1.0363727647
0.0724832808 0.500692546 1.028797081
0.0525652161 0.4979178058 1.037017112
0.0625176209 0.7495573888 0.2805229676
0.0724567705 0.7510414159 0.5290606206
0.0524687481 0.7493816487 0.5344482848
0.0625334534 0.5005864511 0.2821034595
0.0725653891 0.5009939077 0.5257385498
0.0625459722 0.748528984 0.7823811718
0.0526278098 0.5007302976 0.5365065142
0.0925309514 0.7527272187 1.0280146593
0.1025809288 0.498808873 0.7774187768
0.0825049069 0.5024499466 0.7780060534
0.0924959726 0.5023152125 1.0266799398
0.1024671555 0.7492514709 0.276325505
0.0824971747 0.7501692245 0.2784131903
0.0924915542 0.7489846064 0.5276927632
0.1024030889 0.7490887486 0.7793343294
0.1023905702 0.5008422505 0.2771410646
0.0825594003 0.5008787003 0.2789433961
0.082477292 0.7529550299 0.7795285541
0.0924668849 0.5031919601 0.5262798016
0.1124593257 0.7492644887 1.0255937543
0.1225671102 0.4988765654 0.7754019697
0.1124074097 0.5012379911 1.0265326604
0.1225041483 0.7498828333 0.2732565707
0.1126533663 0.7492319442 0.5272490841
0.1225111441 0.4980902914 0.2760272642
0.1224809518 0.7490106419 0.772183915
0.1124788402 0.5014397667 0.5280848946
0.152484341 0.7490822397 1.0181929649
0.1425127899 0.5005597646 0.7719169711
0.1325438161 0.7488544285 1.0222247382
0.1527023145 0.5005734333 1.0163703825
0.1325979413 0.4995098805 1.0197117837
0.1425485051 0.7521218918 0.2715508912
0.1525432527 0.7507094625 0.5180514861
0.132621506 0.7474354903 0.5224974827
0.1426214084 0.4994968627 0.2705365044
0.1426258268 0.7519201162 0.7689391659
0.1525959051 0.4988310032 0.5177348355
0.1325000005 0.4993536671 0.5221743886
0.1725787728 0.750143189 1.0103411324
0.1626407277 0.4996498217 0.7605525251
0.1725658858 0.5000266865 1.0083804756
0.162531741 0.7503514735 0.2651875011
0.172371477 0.751093487 0.5119108561
0.1625648788 0.4989279857 0.2591821839
0.162576293 0.752050294 0.7624229734
0.1725529989 0.5011058606 0.5093215003
0.1924762184 0.7485615285 1.0028482935
0.2024562381 0.5000318936 0.7548141519
0.1825584243 0.4999505324 0.7576465187
0.1924570721 0.4981664454 1.0031152374
0.2025887895 0.7478911127 0.2504006503
0.1824310276 0.7488479197 0.2531547749
0.1924209886 0.7488674463 0.5028034668
0.2024610247 0.4994545549 0.2517547002
0.2024827484 0.748411824 0.7523739165
0.1825812526 0.5004569241 0.2560847143
0.1824564333 0.7475982126 0.7572368979
0.1925465443 0.5008246765 0.504087559
0.2124410443 0.7472337147 1.0002432893
0.2224880762 0.4981111198 0.7519799441
0.212523889 0.4997813013 1.0036583301
0.2226088453 0.748229575 0.2506565482
0.2125194706 0.7476177393 0.5006697566
0.2225473561 0.4978338411 0.2528721826
0.2225985357 0.746739039 0.7490343563
0.2125047427 0.4982523628 0.504187893
0.2525982429 0.7501692245 0.9929805743
0.24238589 0.4999518342 0.7498959408
0.2324552089 0.7509307648 0.9984391167
0.2524178256 0.5000123669 0.9965889194
0.2324040293 0.5007589367 1.0008692267
0.2424477473 0.7482946639 0.244200188
0.2523714326 0.7499283956 0.4961758942
0.2327166298 0.7501692245 0.5008538559
0.2425173368 0.4998913015 0.2511379677
0.2426469427 0.750143189 0.748035618
0.2524281352 0.5002362727 0.4984495198
0.2325826056 0.4981527767 0.5025567738
0.2724599733 0.7507940781 0.9914709606
0.2624199372 0.4985628369 0.7464008167
0.2723752876 0.499072483 0.9934868472
0.262375017 0.7495313532 0.2434941674
0.2722810288 0.7498307622 0.4923963369
0.2623871676 0.4991570986 0.2478094535
0.2624527069 0.7482946639 0.7442026718
0.2723115893 0.499237158 0.493097755
0.2924130168 0.7488218841 0.9861044678
0.3025495209 0.4991987555 0.7351026465
0.2825972137 0.4968431879 0.7435813369
0.2924907067 0.4985166237 0.9871170136
0.3025263244 0.7478064971 0.2321361649
0.2823924953 0.7492644887 0.2381709379
0.2925558779 0.747272768 0.4813816795
0.3026176376 0.4996114192 0.2356027536
0.302432802 0.7485550196 0.7344141154
0.2824020685 0.499548283 0.2428461381
0.2824584029 0.7497656733 0.7378245537
0.2925142714 0.4974966805 0.4844828311
0.3325311863 0.7493751398 0.9727572731
0.3224550669 0.5002915983 0.7254042987
0.3124827794 0.7487177418 0.977359754
0.3324744838 0.4987138431 0.9768166612
0.3124551645 0.4993419511 0.9772769093
0.3224418117 0.7498763244 0.2264594649
0.3325043079 0.7496420044 0.4757942676
0.3125000847 0.7483988062 0.4785769276
0.3223357706 0.4984723633 0.2298238785
0.3224970415 0.7499674489 0.7254245496
0.3324542329 0.500346273 0.4768215413
0.3123517007 0.4989657372 0.4789948329
0.3525777523 0.7496810577 0.9719472364
0.3424522943 0.4998548517 0.7240465668
0.352423109 0.49931917 0.9730334219
0.3425800591 0.7507940781 0.2232727071
0.3526609652 0.7476567926 0.4706127946
0.3426868367 0.4996328985 0.2229707844
0.3425020011 0.7491473286 0.7217526903
0.3525468237 0.4974081596 0.4729619008
0.3726637156 0.7487828307 0.9701338589
0.3826529402 0.4992638444 0.7154574168
0.3625235296 0.4995990523 0.7229640633
0.3726784435 0.4988244943 0.9678418234
0.3826271663 0.7513668605 0.2193467909
0.3626118972 0.7494922999 0.2235092746
0.372567984 0.7508005869 0.4718020756
0.3826308483 0.5005506522 0.2169452163
0.3825572086 0.7499349044 0.7195591479
0.3625861233 0.4995860345 0.2226651796
0.3625824413 0.7498567978 0.7215492606
0.372553256 0.4995007681 0.4670348259
0.3925648432 0.7497656733 0.9659548062
0.4027234391 0.5012073993 0.7094530202
0.3925243414 0.4992384598 0.9608000276
0.4025761597 0.7488739552 0.2106803192
0.3927305325 0.7509437825 0.4647243804
0.4027344851 0.4997799995 0.2102338786
0.4024914741 0.7502538401 0.7143850388
0.3926789847 0.4998255617 0.4612310974
0.4324444201 0.7499869756 0.9534728779
0.4227092524 0.5010518368 0.7043737222
0.4126132502 0.7482556106 0.9599899909
0.4324849219 0.4983617121 0.9525984065
0.4127237097 0.4990568617 0.9537858466
0.4224257396 0.7497852 0.2054795158
0.4324886039 0.7461727655 0.4544967473
0.4125617024 0.7493425954 0.4591397301
0.4227129344 0.5007784634 0.2024833007
0.4224294215 0.7480603438 0.7024388392
0.4326027454 0.4983304695 0.4515925818
0.4125837943 0.5000449113 0.4515290676
0.4524928271 0.7485159662 0.9494226947
0.4425698782 0.5010069254 0.7033565739
0.4526474704 0.4996107683 0.9538686913
0.4424557366 0.7462638899 0.2034157633
0.4525554208 0.7502928935 0.4523639576
0.4424888745 0.4985101149 0.2045525761
0.4427024296 0.7476502837 0.7060453433
0.4526953362 0.4991271577 0.4534924859
0.472548598 0.7506248469 0.9496988435
0.4825562326 0.5006834336 0.7029082923
0.4626330131 0.4995430759 0.6973586208
0.4725706899 0.4985309433 0.9494411046
0.4826335543 0.7507615336 0.2031478989
0.4625483274 0.7498242533 0.2023617952
0.4726075098 0.7477739526 0.4500498302
0.4824825929 0.498820589 0.1981357972
0.4824015892 0.7508396403 0.7005076382
0.4624967797 0.4993321878 0.1994033204
0.4626330131 0.7468627079 0.6994895694
0.4726075098 0.4985003515 0.4515051347
0.492353994 0.4989240803 0.9496436138
0.5026267315 0.7530136099 0.1999749486
0.4924865455 0.7505272135 0.4499927594
0.5024315863 0.500498581 0.2010537701
0.5024389503 0.7518940806 0.7013683022
0.4926595988 0.7498958511 0.9492570054
0.4924791815 0.5007003567 0.4509684854
0.5023358547 0.4995196438 0.7013738251
0.5124465849 0.7532674566 0.9497724832
0.5123950371 0.5011390559 0.9532427538
0.5124281749 0.7493230687 0.4494229723
0.5124355389 0.5006684631 0.451787727
0.5224137176 0.4993855607 0.7012624451
0.5325097198 0.7496745488 0.9533624184
0.5322961647 0.4971491058 0.9518159848
0.5224358095 0.4997676326 0.1996352855
0.5223953077 0.7496420044 0.2051444552
0.5325060378 0.7516727783 0.4509878158
0.5322335709 0.5004731964 0.4530184304
0.5224431735 0.749661531 0.701891144
0.5423295731 0.5002909474 0.7032608423
0.5523813915 0.7513994049 0.958526402
0.5623816621 0.4998444375 0.7068756309
0.5523261617 0.4985589315 0.9548352123
0.5424363507 0.5005669244 0.2025652248
0.5425136724 0.7477023548 0.2058265428
0.5624884397 0.5008969252 0.2085521321
0.5624700297 0.7486982152 0.2075497117
0.5522893419 0.4980076285 0.4559741437
0.5525249889 0.7499999934 0.4550656139
0.5425799481 0.7485550196 0.7045219221
0.5625510334 0.7480603438 0.7063537095
0.582444797 0.4999713609 0.7161210946
0.5723708868 0.7500650823 0.961656089
0.5723745687 0.4980766227 0.9630000135
0.5823969312 0.5018498268 0.2135172885
0.5824042952 0.7483272084 0.2148078242
0.572300929 0.4987808847 0.4628658986
0.572551304 0.7505141957 0.4619711763
0.582455843 0.7493881576 0.7134700656
0.6025447518 0.4998568044 0.7195425789
0.5924340217 0.7488674463 0.9652644341
0.6125118846 0.7498242533 0.9716526776
0.5924008838 0.4992814184 0.9673723703
0.612405107 0.4985979849 0.9725087391
0.6024747941 0.7515230738 0.219907373
0.6024637482 0.5002675154 0.2179439547
0.5924634776 0.7489715886 0.4644408676
0.592360382 0.497558515 0.4657074704
0.6124271989 0.7508396403 0.4712166401
0.6124824287 0.4975136036 0.4720275972
0.6023201508 0.7473769103 0.7169541436
0.6224937452 0.5003508292 0.7235992056
0.6325197897 0.7489390441 0.9757488857
0.6324277401 0.4979731314 0.9743313215
0.6224311515 0.7497526555 0.2266914299
0.6224164235 0.5005526048 0.2232855941
0.6324940158 0.7498828333 0.4771676479
0.6323798743 0.4982445521 0.4765343465
0.6224937452 0.750143189 0.7242684064
0.6424206467 0.4991343175 0.7263855476
0.6524687831 0.7490171508 0.9822291788
0.6624911456 0.500997813 0.7329983922
0.6524761471 0.4983779844 0.9797162242
0.6424243287 0.7502928935 0.2287478184
0.6424906044 0.5006476347 0.2286806222
0.6625021916 0.7483206995 0.2341041858
0.6625353294 0.5012458017 0.2317090547
0.6524466912 0.7481840128 0.4830321291
0.6524209173 0.4974283372 0.4768528382
0.6425384702 0.7508396403 0.7312835078
0.6624874636 0.7495508799 0.7356126014
0.6824070012 0.5011462157 0.7383676465
0.672539282 0.7506313558 0.9872182682
0.6725208721 0.5003677523 0.9839320968
0.6825248247 0.750501178 0.2393537755
0.6825874184 0.5028717227 0.2376471756
0.6724877342 0.7520568029 0.4872249893
0.6725135081 0.4999199406 0.4855680961
0.6824143651 0.7501236623 0.7403853741
0.7024811821 0.5008617772 0.7402721531
0.692359406 0.7497266199 0.9912132216
0.7124409508 0.749244962 0.994499393
0.6925803251 0.4998359759 0.9909738926
0.7123636291 0.5007524278 0.9891236953
0.70249591 0.7505467402 0.245515577
0.7024222703 0.5006261553 0.2399023913
0.6924256817 0.750143189 0.4921303135
0.6925361412 0.5024929052 0.4880663228
0.7125182725 0.501196985 0.4922113171
0.7124335869 0.7473053125 0.4934990913
0.7024443622 0.7514710027 0.7417458675
0.7224338575 0.5013623109 0.7392991886
0.7324009902 0.7496875666 0.994499393
0.7423938968 0.5018198859 0.7463529509
0.7324230821 0.5033703037 0.993542077
0.7223859917 0.7528053254 0.2426187755
0.7224596313 0.500334557 0.2410106687
0.7424380806 0.7521218918 0.247205608
0.7424417626 0.5021407742 0.247322511
0.7324194001 0.5017111874 0.4922297271
0.7324267641 0.7512952627 0.496720828
0.722551681 0.7517704117 0.7439964807
0.7424601725 0.7540615413 0.7462866752
0.7524530792 0.5035362805 0.4997290095
0.752504627 0.7498047266 0.9958985472
0.7623760281 0.5026439115 0.7478340293
0.7525267189 0.5010017183 0.9991110789
0.7625196255 0.7529745565 0.2490088601
0.7623686641 0.5009431383 0.250466926
0.7523941674 0.7508396403 0.4969307011
0.7624423038 0.7524733719 0.7476333611
0.7723357968 0.5013935536 0.5020164425
0.7724867582 0.7498763244 1.0003261339
0.7923915678 0.5007322502 0.5084856898
0.7925462112 0.7520242585 1.0095955305
0.7825312126 0.5008975761 0.7546429396
0.7725235781 0.503451014 1.003685945
0.792594077 0.5012100028 1.0084265004
0.7823802513 0.7498047266 0.2518531933
0.7825643505 0.5004992319 0.254457277
0.7723947086 0.7499153778 0.4984844987
0.7925388472 0.7472857858 0.5051074687
0.7825054387 0.7521153829 0.7558303797
0.8124694307 0.5014501809 0.5164203669
0.8125467524 0.7499869756 1.0144281355
0.8025538457 0.4974752012 0.7625978677
0.812646166 0.4996296441 1.0181377352
0.8025170259 0.7505988113 0.2613112916
0.8025391178 0.5010746179 0.2628816581
0.8124510208 0.74990236 0.5155643054
0.802480206 0.7492840154 0.760331606
0.8323816042 0.500052722 0.5214214227
0.8324184241 0.7512627182 1.0253728352
0.8224218355 0.5025599468 0.7707497819
0.8423929208 0.500551954 0.7760564424
0.832433152 0.5006124866 1.0242314199
0.8224218355 0.7499283956 0.2696537486
0.8225102031 0.5010498841 0.2689891503
0.8423303271 0.7504621246 0.2720893815
0.8424518325 0.5032681142 0.2753488585
0.8323705583 0.74984378 0.5241166355
0.8223408318 0.7489780975 0.7692539756
0.8423745109 0.7512431915 0.7753817187
0.8525331068 0.5016057434 0.5216082834
0.8625591513 0.751158576 0.7750567836
0.8626843388 0.5022325496 0.7728466722
0.852496287 0.7535994101 1.0233845634
0.8525809726 0.5002955037 1.0266615299
0.8625554693 0.7516207072 0.2768170499
0.8626512009 0.5025892368 0.2744163959
0.8524631491 0.7511781026 0.5294757643
0.8726661995 0.5009190554 0.5209427647
0.8826591061 0.7524538453 0.7757508377
0.8926188748 0.4999635502 0.5280213804
0.8725704678 0.7514384583 1.0234213833
0.8925967829 0.7525189342 1.0295610929
0.8825965123 0.5007817178 0.7761015468
0.8725999237 0.5029778176 1.0235594577
0.892593101 0.500557812 1.0268180142
0.8826333322 0.7496289866 0.2756360533
0.8825965123 0.5016233174 0.2743915425
0.8725704678 0.7524863897 0.5254062507
0.8925047333 0.7516011805 0.5271883313
0.9126120521 0.4983317712 0.5344446028
0.9024276822 0.7486070907 0.7823958997
0.9226233686 0.7500781001 0.7867995535
0.9125936421 0.7517183406 1.0364464044