POSCAR file written by Ovito 3.7.11
1
271.6018939277 0.0 0.0
0.0 15.3641232784 0.0
0.0 0.0 10.8640757571
Sr Ti O 
800 800 2400 
Direct
0.0225868378 0.4991688429 0.7645182253
0.0125287342 0.2527089616 0.512845643
0.0226500554 0.2525143524 0.7630141857
0.0024170595 0.2480845519 0.7578614234
0.0124986902 0.2491272408 0.0131961449
0.0227345909 0.0011331359 0.2647794421
0.0025901437 -4.9045172875e-04 0.2605186102
0.0026283614 0.501599831 0.2606585209
0.0125491317 0.5006014011 0.5125897538
0.0126624593 7.0239212365e-04 0.5154174218
0.0226162559 1.5585914888e-04 0.7655565097
0.0025980965 -0.0012397298 0.7588315934
0.0224943864 0.2523659547 0.2636527931
0.0024667646 0.2499850834 0.2585709066
0.0325323502 0.4996797735 0.0154743874
0.0424590115 0.4984040742 0.2632615955
0.0325514959 0.4990985493 0.5150262243
0.0325305093 0.2500879204 0.5165956169
0.0425690991 0.2488200316 0.7659118091
0.0324822769 0.2504016383 0.013778523
0.0523554815 0.4987256025 0.0157589031
0.0425013529 -0.001450871 0.7616942391
0.0425455352 0.2507309769 0.2690411944
0.0525322108 0.248270049 0.5146046514
0.05246741 0.2482837172 0.0134887606
0.062480595 0.2481815311 0.2626807822
0.062502318 0.4986976152 0.7612607002
0.0725022482 0.5001815919 0.0160038388
0.0625376638 0.4982172754 0.2611988337
0.0724322929 0.5014865801 0.5140781455
0.0725438533 0.2503990348 0.5095430151
0.0623384752 0.2477018422 0.7646424881
0.0723855333 0.2506756532 0.0096397448
0.0924203715 0.2488955321 0.507188466
0.1024099926 0.2474395428 0.7533557479
0.0824502643 0.2512191271 0.7590294933
0.0925057906 0.2520938923 0.0075946559
0.1024118335 -1.3110808772e-04 0.2574276892
0.0924936405 -1.4419051334e-04 0.5099977247
0.1023993152 0.2496401239 0.2534209057
0.0823711043 0.2490042269 0.2604836325
0.1023834832 0.5022910517 0.7560536304
0.0825386289 0.4982062107 0.7588251501
0.1025013027 0.4983734835 0.2572205846
0.0825397335 0.501335579 0.2586123275
0.1223837119 0.2486651252 0.2505472144
0.1124132365 0.5000670393 0.0030394594
0.11232119 0.2495463991 0.5037588139
0.1223656708 0.4972377207 0.2512651769
0.112388568 0.5003247826 0.503885838
0.1223354795 0.2488877217 0.7537101269
0.1124080819 0.2495405413 0.0047363364
0.1222485877 -0.0023917187 0.2515882601
0.1524807038 0.2492307286 0.4941776951
0.1323799603 0.2473386584 0.5005528348
0.142457946 0.2500742522 0.7460757913
0.152491013 0.2503020556 -0.003008455
0.13235566 0.249893962 1.5929725892e-04
0.1424023499 -4.2731763496e-04 0.2502563475
0.1422867395 0.2502480337 0.2483077233
0.1424885054 0.5015972275 0.7474767388
0.1525885823 0.4982686939 -0.0059282523
0.132414938 0.4975527403 -0.0018229883
0.1525153133 0.4991890198 0.4964991075
0.1323795921 0.4986038904 0.5001423075
0.1824057528 0.2493342165 0.2417254791
0.1724805643 0.4989124013 0.4912773104
0.1825559727 0.4981984003 0.7381266568
0.172436382 0.2481515912 0.4901497409
0.1624504428 0.2488135229 0.7417753795
0.1725398423 0.2492997205 -0.0091178232
0.1824639262 0.4997461619 0.2402637809
0.162397424 -4.6597913157e-04 0.7466510819
0.1624975706 0.2487731692 0.245643898
0.1823799798 0.2505754197 0.7393849322
0.1824186394 -0.002332301 0.240889697
0.1923758601 -0.0013950266 -0.012662134
0.2023386035 0.2498034915 0.2364208401
0.2025204874 0.5024726435 0.736980678
0.1923213685 0.4985706962 -0.0131370386
0.202468205 0.5020632482 0.2391003133
0.1924395562 0.4995320267 0.4882784358
0.192508407 0.2505174926 0.4865157456
0.2024103998 0.2513642705 0.7352741362
0.1924815294 0.2493166431 -0.0130250456
0.202535583 -3.8754966455e-04 0.2357387756
0.2124670307 0.2512113167 0.4894244146
0.2223723372 0.2482433635 0.7414090345
0.2125815365 0.25051554 -0.0135687642
0.222498625 0.0013553418 0.7381036452
0.2224316151 0.2498763886 0.2376745133
0.2324341227 0.251102622 0.4881827075
0.2325081281 0.2498855008 0.9859130364
0.2324838278 -0.0017715531 0.4872060943
0.2225409664 0.5002238982 0.7370248603
0.212511213 0.5013739801 -0.011220824
0.2124997993 0.5005350126 0.4887359069
0.242380666 0.4981189945 0.7376673448
0.2624313362 0.2493153413 0.7397807321
0.2623959903 -2.584827491e-04 0.2419730842
0.2625336919 5.467698368e-04 0.7417035832
0.252461229 0.2517456785 0.487829249
0.2423688841 0.2509594312 0.7378477559
0.2524840565 0.2503359007 0.9900919469
0.2623554899 0.2496726673 0.2395200453
0.2424881763 -8.3724974036e-05 0.2405739776
0.2624898778 0.4996517862 0.2428392416
0.252336414 9.0689451816e-04 0.4903016176
0.2423758796 -5.7799333302e-04 0.7409874616
0.2524148376 -0.0015425131 0.9881589707
0.2423350109 0.2501269724 0.2398550945
0.272485758 0.2497299436 0.4933824135
0.2724842852 0.2523802738 0.9974004379
0.2724618259 -0.0011998316 0.4923137538
0.2725476132 -6.7829192944e-04 0.9923378812
0.2825490162 0.2507264209 0.7464476591
0.2722578509 0.4999114821 0.4955013236
0.2824661744 0.2482576825 0.2455592153
0.3126773039 -0.0012688886 0.4995357211
0.2924244997 0.5015763997 0.503115409
0.2924440135 0.250197266 0.4962100816
0.3025687588 0.2499662083 0.749607615
0.2924933504 0.2481711172 0.9983024935
0.2924605819 -0.0014864083 0.4983575261
0.3024049161 -1.7523686668e-04 0.750027347
0.3125425479 0.4996010186 0.5027168477
0.3025860636 0.2491044604 0.2464502253
0.3126040349 0.2473256411 0.4989549078
0.3125020474 0.2493576477 0.9980355587
0.3225137596 -6.6690175788e-04 0.2519647302
0.3324437346 8.2371372243e-04 0.5009633621
0.322656984 6.9373559326e-04 0.7501921102
0.3325913771 -6.6117412875e-04 1.0016805995
0.3225980742 0.2474440988 0.2514483495
0.322524437 0.4997370498 0.7510950862
0.3225767194 0.4969519901 0.2506052036
0.3324569893 0.2491519737 0.4969667037
0.3224592681 0.2473236885 0.7502721906
0.3326219366 0.2500299932 1.0003827441
0.3624913896 0.2479094687 0.2381623596
0.3526089106 0.500670393 0.4959146123
0.3525687783 0.2473354041 0.4927472927
0.3424068463 0.2498907077 0.7462562024
0.3626092091 0.4972305611 0.7385288999
0.3525687783 0.2489554119 0.9949796153
0.3625650267 0.4987008696 0.2362588383
0.342404269 7.4476356185e-04 0.2472777232
0.3425555934 0.2503951296 0.246980413
0.3625282082 0.2483377392 0.7396454238
0.3425544888 0.4966649578 0.746791913
0.3425530161 0.4966558456 0.2482819503
0.3824912501 0.2494103679 0.2362275425
0.3925095897 0.2502213481 0.4806882826
0.3924543618 0.2482739542 0.9785861361
0.3925095897 -0.0014881657 0.9787794337
0.3824912501 0.4997793561 0.7329886219
0.3926421366 0.4992788394 0.9826177722
0.3724397738 0.2473529775 0.4866860316
0.3824912501 0.2489651749 0.7341502486
0.3723919096 0.2495242696 0.984403474
0.3925574538 0.5005610473 0.4832112768
0.3724324101 -0.0023229546 0.4850089446
0.4124726316 0.4990490834 0.9840444927
0.4024874288 0.2518381016 0.7301977724
0.4024653376 -0.0014453386 0.7300366911
0.4025757934 0.2510160566 0.2330694275
0.412645679 0.2478860375 0.4799647972
0.4124542223 0.2499167424 0.9816236702
0.4125794055 -0.002159997 0.4781026968
0.4124652679 -0.0015638615 0.9782455641
0.4424245582 -0.0043707447 0.7328671205
0.442535014 0.2493264061 0.2270247348
0.4225793358 0.4977955137 0.7313483535
0.4324540828 0.4965894572 0.9800404706
0.4324430373 0.4990503851 0.4789329561
0.4424613768 0.4992189597 0.7305687198
0.4424135127 0.4983793413 0.2256698105
0.4324025368 0.2479595855 0.4826451909
0.4223878791 0.2498692291 0.7285768338
0.4324209461 0.2477929635 0.980657182
0.4224320614 -2.4064899478e-04 0.2275806956
0.4325608568 -0.0020079155 0.9804086565
0.4224725619 0.2482466178 0.2311659062
0.4424797861 0.2498015389 0.7263898093
0.4723875304 0.2467958354 0.4809938769
0.4624649192 0.2480363878 0.7285676292
0.4723286207 0.2488284928 0.9806203635
0.4724317128 -0.0013227153 0.9811358238
0.4624575555 0.2483898085 0.2293001239
0.4525717629 0.4982673922 0.983041186
0.4524208066 0.4973366525 0.4799196944
0.4624207369 0.4995072937 0.7259332587
0.4724464402 0.4984873852 0.981550033
0.4625311927 0.4968322306 0.2283382381
0.4524944438 0.2479387577 0.4765857707
0.4524502615 0.2464098713 0.9795986475
0.4524502615 2.0545521018e-04 0.4796720894
0.4822659594 0.2502935943 0.7366603562
0.4824500523 5.4110729436e-04 0.7318159497
0.4925162561 0.4974017392 0.9830043674
0.4922990264 0.5000136682 0.484057184
0.4824610979 0.2510472983 0.2345053527
0.4923689817 0.2505669585 0.4889743073
0.4922474803 0.2502005204 0.98712805
0.4822549138 0.4988121678 0.2335434669
0.5024278217 0.2511247514 0.7414771489
0.5124387976 0.248837605 0.4960296704
0.5125234803 0.2507758867 0.9917211697
0.5024572766 4.0657309657e-04 0.7381533503
0.5024020487 0.2514905387 0.2407129678
0.522328272 0.2513304254 0.2495936128
0.5223135446 0.2497696464 0.7449878019
0.512427752 0.5026457741 0.4939678292
0.5224424097 0.4996661053 0.7450577572
0.5423796786 0.4992580117 0.7526433081
0.5524348368 0.4988277886 1.0060620123
0.5424790888 0.5006723456 0.2524028715
0.5524053819 0.4996875839 0.5063416383
0.5324533855 -1.0448762962e-04 0.5042788765
0.5325159771 0.2499681609 0.5019464186
0.5323871121 0.2504133539 0.9994714838
0.5324570674 0.5027974261 1.0007877486
0.5524753372 -2.4585593035e-04 1.009449323
0.5423723149 0.249135702 0.2524801906
0.5524753372 0.2482941311 0.5069887251
0.5423907242 0.250348918 0.7559376519
0.5523943363 0.2480565646 1.0073046398
0.5724457429 0.2512438601 0.5138682795
0.5724567885 0.2487354189 1.0156716654
0.5624752675 0.4982302928 0.7621535511
0.5624605401 0.5011123316 0.261874455
0.572574608 0.4997852139 1.0114283224
0.5726298359 0.4978313113 0.5114014337
0.5624531763 0.2495164592 0.2591590836
0.562357448 0.2488317472 0.7592596096
0.6025633532 0.4979595321 0.7640708794
0.5925450136 0.4990373678 1.0127629965
0.592456649 0.4984385702 0.5152360903
0.582423582 0.248167212 0.7632001196
0.6024160788 0.2508325122 0.2650390132
0.5924529671 0.2501712314 0.5153907284
0.6024823523 0.2494357517 0.763897832
0.5924235123 0.2484932964 1.0146959727
0.5824567187 0.4987216973 0.7633648828
0.5825082648 0.4983930095 0.2634272792
0.5825266741 0.2471062989 0.263195322
0.6125632835 0.4992534556 1.013665052
0.6125411923 0.5023652505 0.512807904
0.6224932584 0.4981098824 0.7618497977
0.6124933281 8.179860933e-04 0.510816018
0.6225632137 0.4994012024 0.260706385
0.6126626937 0.2491493702 0.5108905757
0.6124859644 0.2489170107 1.0139596008
0.6225448044 -4.4105092753e-04 0.7571084832
0.6225963505 0.2499844325 0.2606456344
0.6225889867 0.2503326464 0.7594639528
0.6426035747 0.003201591 0.2584089047
0.6525261859 -0.0016079903 0.510515026
0.6325410528 0.4988870175 0.5105380376
0.6425630743 0.2525566587 0.2631244462
0.6526624147 0.251562134 0.5057249268
0.6426808938 0.2517951444 0.7596738187
0.6326257356 2.767251408e-04 0.5119279396
0.6526660966 0.2516473976 1.005150752
0.6425888473 0.4991890198 0.7640671975
0.6525850957 0.5029874793 0.5085341856
0.6325042342 0.2511950451 0.5090008613
0.6326294175 0.2524128171 1.0125144709
0.6825701591 0.5018595269 0.7505556938
0.6624672065 6.2070832189e-04 0.2537872507
0.6825112493 0.5002798728 0.247661557
0.6624561609 0.0019960553 0.7540930403
0.6725334102 0.502030054 0.5021737734
0.6624819339 0.2525963616 0.2542391989
0.6626034353 0.2520925906 0.7528982769
0.6725812744 6.3450670115e-04 1.0032177758
0.6624966613 0.5007361305 0.7534652832
0.6625997534 0.5016603616 0.254079038
0.6825259767 0.2494891228 0.249940628
0.6724671367 0.2500872695 0.5002343539
0.6824817944 0.2509646382 0.7477142188
0.6724892279 0.2501569123 1.0021040133
0.7024779731 0.2505923423 0.2449066057
0.6925369526 0.2510661734 0.4997170527
0.7024595638 0.2511260532 0.7485987855
0.6926179535 0.2488877217 0.9975937355
0.6925369526 0.5001373329 0.9997200094
0.6924449061 0.5013134495 0.4977233258
0.7325734923 0.5002095792 0.9907546816
0.7324961732 0.5006736473 0.4901368544
0.7125110401 0.2502519389 0.4952997418
0.7125220857 0.2525312749 0.9985142004
0.722547789 0.0028324193 0.2430150504
0.7323488988 0.0015887427 0.4919483292
0.7326029471 8.7955810641e-04 0.9920433324
0.7123748113 0.5011852287 0.991896058
0.7223452867 0.248964524 0.2417669
0.7324924913 0.2492268234 0.486688793
0.7225588345 0.2489124547 0.7414117959
0.7324888095 0.2518224808 0.9884074962
0.7124447666 0.4996224972 0.4924932444
0.7124889489 -5.0595846472e-05 0.494129831
0.7125110401 0.0015816483 0.9960381499
0.7525218068 0.5000728971 -0.0165909173
0.7423966933 4.4399794598e-04 0.2351708488
0.7424629667 4.8506765029e-04 0.7354950477
0.7425034672 0.249571132 0.2356890705
0.7425402858 0.2513948612 0.7345138322
0.7625364645 -2.3049547042e-04 0.2312524299
0.7525696709 6.0430647485e-04 0.4831716968
0.7625327826 -1.9743142955e-04 0.7332509544
0.7525843984 8.3393233348e-04 -0.0143425622
0.7625548738 0.2510238671 0.2351975423
0.7524444877 0.2508989006 0.4848506247
0.7625070096 0.2513089468 0.733771017
0.7524592151 0.2505305099 -0.0172582912
0.7824626878 7.4072818678e-04 0.2354414655
0.7824921427 0.0019392346 0.7318905073
0.7724406664 4.8200857564e-04 -0.0154293183
0.7824921427 0.2497247366 0.2341657012
0.772580577 0.2501152568 0.486243288
0.7825436887 0.2501809944 0.7338612226
0.7724664394 0.2493381217 -0.014422836
0.792517846 0.0016876094 0.4844437792
0.7926135743 0.0020426573 -0.018932313
0.8125434795 0.5012106125 -0.0114499554
0.7924368451 0.2489092003 0.4848128856
0.7924957548 0.2512236832 -0.0132073529
0.8025325037 0.0026574663 0.2371553711
0.8125361158 6.485003405e-04 0.4862745838
0.8024220479 0.0029459956 0.735960803
0.8125361158 0.0015476079 -0.0136294505
0.8026171864 0.2509757029 0.2422114846
0.8125066609 0.248896183 0.4905860412
0.8026061409 0.251552371 0.7403891594
0.8125729344 0.2516623675 -0.007984048
0.8324697029 -8.4562982132e-04 0.4905952459
0.8224771363 0.0013761045 0.7390360761
0.8325249308 6.9991882925e-04 -0.0050978734
0.8226354563 0.2534021349 0.2413269178
0.8325580675 0.2498308279 0.4967016098
0.8225765465 0.2491330986 0.7408273007
0.8327642516 0.2507140544 -0.0066692266
0.8225029093 9.8851323322e-04 0.2380298127
0.842657408 -0.0014567939 0.7430640303
0.8426058619 0.249253509 0.245305167
0.8425285429 0.2505669585 0.7462690889
0.8625689039 -6.2576696687e-04 0.2490459362
0.8425174973 0.4996745665 0.7456680254
0.8526573382 8.3484354721e-04 0.4958731914
0.8624363569 -6.6312672959e-04 0.7498589019
0.852532155 -1.3045722078e-04 -6.6065284077e-04
0.8626204499 0.2502460811 0.2485047028
0.8425948164 -0.0010692026 0.2412827355
0.8526168378 0.2505942949 0.5012836839
0.8626940871 0.2497143228 0.7490065514
0.8526315652 0.2516721305 -0.0049084049
0.8726093346 0.0043262891 0.4983796172
0.8924840119 0.0032912154 0.4999094298
0.8725283337 0.0037617922 -0.0020640948
0.8826387197 0.2491773575 0.2536445786
0.892587104 0.0031223805 5.1925032683e-05
0.8723921049 0.2503925261 0.4970302158
0.8925061031 0.2503528232 0.4975281872
0.882528264 0.2510433931 0.7511806895
0.8723589682 0.2506483168 -0.0025180037
0.8926239226 0.2512562266 -3.1713535401e-04
0.902594398 0.0026709392 0.2522583585
0.9125722371 0.0012193107 0.5029874643
0.9025428519 -3.602783395e-04 0.7529645504
0.9024434417 0.2519520033 0.2494279291
0.9124139171 0.2518673906 0.5046019597
0.902568625 0.2514052751 0.7541390635
0.9023992594 0.4995769365 0.7527086611
0.9125464641 0.2507023388 0.0048594946
0.9225758492 0.003107736 0.2549451955
0.9225537581 0.0014620189 0.7535223521
0.922476439 0.2521257848 0.2518469107
0.9226053041 0.2521225305 0.7555372496
0.9425462549 0.0018107534 0.2522859725
0.932509506 6.8488380279e-04 0.5057525408
0.9427193023 0.0017001712 0.7533723163
0.9325279153 2.9390802818e-04 0.0034099465
0.9425646642 0.2527610309 0.2577102719
0.9324616418 0.2516864496 0.5071295562
0.9426051646 0.2511507861 0.7511926555
0.9325315972 0.2502883874 0.0047240022
0.9525645944 0.0023858595 0.5036989837
0.9524394112 0.0019791978 0.004666289
0.962424614 0.2510687769 0.252770137
0.9524430931 0.2537080423 0.5041905119
0.9723877257 0.2512178254 0.5020835678
0.9625645247 0.2504335307 0.7525190454
0.9525425033 0.2534424886 0.0024303878
0.9724392718 0.2518765028 0.0054476716
0.9625792521 3.3673507324e-04 0.2541885734
0.9824428839 0.5023001638 0.7573625315
0.9825901583 0.5023118794 0.2569536498
0.9825570215 1.9380469184e-04 0.2583794499
0.9925532699 -0.0010063289 0.5141223278
0.9823692467 0.2480337843 0.2551486182
0.9926894987 -0.0014109078 0.0092977921
0.9923139491 0.2501113516 0.5066858922
0.9824023834 0.24738487 0.7567108423
0.9923434039 0.2493667598 0.00599093
0.0126869437 0.7495228612 0.0120704163
0.0023496078 0.500865653 0.7605547036
0.0126078574 0.5009938738 0.0094734168
0.022612979 0.7494382485 0.2660423199
0.0026043189 0.7517943868 0.2605692358
0.0125686456 0.7515665834 0.511247716
0.0225477365 0.7510003292 0.7681384136
0.0225481415 0.5025299198 0.2654900409
0.002618494 0.7508115777 0.7615451238
0.0125308329 0.9976789018 0.0182426855
0.0526102662 0.9977635145 0.5168828019
0.0526047434 0.9979717919 0.0190496571
0.032480436 0.7500240287 0.0149791773
0.0424593797 0.5000299399 0.7628153653
0.0424689525 0.7499719594 0.2648052151
0.0325143091 0.7494447572 0.5144932751
0.0426324271 0.748325266 0.7648486722
0.0525520928 0.7467566767 0.0138567625
0.0524931831 0.7502192888 0.5119242577
0.0524235959 0.5001523029 0.5159319617
0.0425996585 0.9975422197 0.2649764215
0.0326137193 1.0003279303 0.5142162152
0.032581319 1.0003214216 0.0168391607
0.0725379623 0.9992735258 0.5117677787
0.0625980463 1.0009853059 0.762260325
0.0725924538 1.0003734909 0.0141768081
0.0724926754 0.7501346761 0.0102376787
0.0624691812 0.7484944914 0.2634871094
0.0726730865 0.7477785378 0.5122712729
0.0625564413 0.7508571384 0.7653935874
0.0624305217 0.9990652484 0.2642391292
0.0823512223 0.9996575373 0.2614887802
0.1024379747 0.9999439188 0.7581891089
0.0824903966 0.9992605085 0.7620909595
0.0924538764 1.0009787972 0.0066422509
0.0925363501 0.7520482249 0.0111042044
0.0923780301 0.5005245988 0.0093805419
0.102434661 0.7522695197 0.2601596289
0.0825691884 0.7499329074 0.2615743834
0.0924461445 0.7501542021 0.507332979
0.1024350292 0.7501737281 0.7603724516
0.0825353152 0.7504210576 0.7596793415
0.0924792813 0.5022786852 0.5110967598
0.1124191275 0.9983427861 0.0028057534
0.1123506449 0.7493796705 0.006319628
0.1223991757 0.4988512198 0.7511806895
0.1224893813 0.7497376473 0.2540265715
0.1123977727 0.750570757 0.5071461246
0.1224326806 0.7510589072 0.7544888402
0.112556829 0.9988504623 0.5043736844
0.1225313545 0.9993451212 0.7524785449
0.1524000711 0.9995924506 0.4987837013
0.1323806967 1.0005362077 0.5016969726
0.1423500675 1.0013107393 0.7492366677
0.1525532364 0.9999894794 0.0015986558
0.1324267199 1.0001782309 -0.0025142482
0.1524983767 0.7486246648 -0.0047901712
0.1323424053 0.7483708267 0.0010574224
0.1423975635 0.7504666183 0.2470485274
0.1523816618 0.7479152198 0.4988297246
0.132409047 0.7487938902 0.5011778304
0.1423611131 0.4997656879 0.2474084292
0.1425234831 0.7491193237 0.7482646568
0.1724684142 0.7485010001 -0.0089938679
0.1626113401 0.4999147364 0.7419769613
0.1724636278 0.4984294581 -0.0070377347
0.1624482337 0.7500110114 0.2436621372
0.1824786537 1.000510173 0.7438924487
0.1724588414 0.7503104102 0.4921535929
0.1625432257 0.4973932779 0.2421553362
0.1624474973 0.7517293001 0.7441308491
0.1824013346 0.7500826068 0.2401864619
0.182421953 0.7506423523 0.7393812504
0.1624235652 0.9984078728 0.2492171426
0.1724787234 0.9993646472 0.491678633
0.1724603141 0.997477133 -0.0042441514
0.1923670236 1.0003018956 0.4859137616
0.2024947144 0.9997681847 0.7344346722
0.19245502 0.7484359134 -0.009831189
0.2024428002 0.7500370461 0.2412376327
0.192340146 0.7472708616 0.4913859252
0.202420709 0.7506944217 0.7394061029
0.2324801459 0.7489696243 0.9909295699
0.2323579082 0.4997806578 0.9904693375
0.2324893506 0.7494577745 0.4906099733
0.2324179225 0.4994754012 0.4870809111
0.2224356652 0.9993971905 0.2386925474
0.2124986947 1.0009527625 0.4860435472
0.2126201961 1.0002042655 -0.013249142
0.2123713024 0.7512867106 -0.010618297
0.2324492183 1.0010048319 0.9893923936
0.2224216741 0.7521979243 0.2409090268
0.2124710808 0.7496725606 0.4886843608
0.2224662246 0.4997917226 0.2369639144
0.2224934704 0.7503104102 0.7391492932
0.2524936294 0.749054237 0.9924759509
0.2523743371 0.5001457942 0.9862351991
0.2425503997 0.7507204564 0.2398099917
0.2525617438 0.74991989 0.4919915911
0.2425448769 0.4990959458 0.2379727439
0.2424314757 0.7489110463 0.7408245393
0.2524479743 0.5017241465 0.4882848791
0.2623742674 0.4979692951 0.7420202231
0.2626412022 0.749900364 0.2429082765
0.2624339135 0.7482211273 0.7439670063
0.2825121976 0.4997350972 0.7463666582
0.2824757472 0.7492169537 0.2470531297
0.2824212557 0.4985915239 0.2478309225
0.2825486481 0.7514819707 0.7487239687
0.2726484962 0.7507204564 0.9941511969
0.2724437848 0.5027238782 0.9952741641
0.2726102048 0.750746491 0.4961751039
0.2824588107 0.9986552022 0.2486206814
0.2825177204 1.0030225194 0.7480833252
0.3126069804 0.9981149826 1.0004011534
0.292629211 0.7511565372 0.9998672837
0.3024774487 0.4974909079 0.7509597779
0.2924186087 0.501144875 1.00075093
0.3024590394 0.7500240287 0.250843604
0.2925695649 0.7506944217 0.5005804487
0.3025212628 0.4978560443 0.2524682245
0.3025547677 0.7494968265 0.7484736023
0.3026442369 1.0005231903 0.2510663565
0.3124862154 0.7518204215 0.9990296607
0.3125915166 0.4998887018 1.0024814039
0.3125848893 0.7491648844 0.5013186615
0.2925772968 0.9983883468 0.9950900711
0.3324739258 0.7478045724 1.0014596879
0.3325471948 0.499858111 1.000410358
0.3225111823 0.747596295 0.254079038
0.3325221582 0.7465874513 0.4980823071
0.3224522726 0.7501411848 0.7527068202
0.3325074308 0.500132126 0.5030353285
0.3525124459 0.9972623469 0.4943535039
0.342675622 0.9990977917 0.7459487672
0.3624840258 0.7518464562 0.2413526908
0.3524159812 0.998088948 0.9964247451
0.362347797 0.7494447572 0.7432646916
0.3625539812 0.997359977 0.2399489819
0.3524704727 0.7486962602 0.9942156295
0.362583436 0.9996315026 0.7394806606
0.3525426371 0.4994884186 0.9968573636
0.3425110429 0.7492364797 0.2508417631
0.3525500009 0.7473489656 0.4928632713
0.3423965371 0.7471081448 0.7510573472
0.3925243171 0.9991433524 0.4822438682
0.3723698185 0.7500045027 0.9851030273
0.3724066371 0.5003547225 0.9863640642
0.3824875682 0.7522760284 0.2349057549
0.3724434557 0.7496725606 0.4872962998
0.382362385 0.499461733 0.2298109819
0.3824986138 0.7480453932 0.735107532
0.3824581134 1.000432069 0.2318967553
0.3824544315 0.9987918843 0.7332840911
0.3724029552 0.9977960578 0.9844863159
0.3724802743 0.5005877329 0.4898478284
0.3925059078 0.7507204564 0.9835382371
0.3925059078 0.7515275314 0.481516701
0.4126272697 0.7476613817 0.9786137501
0.4126051785 0.7501411848 0.4797429652
0.4126088604 0.5004783872 0.4828835913
0.4024322009 0.9999569361 0.2307507766
0.4025132018 0.50053306 0.7306524821
0.4025095199 0.7486376821 0.2302610892
0.4024947925 0.4973945796 0.2320698027
0.4025242474 0.7502908842 0.7283016148
0.4325350838 0.7496335086 0.9768464575
0.4225682902 0.7478956938 0.2299564154
0.4325424475 0.7484619481 0.4791179695
0.4224394251 0.4963759728 0.2296535824
0.4224799256 0.748344792 0.7314726163
0.4425055591 0.7475116823 0.2301828497
0.4424356038 0.7485856128 0.7287508017
0.4325461293 0.9979717919 0.4813942791
0.422520426 0.9992800345 0.7297522675
0.4425644689 0.99822563 0.2280620987
0.4526012178 0.9998658147 0.9828662977
0.4625275108 0.9964943239 0.230032814
0.4724317128 0.9984273988 0.4798386935
0.4625606476 0.9987723583 0.7264616056
0.4524281704 0.7473229309 0.9819274236
0.4524833983 0.7457152895 0.4800338321
0.4724722132 0.7486897515 0.9840076741
0.4624612374 0.7503494622 0.2286263437
0.4723654393 0.7475832777 0.4827906243
0.4624317825 0.7507334737 0.7312194884
0.4723875304 0.497270264 0.4803909724
0.4824463705 1.0007184504 0.2352214744
0.4923284812 0.9987072716 0.4894354602
0.4924352552 0.9989676183 0.9877631708
0.4823653696 0.4992541065 0.7331487828
0.492438937 0.7500760981 0.4895090974
0.4823874607 0.752184907 0.2349306075
0.4925125742 0.7495293699 0.9877907847
0.4825236895 0.7501607108 0.7347227777
0.5123320236 1.0005557337 0.4953660153
0.5123762059 1.0010959532 0.9941143783
0.5023615482 1.0002107742 0.2397851392
0.5223982274 0.7489500983 0.7457646742
0.5224645008 1.0032438142 0.246719001
0.5224019092 1.0009072018 0.7473524761
0.502446231 0.7502453235 0.2402011893
0.5025603686 0.4993263527 0.2400143349
0.5023725938 0.7491453584 0.7395782299
0.5024499129 0.501222979 0.7387194361
0.5125087529 0.7525884445 0.9921814021
0.512479298 0.502558558 0.9935620994
0.5124608887 0.7503429535 0.4917347814
0.5225050013 0.4989358325 0.2451229149
0.5223614088 0.7507790344 0.2460719142
0.5324018395 0.7496465259 0.5009062933
0.5324018395 0.5020528343 0.5018378037
0.5324828404 1.0008941845 1.0042026732
0.5425858627 1.0011284966 0.2549341499
0.5524017 1.0009462539 0.5035084475
0.5524974284 0.7492820404 1.0048654079
0.5424017698 1.0004776296 0.7544363737
0.54250118 0.7495879479 0.2548632741
0.5524348368 0.7498938553 0.5069104856
0.5423870423 0.7529659473 0.7536236032
0.53228402 0.7519571036 1.0001066046
0.5624200396 1.0015450514 0.2603289945
0.5624016303 0.9981930867 0.7610130951
0.5624163577 0.7518464562 0.2582487439
0.5623979484 0.7508636471 0.7566280005
0.5726445633 1.0000610748 0.5129091551
0.5724751978 0.99983978 1.0136006195
0.5722653318 0.7515470574 1.012827429
0.5724273336 0.7486181561 0.5137081186
0.602515489 1.0008876758 0.2626817026
0.5925744685 0.746730642 1.0147696099
0.5925597411 0.9976789018 0.5124130245
0.6024786704 0.9999113754 0.7621728808
0.5926112871 0.9980108439 1.0137755078
0.6023939877 0.7500695894 0.2640403088
0.6023682146 0.5001047896 0.2635257689
0.5926002415 0.7480584106 0.5135856968
0.6025707169 0.7502778668 0.7660756519
0.5824309457 0.9966179887 0.2640854116
0.5825082648 1.00125867 0.76096339
0.5824567187 0.748247162 0.2601237308
0.5823904453 0.7512020979 0.7599103782
0.612445464 0.7489566069 1.0094677322
0.6125706472 0.748422896 0.5110314068
0.6125043737 1.0011154793 1.0093204579
0.622478531 0.9997877107 0.2579523542
0.6225374407 0.7518204215 0.2597491016
0.6225448044 0.7514299013 0.7590037203
0.6425778017 1.0021568664 0.7599821745
0.6524746399 0.9995859419 1.0077832816
0.6326478268 0.9994687859 1.0123579919
0.6324158696 0.7525103405 1.0109128621
0.6325741896 0.5003892184 1.009605802
0.6324821431 0.7506814043 0.510540799
0.6525151404 0.7518269302 1.0087773836
0.652603505 0.5001536046 1.0072586166
0.6426551207 0.7525103405 0.2607386013
0.6425593924 0.5006567247 0.2567760001
0.6525151404 0.749210445 0.510631925
0.6426146203 0.7504861443 0.7608418887
0.6725739106 0.7500305374 1.0011743438
0.672511319 0.5031391313 1.0044604034
0.6825701591 0.998954601 0.2506263743
0.6725260465 1.0002433175 0.5012726383
0.682544386 0.9992279651 0.7500043354
0.6826806148 0.7492625144 0.2489713785
0.6726843664 0.7498873467 0.501070136
0.6825407042 0.749958942 0.7491805193
0.6625113888 0.7490216936 0.2529643551
0.6625150706 0.7524712885 0.75357758
0.7024227452 0.9985250288 0.2497178755
0.7025957926 0.5016831419 0.7479056755
0.6926326809 0.7496660519 0.9967284986
0.6924154512 1.0008486238 0.5025778575
0.7025147917 1.0000220228 0.7510499834
0.6923786326 0.9992409825 0.9982656749
0.7024337908 0.7512216239 0.2481632104
0.7023822448 0.5017983454 0.2490440952
0.6925185433 0.7525428838 0.4959762835
0.7024190634 0.7508961904 0.7469373464
0.7225183341 0.4998847966 0.7427142536
0.7324593546 0.7495879479 0.9896593284
0.722441015 0.7489696243 0.2407921277
0.7225109704 0.5020469765 0.2419132539
0.7325919016 0.751494988 0.4878494992
0.7224631062 0.7523606411 0.7438933691
0.7224851974 1.0009006932 0.7405750933
0.7125184038 0.7522565024 0.9937922156
0.7125036764 0.7509938205 0.4965018689
0.7425071491 0.5037144977 0.7390314737
0.7425623769 0.7519896469 0.2361465416
0.7426065593 0.4997422567 0.2365451029
0.7425476495 0.7502843755 0.7395708661
0.7525586254 0.4996693596 0.4850310358
0.7526175351 0.7522109417 -0.0140125664
0.7624886003 0.4992820938 0.7340149402
0.7626432384 0.7503689882 0.2319087214
0.7625106914 0.4999524867 0.2317154237
0.7525954439 0.7526144792 0.4840700705
0.7624812366 0.7495879479 0.7329950652
0.7825805073 0.7487548382 0.2341693831
0.7825400069 0.4999772197 0.2325558081
0.7726726235 0.74991989 0.4835279167
0.7826615082 0.7516056354 0.7320727594
0.7725437585 0.9980173526 0.4838316701
0.7724885306 0.4999323098 0.4818738413
0.7726542142 0.7503885142 -0.0166957491
0.782613644 0.5007348288 0.7344880592
0.7725511222 0.5004959606 -0.015810851
0.7926172562 0.7488785029 0.4828854322
0.8125655707 0.5013785362 0.4896618945
0.812374114 0.7511695546 -0.0150229422
0.8026871418 0.4997006012 0.7363032159
0.8025914134 0.7517488261 0.238295827
0.8023815474 0.4989879019 0.2394372035
0.7926025287 0.5022734782 0.4866519744
0.7925546646 0.7532523288 -0.0167643697
0.8125655707 0.7510393812 0.4892209919
0.7925215278 0.5035003624 -0.0162409842
0.8026945055 0.7486116475 0.7383190339
0.8326685233 0.5026106273 0.4946259615
0.8326132954 0.7499654507 -0.0089014394
0.8225728647 0.5018328413 0.7418158799
0.8325249308 0.4997617827 -0.0073040988
0.8225728647 0.7504926529 0.2382866224
0.8223924536 0.5015894171 0.2428438439
0.8325433401 0.7513713233 0.4904442897
0.8225139549 0.7507334737 0.7392984085
0.8625983588 0.7528552999 0.7453753176
0.8625026304 0.4997721966 0.7468250497
0.8525910648 0.7486572081 -0.0034354218
0.8525542462 0.5004497491 -0.0046200693
0.8626167681 0.7497116126 0.2478419681
0.8626388592 0.4988154222 0.2489400827
0.8527641122 0.7494512658 0.4953494469
0.8425616796 0.7494577745 0.2415736024
0.8426021801 0.500567556 0.2464207704
0.8425690433 0.750687913 0.7401967822
0.8526057922 0.5010862969 0.4959109305
0.8726424713 0.5004152531 0.4985250507
0.8824472631 0.7524127104 0.7479240848
0.8925760584 0.5015679385 0.5012109672
0.872598289 0.752165381 -0.0041796821
0.8926165589 0.7499849767 3.8967120475e-04
0.8825614007 0.4992202614 0.7465397056
0.8726903355 0.5004510508 -0.0036567015
0.8926533775 0.5015035026 3.9778970484e-04
0.8827123569 0.75133878 0.2491324599
0.8824251719 0.5004367317 0.2492300291
0.8725835616 0.7514038667 0.4977767128
0.8926202407 0.7494773005 0.4992310472
0.8825945374 1.0011154793 0.2488563204
0.8825393095 1.0002563349 0.7502970432
0.9125538278 0.7496595432 0.500337446
0.9126237831 1.0031136408 0.0042262148
0.9124360083 0.5022077407 0.5030206011
0.9025502157 0.750687913 0.7526442286
0.9125611915 0.7511630459 0.0028836247