POSCAR file written by Ovito 3.7.11
1
271.5920770434 0.0 0.0
0.0 15.3635679515 0.0
0.0 0.0 10.8636830817
Sr Ti O 
800 800 2400 
Direct
0.0124019063 0.2511059923 0.5451436253
0.022565789 0.2517009062 0.7936873264
0.0025133262 0.2500769345 0.7961929223
0.0124485203 0.2500307212 1.0441336971
0.0225047783 -8.7806702574e-05 0.2934601052
0.0023672984 1.0000986766 0.2912205332
0.0124887645 -5.276133947e-04 0.5403165331
0.0224066532 -3.4238416705e-05 0.791422901
0.0023864448 -4.383112219e-04 0.795366315
0.0124980063 1.0004957198 1.0440968771
0.022513026 0.2515570594 0.2941578428
0.0025149095 0.2497879391 0.2938209404
0.0325320223 0.2495249793 0.5417589537
0.0425076446 0.2501374673 0.7930153627
0.0323869518 0.252064754 1.0434433235
0.0424616197 0.9992134655 0.2911248014
0.0324782652 0.0019798771 0.5410602956
0.0424641971 0.9990507429 0.7882122035
0.0325209763 8.0905527919e-04 1.0427253349
0.0425183224 0.2508547486 0.2871786259
0.0724013738 0.2515310238 0.5312072836
0.0525893084 0.2511840992 0.535678143
0.0625940185 0.2501029701 0.7840938948
0.0724669133 0.251119661 1.0295898266
0.0524192003 0.2514835088 1.0373496258
0.0624239104 0.9998578471 0.2853431526
0.0726351803 1.0009838876 0.53173657
0.0523827486 0.0012182701 0.5387728578
0.0624169147 1.0013028239 0.7831503842
0.0725744275 7.2079453115e-04 1.0306483994
0.0524585977 1.0007690938 1.0385738883
0.062445266 0.2499350403 0.2851636555
0.0925514462 0.2508807842 0.5289815191
0.1024357551 0.2487295912 0.7813756638
0.0825629368 0.2516585983 0.7796681398
0.0925245676 0.2515362309 1.0290283227
0.1024637383 1.0011726459 0.2767438591
0.0823740506 1.0006974958 0.2782451915
0.0924586599 9.6377194446e-04 0.5301809282
0.102511236 5.5201863169e-04 0.7790725775
0.082391356 1.0002353636 0.7797003572
0.0924174216 1.0010489767 1.0293136771
0.1024062992 0.2508182987 0.2801497022
0.0825250123 0.2493876415 0.2804009982
0.1125303058 0.250905518 0.5277977585
0.122514765 0.2510161694 0.7739665744
0.1125652848 0.2479797654 1.0283195391
0.1224956186 1.6024765641e-04 0.2770163265
0.1125236783 0.998634173 0.5290468745
0.1226403209 0.9982761833 0.7745087478
0.1124076955 -0.0019514038 1.0255856597
0.1224680037 0.2519534517 0.2765560775
0.1525708701 0.2506243334 0.5180073404
0.1325901694 0.2482381689 0.524332083
0.1425830971 0.2509380626 0.7720197208
0.1525789704 0.2524266491 1.0204400751
0.1326137341 0.2500906032 1.0266074126
0.1425131393 0.0025261043 0.2710561011
0.1525108536 1.0015892158 0.5178766296
0.1325389897 -1.6786623067e-04 0.5236776089
0.1425981933 4.0081677497e-04 0.7713707696
0.1524269041 1.001433002 1.0222718664
0.132484128 -0.0019145373 1.0229162151
0.1426629963 0.2518799011 0.2721653014
0.1726568757 0.2491819601 0.5124677826
0.162643697 0.2519248125 0.7667526305
0.1726171102 0.251838895 1.0110417892
0.1624769028 5.7636193535e-04 0.2630891898
0.172618583 1.1624746049e-04 0.5123251054
0.1624279323 1.0009122897 0.76429398
0.1724860313 4.3329620954e-04 1.0107748447
0.1626440652 0.250466167 0.2661351181
0.1925436856 0.2484763948 0.508842861
0.2024828563 0.2491539718 0.7623710594
0.182604515 0.250542972 0.7585445486
0.1924928741 0.2494501269 1.0102777757
0.2023978022 -0.0013457176 0.2558697229
0.1823769678 -7.5698719713e-04 0.2579923916
0.1925090749 -9.9872791854e-04 0.5054904068
0.2025576007 0.9994282594 0.757628653
0.1825143061 0.9969418578 0.7622523151
0.1923349166 -0.0023402978 1.0082434748
0.2025649647 0.2494872277 0.2564100553
0.1825190927 0.2524286017 0.2585189165
0.212584771 0.2493648603 0.5065305696
0.2225379332 0.2462412369 0.7571361865
0.2125074491 0.247542367 1.0053070858
0.2225313056 0.9974560613 0.2539016979
0.212475784 0.9987578422 0.5045487372
0.222703991 0.997950738 0.7525723568
0.2124367549 0.9976318017 1.0064024786
0.2224068543 0.2483410096 0.2587223466
0.2524533861 0.2500873487 0.498476211
0.2326354295 0.2472950286 0.5043370226
0.242454199 0.2491311906 0.7520881747
0.2525167164 0.2484015424 1.0001891162
0.2325485345 0.2482303582 1.0031347102
0.2426228343 0.9976252928 0.2482231449
0.2524493359 -3.4471317199e-04 0.4988600587
0.2326479483 -0.0020861836 0.5010867437
0.2425145837 0.997475588 0.7502527015
0.2524489677 7.5685386331e-04 0.9983573249
0.2326056054 -0.0022012155 0.9999221717
0.242470768 0.2476647344 0.2520643836
0.2723589742 0.2488213667 0.4961022463
0.2623932932 0.2474421298 0.7483638393
0.2724605972 0.2494826715 0.9917573533
0.2624146487 1.0004241218 0.2471213086
0.272417886 6.3120597187e-06 0.4939133017
0.2624146487 0.9983933435 0.7451669493
0.272439978 7.8126225603e-04 0.9925213667
0.2625247403 0.250418652 0.2475760347
0.2924987369 0.2483755068 0.4847506633
0.3024117654 0.2477285216 0.7353958616
0.2824380605 0.2485889988 0.7388477296
0.292387909 0.2490667525 0.9892075734
0.3024253888 -0.0026210659 0.2317876507
0.2822517517 0.9985495572 0.2432533755
0.2925049963 -0.0017109323 0.4877109853
0.3023959329 -0.0013615343 0.7337711824
0.2824008724 0.9975602037 0.740853495
0.2922958591 -0.0020815493 0.9876427266
0.3024077152 0.248195861 0.2334841288
0.2822753165 0.2483527256 0.2430886063
0.3323566743 0.2501296566 0.4794053306
0.3124021158 0.2497840338 0.4825055684
0.3224035121 0.2505566407 0.7294476026
0.3324582973 0.2493479371 0.9755289712
0.3125144165 0.2485089393 0.9822854275
0.3223711106 -0.0027226244 0.2272541974
0.3324439375 1.0746043911e-04 0.4769853411
0.3123203755 -0.0010468938 0.4840400387
0.3224086669 -4.0446491734e-04 0.7281497003
0.3324564563 1.0954328862e-04 0.9768268735
0.3124960066 0.9970004379 0.9815858489
0.3222893703 0.2501674082 0.2291264906
0.3524717677 0.2487133189 0.475760158
0.3423709576 0.2471602943 0.7233170851
0.3524375252 0.2512068803 0.9762653697
0.3425263377 -9.1777134455e-05 0.2224445947
0.3527114654 4.6278154793e-04 0.4719391703
0.3424792082 0.999590982 0.7235048667
0.3525634493 0.002738555 0.9722243829
0.3424836266 0.2479465699 0.2236550497
0.3725640328 0.2509640982 0.4747209156
0.3826747843 0.2468699971 0.7178005398
0.3625195571 0.2491617825 0.7208124097
0.3725603508 0.2502689472 0.9765231092
0.3825643245 1.0026241316 0.219834062
0.3626852468 1.0018951343 0.2202427631
0.3726339906 0.0028541531 0.470375244
0.3825459145 -9.2102579691e-05 0.715698122
0.3626226529 1.0015046 0.7197197784
0.3725677148 8.6125669507e-04 0.9673181278
0.3826858303 0.2509667017 0.2173947419
0.3626336989 0.247886688 0.218575741
0.39266403 0.2492659249 0.4627765319
0.4026090919 0.2500476444 0.7083129655
0.392697168 0.2513878279 0.9658177159
0.4027011417 0.997885649 0.2108905021
0.392689804 1.0012442438 0.4603813957
0.4026275018 7.7735691319e-04 0.7091506188
0.3926124821 1.0020708747 0.9622001582
0.4026459118 0.2491123148 0.2087844024
0.4325768291 0.2493173453 0.452836993
0.4126646135 0.2533912687 0.4583424924
0.4224623956 0.249069356 0.7052523092
0.4325363272 0.249277641 0.9560144107
0.4127124794 0.2511248681 0.9575056177
0.4225065795 1.0000986766 0.2056850852
0.4325400092 0.9980353538 0.452859085
0.4125688817 -7.7358490418e-04 0.4546310439
0.4225581274 0.9987383155 0.7075940565
0.4325841931 0.9988619847 0.9496445637
0.4126167476 4.9661365173e-05 0.953897265
0.4227127711 0.2494976419 0.2029769797
0.4526400064 0.2487165734 0.453583517
0.4426176227 0.2494611921 0.7029105619
0.4525479566 0.2492236171 0.9507951863
0.4425844848 0.9975667126 0.2025645965
0.4525148187 -7.4872088814e-04 0.4556638428
0.4423562013 -0.0020913973 0.7027927382
0.4525221827 0.9986406819 0.9576252825
0.4425255729 0.2484737912 0.2029042603
0.4725080381 0.2488324319 0.4477374334
0.4825009659 0.249431902 0.6999253865
0.4625887502 0.2474297629 0.6997670608
0.472592724 0.2503776459 0.9467265846
0.4823463222 -6.0832381326e-04 0.201796901
0.4624893364 -0.0014047534 0.200819332
0.4724528082 0.9978921579 0.4524614298
0.4825083299 1.0008146561 0.7012748368
0.4624156966 5.0346220245e-04 0.7002346739
0.4725190841 -0.0014103511 0.9500311729
0.4824604639 0.2487061591 0.1969633653
0.4625813863 0.2491194746 0.2026676923
0.512542343 -0.0016733759 0.4529133944
0.5124613391 2.8051801493e-05 0.9525625427
0.4924644377 0.2495158669 0.447664714
0.5024720934 0.251933925 0.699416351
0.4925528055 0.2488109525 0.9467541995
0.5125791629 0.2486658039 0.4491844564
0.5124613391 0.2505735639 0.9509884909
0.5024831393 -1.0128013535e-04 0.2018622564
0.4923466139 6.691789167e-04 0.4513310581
0.5024131815 -3.6977245517e-04 0.7012674728
0.4925528055 7.1923239402e-04 0.9489357801
0.5025199593 0.2511430931 0.2001473684
0.5225352707 0.9998969005 0.2003922209
0.5323919647 0.0024866604 0.4533423465
0.5225205427 0.99829571 0.7034748273
0.5324214206 0.9988880203 0.9519089891
0.5224874048 0.2490647998 0.2022111252
0.5324398306 0.251422976 0.4504980073
0.5224653128 0.247755859 0.6991484861
0.5324766505 0.2510389506 0.9536579355
0.5424474863 -1.6142241499e-04 0.2048833313
0.5624922537 0.0010355001 0.2083526888
0.5524035941 -8.4075680092e-04 0.4527697967
0.5424474863 1.0002483814 0.7044054509
0.562348656 1.0000466053 0.7047616837
0.5524146401 0.0021550317 0.9571650334
0.5424916702 0.2476217756 0.2023473589
0.5624664797 0.2501973492 0.2063082624
0.5523778202 0.2509256956 0.455039745
0.5424069844 0.2493967539 0.7045481281
0.5624186138 0.2518258772 0.7064517183
0.552473552 0.2515674736 0.9541181846
0.5823455574 -1.7196684064e-04 0.2109033891
0.5723857676 -5.5091527361e-04 0.4597453315
0.5824523352 1.0002418725 0.7136960386
0.5723784036 6.4392436637e-04 0.9579198419
0.582559113 0.2491331433 0.2137983557
0.5725146373 0.2493101855 0.4607928584
0.5824339252 0.2509361099 0.7116000643
0.5725183193 0.2499382948 0.9607825911
0.6025891524 0.9972087229 0.2169087189
0.5923532131 1.0007690938 0.4605875873
0.6124495284 0.0018983205 0.4706808493
0.6024013707 -6.3937128879e-04 0.7188388617
0.5923605771 0.0016399821 0.9609298708
0.6124900303 -2.1570668038e-04 0.9704294115
0.6024897386 0.249491133 0.2175806825
0.592423171 0.2507076473 0.4643874036
0.6125563062 0.2494117244 0.4700650361
0.6024492367 0.2493739728 0.7146211392
0.5924747189 0.2501029701 0.9671064132
0.6124384824 0.2497163411 0.9704478215
0.6225860538 5.1934392998e-04 0.2243592308
0.6326342114 -8.3737217046e-04 0.476007772
0.6226449657 0.0017456867 0.7227058743
0.6324758858 1.0005412821 0.9745348332
0.6225676439 0.2484458029 0.2238225804
0.6325752996 0.2504531492 0.4766613257
0.622501368 0.2485766319 0.7237515602
0.6325605716 0.2499265788 0.9780419311
0.6425387714 1.0001572567 0.2289736879
0.6625909027 -0.0011775275 0.2347847927
0.6525022432 -8.1036021586e-04 0.4801444906
0.6425903193 0.9987383155 0.7312812349
0.6626093127 0.9992069566 0.7340657418
0.652564837 1.0000270786 0.9794594982
0.6426271392 0.2495236776 0.2266807271
0.6626093127 0.2490784685 0.2355635341
0.6525243351 0.2491676405 0.4811920175
0.6425387714 0.2471999986 0.7295442549
0.6624804429 0.2503099533 0.731985416
0.6526679328 0.250572913 0.9823866823
0.6825104823 0.9991548854 0.23559299
0.6724439147 1.0005347732 0.489574994
0.682661444 -4.2724608387e-04 0.7391588579
0.6724512787 -1.861704537e-05 0.9860318549
0.6825104823 0.250246166 0.23683106
0.6726022404 0.2507909613 0.4877929096
0.6825767582 0.2489932018 0.7399348379
0.6725359645 0.2492496527 0.983003416
0.7026399355 -3.2219236165e-04 0.2430545479
0.692529184 0.9999945341 0.4903813504
0.7123346218 1.001094539 0.4921763217
0.7024816098 0.9986667175 0.7420068792
0.6925623219 0.9992850635 0.9906619605
0.7123456678 3.1040808837e-04 0.9930644606
0.7025699776 0.2500398337 0.2423163084
0.692547594 0.2510636844 0.4887088053
0.7125629054 0.2493772272 0.4867269728
0.7024816098 0.2537368916 0.7400186032
0.69252182 0.2486332594 0.9882318454
0.7125518594 0.2499187681 0.9891523435
0.7224416913 7.1571758547e-04 0.2438922012
0.7422250372 0.9998448293 0.2477610548
0.7323167953 0.0014640464 0.4949102012
0.7224011894 0.9992590279 0.7424984252
0.742331815 0.0018119473 0.7483297809
0.7323536152 1.000482702 0.9970318076
0.7224269634 0.2512068803 0.2431558027
0.7423870449 0.2524396669 0.2487607158
0.7324125271 0.2523993117 0.4941986561
0.7225595151 0.2502142724 0.741354246
0.7422949951 0.2516410243 0.7454836006
0.732467757 0.2533587242 0.9940493936
0.7623250345 -3.9808619071e-04 0.2486456535
0.7524131106 0.0023236774 0.5002757848
0.7622145747 -5.4421110174e-04 0.7514392235
0.7523873366 1.0004436485 0.9995539725
0.7622624406 0.2506119664 0.251364805
0.7523836546 0.2519658186 0.4989742005
0.7622550766 0.2521780089 0.7520209784
0.7522731949 0.2505455756 1.001726348
0.7824139857 0.0011132164 0.2517808702
0.772417376 1.0000466053 0.5034340139
0.792631515 1.001159628 0.5108670364
0.7824066218 0.0012040807 0.7552546883
0.7724836519 1.0021359638 1.0035489344
0.7924915993 0.0016458401 1.0089982833
0.7823955758 0.2525249335 0.252843125
0.7722332764 0.2515479469 0.5039669823
0.7923516836 0.2517158767 0.5048202841
0.7824066218 0.2519202563 0.7562276548
0.7723142802 0.2506594814 1.0018183979
0.7924437334 0.2524578918 1.0089614634
0.8024513891 1.0027803453 0.2607032586
0.8124443168 0.0026758742 0.5158533747
0.802510301 0.0023509497 0.7626315604
0.8125437306 1.0016608137 1.0135179291
0.8025802588 0.2532786647 0.2616651791
0.8124590448 0.2524292526 0.5114727241
0.8024734811 0.2502917283 0.7574832143
0.812355949 0.2495412516 1.0115112432
0.8224703825 1.0006584424 0.2687281613
0.8423899621 1.0017975007 0.2758896368
0.8323933524 4.4006547045e-04 0.5231520044
0.8224887925 0.0020296051 0.7676850951
0.842448874 6.9586542606e-04 0.7737005504
0.8323749424 2.7539018096e-04 1.0207346345
0.8225329764 0.2501680591 0.2699643903
0.8425409238 0.251381319 0.2768423524
0.8324780382 0.2511977679 0.5197295924
0.8224924745 0.2510760513 0.7721182141
0.8425004219 0.2507356356 0.7742648158
0.8324559463 0.2515336273 1.0246559566
0.8625415073 6.6709606719e-04 0.2755195966
0.8524012998 1.0035483961 0.5230884901
0.8624862774 1.0012832972 0.7765596176
0.8525191236 0.0013857442 1.0233672592
0.862674059 0.2492125519 0.2741213599
0.8524233918 0.2524273 0.5255075592
0.8626372391 0.251512148 0.774152515
0.8524786217 0.2531471848 1.0251346156
0.8825752286 1.0005087376 0.2761924807
0.8725012971 0.0017206925 0.5243569365
0.8926197043 0.0013327618 0.5312477855
0.8826415045 1.0015046 0.7784383543
0.8725859829 0.0011872226 1.0232752094
0.8826930524 0.250561197 0.2773504673
0.8925239725 1.5263223789e-04 1.0327471351
0.8726780327 0.2539315078 0.5253041291
0.8926012943 0.2514750472 0.534221915
0.8825899566 0.2500567569 0.7746689144
0.8726633047 0.2535351155 1.0268191272
0.8925902483 0.2498380577 1.0300961005
0.902597904 -0.0011993324 0.2839513595
0.9226279434 -6.4151922735e-04 0.2901417094
0.912480372 -0.0021999593 0.5358622427
0.9025205822 0.9983217456 0.7845789974
0.9225395756 1.000001043 0.7896500216
0.9125576939 0.9983087278 1.0380492044
0.902601586 0.2486020167 0.2836724485
0.9225358936 0.2486208925 0.2860758692
0.9125650578 0.2477519537 0.5333870232
0.9025205822 0.2480487598 0.7809798497
0.9225027557 0.2503177639 0.7846204198
0.9125429659 0.2497195956 1.0350759954
0.9424959751 1.0018560808 0.2915905735
0.9325398673 0.9981785497 0.5406276615
0.9424702012 1.0011075568 0.7892496049
0.9324809555 0.9999880252 1.0425688502
0.9424996571 0.2479836707 0.2885289967
0.9324625455 0.2494904821 0.537671942
0.942543841 0.2502988881 0.787237396
0.9325877332 0.2492125519 1.0372023461
0.9624928766 -0.0015424818 0.2915335026
0.9524815389 1.0007105136 0.5443805324
0.9725299882 0.9996039998 0.5423628005
0.9624560567 0.9999294451 0.7911016471
0.952455765 1.0004631752 1.0412893578
0.9625554705 0.2480585231 0.2900791155
0.9725152603 5.4284107603e-04 1.0444006415
0.9525330868 0.251613036 0.5388704306
0.9725078963 0.2496837966 0.5425395361
0.9624965586 0.2502246866 0.7926674145
0.9525883167 0.2510799567 1.0398902007
0.9725741722 0.250644511 1.040193965
0.9824897781 -4.5887936083e-04 0.2917019537
0.9923170161 0.9999424629 0.5441209519
0.9824455941 0.9988684936 0.7931092536
0.9825965558 0.2516214976 0.2949384252
0.992383292 -6.5570863965e-04 1.0437010629
0.9924863878 0.2495933228 0.5416530964
0.98253028 0.2493316649 0.7926876654
0.9924974338 0.2474616565 1.0417680169
0.012560637 0.7519662107 1.0451922699
0.022625069 0.5008956253 0.79583761
0.0025864874 0.501961133 0.7932519308
0.012596021 0.5015699478 1.0428173847
0.0225143147 0.7518620683 0.2929538312
0.0023278275 0.7511591065 0.2939774251
0.0124821738 0.7497466742 0.5440942575
0.0224781207 0.7518490504 0.7945212977
0.0224608154 0.5027187695 0.2949098897
0.0025003656 0.50136687 0.2924447957
0.0023346391 0.7498377989 0.7923544451
0.0125198037 0.5009249154 0.5431111655
0.0324830518 0.7499875037 1.0413722027
0.0425348914 0.5016526109 0.7861843461
0.0326240721 0.5016252735 1.0422927008
0.0425529331 0.7519727196 0.2870654046
0.0325029345 0.7504821805 0.5431166885
0.0424111764 0.7505082161 0.7910114383
0.0426015354 0.5010199454 0.2877833932
0.0327032349 0.5028359298 0.542585561
0.0724945282 0.7506253764 1.0292768572
0.0625148557 0.500820122 0.7800059626
0.0525219279 0.7502804044 1.0364843576
0.0724783275 0.500992608 1.0284944338
0.052575685 0.4977856706 1.0370642714
0.0624909227 0.7494993358 0.2808244273
0.0724558673 0.7512762668 0.5281503093
0.0524574931 0.7496750763 0.5335048469
0.062532161 0.5004211261 0.2818167243
0.0725501263 0.5012803016 0.5257229557
0.0625391568 0.7487312851 0.7825097175
0.0526301785 0.5004061557 0.5362396469
0.0925057894 0.752975091 1.0280986196
0.102581562 0.4987952017 0.7773098236
0.0824907698 0.5023074067 0.7773208696
0.0924958481 0.5024095965 1.0266258226
0.1024788344 0.7490957837 0.2761768322
0.0824649958 0.7504170914 0.2785277845
0.0924785427 0.7486401604 0.5275004376
0.1024331777 0.7490502214 0.7790891465
0.1023853118 0.5009808919 0.2766067049
0.0825544682 0.5008949744 0.2786428467
0.082456159 0.7528123683 0.77931743
0.0924814883 0.5029146875 0.5264078063
0.1124581388 0.7491348372 1.0252726903
0.1225762543 0.4990985167 0.7760238877
0.1124331012 0.501135153 1.0256408896
0.1224978278 0.7500851373 0.2733481415
0.1126757446 0.7490176769 0.5267318217
0.1225283884 0.4982321815 0.2759006828
0.1225099784 0.7495644249 0.7716340321
0.1124879629 0.5008995306 0.5268744989
0.152506067 0.7491934173 1.0176141458
0.1424973067 0.5012015438 0.7716809775
0.1325415671 0.7489656057 1.0225940407
0.1526971624 0.5002766285 1.0162702186
0.132594956 0.499483193 1.0193446823
0.1425702101 0.7520898799 0.271347899
0.1525646107 0.7510809997 0.5175019869
0.1326516586 0.7474750665 0.5226043081
0.1426442182 0.4999576921 0.2702920877
0.1426353814 0.7520573354 0.7688716172
0.1526017988 0.4987144913 0.5171540386
0.1325040107 0.4993764469 0.5213018032
0.1725729263 0.750241351 1.0100384462
0.1626470108 0.4996914779 0.7604481388
0.1725802903 0.5002779302 1.0083263197
0.1625284507 0.7506904654 0.2646273421
0.1723939815 0.7506579209 0.5116402548
0.1625814714 0.4992677482 0.2587361541
0.1625612204 0.7520508265 0.7627493841
0.1725500979 0.5006066299 0.5097817691
0.1924744641 0.7484253666 1.0025547964
0.2024684965 0.5001536102 0.7542209689
0.1825794774 0.4998424845 0.7567937612
0.1924512676 0.4981143703 1.0030886853
0.2025693831 0.7484839467 0.2506873184
0.1824373525 0.7486792138 0.2542063828
0.1924288074 0.7488354276 0.5030768606
0.2024419861 0.499928402 0.2526148415
0.2024640781 0.7482691528 0.7522741154
0.1825923644 0.5005812452 0.2563235285
0.1824977372 0.7478525829 0.7576627114
0.1925863967 0.5001412432 0.5038077362
0.2124268135 0.7474490308 1.0010727944
0.2224944857 0.4980063225 0.7519906019
0.2124871982 0.4997617741 1.0043405627
0.2226112048 0.7486466693 0.2502648098
0.2125394825 0.7477679672 0.5012699228
0.2225353558 0.4977785108 0.2524905743
0.2225762259 0.7466809801 0.7489207407
0.212488671 0.4983740756 0.5035555197
0.2525885153 0.7505277428 0.9927791062
0.2423798228 0.4994102932 0.750224166
0.2324480161 0.7510549641 0.99827448
0.2524360808 0.5000201776 0.9968477079
0.2324141418 0.5004621322 1.0008426698
0.2424534626 0.7482366083 0.2438949627
0.2523963152 0.7503454935 0.4959209082
0.2326925004 0.7501892797 0.5009661584
0.2424847595 0.4990692266 0.2511843874
0.2426287254 0.7499744859 0.7486795701
0.2524397628 0.5003169837 0.4981512751
0.2325606851 0.4984307031 0.5028936815
0.2724569152 0.7509508216 0.9912878992
0.2624164897 0.4981501693 0.7463939733
0.2723913757 0.4993705889 0.9932209453
0.2624168579 0.7493235954 0.2435212404
0.2722915937 0.7502088065 0.492278497
0.2623907158 0.4985901712 0.2477628958
0.2624860794 0.7484448933 0.743821181
0.27234756 0.4991427772 0.4931649367
0.2924077917 0.7488874988 0.98598583
0.3025203842 0.4986838995 0.7348297552
0.2825890222 0.4967663761 0.7434713917
0.2924725948 0.4990568597 0.9875046519
0.3024901919 0.7477354227 0.2320730052
0.2823857762 0.7495774427 0.2380065361
0.2925351887 0.7475531733 0.4809444035
0.3026245846 0.4990887533 0.2354098109
0.3024309118 0.7486076159 0.7348564497
0.2824281191 0.4992007065 0.2429118707
0.2824745123 0.7496815852 0.7370288253
0.2925027871 0.497480403 0.48515108
0.332509477 0.7494472646 0.9730344212
0.3224653696 0.5000976336 0.7261743113
0.3124816468 0.7486466693 0.9777105517
0.3324454103 0.4985576267 0.977581682
0.3124588185 0.4992449671 0.9781708008
0.3224233949 0.7496555496 0.2261532817
0.332502113 0.7499549592 0.4764763056
0.3124937974 0.7482496261 0.4791365452
0.3223412864 0.4980662044 0.2300580347
0.3224815703 0.7499419414 0.7261319684
0.3324292096 0.5002440839 0.4766079368
0.3123535135 0.4989331905 0.4798462493
0.3525527716 0.7495969694 0.9725281473
0.3424729488 0.499875029 0.7251470354
0.3524327386 0.4990249661 0.9733750055
0.3425815676 0.7506839565 0.2241806542
0.3526396666 0.7475727 0.4706550754
0.3426750902 0.4996836672 0.2239201532
0.342482522 0.7495644249 0.7220560026
0.352546144 0.4975949597 0.4725365736
0.3726413546 0.7489005166 0.9700980322
0.3826306004 0.4993491095 0.7150454888
0.3625158752 0.4996446138 0.723084199
0.3727260405 0.4987437814 0.9676034822
0.3826158724 0.7513413559 0.2194594192
0.3626336989 0.7496685674 0.223261997
0.3725640328 0.7504691626 0.4717771626
0.3826379644 0.5003781674 0.2167927361
0.3825864165 0.7500200482 0.7191214546
0.362574787 0.4996185782 0.2224860171
0.362596879 0.7499159057 0.7215138292
0.3726008527 0.4997253242 0.4673090647
0.3925646162 0.7500005215 0.966738214
0.4027453256 0.5011891769 0.7100002386
0.3925388423 0.498704728 0.9609943056
0.4025833179 0.7492324707 0.2104679935
0.3927523978 0.7514585162 0.4645540138
0.4027195516 0.4997520107 0.2108592052
0.4024986321 0.7504821805 0.7139675855
0.392678758 0.4997363894 0.4607541975
0.4324479594 0.7493756666 0.953897265
0.4226869971 0.5011631413 0.705573563
0.4126204296 0.7487182673 0.9607917961
0.4324921433 0.498211353 0.9520470638
0.4126940694 0.4991850851 0.9540997746
0.4224439856 0.7493301043 0.2049928706
0.4324774153 0.746349026 0.4545960649
0.4125651997 0.7496620585 0.4593449148
0.4227164531 0.5006378727 0.2027606626
0.4224145297 0.747917672 0.7025847056
0.4325805111 0.4983415311 0.4517802612
0.4125983376 0.4998607094 0.451633902
0.4525221827 0.7486596871 0.9495985387
0.4425587109 0.5007687016 0.7035604336
0.4526547344 0.4994324235 0.9536027056
0.4424556151 0.7466419267 0.2032577316
0.4525774125 0.7498573256 0.4522819326
0.442499799 0.4983174481 0.2051060918
0.4426912626 0.7476963692 0.7056527259
0.4526768263 0.4994493467 0.453592722
0.4725448581 0.7504886894 0.9501876576
0.4825414678 0.5008624299 0.7031747449
0.4626329342 0.4997650285 0.6981037207
0.47256695 0.4986207631 0.9496353587
0.4826003797 0.7506449031 0.203060745
0.4625777043 0.750033066 0.2026087804
0.4726074519 0.7478200384 0.4510190092
0.4824751919 0.4991570968 0.1987205963
0.4824052341 0.7511200531 0.700924127
0.4625261564 0.4992072154 0.1989562438
0.4626292522 0.7470389699 0.70017208
0.4726405899 0.4983825372 0.4510171682
0.4923797518 0.4988498765 0.9493223893
0.5026083271 0.7529490553 0.200089377
0.4924681197 0.7504040736 0.451100013
0.5024720934 0.5001894091 0.2013651874
0.5024242275 0.7518881039 0.7011165111
0.4926559013 0.7499809948 0.9497182035
0.4924570737 0.5004406528 0.4509674613
0.5023248137 0.4992462688 0.7016798559
0.5124318832 0.752903493 0.9506663166
0.5123766533 0.5011143245 0.9533081462
0.5124539751 0.7493366132 0.4488724076
0.5124097912 0.5005233159 0.4508901395
0.5224100829 0.4997031939 0.7010566787
0.5325245164 0.7497141297 0.9538420351
0.5322925509 0.4974667343 0.9520286538
0.5224174469 0.4996172764 0.199863855
0.522391673 0.7496295139 0.2044350487
0.5325097885 0.7513934271 0.4517876251
0.532248367 0.5002245572 0.4531039375
0.5224726768 0.7496099872 0.7022818617
0.5423517545 0.5002421313 0.7035521491
0.5524035941 0.7516212388 0.9589231848
0.5623744299 0.4999895858 0.7066155669
0.5523262723 0.498543958 0.9550202728
0.5424438043 0.501146869 0.2033074385
0.5425211262 0.7476638247 0.2047406541
0.5625106636 0.5011579342 0.2091912625
0.5624627977 0.7483082063 0.2076862481
0.5523078623 0.4980557902 0.4559068543
0.5525250999 0.7502738955 0.4556316253
0.5425763561 0.7486206337 0.7049623523
0.5625327556 0.7477940028 0.7066827633
0.5824560172 0.4997949695 0.7152167015
0.5723489477 0.7500525927 0.9615926294
0.5723931316 0.4976470309 0.9632035012
0.5824155153 0.5018081737 0.2137633768
0.5823897413 0.7482821707 0.2144896498
0.5723342197 0.4987001717 0.4626623901
0.5725367293 0.7501827708 0.4618827282
0.5824633812 0.7492585064 0.7136159552
0.6025339225 0.5000032545 0.7197050504
0.592434217 0.7490241858 0.9656612312
0.6125047583 0.7501762619 0.9719666434
0.592412125 0.4990868007 0.9671340282
0.6124163904 0.4985686919 0.973144881
0.6024750106 0.7509508216 0.2196343139
0.6024639646 0.5002668651 0.2177666232
0.5924710369 0.748802883 0.4650078193
0.5923753051 0.4975383322 0.4663756796
0.6124163904 0.7508466791 0.4712478762
0.6124789843 0.497717978 0.4728670324
0.6023277309 0.746960863 0.7166591221
0.622519778 0.5006827841 0.7242891311
0.6324942957 0.7493951934 0.9762653697
0.6324096099 0.4975331251 0.974626883
0.6224387741 0.7494082112 0.2269062491
0.6223982722 0.5007276955 0.2236927901
0.6324722038 0.7501241907 0.4777291035
0.632376472 0.4984294013 0.4769245882
0.622494004 0.7497206386 0.7237405142
0.6424062196 0.4994460922 0.7271537213
0.6524838332 0.7489525878 0.9828193164
0.6624988529 0.5011279932 0.7339902609
0.6524543773 0.4984736618 0.980057822
0.6424172656 0.749967977 0.228687413
0.6424761775 0.5005434935 0.2291255701
0.6624841249 0.7483016974 0.2346623664
0.6625430368 0.5016109539 0.2323003682
0.6524322853 0.7482040638 0.4840197878
0.6523733734 0.4975643679 0.4773084359
0.6425019514 0.7507034832 0.7314432426
0.6624841249 0.7493691577 0.7355182878
0.6823963405 0.5009535545 0.738149992
0.6725396465 0.7507555544 0.9877071615
0.6725028266 0.5002239063 0.9840803988
0.6825068003 0.7500460838 0.2403335554
0.6825804402 0.5024382357 0.237797583
0.6724770527 0.7520508265 0.4882540792
0.6724844166 0.4997669812 0.4860550092
0.6824110685 0.7499614681 0.7405193542
0.7024779278 0.5009763357 0.7405027852
0.6923782223 0.7495448982 0.9905515007
0.7124340356 0.7492519975 0.9937640392
0.6925807319 0.5001340834 0.9911498245
0.7123898517 0.5006352691 0.9892628033
0.7024889738 0.7506839565 0.245710185
0.7024337439 0.4999485797 0.2402295391
0.6924334522 0.7495839516 0.4925021781
0.692529184 0.502567112 0.4889729882
0.7125113575 0.5010498863 0.4921910497
0.7124413996 0.7482040638 0.4931787442
0.7024300619 0.7511525976 0.7419424443
0.7223938254 0.5012607748 0.7387547593
0.7323904352 0.7500981551 0.9943071331
0.7423723169 0.5014788232 0.74629548
0.7324051631 0.5032726773 0.9930276407
0.7223643695 0.752766806 0.2426817461
0.7224416913 0.4997975731 0.2409963141
0.7424422748 0.7519597018 0.2467107665
0.7424128188 0.5020997727 0.2478549457
0.7324198911 0.5020197131 0.4922610076
0.7324125271 0.7513543737 0.4973163833
0.7225263772 0.751809997 0.7436803448
0.7424717307 0.7538668109 0.7459484522
0.7524315205 0.5036612589 0.4992632369
0.7525014784 0.7496034783 0.9955958305
0.7623839464 0.5028066397 0.7480720414
0.7525272523 0.501158585 0.999305438
0.762534908 0.7526236101 0.2494437254
0.7623765824 0.500998466 0.2502353538
0.7523947006 0.7510744908 0.4971405682
0.7624575862 0.7522135491 0.7475565624
0.7723437362 0.501961133 0.5020228903
0.7724983798 0.749759692 1.0008426698
0.7923885035 0.5011611886 0.5080512326
0.7925431472 0.7516472744 1.0095413772
0.7825281275 0.5010075785 0.7552933492
0.7724983798 0.5034829149 1.0041380532
0.7925873311 0.5015374033 1.0084459844
0.7824029398 0.7494537735 0.2523423741
0.7825723114 0.5008624299 0.2545303981
0.772413694 0.7497466742 0.4991997225
0.7925173733 0.746960863 0.5057472257
0.7825023536 0.7519401751 0.7558677401
0.8124811368 0.5012165143 0.5169745415
0.8125547766 0.7498508167 1.0139045384
0.8025434389 0.4974810539 0.7629749062
0.8126210525 0.5000279883 1.0177522206
0.8024808451 0.7507034832 0.2610512069
0.8025544849 0.5011455672 0.262718229
0.8124369529 0.7498182722 0.5149623325
0.8024734811 0.7494147201 0.7604693102
0.8323896704 0.5003339068 0.5217031404
0.8324080804 0.751126562 1.0241128627
0.8224446086 0.5022559864 0.7697239985
0.8423789162 0.5004334931 0.7757854787
0.8324706742 0.5007758614 1.0237630734
0.8224519726 0.7497987455 0.2695777811
0.8225219304 0.5009229627 0.2689527629
0.8423531422 0.7502934222 0.2713884009
0.842470966 0.503268772 0.2749221933
0.8323933524 0.7501437174 0.5224671538
0.8223341488 0.7487768474 0.7687620779
0.8424010081 0.7509182771 0.7746578685
0.8525228056 0.501735274 0.5219397084
0.8625488713 0.7509182771 0.7749763608
0.862692469 0.5025176443 0.7734142755
0.8524896676 0.7538993554 1.0238459182
0.8525596255 0.5001438468 1.0264601329
0.8625599172 0.7514454983 0.2772989194
0.862659331 0.5026992428 0.2751513973
0.8524565297 0.7513478648 0.5282819405
0.8726448948 0.5008409505 0.5209428089
0.8826525505 0.7521810046 0.7755857306
0.8926417962 0.5001881073 0.5272611081
0.8725896649 0.7516212388 1.0235513588
0.8925976123 0.7526105923 1.0289915028
0.8826378225 0.5006307129 0.7764243044
0.8725896649 0.503393092 1.0242877573
0.8926012943 0.5004295877 1.0268467421
0.8826341405 0.7497206386 0.2742189327
0.8826120486 0.5016832028 0.2752370036
0.8725749369 0.7527863327 0.5258757584
0.8925092445 0.7516668011 0.5268459635
0.9126129237 0.4984931886 0.5349472675
0.9024285324 0.7488679721 0.7821755767
0.9226058515 0.749486318 0.786976895
0.9125761038 0.7516212388 1.0360333135