POSCAR file written by Ovito 3.7.11
1
271.5729080171 0.0 0.0
0.0 15.3624835876 0.0
0.0 0.0 10.8629163207
Sr Ti O 
800 800 2400 
Direct
0.0224695645 0.4999368592 0.810120776
0.0125870618 0.2496771939 0.5590132539
0.0225989589 0.2491883407 0.8097322984
0.0026180998 0.2511444046 0.8152630415
0.0125163258 0.2491492845 0.0604957435
0.0225881331 5.5386837489e-04 0.3082039943
0.002647521 -0.0014906578 0.3129936841
0.0026637229 0.4997148899 0.3146267631
0.0125264151 0.4995567123 0.560728263
0.0126185083 4.8018237265e-04 0.5616433027
0.0223995649 7.8371402321e-04 0.8077042978
0.0024610518 -4.5996509228e-04 0.8115154291
0.0225259766 0.2495470066 0.3090527534
0.0025764535 0.2491258508 0.3154184473
0.0325159643 0.4985002425 0.0587520129
0.0425810331 0.4976136671 0.3081229847
0.0325553644 0.499119283 0.5571260995
0.0325479999 0.246738216 0.5567937763
0.0425202759 0.2480400888 0.8006444994
0.0325885047 0.2505084397 0.0565503941
0.0523434207 0.4979202582 0.051204408
0.0426255883 -0.0015403894 0.8016746095
0.0424897132 0.2484221885 0.3011340696
0.0526096476 0.2462024953 0.553012103
0.052528638 0.2469855718 0.051421845
0.0624946542 0.2487437511 0.2971618398
0.0623237977 0.4954278226 0.7990519252
0.0724477825 0.4986603729 0.0503637498
0.0623654072 0.4957995073 0.3001757634
0.0723601449 0.4991225377 0.5525057933
0.0723907076 0.2479287787 0.5463426233
0.0624972318 0.2490496912 0.7996972399
0.0724444685 0.2491219452 0.0490669525
0.092456774 0.2474373217 0.54506212
0.1023793396 0.2491317092 0.7943275953
0.0825448869 0.248754817 0.7982491942
0.0925219499 0.2475043682 0.046638415
0.1025310484 -4.6302449344e-04 0.2894327919
0.0925609817 -5.1470884483e-04 0.5435330647
0.1024702913 0.2491063227 0.2911616095
0.0824800793 0.2473240588 0.2962652113
0.1023852312 0.4988563047 0.7968232419
0.0823813949 0.4977256282 0.797465795
0.1023601919 0.4983069144 0.2948585909
0.0824789746 0.4980660679 0.2987976804
0.1224457742 0.2480003817 0.2856354691
0.1123258399 0.5000911311 0.0429014811
0.1123969074 0.2503424509 0.5402033879
0.1223953274 0.496641819 0.2884302987
0.1122790753 0.5010317342 0.5405136177
0.1222804411 0.252512022 0.7858252745
0.1125276273 0.2487671848 0.0363525031
0.1224848061 -0.0021468538 0.2845538075
0.1524005295 0.2498262584 0.5201811404
0.1324246783 0.2489793901 0.528140329
0.1423954814 0.2475590468 0.7738367811
0.1524491352 0.2470109584 0.0219028843
0.1323576613 0.2489527017 0.0343258834
0.1425935866 -6.5856579266e-04 0.2768477737
0.1423627094 0.2482256057 0.2776468225
0.1424197843 0.4987736358 0.7782379933
0.1523810136 0.4986968253 0.0239154194
0.1324298335 0.4991251415 0.03215584
0.1523869052 0.4994662321 0.5222119026
0.132268919 0.4980380776 0.5330165518
0.1825206179 0.250229188 0.2607020174
0.1724334556 0.4977718446 0.512750355
0.1823729596 0.5020706287 0.7605484527
0.1724132032 0.2497546554 0.5145067894
0.1625241461 0.2489325227 0.764688225
0.1724238818 0.2508905394 0.0119249928
0.1824517598 0.5012315717 0.2618527213
0.1623952673 -2.6571626831e-05 0.7659438731
0.1624081552 0.2508768697 0.2652449963
0.1824289298 0.253065318 0.7602345407
0.1825379245 0.0010871806 0.2592990792
0.192697259 0.0014339995 0.0109094276
0.202439026 0.2503762996 0.2594040234
0.2024585419 0.5024527284 0.7620462089
0.1925138828 0.5015635493 0.0140629086
0.2025539123 0.4993256299 0.2630098691
0.192563225 0.5001718472 0.5127411493
0.1924277181 0.2509471709 0.5102031568
0.2024644335 0.2503424509 0.7588159529
0.192458649 0.2498431827 0.0088331896
0.2025914712 -4.574915339e-04 0.2600318474
0.2125276612 0.2474490386 0.507273925
0.2223485966 0.2498262584 0.7537464119
0.2124842106 0.2485100649 0.0045875525
0.2224984643 0.0011479129 0.7494354149
0.2225544345 0.2510539244 0.2540417433
0.2324085103 0.2512824031 0.4976963865
0.2324066691 0.251754332 0.9969103949
0.2323381792 1.3147573486e-04 0.500811572
0.2224748979 0.5004530517 0.7509966899
0.2124599077 0.4996068344 0.008410467
0.2125074088 0.4972074828 0.5055193318
0.2424205546 0.499549552 0.7457973495
0.2623323346 0.2481260124 0.7363827506
0.2625146061 -8.5046184795e-04 0.2356617803
0.2624928808 -5.8461941585e-04 0.7391085379
0.2524267074 0.2490425309 0.4890283643
0.2425170296 0.2484456222 0.7477995742
0.2524105055 0.2483753211 0.9946550153
0.2623691572 0.2476000558 0.2337884344
0.2423980929 8.4822182198e-04 0.2421167688
0.2623555328 0.4985620815 0.2354776677
0.2524454869 0.0012347479 0.4905178354
0.2425232895 7.1041858282e-04 0.7424105978
0.2525541133 0.001912568 0.991718419
0.2424599547 0.2503144607 0.2461055687
0.2722858312 0.2488622215 0.4869478916
0.2722383301 0.2493374051 0.980340259
0.2724036632 4.0141906637e-04 0.4854731495
0.2723024013 1.3466532329e-04 0.9840961565
0.2822746773 0.2492710096 0.7306025348
0.2723609491 0.4960963343 0.4840195804
0.2822459558 0.2478780057 0.2330188436
0.312372304 0.0010679129 0.4714750669
0.2923570527 0.4999856794 0.4818231168
0.2922454805 0.2497266651 0.4795833868
0.3022383771 0.2485211308 0.726615576
0.2922208094 0.2497214576 0.9785543666
0.2923415872 7.2877498974e-04 0.4790522219
0.3025167554 -2.4072970754e-04 0.7261737057
0.3124706201 0.50112612 0.4739762369
0.3023746204 0.2506705229 0.2282586118
0.3124923454 0.2517335021 0.4748581363
0.3124842445 0.2514444863 0.9753784239
0.3225666198 -1.1314617009e-04 0.2189931441
0.3323422636 0.0019053426 0.4640175852
0.3225559413 0.0012794672 0.7182513396
0.3324542041 6.0106126501e-04 0.9660070914
0.3224498924 0.2510799619 0.2185236569
0.3224543112 0.5023108243 0.7193744266
0.322445842 0.5025295389 0.2209916866
0.3324648826 0.252000386 0.4679327401
0.3224554158 0.254181023 0.7235445775
0.3325845558 0.2506230045 0.9667251306
0.3625429933 0.2493569332 0.2089838614
0.3525180611 0.4997754269 0.4616314856
0.3525467827 0.2505709296 0.4612255173
0.3425792936 0.2515239005 0.7131946865
0.3623957032 0.4998398696 0.7091616995
0.3523921281 0.250771418 0.9625825967
0.3624877596 0.497952805 0.2084241591
0.3424647755 0.0018659609 0.2116452094
0.3423863435 0.2515889942 0.215008947
0.3625540401 0.2485992432 0.7090033626
0.3423664594 0.5008833207 0.7147320268
0.3423447341 0.5014366167 0.2143903286
0.3825486708 0.2514425335 0.2004207834
0.3924686588 0.2476456214 0.4500894654
0.3925901732 0.2511613289 0.947402511
0.3924576121 0.0034082246 0.9455245623
0.3824713435 0.4992358006 0.7003022001
0.3925312571 0.4997532951 0.9437018473
0.3725513554 0.2503587243 0.4528566781
0.3826885964 0.2469810153 0.7045395521
0.3725145329 0.2486617331 0.9566633759
0.3924686588 0.4965493861 0.4474078651
0.3725403087 8.4835200927e-04 0.4561302005
0.4124006912 0.4997552479 0.9440976895
0.4025101612 0.249573695 0.696587728
0.4023150018 0.002529851 0.6984095224
0.4024401984 0.2494539227 0.1979555154
0.4125332523 0.2491805294 0.445743487
0.4124375137 0.2484404147 0.9455429736
0.4123712332 -2.9826308908e-05 0.4471381401
0.4123012704 0.0016506962 0.9476602687
0.4424846936 4.5375435418e-04 0.68890747
0.4425104693 0.2487365908 0.1904142625
0.4224642871 0.5009633859 0.6933675983
0.4326714908 0.4997877947 0.9460861058
0.4325168362 0.4984631391 0.445014401
0.4426062079 0.5018174145 0.6872209984
0.4425178338 0.5002213184 0.1908552122
0.4323805929 0.2490718231 0.4415447986
0.4223906421 0.249737731 0.6959203197
0.4325904813 0.2510506698 0.9412715607
0.4224164178 1.8973454405e-04 0.1951247839
0.432222256 -1.0428403726e-05 0.944732878
0.4224937451 0.2503040457 0.1968103349
0.4425436096 0.2511216218 0.6914749205
0.4726055184 0.2459981013 0.4293114355
0.4624130437 0.2512296773 0.6867634785
0.4726092007 0.2508885866 0.9311729835
0.4726276119 0.0016036335 0.93535234
0.4625456048 0.2508859828 0.1838718205
0.4526072055 0.4990366141 0.9410230087
0.4526698038 0.4991654995 0.4389681425
0.4625934741 0.4995222127 0.6855170361
0.4724876863 0.500839708 0.9324433605
0.462549287 0.4998268509 0.1848393323
0.452570383 0.2492788208 0.4367956136
0.4524783266 0.2483720664 0.9376537477
0.4526845328 -9.7218695765e-04 0.4385050992
0.4826727966 0.249103068 0.6787361682
0.4826691143 -5.7765439621e-04 0.6811646137
0.4926553829 0.4963912085 0.9314399468
0.4927511215 0.5000240846 0.4313992726
0.4825402355 0.24902105 0.1790158501
0.4926222426 0.2499186913 0.4295922072
0.4925485976 0.2472212108 0.9297000825
0.482635974 0.4966782715 0.1807280974
0.5026416515 0.2491928972 0.6825942482
0.5126058265 0.2499453797 0.4321200735
0.512539546 0.249656364 0.9316424706
0.502678474 -0.0013993314 0.6808709541
0.5025716887 0.2496257699 0.183638918
0.5226473289 0.2488505047 0.1890628758
0.5224816276 0.2506334195 0.6897405796
0.5125579573 0.4996094382 0.4335101238
0.5225957774 0.4991681033 0.6868104272
0.542516763 0.5008611889 0.6893162
0.5526208637 0.5003326285 0.9414280565
0.542516763 0.5015889358 0.1910835118
0.5525435364 0.5005233529 0.4435801637
0.5325084009 0.0021979385 0.4406177916
0.5326004572 0.2487209683 0.4379509203
0.5327109248 0.2501120194 0.9366135114
0.5325636347 0.5012758354 0.9403141751
0.5524625268 -0.00174589 0.9417686648
0.5427524272 0.2485985923 0.1916653077
0.5526134992 0.2497605138 0.4422361415
0.5426309128 0.2512960728 0.6913101397
0.5527386958 0.2490067294 0.9399643611
0.5725639428 0.2504843551 0.4450272889
0.5726891394 0.2486780065 0.9430298363
0.5625261227 0.4982366133 0.6905893388
0.562573992 0.4986636275 0.1905597114
0.5725050268 0.4996816921 0.9438583431
0.5724571575 0.502150043 0.4459552165
0.5626697306 0.2496023362 0.1944665812
0.5626844596 0.2497898059 0.6942964464
0.6024527858 0.4995007318 0.7027601036
0.5924812462 0.4989695677 0.9516831295
0.5925475268 0.4996569565 0.4525538128
0.5826275387 0.2495216201 0.6986635978
0.6024601503 0.2470851651 0.2068380288
0.5925548913 0.2509608405 0.4529459727
0.6025337954 0.2480049383 0.7047512816
0.5925401623 0.2503841109 0.9507993889
0.5824802486 0.4984410073 0.6976141559
0.5824839309 0.4982997541 0.1976001781
0.5825907162 0.2482106342 0.1967118347
0.6124611479 0.4994427984 0.9557704297
0.6123654093 0.4978447495 0.4550374921
0.6224437342 0.4990496328 0.7073979006
0.61257898 -0.0029161305 0.4574815871
0.6223774537 0.4992748568 0.2083551168
0.6124537834 0.2504524592 0.4543231351
0.6124464189 0.2507297581 0.9572065081
0.6224768745 -7.8165786883e-04 0.710795699
0.6223811359 0.2477634409 0.2132101667
0.6225542018 0.2486272335 0.7113774949
0.6425746083 0.001480932 0.2153550787
0.6524688205 -4.1282789821e-05 0.4699101096
0.6325110124 0.499682994 0.463897912
0.6424862342 0.2507082772 0.2155465558
0.6525387833 0.2513461949 0.4722437371
0.64251201 0.249809334 0.720117321
0.6325183769 -0.0014603242 0.464241282
0.6525682413 0.2521527051 0.9717698165
0.6423499909 0.500850123 0.7142643808
0.6525535123 0.5009464615 0.4727528085
0.6325220591 0.2505793918 0.4615329854
0.6325404704 0.2510005477 0.9662832604
0.6825491406 0.4978714379 0.7289344745
0.662628155 0.0022431786 0.2256534182
0.6825565051 0.5011742893 0.2311077546
0.6625360987 8.2595979657e-04 0.7244145096
0.6725555075 0.5003638735 0.4793449609
0.6625802857 0.2494695452 0.227211011
0.6624992761 0.252266619 0.726112028
0.6726991154 6.1759504997e-04 0.9794196959
0.6624072198 0.5013767305 0.7257999571
0.6624403601 0.4997213992 0.2231329164
0.6825012713 0.2501230854 0.2310819788
0.6725297318 0.2494604321 0.4786904406
0.6826043744 0.2503899693 0.7324455021
0.6725444608 0.249348471 0.9801009126
0.7026800146 0.2510161701 0.2345635485
0.69263483 0.2485959885 0.4809844838
0.7026431921 0.2521312242 0.7345314981
0.6925427737 0.2503691393 0.9823194697
0.6923623433 0.5002877139 0.9842894747
0.6925133157 0.5006372668 0.4837397292
0.7326240914 0.5011736384 0.9935043114
0.7324841658 0.4988029279 0.4931681365
0.712662601 0.2524475793 0.4869276392
0.712647872 0.249809334 0.9857255532
0.722597318 0.0019464817 0.243030888
0.7327235122 0.0012087755 0.4971458897
0.7325909511 0.0023927637 0.9957320741
0.7125631802 0.5009777065 0.987400978
0.7226635986 0.2499779265 0.2399028145
0.7325467641 0.2483408215 0.4956343251
0.7227556549 0.2512771956 0.7420248818
0.7326277736 0.2498256074 0.9948851561
0.7125815914 0.5020263651 0.4873280842
0.7127730685 0.0035824151 0.4921380264
0.7126957412 0.0029414381 0.9894538338
0.7523977869 0.4995684292 0.0010920824
0.7425919487 -0.0014545959 0.2511953622
0.7425919487 -0.0016446043 0.7498505888
0.7425882665 0.2503040457 0.2498135969
0.7425477617 0.2493354523 0.7502206552
0.7625644859 -0.0021994299 0.2545701465
0.752545077 -5.9685702047e-04 0.501890472
0.7625239811 -0.0033296443 0.7560349318
0.7525266658 0.0025740495 0.0017814
0.7625276634 0.2489481451 0.2582772541
0.752545077 0.2471040423 0.5031516434
0.7624687473 0.2500443221 0.7558379313
0.75250089 0.2479775989 0.0052904945
0.7827064067 5.0296514719e-04 0.2604580681
0.7826401261 -8.2064896012e-04 0.7594621882
0.7726096705 0.0023297531 0.008842119
0.7824854715 0.2494727999 0.2583683899
0.772558119 0.2474054258 0.5084936711
0.7825664811 0.2505266659 0.7591648463
0.7725102497 0.2489032305 0.0046370788
0.7926668995 2.9974279827e-04 0.5103845078
0.7925122449 -2.2803644743e-04 0.0107747492
0.8124148193 0.4982945466 0.0176692146
0.792630077 0.2491180395 0.5121252926
0.7925895722 0.2499590494 0.0110788112
0.802564794 -8.5155904227e-05 0.2642213301
0.8125400158 5.9097175057e-04 0.5162991257
0.802550065 1.3082479844e-04 0.7649017956
0.8125952496 0.0016973684 0.0219504774
0.8025021957 0.2495860628 0.2647478922
0.8125842029 0.2485419608 0.5219127196
0.802564794 0.2488550612 0.7651972964
0.8124995111 0.2517614923 0.0216648267
0.8325199175 -2.4723907169e-04 0.5273698177
0.8224747329 4.2244431259e-04 0.7727753719
0.8325456933 -7.0491246544e-04 0.027812163
0.8224415926 0.2469484685 0.2728203101
0.8325199175 0.2496960711 0.5276690007
0.822651481 0.2500026621 0.7726685865
0.8324573192 0.2509608405 0.0288772545
0.8224010878 5.5230612749e-04 0.2747682216
0.8424804103 0.0012409318 0.7822304755
0.8424214943 0.2515772773 0.2838689085
0.8424362233 0.2503437528 0.786102364
0.8624971345 4.435997461e-04 0.2889099121
0.842403083 0.5019111493 0.7818484419
0.8524224919 0.0032769307 0.5354781375
0.8624860878 -6.7138924004e-04 0.7916542801
0.8524335386 -0.0016482495 0.0360846192
0.8623682557 0.2492924905 0.2865109246
0.8424399056 0.0016741299 0.2819265204
0.8523783049 0.2508221911 0.5385758324
0.862386667 0.2507642577 0.7899291448
0.8525440062 0.2510747544 0.0365831962
0.8725533659 0.0022846432 0.5423639495
0.8925958659 0.0020691833 0.5468562975
0.8725496837 0.0021846594 0.0444324696
0.8824475782 0.2536778491 0.2970642601
0.8926142771 0.0035296893 0.0479959694
0.8725975529 0.2519782541 0.5410696378
0.8925332676 0.2529292723 0.5455104342
0.8824659895 0.2522086856 0.7952859015
0.8725901884 0.2519847635 0.042589042
0.8925516789 0.2539024222 0.0444580613
0.9026520973 0.004305931 0.2986154089
0.9125168515 0.0033924719 0.5500561749
0.9025526764 0.0018431781 0.8000498156
0.9024606201 0.2518910287 0.2988004421
0.9124542532 0.2541654005 0.5518696842
0.9025269007 0.2540150342 0.7989699951
0.9024790314 0.5020139973 0.8021726341
0.9125610385 0.2534695495 0.0522470378
0.9225252136 0.001738833 0.3039905769
0.9224810266 0.003954881 0.802469976
0.9225583539 0.2514867972 0.3029273265
0.9225031201 0.2529995734 0.8039796995
0.9425493023 0.0043936772 0.3048485417
0.932581445 -4.9889108993e-04 0.5569475103
0.9426634522 0.001220232 0.8069641651
0.9325446225 0.0018634873 0.0525470493
0.9425308911 0.2524983523 0.3090214543
0.9325630337 0.252808849 0.5532284353
0.942501433 0.2507349656 0.8073047735
0.9325740805 0.2522334212 0.0548677889
0.9524545614 5.4124020843e-04 0.5614628723
0.9524913839 -0.0011280862 0.0610895987
0.9626323071 0.2508267476 0.3135165639
0.9525797579 0.2510500188 0.5566115048
0.9725338838 0.2492189347 0.5643295058
0.9623782317 0.252890867 0.8162848666
0.9526718143 0.2516358616 0.0568044695
0.9724307808 0.2506008727 0.064441369
0.9626138958 3.4153291615e-04 0.3106692623
0.9824943767 0.4988654178 0.8169366252
0.9825643395 0.4999186329 0.3144242392
0.982571704 0.0027337893 0.3160269395
0.9925469258 3.0970212543e-04 0.5684435024
0.982556975 0.2494910261 0.3207659984
0.9925285145 -0.0013421141 0.0671121067
0.9927052627 0.2502324427 0.5661457769
0.9824833299 0.2489878523 0.8182235725
0.9926205708 0.2497195048 0.0655156662
0.0124479095 0.7507472166 0.058402475
0.0025668429 0.5005943049 0.8163410209
0.0126196129 0.4998431243 0.0656275146
0.0225159977 0.7510466474 0.309542493
0.0026302881 0.7506691043 0.3160462714
0.0125022964 0.7487683699 0.5593584651
0.0224180866 0.7510596661 0.8126652124
0.0225102166 0.499559967 0.3095388108
0.0025369798 0.7489831789 0.8159166413
0.0126161148 0.9994895491 0.0634322477
0.0525617783 0.9975497586 0.5499429456
0.0525429988 0.9986498411 0.0503612642
0.0324577847 0.7490287445 0.0575353966
0.0425626218 0.5013799852 0.8070378102
0.0424208551 0.7497838307 0.3049829439
0.0325538915 0.7486381826 0.5593013902
0.0424528907 0.7472386693 0.8021625079
0.052507281 0.7492435535 0.0529511765
0.0524557294 0.7481695084 0.551743567
0.0524023368 0.4994655812 0.5545853454
0.0426196967 0.9974586275 0.3051182667
0.0325940281 0.9995351146 0.5559772368
0.0325899776 0.9986433317 0.0566699753
0.0726057512 0.9998345454 0.5472061115
0.0625370001 0.9985196538 0.7999927407
0.0724831322 0.99784268 0.0469309699
0.072396231 0.7492891191 0.0505350666
0.062482871 0.7471800851 0.298828059
0.0723174308 0.7508513664 0.5474647897
0.0624350017 0.7475446095 0.7999338247
0.062445312 0.9978752268 0.2998489635
0.0825445187 1.0000623731 0.2945787397
0.102507482 0.9983569197 0.790173094
0.0825128513 0.9964692041 0.7977879921
0.0925768154 0.9971787248 0.0432630783
0.0924777628 0.7501027896 0.0467133488
0.0923879159 0.4983225369 0.048111316
0.1024721324 0.7498619431 0.2948411002
0.0824579858 0.7482671489 0.2984432636
0.09234557 0.7504933514 0.5468249984
0.1023716069 0.7492826097 0.7956182248
0.0824598269 0.7486577107 0.7995757256
0.0923190578 0.5002909686 0.5487765922
0.1124701842 0.9992096464 0.0404071233
0.1123969074 0.749914018 0.0417736072
0.1224332546 0.5013630609 0.7876792886
0.1224918024 0.747088954 0.2871111318
0.112446986 0.7495039281 0.5434189149
0.1224071106 0.750395711 0.7859449477
0.1125114254 0.9974130619 0.5392082592
0.1225223651 0.999059931 0.7841222327
0.1524557633 1.0020412198 0.5205162253
0.1325090019 0.9996457738 0.532640962
0.1424963752 0.9983959759 0.7756475288
0.152582801 0.9982657886 0.0201992902
0.1325064243 0.9991250247 0.0309830426
0.1525688084 0.7474664971 0.0206811129
0.1325399328 0.7490873288 0.0335365926
0.1424120516 0.7502199581 0.2793765606
0.1525316177 0.7486251639 0.5230275215
0.1325657086 0.7465096206 0.5332172345
0.1424919564 0.5001048008 0.278012286
0.1424720723 0.7501418458 0.7757386645
0.1724916352 0.7505454263 0.014061896
0.1623267774 0.4987222118 0.7675806343
0.1724839025 0.4989448321 0.0158044299
0.1626066286 0.7506170293 0.2678179702
0.1823928438 1.0003162383 0.7599105024
0.172497895 0.7516324901 0.5115425762
0.162429144 0.5009132638 0.2651630662
0.1625709107 0.7507407073 0.7664630706
0.1826019957 0.7513460781 0.258296586
0.1826053097 0.7496406247 0.7601351198
0.1625583911 0.9992942682 0.2644965785
0.1725107829 1.0021714071 0.5120406008
0.172564912 0.9986758786 0.0105550108
0.1924682229 1.0016832048 0.5116999925
0.2025679048 1.0010713246 0.7584320781
0.1925613838 0.7527586101 0.0112207621
0.2026463368 0.7457805718 0.2618205015
0.1925496006 0.7498749618 0.5105769055
0.2025866843 0.7510661755 0.7607914813
0.2325602191 0.7499726023 0.9958793642
0.2324298673 0.4994382419 0.9985582029
0.2325488041 0.7519123928 0.4968688002
0.2324784731 0.4999342554 0.4963799812
0.2224829988 1.0010713246 0.2505408418
0.2124797919 0.9986368224 0.5078041694
0.2124470199 0.9999126578 0.0089936437
0.2127051458 0.7511377785 -2.7156678286e-05
0.2323635868 1.0003162383 1.0005097967
0.2225897842 0.7486121452 0.2542037624
0.2125839996 0.7501027896 0.5044625253
0.2224564866 0.4995918629 0.2531874607
0.2223644303 0.7498749618 0.7547120826
0.252368896 0.7528302132 0.9935871621
0.252499616 0.5003345813 0.9901994899
0.2423944106 0.75132655 0.2448443973
0.2524616888 0.7503371267 0.4891148972
0.242367162 0.5019619224 0.2474081655
0.2425148203 0.7515804152 0.7443391775
0.2523243408 0.4986512597 0.4906991863
0.2623444861 0.4992598853 0.7413804877
0.2624361741 0.7493867595 0.2351738818
0.2624991407 0.7500637334 0.7356555057
0.2824083431 0.4995853535 0.7352771543
0.282442588 0.7493086471 0.2312716148
0.2823777804 0.4995977213 0.232331183
0.2823799897 0.7496015685 0.7314733875
0.2724283343 0.7488529917 0.9843907367
0.2724592653 0.4975681016 0.982586433
0.2725115532 0.7499465648 0.482642418
0.2823696794 0.99855871 0.2302120467
0.2823085541 0.9987800284 0.731516654
0.3122971861 1.0017482984 0.9712911237
0.2923585256 0.7482541302 0.9769617924
0.3023606279 0.5004367783 0.725842303
0.2924859315 0.4976234311 0.9788121242
0.3024015009 0.7506300481 0.225622119
0.2923040283 0.7494648719 0.4809706754
0.3023171773 0.5020927606 0.2297269099
0.3023794074 0.7501939207 0.7228532346
0.3023783027 1.0006872721 0.2277274469
0.3124717248 0.7529148349 0.9712358899
0.3124175957 0.502518473 0.9753139844
0.3124452126 0.7532533218 0.4737129558
0.2922668375 0.9986433317 0.9751482831
0.3326059129 0.7544770823 0.9635307767
0.3325547296 0.5016937366 0.968188826
0.3224285354 0.7540018987 0.2188937233
0.332333058 0.7528302132 0.4663641006
0.3223880306 0.7517431493 0.7198614045
0.332359202 0.5029083839 0.4643084831
0.3522927073 1.0014488677 0.4615919014
0.3425027027 0.9991445528 0.7113802566
0.3624840773 0.7482931863 0.2046010605
0.3524322646 1.0005115193 0.9626102136
0.3624619838 0.7505909919 0.7064294682
0.3624435725 0.9972307997 0.2046995607
0.3523648794 0.7504412765 0.9613950703
0.3624288435 0.9990143655 0.7101043561
0.3526491493 0.4999531326 0.9621039038
0.3423782426 0.7529799285 0.2120382898
0.3524893395 0.7501809019 0.4604163423
0.342383766 0.7500116585 0.7098484396
0.3923471445 0.9981941856 0.4493962814
0.3724408879 0.7492240254 0.955089213
0.3724924394 0.4979866537 0.9515726619
0.3823829694 0.748143471 0.1996797301
0.3726139537 0.7516585276 0.4568565248
0.3823608759 0.4995423917 0.1991605325
0.3824418855 0.7482606395 0.6972081875
0.3824971192 0.9993723805 0.2035819971
0.3825413063 0.9983764478 0.7017557693
0.3724592991 0.998630313 0.9537728077
0.3724261589 0.4985529683 0.4533298475
0.3924981168 0.749217516 0.9496026569
0.3924502476 0.749627606 0.4492545146
0.4123601864 0.7489506321 0.945681058
0.4123638687 0.7494778906 0.4470562099
0.412455925 0.5013741268 0.4440542537
0.4023886469 0.9987344628 0.2001703903
0.4025580305 0.5007648503 0.6948644339
0.4022708148 0.7488074261 0.1976793465
0.4025064789 0.5021148924 0.1954460604
0.4023739179 0.7501548645 0.6970627386
0.4324505557 0.7510206099 0.9427168448
0.4223538195 0.7513200407 0.1965433716
0.4324652847 0.7491719505 0.4439005196
0.4224495581 0.5022353157 0.1943496697
0.42227281 0.750896932 0.6937919778
0.4425251983 0.7489636508 0.1929007034
0.4425141516 0.7491654411 0.6940893197
0.4325057895 0.9992877588 0.4439345805
0.4225084741 0.9999842608 0.6956910995
0.4425031048 0.9969248596 0.1910117079
0.4525593362 0.9972047623 0.937745804
0.4626082031 1.001579055 0.1836361563
0.4726312942 0.9968207098 0.4336574139
0.4626450256 0.9995741708 0.6832395629
0.4524672799 0.7491849692 0.9383073475
0.4526182522 0.7520295614 0.4368250716
0.4725281911 0.7497122277 0.9312466285
0.4625713806 0.7526739884 0.1877059658
0.4726386587 0.748644692 0.4329301691
0.4626118853 0.748286677 0.6878073971
0.4724508638 0.4999407648 0.4348025944
0.4825365532 0.9986107849 0.1804602136
0.4926406539 0.9988125752 0.4300230308
0.4926995699 0.998343901 0.9346803289
0.4825439177 0.5000533768 0.6798564935
0.4924270832 0.7513721156 0.4303047231
0.4825218242 0.7487488418 0.1811929818
0.4926148781 0.7468546169 0.9315872368
0.4825365532 0.7491003475 0.6825242854
0.5125358638 0.998988328 0.4337734049
0.5125174525 0.9982267324 0.9347907965
0.5026821563 0.9981095639 0.1819966334
0.5225110856 0.7499791117 0.6885051839
0.5225442259 0.9986758786 0.1838773438
0.5224116648 1.0001730323 0.686587651
0.502634287 0.7509034414 0.1848089537
0.5026747917 0.4996322209 0.1798572447
0.502619558 0.7497838307 0.683656578
0.5026269225 0.4973012176 0.6810173236
0.5125469105 0.7491784599 0.9319094339
0.5126610603 0.4982567923 0.9342936924
0.5126131911 0.7461646243 0.4327340891
0.5226068241 0.5010720923 0.1854975349
0.5226767869 0.7488920478 0.1884562247
0.5325857282 0.7503371267 0.4387950766
0.532582046 0.5006808795 0.4425555769
0.5324899897 0.9968727847 0.9397158091
0.5425130808 1.0004399163 0.1887940714
0.5524293866 0.9979663579 0.4428667272
0.5525103961 0.749770812 0.9405995497
0.5426935111 1.0011494369 0.6868960396
0.5424210245 0.748019793 0.1914904007
0.5525030316 0.7505454263 0.44035359
0.5425646323 0.7487358231 0.6929791206
0.5325783637 0.7492565722 0.9391542656
0.5625924033 1.0008565156 0.1919295093
0.5625666275 1.0002836915 0.692087095
0.5624230196 0.7484168643 0.1928924183
0.5624745712 0.748716295 0.6919039029
0.5725381671 0.9993853993 0.4457462486
0.5725528961 0.9973089121 0.9438583431
0.5725013445 0.7492500629 0.9418238986
0.5724166527 0.7514176811 0.4431751159
0.6023275892 0.9983569197 0.2039124793
0.5923707786 0.7490092164 0.9488846176
0.5924517882 0.9979989047 0.4539622744
0.6025080196 0.9996653019 0.7062610051
0.5924665172 0.9996262457 0.9546933708
0.6024675148 0.7510857036 0.2059174657
0.6023901875 0.4994642793 0.2055971098
0.5924223302 0.7499595836 0.4489111446
0.6024675148 0.7486772388 0.7029515808
0.5824876131 1.0013251898 0.1962616793
0.5824949776 1.0017092423 0.6994552821
0.5824397438 0.7485861077 0.1956209674
0.5824949776 0.7490222351 0.6944768768
0.6122475773 0.7478180028 0.955512672
0.6123727738 0.7479351713 0.4548911226
0.6124574656 0.9988841782 0.958605764
0.6224916035 0.9985001257 0.2112051802
0.622410594 0.7486967669 0.2120861591
0.6225210615 0.7490157258 0.7057068261
0.64251201 0.9991185153 0.7163918021
0.6525535123 0.9986888973 0.9700575691
0.6325331059 0.9990078561 0.9631257289
0.632301124 0.747303763 0.9623064277
0.6325073301 0.5006353139 0.9650036776
0.6324373673 0.7481499803 0.4622252488
0.6524246335 0.7491328943 0.969035744
0.6525240543 0.5002890158 0.9735741202
0.6424715052 0.7505844825 0.2170516765
0.6424641407 0.5018291313 0.2157684115
0.6524209512 0.7507602354 0.468887364
0.6424420472 0.7506951417 0.7169063969
0.6724560867 0.7486707295 0.9805059604
0.6725113205 0.5008234346 0.9815001685
0.6825417761 1.0002641634 0.2306852161
0.6726033768 0.9986563505 0.4776557276
0.6826301502 0.9976669271 0.7319566831
0.6825528229 0.7510466474 0.2320651402
0.672489227 0.7488529917 0.4776815034
0.6824313085 0.7497187371 0.7329067043
0.6623667151 0.7491784599 0.2250421643
0.6624661359 0.7496536434 0.7276981582
0.7025290423 1.0007002908 0.233462555
0.7025621826 0.5001106592 0.7306283106
0.6925685495 0.7506040106 0.9830190976
0.6925943252 1.0009150998 0.4831109846
0.7027647064 1.0018589576 0.7340942307
0.6927673911 1.0015139613 0.986977519
0.7025290423 0.7500962802 0.2372442283
0.7024738085 0.5013695702 0.231252283
0.6926569235 0.7522053142 0.483350331
0.7025364068 0.751541359 0.7376678567
0.7225163085 0.5015739643 0.739839465
0.7325467641 0.7492761003 0.9925101033
0.7226451873 0.7502980705 0.241747623
0.722597318 0.5008956885 0.240588634
0.7325357173 0.7497968495 0.4937287595
0.722626776 0.7512809845 0.7428257717
0.7225936358 0.9993203056 0.7443299719
0.7125410866 0.7523355015 0.9876219132
0.7125521334 0.7498228869 0.4853396679
0.7424446586 0.5007199357 0.7514836678
0.7425551262 0.7497187371 0.249252974
0.7424041538 0.4979091922 0.2478435919
0.7425293504 0.748215074 0.7486474128
0.7524493385 0.4985861661 0.5024869969
0.7525377125 0.7492500629 0.0032866127
0.7624908408 0.4980816904 0.7539912817
0.7624797941 0.7510141006 0.2525099263
0.7625018876 0.4984605354 0.2540288554
0.7524530207 0.7478375308 0.5000962945
0.7626013084 0.7490287445 0.7495596909
0.7826327616 0.7525763479 0.254373146
0.7824449667 0.4985620815 0.2542092858
0.7726538575 0.7499270367 0.5040086877
0.7825002005 0.7530385128 0.756462073
0.7725949415 1.0014553771 0.5080122166
0.7725397077 0.4998060209 0.505413467
0.7725028852 0.7488725197 0.0023017023
0.7825517521 0.499990236 0.757066883
0.77254339 0.5004836458 0.0048577378
0.7924827869 0.7499075086 0.508119002
0.8125216046 0.4992930831 0.5219541449
0.812352221 0.7491133662 0.016394787
0.8024985135 0.4996868996 0.7644240234
0.8025021957 0.7534095466 0.2627401441
0.8023254476 0.5013454856 0.264103498
0.7925969367 0.4992039048 0.5118813434
0.7925048804 0.7512289096 0.0093480605
0.8123227629 0.75020043 0.5167170614
0.7925306561 0.4976071577 0.0109586777
0.8026200278 0.7499400555 0.7644571636
0.8325677868 0.5014190414 0.5319072732
0.8323358049 0.7501223177 0.0274719229
0.8223900411 0.5020960153 0.773301934
0.8324020854 0.5018694894 0.0286959036
0.8224857796 0.7495950592 0.2742794026
0.8223274428 0.5003899109 0.2758876264
0.8323210759 0.7489506321 0.5257312153
0.8225483779 0.7498749618 0.7717839254
0.8623829847 0.750057224 0.7876746858
0.8623351154 0.5017366984 0.7896032655
0.8525071837 0.7519254115 0.0377339922
0.8523193888 0.4999681041 0.0350100459
0.862475041 0.7524266326 0.2909655295
0.862401396 0.5018922722 0.29081916
0.8524372209 0.7530189847 0.5347085467
0.842403083 0.7507992915 0.2861914892
0.8424399056 0.5018161126 0.2837455531
0.8423625783 0.7509555163 0.7825858129
0.8524224919 0.5026421509 0.5364198736
0.8725423192 0.5034174162 0.5422783372
0.8826979714 0.7540018987 0.7993584727
0.8924706693 0.5031479285 0.5469050874
0.8724023936 0.7519905052 0.0445445942
0.8925332676 0.7540800111 0.0471144382
0.8824549427 0.5032201824 0.7969456768
0.8725054966 0.5013760796 0.0430067015
0.8924743516 0.5035267735 0.0487798289
0.8825801393 0.7519839958 0.2978264863
0.8824475782 0.5025041524 0.2953032229
0.8724576274 0.7517887149 0.5450713256
0.8925627256 0.7518993741 0.5501583574
0.8826243263 1.002919984 0.2952976995
0.8825690925 1.0022690476 0.795402813
0.9125352628 0.750968535 0.5529218878
0.9125205338 1.0011754744 0.0521377669
0.9125058048 0.5021780332 0.5532588139
0.9025489942 0.7536894492 0.7994468468
0.9124100662 0.7511052317 0.0528858165
0.9124137485 0.5024937374 0.0506406551
0.9024569379 0.7529408723 0.3009610037
0.9024643024 0.5020582609 0.2973220178