POSCAR file written by Ovito 3.7.11
1
271.5876998967 0.0 0.0
0.0 15.3633203427 0.0
0.0 0.0 10.8635079958
Sr Ti O 
800 800 2400 
Direct
0.0224690622 0.4996537207 0.8087415262
0.0123967357 0.2502512533 0.5599029374
0.0224115854 0.2493113524 0.8122164627
0.0023953991 0.2511306205 0.8075678722
0.0124044311 0.2498867488 0.0599311049
0.0224064673 -0.0014032011 0.3071751812
0.0024509244 -0.0014044379 0.3103086073
0.0024722435 0.4992260788 0.3070647196
0.0123397743 0.4990522882 0.5588627577
0.0124514509 -0.001956161 0.5612119068
0.0225501042 -0.0015160674 0.8065157259
0.002387409 -8.6510131603e-04 0.8058814924
0.0223834545 0.2474862261 0.3072212068
0.0024197006 0.2502388862 0.3133472206
0.0324085035 0.499329572 0.0580713005
0.0423025451 0.4996699932 0.3021344522
0.032398562 0.4996237792 0.5565384625
0.0323731558 0.2501607781 0.5561408009
0.0423139595 0.2495053208 0.8066519618
0.0323915661 0.2483245865 0.059357073
0.0524488072 0.5000774572 0.0506582254
0.0423043861 -0.0012202329 0.8051763795
0.0423588805 0.2491837758 0.3085715994
0.0524580124 0.2491323546 0.549551769
0.052333559 0.2501607781 0.0515375915
0.0624820304 0.2487457194 0.3006376981
0.0624352683 0.5003872861 0.7992068529
0.0724092105 0.499901714 0.0430038839
0.0625114868 0.4999440225 0.2981946567
0.0724850607 0.4987619864 0.5422972063
0.0725818987 0.2490503411 0.5475625405
0.0624952858 0.2489748366 0.7968604653
0.0725874218 0.2490614064 0.0470349023
0.0924841255 0.2489598658 0.5400253803
0.102500043 0.2482868342 0.7871113125
0.0824052449 0.2478364108 0.7908531977
0.0924708701 0.246422003 0.0365289036
0.1024554902 -0.0014256572 0.2863016291
0.092537147 -0.0024790949 0.5423699268
0.1025803117 0.2489754875 0.2875351165
0.0825138654 0.2493985731 0.2942263252
0.102473164 0.4998327185 0.7879038742
0.0824722582 0.4991583851 0.7929620929
0.1025158758 0.4992709909 0.2859822111
0.0825834562 0.4997663266 0.2918560043
0.1224549232 0.2505435079 0.2816530386
0.1125962293 0.499244304 0.0354915776
0.1125896016 0.2494018276 0.5328278894
0.1225646483 0.4981638084 0.2814514463
0.112437901 0.4999772185 0.5385415134
0.1224567642 0.2494753794 0.784485089
0.1124879769 0.2501555709 0.0353813001
0.1226578042 -0.0011852795 0.280300805
0.1524897885 0.2498255641 0.5284241554
0.1324064048 0.2486903928 0.5308883686
0.1425202649 0.2493406429 0.7811730833
0.1524846336 0.2467181629 0.0255667909
0.1324756273 0.2490535956 0.0311057935
0.1425228423 -0.0020579229 0.2790866484
0.1425033274 0.2507296656 0.2807224
0.1425162146 0.498422867 0.7792400061
0.152411729 0.4981917971 0.0297668154
0.1325514776 0.4994057274 0.0324972409
0.1525155629 0.5012601443 0.527687745
0.1326103904 0.5007270564 0.5324532406
0.182488938 0.2513896791 0.2658331027
0.1724321497 0.5000846171 0.5204221361
0.1824999841 0.5010232163 0.7692413942
0.1723802328 0.2502043885 0.5217541184
0.1624497388 0.2493093997 0.7770519468
0.1725194143 0.2479620347 0.0216517571
0.1824882016 0.4992683873 0.2664857464
0.1626047532 -7.4553080919e-04 0.7743226258
0.1624563665 0.24957692 0.277210643
0.1822786928 0.251127366 0.7692837378
0.1825036662 -0.0018773109 0.268019321
0.1924238503 -0.0029061835 0.0088483423
0.2023907966 0.2498470439 0.2571268911
0.2025701125 0.4996426554 0.753112166
0.1924220093 0.5003254505 0.0115666171
0.2024677515 0.4998483401 0.2545181573
0.192428637 0.5009164686 0.5104235242
0.1923292216 0.2508982489 0.5143752864
0.2023815914 0.2516500395 0.7608923416
0.192496755 0.2507218547 0.01369291
0.2025487566 -0.0029756151 0.2567411961
0.2124689408 0.2488563726 0.4979165145
0.2224476696 0.251883713 0.749105173
0.212397509 0.2523412963 0.0016835296
0.2223795516 -6.2960534775e-04 0.7493573936
0.2225143147 0.2505213772 0.2466983996
0.232632225 0.2497754447 0.4963378348
0.2325250773 0.249149278 0.9950607153
0.2325077717 -7.6264950451e-04 0.4940549626
0.222536407 0.5002128446 0.746546147
0.2124954515 0.5000416577 1.031468719e-04
0.2125252762 0.4995541328 0.5044125746
0.2425873887 0.5017899776 0.7452270519
0.262512076 0.2516220508 0.7404919332
0.2625724617 0.0021908136 0.2389697727
0.2625731981 0.0021740855 0.7362106274
0.2524041072 0.2489071429 0.4945170601
0.2425921754 0.2515458954 0.7413102692
0.252561699 0.2513655958 0.9890681759
0.2624167109 0.2523562671 0.2431176042
0.2424647764 8.319927638e-04 0.2442157761
0.262580194 0.5035493629 0.239806519
0.2525701677 -0.0010480696 0.4913486545
0.2424791364 5.8666819099e-04 0.7440736491
0.2526180344 -4.2899767108e-04 0.9924372533
0.2424029179 0.2515836476 0.244592266
0.2725066376 0.2527188189 0.4843711662
0.2724569299 0.2507205529 0.9877426372
0.2726034756 6.2520152797e-04 0.4830244557
0.2725059012 4.6429881002e-04 0.9859476369
0.2823999428 0.2526250892 0.7347580579
0.2725154746 0.5027331331 0.4846924252
0.282480948 0.2517535328 0.2317980562
0.3126387939 6.0053238149e-04 0.4712271615
0.2925572511 0.5008910834 0.4744968236
0.2925340542 0.2517925868 0.4781843985
0.3025499717 0.2489670257 0.7234872971
0.2925252173 0.2498815416 0.9807835591
0.2924788234 0.0036981701 0.4760773443
0.3024744897 -9.5687835175e-04 0.7224848585
0.3125253867 0.4994688648 0.4733609106
0.3025797963 0.2507016768 0.2250967218
0.3124366492 0.2472258657 0.4749994237
0.3125121313 0.2489501023 0.9730052245
0.3224334201 -9.5831033387e-04 0.2179627463
0.3325450709 1.3461747245e-04 0.4680946559
0.3224952785 -4.4234114081e-04 0.7202866735
0.3325726863 9.4616079264e-04 0.9672428134
0.3224628765 0.2495150844 0.2216217853
0.3225549278 0.4998125405 0.7216527147
0.3225744426 0.4980570606 0.2194236003
0.3324508104 0.2491271474 0.4697994459
0.3225744426 0.2484202689 0.7209411582
0.3324960996 0.2488902194 0.9681449161
0.3624437004 0.2498620146 0.2129505532
0.352408268 0.5020366691 0.4659480196
0.3523692382 0.2513818683 0.465796135
0.3423150274 0.2475363454 0.7166064627
0.3624952491 0.4989852454 0.7108182771
0.3525647552 0.2480954694 0.964306377
0.3625762542 0.5003378176 0.2147510765
0.3424766694 3.4069271721e-04 0.2158704203
0.3424737238 0.2521362625 0.2163877486
0.362417926 0.2487541811 0.7108817925
0.3426106961 0.4992013445 0.7158792574
0.3426070141 0.5011586037 0.2159965306
0.3824556523 0.2504074696 0.2070767599
0.3925628847 0.2514326386 0.4517638353
0.3925923411 0.2495287533 0.9528275803
0.3924597873 -0.0016647331 0.9561138116
0.3825661139 0.5000839662 0.7026082219
0.3925260642 0.4987431102 0.9538953753
0.372429425 0.2500911317 0.4593350545
0.3825108831 0.2529583505 0.7043065684
0.3725803892 0.2526569833 0.9615724535
0.3924192847 0.4999609459 0.4531703791
0.3725214763 6.6262833332e-04 0.4582552927
0.4124275546 0.5009177704 0.9431069633
0.4024933786 0.2492312915 0.7006521319
0.4025338812 -0.0031540336 0.7006097883
0.402592794 0.2530891815 0.1989311406
0.4126042931 0.2488830595 0.4434589673
0.4125490623 0.2532961681 0.9458869125
0.4126300674 -0.0025310042 0.4476132423
0.4125932469 9.7948692192e-04 0.9469086819
0.4425393748 -0.0036626411 0.6879002657
0.4425467389 0.2485419874 0.1894894391
0.4225826537 0.5013402051 0.689341789
0.4325610142 0.4998385766 0.938964655
0.4325205117 0.4993816441 0.4401211873
0.4425320107 0.4996341937 0.6933138025
0.4426756107 0.4985589053 0.1871485746
0.4326199271 0.2491063186 0.4396425205
0.4226636588 0.2511553548 0.6937528872
0.4325241937 0.247729663 0.9389738601
0.4225458331 -0.0035006058 0.1924175909
0.4326272912 -0.0027509502 0.9413856041
0.4225679254 0.2485569581 0.1956357042
0.4426645646 0.2470995909 0.6870975784
0.4725370515 0.2510453525 0.4380813305
0.462639696 0.2508617985 0.6856477705
0.4724928668 0.2509177759 0.9382650651
0.4724707745 6.2497645794e-05 0.938541219
0.4625402806 0.2507016768 0.1875545208
0.4525729662 0.4996758513 0.9375930906
0.4525987405 0.5002095901 0.4386189101
0.4625402806 0.501932525 0.68930773
0.4725186412 0.5001946194 0.9380257317
0.4625402806 0.4998353221 0.1911224291
0.4526134688 0.2464167958 0.4388941435
0.4525913764 0.2498118952 0.9382926805
0.4526134688 -0.0024347295 0.4343946761
0.4823791761 0.2500735574 0.6890150069
0.4824712274 -0.0012580502 0.6915095971
0.4924017213 0.4998112387 0.9394249114
0.4923685829 0.5007530924 0.4400751616
0.4825669608 0.2496485191 0.1879402158
0.4924311777 0.2502056903 0.4402693898
0.4924274957 0.25197549 0.9387897575
0.4824601813 0.5008194843 0.190653888
0.5022143896 0.2505662894 0.6873488784
0.5123142579 0.2496433118 0.4396010974
0.5123842169 0.2478604941 0.9374366034
0.5022364819 -5.2468011258e-04 0.6926611588
0.5023800819 0.2506671791 0.1867518335
0.5223552133 0.2500748592 0.1874928465
0.5223662595 0.2498587601 0.6887765941
0.5124394476 0.4996101103 0.4393451948
0.522399398 0.5014371893 0.6876563298
0.5423782114 0.497877412 0.6937123846
0.5522645207 0.4975389435 0.9467890152
0.5424003038 0.5001204167 0.1959072555
0.5522792489 0.4985432836 0.4458587446
0.5321752457 -0.001080875 0.4410518259
0.5321862919 0.2480499063 0.4410849643
0.5323630303 0.2484938207 0.939323655
0.5322893893 0.4982204368 0.9456199637
0.5524412592 -0.0012113155 0.9442023737
0.5421830627 0.2499661587 0.1933381038
0.5524118028 0.2470703003 0.4434175442
0.5423524371 0.2481885482 0.6940805898
0.5523639361 0.2444068136 0.9425638607
0.5725747189 0.2469629017 0.4459857754
0.572442165 0.2477706698 0.9463379638
0.562430666 0.4969511799 0.6988985547
0.5624638044 0.4985152949 0.1976129661
0.5725489445 0.4983167701 0.9485564001
0.5725342163 0.4995866779 0.4447559701
0.5624417121 0.2481911518 0.1948965323
0.5625263993 0.2490893951 0.6946697181
0.6024987545 0.4997507049 0.7036364349
0.5926529478 0.498896072 0.9524593751
0.5926603119 0.4996745495 0.4531639355
0.5825383513 0.2497572195 0.7014115551
0.6027307238 0.2507641633 0.2005079793
0.5925498503 0.2486083793 0.4521458482
0.6025760776 0.2500813682 0.7076609176
0.5925424862 0.2493569154 0.952026734
0.5827150898 0.5009997839 0.6960642952
0.5825899 0.4988179639 0.196932707
0.582593582 0.2479828635 0.1970624993
0.6125139356 0.4987092634 0.9559757346
0.6124550228 0.5007908447 0.457207749
0.622551209 0.4987606846 0.7119293363
0.6126722638 3.8739760659e-05 0.4587772236
0.6224149731 0.4986871328 0.2102138681
0.612473433 0.2479060572 0.4571654054
0.6125470741 0.2480108522 0.9547698626
0.6225438449 -0.0013747568 0.7113227182
0.6226285321 0.2491850776 0.211198817
0.6225659372 0.2485992667 0.7110382797
0.6425152943 4.9414536445e-05 0.2160204639
0.6525930703 0.0023733262 0.4656847529
0.6324743388 0.4997754392 0.4617560036
0.6426147097 0.2495612983 0.2139060456
0.6526262087 0.2480141067 0.4657574734
0.6426331199 0.2498047353 0.7120692542
0.6325737542 -8.2572180779e-04 0.4641456552
0.6525083831 0.2493601699 0.9661934286
0.6425962994 0.4979594255 0.7170059653
0.6525304754 0.5004439145 0.4710587076
0.6325295696 0.2481553522 0.4638805475
0.6324927491 0.2488231766 0.962603428
0.6825391982 0.5016500339 0.7313889804
0.6625382924 -2.4173346413e-04 0.218369613
0.6824471469 0.5012523335 0.2293936763
0.662578795 -2.8007153083e-04 0.7193477503
0.6725976581 0.4993543062 0.4756990135
0.6625972052 0.2487899807 0.2193545619
0.6626045693 0.248899332 0.718726404
0.6725645196 4.7972516283e-04 0.9759140455
0.6625972052 0.4998841396 0.7225437713
0.6626450719 0.5018257772 0.2224207906
0.6825539264 0.248656546 0.227984371
0.6723546427 0.2490262577 0.4698776895
0.6824913315 0.2471366922 0.7272282618
0.6725092889 0.2497168637 0.9710813524
0.7025106476 0.2507524471 0.2326246768
0.6926353844 0.2495944943 0.4804819989
0.7025916527 0.2480837531 0.7337086731
0.6925065126 0.2501627308 0.9791082255
0.6925875177 0.5012302028 0.9800195334
0.6926722049 0.4997865045 0.479319391
0.7325414627 0.4995411148 0.998659921
0.7325561909 0.5002336734 0.4962531476
0.7125111004 0.249891956 0.4879151411
0.7125147825 0.2504849268 0.9871903294
0.7224526405 -0.0020744558 0.2437822145
0.7323426319 -0.0029169169 0.4967410195
0.7324310011 -0.0016155901 0.9961008949
0.7125221466 0.5006977658 0.9904489453
0.7224415944 0.2488459582 0.243957112
0.7325819652 0.2519774427 0.495466109
0.7225115533 0.249077028 0.7438011773
0.7326040575 0.2518049539 0.995465741
0.7124705979 0.499730527 0.4872284384
0.712547921 -1.3531115674e-04 0.4889617644
0.7124926902 -0.0019093482 0.9902188171
0.7525865531 0.5018700385 0.0030689936
0.7424682745 -7.0836436423e-04 0.2488597641
0.7424204078 -0.0011354856 0.7471463214
0.742505095 0.2509197286 0.2470334663
0.7425161412 0.2493491046 0.751301517
0.7624654983 0.0025723718 0.2504237156
0.7524466351 -0.0013618689 0.4988913378
0.7624286777 0.0011787928 0.7515344067
0.7525313223 5.2261953627e-04 -8.2456450861e-04
0.7624802265 0.2517834742 0.253288352
0.752439271 0.2511110935 0.5024675307
0.76245077 0.25095683 0.7523739146
0.7524503172 0.251870044 0.0020852414
0.7825437271 0.0014429284 0.2624179996
0.7825621374 0.0034161347 0.7621801392
0.7725506383 3.1686974198e-04 0.0045909698
0.7825658194 0.2495684582 0.2627208484
0.7724843614 0.2520340711 0.5090317086
0.7825989579 0.2491024131 0.7661319014
0.7725432742 0.2535825645 0.0114653606
0.7926472775 0.0010877318 0.5173402587
0.7927061903 -1.1760665056e-04 0.0200609266
0.812556132 0.5008715564 0.0261133915
0.7925331339 0.2495541384 0.5192448
0.7923895339 0.2500403614 0.0186227172
0.802548315 4.558370975e-04 0.2737522758
0.8125782243 -0.0012590917 0.5281581271
0.8027176894 2.9838415464e-04 0.7716549792
0.8125819063 0.0010523227 0.0256606832
0.8025814534 0.2491564379 0.2728556962
0.8125487679 0.2512184922 0.5242744829
0.8026477304 0.2513629922 0.7780433392
0.8126481833 0.2511117444 0.0245360004
0.8325938583 0.0024278067 0.5272146013
0.8227627798 3.3988183632e-05 0.7791433522
0.8325533557 -3.2563459821e-04 0.0281952236
0.8226633644 0.2507205529 0.2794226357
0.8325680839 0.2508481295 0.5274318424
0.8226118157 0.2507941048 0.7757199645
0.8325165352 0.2522078616 0.0281010551
0.8226854567 -0.0011464207 0.2738931143
0.8425280343 0.0030716128 0.7781031726
0.8426090394 0.2515061904 0.2787027945
0.8426274497 0.2537719767 0.7813461398
0.862455299 0.0025124889 0.2853047135
0.8424323009 0.5040199643 0.7798190088
0.8526058102 0.0030085405 0.5331012817
0.8626246734 0.0018908134 0.7849554711
0.8526720872 0.0029411722 0.030532406
0.862735135 0.2503645101 0.2846806058
0.8425759009 0.0023237276 0.2830393311
0.8525616256 0.2529752739 0.5318631918
0.8626872683 0.2518544224 0.7857655225
0.8524511641 0.2508273007 0.0300894552
0.8726435366 0.0025572058 0.5389143211
0.8926554885 3.7698319118e-05 0.5467662968
0.8726803571 0.0012233795 0.0401248876
0.8826476715 0.2519143053 0.2904034349
0.8926370782 0.0025322112 0.0441360228
0.8725293929 0.251712526 0.5357044924
0.8925892116 0.2520893977 0.5426230679
0.8827102664 0.2509444629 0.790693949
0.8725625314 0.2513226363 0.0371596391
0.8926444423 0.2496374537 0.0411514436
0.9026117568 4.6553552184e-04 0.2968184898
0.9126158917 0.0014150048 0.5498822332
0.902626485 0.0016827854 0.7955358472
0.9026817158 0.2515328773 0.2944398843
0.9126158917 0.2499056249 0.5505109435
0.9027038081 0.2520991612 0.7952477266
0.9025786183 0.501564115 0.7932631007
0.9126674404 0.2519839517 0.0452751576
0.9225242933 0.0018233149 0.3035824191
0.9225979344 0.0034400878 0.8020273046
0.9225611138 0.2526348527 0.3024179702
0.9225868882 0.2517880305 0.8013185097
0.9424515581 -4.8015848674e-04 0.3069689863
0.9324069206 0.0022521936 0.5540024492
0.9424515581 6.7590671296e-04 0.8067587413
0.9325357924 0.0031395018 0.0570221918
0.9425693837 0.2503580011 0.3019549521
0.9325210642 0.2527728437 0.5543513236
0.9424810145 0.2522150216 0.8038802972
0.9325505206 0.2515400373 0.0558918019
0.9525182879 0.0012998604 0.5547149263
0.952452011 0.0015348356 0.0584326939
0.9625261049 0.2521017648 0.3071733402
0.9525661546 0.2494994627 0.5597667014
0.9726001988 0.2521095756 0.5572444959
0.9626255203 0.249622483 0.8052537026
0.9524262366 0.253565641 0.0539156447
0.9725817886 0.2524428369 0.0630436354
0.9624450998 0.0027954355 0.3095731175
0.982405503 0.5013362997 0.8090287263
0.9824386415 0.5009568244 0.3075369428
0.9824901902 -2.806573417e-04 0.3097443329
0.9923764995 9.6301912757e-04 0.5594030988
0.9826043338 0.2531640352 0.3080542711
0.9923838636 -7.6779162212e-04 0.0589454196
0.9924243661 0.2509620372 0.5603475451
0.9825049184 0.2516116364 0.8086135749
0.9924722328 0.2493556136 0.0585660762
0.0124035474 0.7485855866 0.0583305169
0.0023411624 0.4991557815 0.8107371984
0.0123641495 0.4979490111 0.0596177622
0.0224075351 0.7483056992 0.3066937529
0.0024642903 0.7462163071 0.3084372045
0.0125288477 0.7489305641 0.5597823502
0.0223398222 0.7507010148 0.8075881235
0.0224512411 0.4984476012 0.3057953322
0.0022246255 0.7469453162 0.808401857
0.0123558649 0.9993516915 0.055970874
0.0523122031 0.9985250473 0.5526713875
0.0523700113 0.9985185383 0.0500860346
0.0324081353 0.7496140102 0.0575134696
0.0423577759 0.499060099 0.8034826356
0.0424214754 0.7491518705 0.3049493808
0.0323521681 0.7494317579 0.555159534
0.0424041697 0.7524454293 0.8050125282
0.0523696431 0.7497506994 0.0529306958
0.0524480708 0.7492299786 0.5515686129
0.0524377611 0.4974621371 0.5501639101
0.0422509964 0.9986487184 0.3060917374
0.0323024604 0.9993972546 0.557782996
0.0322858912 0.9997943041 0.0555200067
0.0722902802 0.9986357004 0.5480071483
0.0623056601 0.9987072995 0.8020788534
0.0723300464 1.0011807232 0.0504035195
0.0725506013 0.7490477263 0.04727129
0.0624308499 0.7503560372 0.2977288771
0.0725001571 0.7485725686 0.545609212
0.0624735617 0.7490216903 0.7969276628
0.0624415278 0.9989611509 0.301236952
0.0823846254 0.9980889436 0.2936546867
0.1026020359 0.9994297996 0.7883429588
0.0823422818 0.9981735607 0.7931323878
0.0925220506 0.9985250473 0.0402749312
0.0925548209 0.7471405865 0.0379962013
0.0925802271 0.4963048352 0.0374670905
0.1023649117 0.748852456 0.2877339473
0.0824726264 0.747466037 0.2916857094
0.0923994383 0.7479346857 0.5397750008
0.1025088799 0.7475636721 0.7874123202
0.0823886757 0.7474465099 0.7925349749
0.092432945 0.4979106079 0.5396719033
0.11255094 0.9973599345 0.034980969
0.1125321616 0.7485595506 0.0329276728
0.1224784883 0.4965599884 0.7834642401
0.1225808493 0.7482145731 0.28373708
0.112532898 0.7487548209 0.5349754462
0.122571276 0.7482796632 0.7830500093
0.1125826057 0.9991043491 0.533896605
0.1225804811 0.9968782678 0.7830131888
0.1525336049 0.9993386735 0.5300875223
0.1325260715 0.9986812635 0.5281765374
0.1425500895 0.9985055202 0.778489788
0.1525608521 0.9993842365 0.025990595
0.1325938212 0.9998528852 0.0328281654
0.1524478131 0.7496986273 0.0278743328
0.1325558961 0.7501347309 0.0316140088
0.1426023746 0.7459950008 0.2806239051
0.1523966326 0.750837704 0.5302025864
0.1325444817 0.7497767354 0.5299761402
0.1424425736 0.4968509411 0.2806855795
0.1425486167 0.748852456 0.7817622116
0.1724814892 0.7476808343 0.0219488987
0.1623963491 0.4984521575 0.7755653183
0.1723725004 0.4992657837 0.0217762105
0.1624685173 0.7480713749 0.2743947938
0.1824557995 0.999670633 0.7671904913
0.1724984266 0.7481104289 0.5194997821
0.1625690373 0.4984137544 0.2744951298
0.1623856711 0.7476743253 0.7764085082
0.1824690549 0.7465417576 0.2680708697
0.1823177226 0.7506229066 0.7678744325
0.1624696219 1.000367097 0.2724377833
0.1724450369 0.9999114663 0.519991336
0.1725061589 1.0005493493 0.0206094603
0.1924569888 0.9989286059 0.5136655709
0.2024423453 0.9998138312 0.7565106999
0.1925019098 0.7493927038 0.0137921413
0.2024699607 0.7513388977 0.2570477269
0.1924069129 0.7510980643 0.515158643
0.2023996335 0.7478240325 0.7588129028
0.2325070353 0.751514641 0.9943703306
0.2325552702 0.500913865 0.9937167664
0.2324282394 0.7491453615 0.4921596264
0.2325412784 0.5003898897 0.4958987501
0.2225213106 0.9998984483 0.2471255176
0.21244243 0.9985836284 0.5027961538
0.2126014946 0.999677142 2.5672525567e-04
0.2124380115 0.7488850011 0.0021170912
0.2324138794 1.0007706556 0.9951159461
0.2225367752 0.7504797084 0.2462491893
0.2124475849 0.7464636495 0.5030741487
0.2225485578 0.4988641778 0.2430881478
0.2226858983 0.7499980417 0.7436364055
0.2524991041 0.7506814877 0.9892062528
0.2524261995 0.5019598628 0.9931092278
0.2423885579 0.751508132 0.243921212
0.2525488118 0.7512152265 0.4922433931
0.2424673538 0.5011267096 0.2418104758
0.2424953374 0.7494512849 0.7391663945
0.2525307698 0.5028581061 0.4927496752
0.2625117078 0.5018355407 0.7349541272
0.2626461027 0.7509483571 0.2415803475
0.2624870381 0.7516578392 0.7393191996
0.2825512752 0.5019182051 0.7304721495
0.2824268218 0.7503625463 0.2272534837
0.2826175521 0.5002401825 0.231711528
0.2824205623 0.7514625689 0.7306350803
0.2725961115 0.7498938976 0.9842262776
0.2724425699 0.5024337187 0.9865275601
0.2725438264 0.7513388977 0.4837995276
0.2825818362 1.0015972998 0.2308333586
0.2824927305 1.0029772098 0.7310088086
0.3127422595 1.0013759935 0.9710169165
0.2925274265 0.749496848 0.9760981481
0.3025613861 0.4993282702 0.7291502929
0.2924707229 0.4989800382 0.9763374815
0.3024774353 0.7512022085 0.2230375343
0.2924710911 0.7516252941 0.4744434338
0.3025834784 0.49949425 0.22518325
0.3025135194 0.7502518931 0.7252261461
0.3025750097 1.0029837189 0.2223554342
0.3124815702 0.7499589877 0.9720939167
0.312674878 0.499159036 0.9709985063
0.3124252348 0.7492755417 0.4711415538
0.292603645 1.0008617817 0.976162584
0.3324762165 0.7460926359 0.9667273261
0.3325016227 0.4979906687 0.9720847116
0.3224069093 0.7486181317 0.2206819416
0.332521874 0.7498873886 0.4664533812
0.322544618 0.7497506994 0.7197536965
0.3323918976 0.5005233244 0.4715162026
0.3524465613 1.0007120745 0.4658725376
0.3423956643 1.0008292367 0.7176567679
0.3625136593 0.7506424337 0.2130766634
0.3523964854 1.000367097 0.9623272741
0.3624547465 0.7490932894 0.7122736081
0.3624437004 1.0021700927 0.2128704685
0.3525109972 0.7482991902 0.959906325
0.3623332388 0.9999895744 0.71421497
0.3524160003 0.4992540675 0.9643247872
0.3425208541 0.7482991902 0.2172723615
0.3524358834 0.7494252489 0.464416286
0.3423853546 0.7492169606 0.716632237
0.3924561052 1.0013564665 0.4568413848
0.372499384 0.7504406544 0.9566661193
0.3723962866 0.5014801488 0.9624285305
0.3823709651 0.749490339 0.2056831033
0.3725104302 0.7477979965 0.4540430254
0.3824593344 0.4986604458 0.2047055185
0.3825882062 0.7516968932 0.7059542866
0.3825440215 0.9999049573 0.2054051083
0.3825292933 1.0000676825 0.7053964557
0.3724883379 1.0015712638 0.9627967357
0.3724183789 0.5012562389 0.4611604317
0.3924929257 0.7482471181 0.9491455284
0.3924156026 0.748852456 0.4493410452
0.4125232879 0.7495879741 0.9434107326
0.4125527443 0.7473098207 0.4431377083
0.4125748367 0.4984801463 0.4473729884
0.4024307837 1.0013109034 0.1981717174
0.4026038402 0.4986513332 0.697998293
0.4025670197 0.7523543032 0.2000753383
0.4024860145 0.4991557815 0.1973717917
0.4024344658 0.7492690326 0.7017061192
0.4324284604 0.7459429287 0.9416985785
0.4226194742 0.7478891226 0.1913396702
0.4325941527 0.7489370732 0.4380049279
0.422534787 0.5000312432 0.1910340599
0.4225936998 0.7504536724 0.6948179207
0.4425356928 0.7497897534 0.1881123517
0.4425651492 0.7489696182 0.6880714811
0.4325904707 1.0000807006 0.4391233512
0.422464828 0.9999700474 0.689305889
0.442550421 0.9985315563 0.1843677049
0.4526245149 1.0007446195 0.936414834
0.4624482293 1.0006860385 0.1904495341
0.4725554617 1.001044034 0.4353630557
0.4625734191 1.0011026151 0.6885851274
0.4524698687 0.7515016229 0.9413671938
0.452558238 0.746815136 0.4391012589
0.4726143745 0.7499915327 0.9383018856
0.4625844652 0.7501021859 0.1901917905
0.4726180566 0.7510850463 0.4445599008
0.4625991934 0.7510915553 0.6855833346
0.4726364669 0.4986936418 0.4404765053
0.48236813 0.9980563986 0.1911049394
0.4923906752 1.0012718493 0.4411862208
0.4922507572 1.000367097 0.9396550397
0.4825375044 0.4986747656 0.6882482196
0.4924311777 0.7490021632 0.4428726005
0.4823902223 0.751560204 0.192035578
0.4924017213 0.7505968706 0.9416341426
0.4825264582 0.7505122535 0.6919229074
0.5122295707 0.9987007905 0.4387081998
0.5123437143 0.9975096418 0.9385688344
0.5022990768 0.9993321645 0.1901595725
0.5223588954 0.7482666452 0.6924752152
0.5222815723 1.0002499348 0.1877837286
0.5222852544 1.0001783357 0.6884636196
0.502243846 0.7504211273 0.1876833927
0.5024353127 0.499145367 0.1899644238
0.5023027588 0.7475831991 0.6897422122
0.5024132204 0.4974439119 0.693849541
0.5122700733 0.7479021406 0.9394157063
0.5123326681 0.4979327385 0.9382742702
0.5124725861 0.7519702716 0.4375382279
0.5223257569 0.4977185921 0.1922546601
0.5224583108 0.7478305415 0.188807339
0.5323114816 0.7476873433 0.4427529338
0.532337256 0.49839618 0.4426691672
0.5322967534 0.9985510833 0.9429596812
0.5423524371 0.9982061058 0.1945292476
0.552426531 1.0006469844 0.44613766
0.5524780797 0.7476287622 0.9451320918
0.5422272473 0.9982321418 0.6908210534
0.5424481704 0.7507856319 0.1938002013
0.5524780797 0.7484944605 0.4482585219
0.5423634832 0.7510525013 0.6966571056
0.5323924868 0.7476873433 0.9432358351
0.5624417121 0.9960190786 0.1971250942
0.5624895788 0.9968457228 0.6954309823
0.5625190352 0.7498288075 0.1973570635
0.562644225 0.7502388751 0.7000537984
0.5724900317 0.9998268492 0.4445479341
0.572655724 1.0011416691 0.9471848358
0.572512124 0.7483056992 0.9501396824
0.5724458471 0.7480388298 0.4486874809
0.6025723955 1.0005168042 0.2070178471
0.5926455837 0.7502453841 0.9535639906
0.5926419016 1.0019357683 0.4545373409
0.6026681289 1.0008552727 0.7034431272
0.5926824042 1.00107007 0.9509405287
0.6026349904 0.7490477263 0.2052302109
0.602531893 0.4978038602 0.2037334568
0.592601399 0.7507140328 0.4531703791
0.6027233597 0.7506749787 0.7089551589
0.5826709051 0.9983948671 0.1973184019
0.5825530795 0.9975617138 0.6948547412
0.5824978487 0.7498353165 0.2031544541
0.5825530795 0.7513193707 0.7028530784
0.6125028894 0.750837704 0.958488735
0.6126464895 0.7490086723 0.4597842648
0.6125507561 0.9996511059 0.9600628122
0.6226138039 0.9981345067 0.2081758524
0.6225033423 0.7506033796 0.2137495584
0.622547527 0.7487222758 0.7143825033
0.6424895199 0.9999765564 0.7123454081
0.652570978 1.0027493945 0.9692495316
0.6325884824 1.0008682907 0.9648494796
0.6326142568 0.7497767354 0.9656687362
0.6323307388 0.499204599 0.96239171
0.6325663901 0.7485270055 0.4655936221
0.6525893882 0.7487938749 0.9689089418
0.652570978 0.5001750924 0.9664695825
0.6426110276 0.7510069382 0.2168710179
0.6425005661 0.4976287678 0.2147934201
0.6524973369 0.7495879741 0.469449651
0.6425116122 0.750167276 0.7172222858
0.6725534735 0.7494708119 0.9733734297
0.6726087043 0.4987899751 0.974174276
0.6825097418 1.0009268718 0.2262390784
0.672590294 1.0007120745 0.4748935647
0.6823955982 1.0014736286 0.7251432999
0.6825797007 0.7484293704 0.2308683381
0.6725019248 0.7490281993 0.4755857904
0.6826975264 0.7486636947 0.7304528187
0.6627481693 0.7509613751 0.2248362166
0.6626082514 0.7491128164 0.7216959789
0.7025069655 1.0008162187 0.2340708027
0.7025216937 0.500473205 0.7376972558
0.692396051 0.7505643256 0.9827350466
0.6924954664 0.9999244843 0.4793755423
0.7025621963 1.0001262636 0.736470212
0.6924475998 1.0000611735 0.9768161482
0.7025032834 0.7491713975 0.2330048487
0.7024811911 0.4999238446 0.2353355875
0.6924512818 0.7467630639 0.4849105868
0.7026689758 0.7481104289 0.7343622373
0.7225925585 0.4987997386 0.7427287797
0.7324567755 0.7513258797 0.9959259975
0.7224010918 0.7488915101 0.2441541018
0.7226183328 0.4991668468 0.2427972657
0.7324862319 0.7480258118 0.4958389168
0.7224563226 0.7489566002 0.7423375617
0.7225962405 0.9992540563 0.7415081795
0.7125626492 0.7475116 0.9907987402
0.7124632338 0.7502779291 0.4918853136
0.7425603258 0.5002213063 0.7472834779
0.7425640079 0.7505513075 0.2515393773
0.7424609104 0.5007498379 0.2492150821
0.7425235053 0.7506033796 0.7469189547
0.7526233736 0.5001041442 0.5006016509
0.7525534146 0.752907569 9.0867228897e-05
0.7626201444 0.5005044482 0.7532456404
0.762517047 0.7501152039 0.2500140873
0.7625943701 0.5042542887 0.2534273494
0.7526012813 0.7519963077 0.4995706763
0.762587006 0.7503625463 0.750345104
0.7827131015 0.7516122761 0.2618113815
0.7826431425 0.5032024327 0.2624677073
0.772668464 0.7515927491 0.5041327386
0.7826505066 0.7492755417 0.7625483444
0.7726500537 1.0009984709 0.5058568594
0.7726132332 0.5014202659 0.5073158725
0.772528546 0.7525625915 0.0070082368
0.782676281 0.5012080722 0.7637219985
0.7725395922 0.5007882411 0.0066023827
0.7926509595 0.7518400914 0.5192889846
0.8124677627 0.4981286597 0.5296677684
0.8126408192 0.7496856093 0.0263784992
0.8026072278 0.5003566937 0.7748961054
0.8024673098 0.7490281993 0.2734577116
0.8025409509 0.4987008017 0.2756061889
0.7926767339 0.5012809731 0.5190984385
0.7926435954 0.7487873659 0.0182496333
0.8126187269 0.7490347083 0.5271980321
0.79254418 0.5005858109 0.0200183069
0.8025372688 0.7506033796 0.7725957435
0.8324392121 0.5008852253 0.5242256957
0.8324833967 0.7502909472 0.0305944486
0.8226191798 0.4997096982 0.7771034955
0.8325091711 0.4997956171 0.0255944983
0.8224718977 0.7499915327 0.2754782376
0.8224645336 0.50094641 0.2763508839
0.8325975403 0.7527318258 0.5287702682
0.8223761643 0.7498353165 0.7760191312
0.8626173093 0.7545152944 0.7854488661
0.8625473503 0.5031581715 0.7800040319
0.8525137589 0.7505057445 0.034327773
0.8524732564 0.5019286196 0.0292389932
0.8625657606 0.7523608122 0.2862335111
0.8625178939 0.5031139102 0.2810455
0.8525800359 0.7520028167 0.5313937302
0.8424617573 0.751553695 0.278378774
0.8424433471 0.5026133674 0.2819080207
0.8426274497 0.7518270734 0.7780488623
0.8524769384 0.5037335679 0.5329355894
0.8724852083 0.5004439145 0.5365209874
0.8824893433 0.7531549114 0.7927687852
0.8926738988 0.5016982006 0.5402960111
0.8726288083 0.7492625236 0.0356119807
0.8926076218 0.7497897534 0.0429957834
0.8825998048 0.5003456284 0.786649215
0.8725036186 0.5012210902 0.0399257806
0.8925413449 0.4996686914 0.0416285455
0.8826476715 0.7549839431 0.2921809454
0.8824525227 0.501294642 0.289633886
0.8725146647 0.7507726139 0.5384890442
0.8926702167 0.750896285 0.5437865963
0.8828096818 1.0027884486 0.2911168324
0.8826992202 1.0032180432 0.7936027699
0.9125569789 0.7504601814 0.5484848945
0.9125827533 1.0036736739 0.0508820942
0.9124612455 0.5007934483 0.5458862864
0.9025160234 0.7499915327 0.7975121885
0.9125275225 0.750831195 0.0490241308
0.9126527122 0.4999960946 0.047849188
0.9025417978 0.7507726139 0.2954966331
0.9024755209 0.5007993064 0.2918477197