POSCAR file written by Ovito 3.7.11
1
271.5939086303 0.0 0.0
0.0 15.3636715617 0.0
0.0 0.0 10.8637563452
Sr Ti O 
800 800 2400 
Direct
0.0125138126 0.2493990948 0.5415506409
0.0225480215 0.2504645954 0.7911687209
0.0026153948 0.2502816964 0.7877592188
0.0125787626 0.2516850068 1.0419944862
0.0224890364 0.0024085246 0.2914907248
0.0025377053 1.0011367217 0.2894279024
0.0125625251 8.0662885885e-04 0.5446849159
0.0225504148 7.9829751699e-04 0.7956432321
0.0025584716 6.8725635126e-04 0.7906007774
0.012609507 1.0020870154 1.0420681256
0.0224669814 0.2512970787 0.2914870429
0.0025533168 0.2518731128 0.2892631344
0.0325082964 0.2518809235 0.5397004521
0.0425313489 0.2513309247 0.785113725
0.0326592571 0.2493138288 1.0407057975
0.0424474 1.0023343521 0.2880121859
0.0324711085 -6.1926728271e-04 0.5417393418
0.0424367223 1.0006225217 0.7900448002
0.0324593263 0.0013210892 1.0418103879
0.0426337076 0.2506129974 0.2893726729
0.0726141296 0.2506976126 0.52461451
0.0524848122 0.2499224072 0.5362449255
0.0625167014 0.251552226 0.7807579572
0.0726156024 0.2509215174 1.0252415332
0.0526169948 0.2500226437 1.0327803621
0.0624839319 0.9996461926 0.2783000755
0.0724086758 1.0012799167 0.5260431134
0.0525426191 0.0012315924 0.5327166799
0.062559044 0.9992296255 0.7782928798
0.0723740653 0.0021951641 1.0297427387
0.0525065358 1.0007396812 1.0340966655
0.0626323152 0.250855127 0.2796771315
0.0925092739 0.2523267804 0.5238302509
0.1025286444 0.2490502199 0.7708792378
0.0825326142 0.2490476164 0.7732495046
0.092436371 0.250077969 1.0221026557
0.1024833562 0.9992556609 0.2763550761
0.0824663388 1.0008047698 0.2759528211
0.0925770221 -3.887885208e-04 0.5255865495
0.102466051 -9.4444996967e-04 0.7753795229
0.0825745887 1.0017420458 0.7749192769
0.0924393165 1.0028029901 1.0242842216
0.1025411631 0.2495474969 0.2707400754
0.0825550742 0.2523046503 0.2753084768
0.1124843169 0.2495898045 0.5227799696
0.1225714356 0.2485646589 0.7737355243
0.1124644343 0.2521992068 1.0222223197
0.1225246746 1.5079604183e-04 0.2741725897
0.1124821077 1.0014816913 0.5253104019
0.1225279884 1.0011627572 0.7759382615
0.1125944077 6.9109657915e-04 1.0262356645
0.122525411 0.2493151305 0.2718860878
0.1525161426 0.2502810455 0.5179427845
0.1324825563 0.2530909207 0.5225507671
0.1424065638 0.2512925225 0.7715806527
0.1525654809 0.248358328 1.0141680153
0.1324600963 0.2529021637 1.0213110327
0.1425785117 -4.3168191365e-04 0.2726464141
0.1525187199 1.0000302154 0.518512569
0.1325639278 -6.5200685268e-04 0.524268405
0.1425497924 1.7579006741e-04 0.7704116279
0.1525717403 1.0000627597 1.0133671873
0.1326158435 0.0026560566 1.027883345
0.1424179779 0.2508147721 0.2708118737
0.1724333787 0.2491777936 0.5084239775
0.1624221085 0.2484247184 0.7608210226
0.1724878718 0.2476430042 1.0084057359
0.1624604009 0.0024757611 0.2642055032
0.1723604757 4.8086217968e-05 0.5091244718
0.1625903744 1.0007787344 0.7661552733
0.1724477383 0.0017492421 1.0107529903
0.1624018577 0.2509208665 0.2623258587
0.19252514 0.2479157255 0.5069640773
0.2025121092 0.247592886 0.7525945862
0.1825705721 0.245964369 0.7564790622
0.19250268 0.2473859042 1.0065371373
0.2025949535 -0.0013916087 0.2587607934
0.1825256521 -8.6120163968e-04 0.2613004307
0.1925685872 -0.001494644 0.5097273941
0.2024119597 0.9973485647 0.7587637231
0.1825425892 1.0008047698 0.7581561984
0.1924982617 -8.3718213796e-05 1.0085990392
0.2024679256 0.2478812285 0.2569032407
0.1824641633 0.2482138313 0.2600632895
0.2125101243 0.24824963 0.505520746
0.2223737476 0.2502081462 0.749261485
0.2125550443 0.2492253083 1.0073471702
0.2224263997 0.9979603976 0.2522510745
0.2123624774 0.9993142407 0.5052188246
0.2222853804 0.9974787419 0.7529719879
0.2124243345 0.9997828787 1.0062793995
0.2224646922 0.2494941242 0.2477977346
0.2523490149 0.2484084462 0.4957221094
0.232411528 0.251289268 0.5007341879
0.2423977608 0.2479814649 0.7475042659
0.2523405463 0.2515125219 0.994257775
0.2323515119 0.24655277 0.9996058331
0.2423465814 0.9999651268 0.2491223225
0.2523412827 -0.0016252117 0.4961455357
0.2322285342 -7.1025935181e-05 0.5000778772
0.2424227981 0.9988065495 0.7497511867
0.2524992392 -0.0010621302 0.9955924883
0.2323194788 -0.0023621384 1.0044568255
0.2423263306 0.249643828 0.2471487878
0.2725578628 0.2489551905 0.4897748111
0.2624939405 0.2495553075 0.7423292603
0.2725103654 0.2499484427 0.9903640941
0.2623801677 0.9992491521 0.2425619765
0.272350568 -0.0020063641 0.492179136
0.2624232467 1.0007592078 0.74298373
0.2724363579 -0.0028261226 0.9907691106
0.2624110962 0.2472661411 0.241535628
0.2924703123 0.2489734153 0.489265779
0.3023446133 0.2493437695 0.7376494793
0.282524213 0.2489063741 0.7406981486
0.2924552163 0.2490651903 0.9896553153
0.3024443947 -8.5755667762e-04 0.2417602281
0.2825521959 0.9993402761 0.2378149997
0.2924220786 -0.0012854492 0.4871329992
0.302409416 -0.0024861453 0.7404671051
0.2824034444 1.0003882027 0.7385257876
0.2923469664 -0.001340384 0.9886243644
0.3024631727 0.2490079123 0.2402938844
0.2824491008 0.2494433551 0.2390374129
0.3326755587 0.2474379751 0.4799200245
0.3123908622 0.247678152 0.4899460226
0.3225744485 0.2470819404 0.735003065
0.3324682639 0.2502810455 0.9816470356
0.3124236317 0.2485568482 0.9855315115
0.3224846085 -2.8249882348e-04 0.2387032744
0.3325761456 -0.0016215017 0.4796917425
0.3124258409 -0.0017202411 0.4881409379
0.3226160547 -8.2885260137e-04 0.7358747709
0.3325466898 0.0012384918 0.9824386586
0.3123562517 0.9998479673 0.9900879465
0.3225214282 0.2477536548 0.2347009755
0.3526859486 0.250437909 0.4717810349
0.3425671649 0.2493750121 0.728906647
0.352746701 0.249341166 0.9727550836
0.3425517007 -6.0338566229e-04 0.2259793145
0.3525972131 6.772977942e-04 0.4729997662
0.3426698918 1.0004663091 0.7258533753
0.3525607617 1.1825173769e-04 0.9719910753
0.3425760016 0.2501300399 0.2287592001
0.3727084889 0.2497401591 0.4657536538
0.3826866214 0.2539208005 0.7174115438
0.3626530351 0.2496972007 0.7248399137
0.3727784463 0.2522499759 0.9649124924
0.3827528968 0.9976805166 0.2129175341
0.3626383073 0.9995095065 0.2181937938
0.3726458955 -0.0017962646 0.4676498671
0.3827418509 -5.5222601618e-04 0.714831405
0.3625978056 0.9990799217 0.720418791
0.3727821283 6.3023873041e-04 0.9689810667
0.3826350739 0.2485015229 0.2199132727
0.362671445 0.2506279678 0.2266402277
0.3927015736 0.2517227582 0.4645662192
0.4026207946 0.2487827057 0.7138216253
0.3926242522 0.2469784495 0.960853123
0.4025103355 1.0022822812 0.2103512026
0.3925653408 1.0007852432 0.4668573236
0.4025361093 -0.0016119336 0.7118186349
0.392532203 0.9979864331 0.9632371971
0.4025987027 0.2519700949 0.2125465758
0.43255151 0.2497551295 0.4570494821
0.4125547434 0.2462976227 0.4580233626
0.422635971 0.2523196207 0.7071609458
0.4325625559 0.2479964353 0.9529645072
0.4125252877 0.2502921105 0.9581560816
0.422518148 0.9996006306 0.2088379138
0.4324778707 1.0008698584 0.4560102467
0.4125952451 4.9088402009e-04 0.4621048238
0.4224702824 1.0007592078 0.7062570227
0.4325257362 0.999112466 0.9592698769
0.4125031959 3.4157255797e-05 0.962565238
0.4225439218 0.250335069 0.2070834562
0.4524599094 0.2488464926 0.4531392324
0.4424265474 0.2486766113 0.7019712123
0.4525519586 0.2481747781 0.9554590403
0.4424523212 1.0001083217 0.2078787612
0.45238627 -0.0025984426 0.4537062555
0.4426216917 -0.0027353305 0.7059817956
0.4524930471 1.0000822863 0.9503503101
0.4425701441 0.2511623452 0.203344418
0.4724088104 0.249695248 0.4524507045
0.4825599954 0.2504652462 0.7039999765
0.462541137 0.2493366098 0.7049038996
0.4724345842 0.2478304594 0.9562966879
0.4826115429 6.0322876325e-05 0.2005516455
0.4624490878 -8.5462769025e-04 0.2066416201
0.4725119055 1.0009805091 0.4522979028
0.4824569003 1.0007592078 0.7023587394
0.4626074124 -0.0034856069 0.7048790463
0.4725008596 -6.7921389094e-04 0.957428893
0.4825747232 0.2488588594 0.2031069311
0.4624417238 0.2490632376 0.2022812498
0.5124759829 9.8829116455e-04 0.4534144595
0.5125275305 3.7990794297e-04 0.9506356626
0.492519718 0.2477901044 0.453757803
0.5023837095 0.2480179146 0.702797814
0.4925454918 0.2503331164 0.9546766222
0.512354478 0.2495885027 0.4537467571
0.5125201666 0.2484702804 0.9521268595
0.5025383521 0.0011996339 0.2009944021
0.4925049901 -7.1696528374e-04 0.4509051985
0.5025641259 5.4223893202e-04 0.7015919696
0.4925049901 -0.0012748397 0.9539402286
0.5023579357 0.2487859601 0.2026540491
0.5225424827 0.9988390938 0.20557477
0.5325868905 -0.0021236928 0.4549949442
0.5224909351 0.9996071394 0.7037450002
0.5326126643 1.0025556534 0.9555326796
0.5225756204 0.2513790903 0.2035865074
0.5325721627 0.2491244209 0.4602076899
0.5225277548 0.2519141187 0.7030739616
0.5324653856 0.2495858991 0.9530105318
0.5425134755 -0.0026814762 0.2073770931
0.562521288 -0.0013601709 0.2092134745
0.5525578834 3.848546772e-04 0.4583409323
0.5425539771 0.9994964888 0.705707489
0.5625875634 0.9997958964 0.712151853
0.5525542014 -0.0017500517 0.9585979178
0.5424950656 0.2528442349 0.2072712366
0.5625102421 0.2489376166 0.2110185592
0.5526462506 0.2489096285 0.457629392
0.5425981607 0.249552704 0.7063048883
0.5626096552 0.2478617019 0.7117238242
0.5525762932 0.24850673 0.9564439667
0.5826321956 -1.301263915e-04 0.2105113682
0.5725951516 1.8015100417e-04 0.460767349
0.5824959628 0.9984941242 0.7096223412
0.5724699647 4.2820369031e-04 0.96176441
0.5824996447 0.2494296865 0.2102370616
0.5725399221 0.2499562533 0.4593276996
0.5824407332 0.2459962624 0.7142109934
0.5724110532 0.2495136508 0.9593066965
0.6023417687 1.0019373116 0.217311042
0.592499869 1.0003556584 0.4657269595
0.6124634979 -0.001821519 0.4706801266
0.6024485457 6.3186775089e-05 0.7148028697
0.5925477346 -6.0208389013e-04 0.967121673
0.6123861766 7.9016144095e-04 0.9735282968
0.6026031884 0.2506429381 0.2183300266
0.5925808723 0.2477119981 0.4646297331
0.6123677667 0.2493672014 0.4731056228
0.6024780015 0.2498189164 0.7222109887
0.5926066461 0.2498807505 0.9648296481
0.6125260914 0.250009626 0.9728011082
0.6223532632 -4.3727953396e-04 0.2227124886
0.6323718973 -1.3025656871e-04 0.4779216365
0.6222280763 -0.0019206554 0.728395774
0.6324381727 0.9991515192 0.9793366008
0.6222906697 0.2514174926 0.2249189078
0.6323277137 0.2502908088 0.476734202
0.622371673 0.2510087361 0.7235309742
0.6323829432 0.2488770842 0.9754521249
0.642316892 0.9995029977 0.2316320554
0.6624572554 -7.44172322e-04 0.2402478598
0.6525012147 -4.9637999028e-04 0.4864048901
0.6424457609 0.9996201571 0.7297001111
0.6624057078 1.0011041774 0.7368026268
0.6523392081 0.9994118736 0.9880536594
0.6423794855 0.2516505098 0.2315805078
0.6623652062 0.2496067275 0.2362022978
0.6523723458 0.2509898604 0.4825563134
0.6424604888 0.2521289111 0.7303647062
0.6624609373 0.2501658386 0.7387200114
0.6523171163 0.2488243624 0.9821901258
0.6826013007 1.0004728179 0.2422305994
0.6725679387 1.0004402736 0.486477609
0.6825387072 4.2325695609e-04 0.7420853299
0.6725495289 -3.1387153267e-04 0.990032717
0.6825276613 0.2507568432 0.2397517147
0.6724979813 0.247844128 0.4891341487
0.6825129335 0.2491289771 0.7397785771
0.6724869354 0.2491055452 0.9902536351
0.7024434246 0.0016339051 0.2389637736
0.6924616102 0.9998935293 0.4891138979
0.7126019735 1.0002515166 0.4921588852
0.7023918771 1.0019828736 0.7408445068
0.6925499774 1.001358023 0.9930427256
0.7125136063 -0.0018521301 0.9916711927
0.7024655164 0.250529684 0.2404779828
0.6924579282 0.2491797462 0.4901273595
0.7123552817 0.2514389718 0.4935018829
0.7024471066 0.247181526 0.7397261091
0.6925094758 0.2513309247 0.991744832
0.7123736915 0.251449386 0.9914134549
0.7223628699 6.7241614858e-04 0.2404181508
0.7424516857 1.0028290255 0.2443191956
0.7324072778 -5.0718289398e-05 0.494291665
0.7224401912 1.0022887901 0.7407948002
0.7423706824 0.0011635097 0.743161385
0.7324183237 0.9997893875 0.9926377092
0.7225064667 0.2514975516 0.2421532781
0.7423412267 0.2519622842 0.2449442096
0.7324183237 0.2527947675 0.4942253895
0.7223849617 0.2512801556 0.7436437227
0.7424259119 0.2529080217 0.7483069348
0.7323667762 0.2507919911 0.9947640455
0.7625110457 0.0018345082 0.2482368092
0.7522420378 0.0011447642 0.4963231906
0.7625257736 0.0033782147 0.7475613364
0.752337769 1.0011562483 0.9957857916
0.7624153146 0.251072523 0.249235543
0.7524077264 0.2532087311 0.4988950451
0.7623932228 0.250346785 0.7475033454
0.7524040444 0.2523729933 0.9971389147
0.7823973533 1.1454168702e-04 0.2569713571
0.7723271716 0.9997698609 0.5000318526
0.792353394 1.0020805065 0.5068066732
0.7824047172 6.3896060392e-04 0.7540204282
0.7724376307 0.9976870255 1.0002041528
0.7923754858 -2.2632735453e-04 1.0074116046
0.7823016222 0.2483511682 0.2540911379
0.772400811 0.2482288017 0.4997078394
0.7923239382 0.2507607485 0.5066253363
0.7822942582 0.2497245379 0.7529314863
0.7724449946 0.2493769647 1.0020819563
0.7923239382 0.2487189189 1.0048802518
0.8023904379 1.0009935268 0.2611595954
0.8123648885 -4.2797186298e-04 0.5139920332
0.8022394773 0.0019162595 0.7572126942
0.8123354327 1.0008112787 1.015005663
0.8023683461 0.2485952505 0.2604821133
0.812420118 0.249643828 0.5137195675
0.8023278445 0.2509000381 0.7624180761
0.8125710786 0.2509729374 1.0150885072
0.8225492111 1.0009219293 0.2636688564
0.8425386138 1.0005574331 0.2671971019
0.8324942059 3.1234596758e-04 0.5162407949
0.8224019324 -4.1671153375e-04 0.7646880092
0.8425349318 2.1438761212e-04 0.7678765932
0.8326230748 0.0013278584 1.0171780239
0.8223577488 0.251118085 0.2657712599
0.8426343449 0.2521074318 0.2697744793
0.8325457534 0.2494758994 0.5187684658
0.8224755718 0.2509306298 0.7631425032
0.8425312498 0.253129323 0.7721495167
0.8326083469 0.2509566652 1.0158433106
0.862583246 0.0020452 0.2721014829
0.8525830217 0.9987805141 0.5226538622
0.8626016558 1.0010000356 0.772576625
0.85254252 0.0017184552 1.021614795
0.8624801509 0.2524855966 0.2744432144
0.852660343 0.2508564288 0.5252708207
0.8625869279 0.2513387354 0.7774000027
0.8527339824 0.2494127634 1.0250666397
0.882642606 1.0004077293 0.2719247485
0.8726607916 4.1987234845e-04 0.5242555181
0.8924550499 -1.3390153078e-04 0.5231895885
0.8824732355 1.0012018103 0.7730967029
0.8725319227 0.0015326923 1.0253519922
0.8825616027 0.2510972566 0.2756628662
0.8925434172 0.001902005 1.0219369672
0.872605562 0.2491719356 0.5260164192
0.8926023286 0.2510562508 0.5226676696
0.8826094683 0.2508199792 0.7779642642
0.8725576965 0.2515704508 1.0259595169
0.8926317844 0.2504248913 1.0257938283
0.9025546873 2.6938748612e-04 0.276706704
0.9222973982 3.3246015281e-05 0.2825030417
0.9125549116 -3.4348684944e-04 0.5318836347
0.9024479103 1.0023603876 0.7771192526
0.922426267 0.9995485597 0.7816048098
0.9125696395 1.0015532888 1.0310866569
0.9026283267 0.2500662531 0.2768374139
0.9224152211 0.2523046503 0.2849920518
0.9125033641 0.2494459586 0.5338553284
0.9026209628 0.2518171366 0.7775960674
0.9225551359 0.2501040045 0.7879175434
0.9125217739 0.2499406321 1.0274046892
0.9423493943 0.9974396888 0.2893754344
0.9324043995 1.0013775496 0.5374783846
0.9425150828 0.9996071394 0.7872391408
0.9324154454 0.9989953065 1.0345108869
0.9424377615 0.2517754799 0.2895779426
0.9324780389 0.2509495055 0.5348328908
0.9424893091 0.251169505 0.7887947722
0.9325038126 0.2493743612 1.0372539528
0.9624860757 -6.2323768782e-04 0.2888185368
0.9524527137 0.9996136483 0.5366075993
0.9724936639 1.0004467825 0.5377490093
0.9624787117 1.0001213394 0.7875567106
0.9523901202 0.9990148331 1.0381376251
0.9625118494 0.2508622868 0.2894085721
0.9724163425 -9.4451505828e-04 1.0381376251
0.9525337169 0.2481474409 0.5415478794
0.9725120737 0.2501300399 0.5343984187
0.9625707609 0.2498618748 0.7902123298
0.9524416678 0.2503083827 1.0373552069
0.972482618 0.249512349 1.0398865597
0.9824681144 -0.0015722296 0.2880223113
0.9925861616 1.0013384964 0.5388913397
0.9825785734 1.00257518 0.7857847636
0.9824349767 0.2475115252 0.2875418145
0.9925272501 -3.3352829237e-04 1.0400522483
0.9924830665 0.2495045384 0.541771559
0.9825417537 0.2496874374 0.7878595524
0.9925162042 0.2501157204 1.0379811414
0.0123744502 0.7498035697 1.0410279697
0.0225695978 0.5018960312 0.7887699189
0.0025684865 0.4989462154 0.7908483897
0.012520477 0.5010524828 1.0411292238
0.022504427 0.75128759 0.2944289351
0.0025931925 0.7493739849 0.2907073862
0.0124664625 0.7517627368 0.5432250157
0.0225084035 0.7514893647 0.7920229374
0.0225630071 0.5014534286 0.2912670453
0.0025174912 0.5013408253 0.2905315723
0.0025995623 0.7504544558 0.7897456404
0.0125386291 0.501519819 0.5434864354
0.032582304 0.7500574153 1.041911642
0.042608302 0.4977498868 0.7879120204
0.03253002 0.5002466858 1.0385426415
0.0424518184 0.7489444001 0.2910783445
0.0324545397 0.7491136305 0.5401165145
0.0425490224 0.7504870001 0.788474441
0.0426642679 0.4992781673 0.2871653333
0.0324563807 0.4979034959 0.540633831
0.0724937293 0.7512810811 1.0284816648
0.062581504 0.4999837278 0.779354207
0.0524770801 0.7493870026 1.0334523212
0.0725670004 0.5010323053 1.0275703778
0.0526085263 0.5015601739 1.031187911
0.0624088197 0.751613033 0.2839077124
0.0724756876 0.7515414356 0.526034829
0.0524870214 0.751892914 0.535503009
0.0626035958 0.4994753858 0.2807854037
0.0724469683 0.5008956192 0.5299008951
0.062362427 0.7519645115 0.7812550228
0.0524969627 0.4987190562 0.535095231
0.0923969739 0.750070433 1.0244499101
0.10246421 0.5019110015 0.7739564424
0.0825108906 0.4997734916 0.774058617
0.0925129559 0.5000039053 1.0252323283
0.1025838739 0.7510142178 0.2758975916
0.0824114775 0.7530775267 0.2757263801
0.0924904959 0.7516520862 0.524612669
0.1026935966 0.7504870001 0.773081975
0.1025301172 0.5013876891 0.2736433069
0.0824788575 0.5013616537 0.2729032314
0.0824457198 0.7491982457 0.7760082189
0.0925928546 0.498571305 0.5262557471
0.1125852028 0.7506106685 1.022986328
0.1226126737 0.5016467418 0.7715714478
0.1126779884 0.4991909486 1.0221578852
0.1225968412 0.7504414381 0.2740575283
0.1125045677 0.7491657014 0.5221586375
0.1225968412 0.5024636038 0.2693786678
0.1227036183 0.7514568204 0.7735854841
0.1126201815 0.4978110701 0.5197810069
0.1527046593 0.7514307849 1.0134684415
0.1426337412 0.5012666243 0.7660586216
0.1325922789 0.7516520862 1.0222683443
0.1524811639 0.5005929572 1.0143521137
0.1325458861 0.5007680456 1.0228942788
0.1426462599 0.7494065292 0.2666006232
0.1526339655 0.7502396634 0.5142065078
0.1326165799 0.7514047495 0.521139653
0.1426620924 0.5026543134 0.265992178
0.1425601019 0.7495757596 0.7703269427
0.152644275 0.5016994636 0.5140942078
0.1326563452 0.5004588747 0.5192351552
0.1725515698 0.7500183621 1.0082860719
0.1626065751 0.5008637258 0.7622450236
0.1726277866 0.5001471003 1.0086450638
0.1625495046 0.7519514938 0.2595579394
0.1726804387 0.7476100836 0.5083623045
0.1626923649 0.5021726577 0.2647734467
0.1625182078 0.7493088963 0.7625948105
0.1725442059 0.4982165721 0.5100550892
0.1925207217 0.7491396659 1.0074392193
0.2026354551 0.4975058045 0.7553533005
0.1826626213 0.4978292949 0.7554435087
0.1925446545 0.4997123084 1.0082124326
0.2023836085 0.7524266406 0.2581063237
0.1824984056 0.7501029773 0.2625522997
0.1926565863 0.7491201393 0.508647657
0.2025684433 0.5001080471 0.2600568461
0.2025043771 0.7490941039 0.7556358916
0.1825201292 0.4982797081 0.26028881
0.1826037098 0.751658595 0.7585345206
0.192568219 0.4963908367 0.5073295126
0.2125579899 0.7501810836 1.0050919649
0.2225383316 0.4980336731 0.7535546593
0.2124478991 0.4979360402 1.0044108009
0.2224223496 0.7504154026 0.2503999653
0.212567563 0.7502266457 0.5056072722
0.222417563 0.5004966261 0.2522133344
0.2224046761 0.7498946938 0.7519456394
0.2124872961 0.5003560347 0.5036613523
0.2524598421 0.7481307925 0.9977188246
0.2424677181 0.4975741476 0.7519263091
0.2324899539 0.7460219216 1.0018610383
0.2525548369 0.4977876382 0.9990259231
0.2324336198 0.4973111896 1.0041622681
0.2425387801 0.7482674786 0.2510571965
0.2525710375 0.7482609697 0.4968579964
0.2323205834 0.7472455874 0.4993212328
0.2423296444 0.4972187638 0.2488102757
0.2423211758 0.7463864178 0.7505520146
0.2524613149 0.4983818972 0.4971000858
0.2323345748 0.499977219 0.5005703404
0.2725081562 0.7477077165 0.9896184957
0.2625009362 0.4980336731 0.7432074096
0.2725250933 0.4995593501 0.9906586515
0.2625723664 0.7479615621 0.2446165145
0.272692991 0.7486254659 0.488586456
0.262523028 0.4978123719 0.2418044117
0.2624906267 0.74871659 0.7436492457
0.2725549172 0.4983441458 0.4921266679
0.2924264969 0.7489313824 0.9875105692
0.302332831 0.4976210114 0.7369130858
0.2823526333 0.5002974549 0.7370916612
0.2923186153 0.4992781673 0.9893791678
0.3023236261 0.7486645191 0.235272601
0.282436214 0.7493088963 0.2382393464
0.292422815 0.750395876 0.4876852944
0.3023236261 0.4974355088 0.2369432938
0.302446972 0.748618957 0.7343458338
0.2825024894 0.4982855661 0.2376106505
0.2824807658 0.7479290178 0.7364970234
0.2923988822 0.5003000585 0.4911187293
0.3323740055 0.7501550482 0.983083003
0.3225446245 0.498411838 0.7361233037
0.3124659744 0.7475515039 0.9882377578
0.3324369672 0.4998795861 0.9815733962
0.3125293042 0.4980069868 0.9896461104
0.3224617803 0.7478899646 0.2330026679
0.3325518446 0.7503242786 0.4804419434
0.3123672976 0.7488793115 0.4893615102
0.3225689255 0.4992156823 0.2329704507
0.3224529436 0.7489509089 0.7368863915
0.3324955105 0.4988108311 0.4787381129
0.3125175219 0.4982217792 0.4907293612
0.3524845449 0.7487100811 0.9764370513
0.3425848384 0.4989533752 0.7306638661
0.352634401 0.5004549694 0.9754981495
0.3424633334 0.7484432178 0.2282197918
0.3524602439 0.7501810836 0.475248528
0.3424434508 0.5002564491 0.2285428845
0.3424585469 0.7510012001 0.7290235495
0.3525567115 0.5016356767 0.4731525679
0.3724986168 0.74974499 0.969855534
0.3825945722 0.5009561517 0.7173038463
0.3626162155 0.5003983423 0.7220913248
0.3726495774 0.5014130737 0.9705274931
0.3824841132 0.74923079 0.2164779968
0.3626051696 0.7500834507 0.2195671677
0.372586984 0.747824876 0.4699326871
0.382620346 0.4992957413 0.216628037
0.3826387558 0.7497645165 0.7153063788
0.3626346253 0.5005734306 0.2203652342
0.3625204843 0.748853276 0.7213641362
0.3726532594 0.5013336656 0.4738981663
0.3925579768 0.7501420305 0.9634397053
0.4025397913 0.4990529607 0.7108456749
0.3926684359 0.4992163332 0.9671032632
0.4025618831 0.7512094837 0.2113766306
0.3925616588 0.7500378887 0.4636742625
0.4025508372 0.500119763 0.2100999083
0.4025397913 0.7502917343 0.7099592412
0.3925874326 0.5002994076 0.4660426882
0.4326141035 0.7460154127 0.9574012783
0.4224886923 0.4990347359 0.7080556639
0.4124958319 0.7508580052 0.958680762
0.4326546051 0.4989878721 0.9557996223
0.4124774221 0.5015165646 0.9613317788
0.4226175611 0.7483195494 0.2097998279
0.4325294182 0.7509165849 0.4568828731
0.412484786 0.7501355216 0.4589954021
0.4225291939 0.4977121354 0.2078134063
0.4225844234 0.751007709 0.7112865906
0.4325331002 0.4998633139 0.4572823666
0.4125805172 0.4998131957 0.4650071348
0.4525630045 0.7483195494 0.9573552537
0.4425922359 0.4969707762 0.7029911173
0.4525372307 0.497982904 0.9497980149
0.4425738261 0.7507408457 0.2047997158
0.4524672733 0.7452343494 0.455977109
0.4426806032 0.4987913045 0.2023779015
0.4423234523 0.7500509064 0.7036989756
0.4524341356 0.4997800005 0.4519545593
0.4725303153 0.7479160001 0.9544464992
0.4824016707 0.4991323689 0.7005831105
0.462533773 0.4983903587 0.7054819685
0.472567135 0.4999277516 0.9538389745
0.4823795789 0.7492372988 0.2025564769
0.4625264091 0.7486580102 0.2048991289
0.4724824498 0.7501225039 0.4559522558
0.4825563134 0.5008988737 0.2013055284
0.4825673593 0.7502722077 0.7051791266
0.4625742747 0.4979646792 0.204319219
0.4624895894 0.7513656963 0.7059983645
0.4725266334 0.4994408889 0.4503722337
0.4926044033 0.5006639038 0.9535720318
0.5022953423 0.7490745773 0.2040191386
0.4924387147 0.7499858178 0.4522831749
0.5024794406 0.4993836109 0.2002046201
0.5024831226 0.749510671 0.7013314704
0.4923393016 0.7510597799 0.9533695236
0.4923908491 0.4984307137 0.4518082011
0.5025125783 0.5007582823 0.7008813498
0.5124575731 0.7479225089 0.9545477533
0.5124317993 0.4998782843 0.951500925
0.5125238485 0.7507213191 0.4521101225
0.5123434321 0.4991453866 0.4508407641
0.5224099318 0.4996302967 0.7022317115
0.5324874774 0.7489248735 0.9557443928
0.5325206151 0.5032414127 0.9564623765
0.5224246597 0.4989852686 0.2049028109
0.5225461646 0.7502917343 0.2022950572
0.5324837954 0.7460284304 0.4568267231
0.5326016184 0.4987099438 0.4553640614
0.5224946171 0.7497970609 0.7057986177
0.542568705 0.4977401235 0.7062910809
0.5526241588 0.7478378937 0.956747729
0.562513924 0.4992124278 0.7117422341
0.5525542014 0.5011917724 0.9595092048
0.5424398361 0.4998281661 0.2071837898
0.542454564 0.7512225014 0.2054956077
0.5625433798 0.4987932572 0.211100483
0.5625396978 0.7497384811 0.213723885
0.5526352047 0.50092556 0.4600631727
0.5524916079 0.7492047545 0.4603420817
0.5424066984 0.750584633 0.7096628428
0.5624292388 0.7513461697 0.7145478935
0.5825254185 0.4981410693 0.7109404856
0.5725067844 0.748618957 0.961874869
0.5726172434 0.5001353843 0.9620589674
0.5826248316 0.4974433195 0.214752995
0.5825364644 0.7503242786 0.2122483364
0.5727056106 0.4996667463 0.4619372943
0.5724626008 0.7470503216 0.4624905099
0.5825033267 0.749556233 0.7162765773
0.6024743195 0.5006997025 0.7200441508
0.5924593674 0.7507213191 0.9660446974
0.61244877 0.75128759 0.9738320591
0.5925771903 0.4992293509 0.967011214
0.6125923668 0.5018654395 0.9724145016
0.6024559097 0.7482349343 0.2188666734
0.602529549 0.5008904122 0.2215729196
0.5924520034 0.7496148127 0.4667938097
0.592617692 0.500788223 0.4675219188
0.6124782258 0.7499467647 0.4733016876
0.6124929536 0.5025963846 0.4747312115
0.6026142343 0.7514633292 0.7221069732
0.6224416304 0.5014352038 0.727198214
0.6323277137 0.7525633267 0.9816654454
0.6324565825 0.5003221886 0.980910642
0.6225336796 0.7509230938 0.2259102776
0.6224674042 0.5018973329 0.2275966188
0.6323829432 0.7511574128 0.4801860467
0.6324455366 0.5022065038 0.4772441545
0.6224931779 0.7513071166 0.7267803107
0.6424568068 0.5019233684 0.7333397361
0.6525417164 0.7505130355 0.9850436508
0.6624535734 0.4988824286 0.7388111401
0.6524054835 0.4995137881 0.9846570442
0.6424825806 0.7498556406 0.233163754
0.6423610757 0.4991219547 0.2308017717
0.6624572554 0.752595871 0.2399533024
0.6624314816 0.4996465689 0.2370473094
0.6524349393 0.7512615545 0.4854659884
0.6523944376 0.5009873942 0.4880442863
0.6423721216 0.7501355216 0.7312529809
0.6625787603 0.7499402558 0.7385589253
0.6825571171 0.4996107701 0.741452952
0.6724353879 0.7495952862 0.9911833319
0.6724722075 0.4988498843 0.9920577993
0.6824687498 0.749042033 0.2424644044
0.6824282482 0.4982562762 0.2414049182
0.6724979813 0.7484627444 0.4917529482
0.6725053452 0.4990282271 0.491950854
0.6825718449 0.7492633343 0.7406640904
0.7024102869 0.5009262109 0.7412762175
0.6925867971 0.7507213191 0.9918092664
0.7124657407 0.7515869976 0.9891398399
0.6924137446 0.5009216547 0.9919473402
0.7125835637 0.500028639 0.9930979551
0.7024360607 0.7512940988 0.2411922845
0.7025686115 0.5005298213 0.2430654856
0.6925131577 0.7500769419 0.4903915407
0.6924247905 0.4990327833 0.4941186125
0.7123552817 0.5007856195 0.4918468384
0.7124068292 0.7550692381 0.4909806555
0.7024544705 0.7490810862 0.7418625709
0.7223444601 0.500783016 0.7446139212
0.732381504 0.7529538584 0.99368707
0.7423854103 0.5017404694 0.7455537435
0.7323336385 0.4999069233 0.9945891521
0.7224033716 0.7499988355 0.2434870709
0.7224033716 0.5012868018 0.2433545201
0.7423596365 0.750818952 0.2451559228
0.7423375447 0.5027812362 0.247753551
0.7324035958 0.502588574 0.497018162
0.7323925499 0.7515088912 0.4948642109
0.7222266371 0.7501094862 0.7428567021
0.742418548 0.7502722077 0.7466454469
0.7523598608 0.5011279856 0.4974811695
0.7523929985 0.7526479419 0.999615038
0.7624153146 0.50041136 0.7530621961
0.7523524969 0.5023008823 0.9982250952
0.7624300425 0.7486970634 0.2516665622
0.762485272 0.5017176884 0.2505546079
0.7524335001 0.7535982356 0.500273942
0.7624668621 0.7494130381 0.751370332
0.7725223159 0.5011982813 0.5046518016
0.7725407258 0.7508059343 1.0061229159
0.792460171 0.5015478071 0.5072595552
0.792353394 0.7487881874 1.0062425798
0.7824010353 0.5000774554 0.7571528623
0.7723824012 0.4985511276 1.0050459403
0.7923607579 0.500508342 1.009077695
0.7826109074 0.7510923242 0.2580538556
0.7823568517 0.5010602934 0.256306762
0.7725591356 0.7514503115 0.5066262568
0.792349712 0.7534550406 0.5119255288
0.7824673107 0.748996471 0.7558844244
0.812526895 0.499725977 0.5139901922
0.8124274819 0.7509035672 1.0117931462
0.8023720281 0.5022956752 0.7592221281
0.8123207048 0.5015914165 1.0113236953
0.8023278445 0.751144395 0.2610261241
0.802497215 0.499965503 0.258524227
0.8124569376 0.7519059318 0.5124005026
0.802383074 0.7523094811 0.7629280286
0.8325715272 0.5018010018 0.5194395044
0.832479478 0.7505325621 1.0123914659
0.8225271193 0.4987815413 0.7628267745
0.842626981 0.5013499377 0.7684233654
0.8326083469 0.5011527193 1.0171319993
0.822563939 0.7507798988 0.2657574526
0.8224571619 0.4998659175 0.26593971
0.8425717515 0.7499467647 0.2695323899
0.8426380269 0.4990087005 0.2706995737
0.8325531174 0.7525372913 0.5138484364
0.8225455292 0.7520296001 0.7646033239
0.8426122531 0.7497580077 0.7678508194
0.8525314741 0.5008318324 0.5277653538
0.8625096066 0.7501485393 0.7730249045
0.8625280164 0.5010557372 0.7780102888
0.8525204282 0.7494390735 1.0228390493
0.8524983364 0.5016233099 1.0216700245
0.8625685181 0.7499272381 0.2738706684
0.8624727869 0.4994942615 0.2769708852
0.8525388381 0.7510207267 0.5167571909
0.8724877391 0.5010596425 0.5301641558
0.8824658716 0.7484497267 0.7750315769
0.8926317844 0.5018478656 0.5259795995
0.8725429686 0.7512810811 1.0254532463
0.8925139614 0.7494781267 1.0249837955
0.882642606 0.4999726628 0.7756878877
0.8725208768 0.5009099387 1.028343591
0.8926649221 0.5001972185 1.0299176322
0.8824916453 0.7513526786 0.2733008839
0.8826168322 0.4999342605 0.2790226617
0.8725761063 0.7508514963 0.5251603617
0.8925397352 0.7504544558 0.5264481299
0.9125033641 0.5007791106 0.5342621859
0.902591507 0.751990547 0.7778961478
0.9223931293 0.7485083064 0.7885793771
0.912400269 0.7485668862 1.031187911
0.9025178677 0.5016135466 0.7779670257