POSCAR file written by Ovito 3.7.11
1
271.6309233297 0.0 0.0
0.0 15.3657654293 0.0
0.0 0.0 10.8652369332
Sr Ti O 
800 800 2400 
Direct
0.0123526165 0.2528291046 0.5168322182
0.0223890291 0.2517526857 0.7585545125
0.002366861 0.2513094927 0.7651793106
0.0123752207 0.2532339006 1.012929085
0.0222711117 0.0017948806 0.2620812158
0.002335274 1.0012571639 0.2663958939
0.0122682373 0.003211211 0.5103436344
0.0223033245 0.0017648138 0.7607008072
0.0023770218 7.9545107678e-04 0.7678437715
0.0123294601 1.0047844857 1.0085389369
0.0222448997 0.2511903968 0.2563519344
0.0024730713 0.2508448233 0.2633697289
0.0324957944 0.2522765776 0.5105120615
0.0424037238 0.2503983763 0.7599424252
0.0323952904 0.2515834784 1.0046273793
0.0424799301 1.0005087469 0.2619311961
0.0323974993 0.0011322387 0.5074932594
0.0423834757 0.9990835006 0.7600234175
0.0324541938 -2.5369939178e-04 1.011198796
0.042366541 0.2491442898 0.2568995525
0.0724095121 0.250691886 0.5103657232
0.0523186479 0.2504374242 0.5113781264
0.0624073372 0.2507107591 0.7578246619
0.0723215251 0.2476969164 1.0086125662
0.0524537577 0.2508005691 1.0105085212
0.0623642641 1.0008601775 0.2642937769
0.0724754104 0.9990574687 0.5126703209
0.0523422093 2.5040826466e-04 0.5106602405
0.0624165409 0.9981788922 0.7620988439
0.0724073033 -0.0014605381 1.0112908327
0.0524589118 1.0009968449 1.0133892683
0.0624187498 0.251767654 0.2597287591
0.0924307967 0.2505558693 0.5098383532
0.1024506426 0.2508806172 0.7552954948
0.08240911 0.2487284302 0.7582599953
0.0925132615 0.2503651857 1.0080051243
0.1023482978 1.0004176353 0.2578309634
0.0824293581 0.9993568355 0.2603435639
0.0924256426 -5.0523258209e-04 0.5076064645
0.1024510107 3.3019602438e-04 0.757300053
0.08241905 0.9986800062 0.7614509059
0.092296055 1.00171923 1.0070479432
0.1024418071 0.2492035123 0.2558825475
0.0824264129 0.2497339122 0.259708511
0.1124093762 0.2500013899 0.5037666955
0.1224936477 0.2495217523 0.7490305601
0.1125363867 0.2507992675 1.0047194159
0.1224443161 -0.0018828665 0.251408646
0.1124634937 1.0003330316 0.5061384799
0.1223294544 0.9991681043 0.7479942274
0.1123570993 4.7018254245e-04 1.0029247013
0.1225363527 0.2493069891 0.2504422612
0.1524073995 0.2490421146 0.495731896
0.1324523813 0.2493740212 0.4950351786
0.1424659688 0.2466237515 0.7457927108
0.1525218931 0.2499903264 0.997466928
0.1325484676 0.2509456969 0.9992708463
0.142421423 -0.0011041614 0.2425142242
0.1523322976 0.9991681043 0.49197496
0.1324424414 -7.0717501147e-04 0.4944350996
0.1424192141 -0.002821427 0.7432653844
0.1525307286 1.0003460475 0.9965005432
0.1323603447 9.0322312417e-04 0.9968042641
0.1424265771 0.250884522 0.2476912857
0.1723981278 0.2495432286 0.5044127928
0.1623072296 0.2491742264 0.7512661303
0.1724581357 0.2487720337 1.0028970903
0.1625104465 0.001219771 0.2512715114
0.172351005 9.5528691518e-04 0.5033865841
0.1624706867 0.999480487 0.7476748602
0.1723948145 0.0011831311 1.0005317484
0.1624279817 0.2509138079 0.251649782
0.1924985638 0.2496193719 0.5077113863
0.2024727596 0.2501653909 0.7580124167
0.1825181096 0.2457751117 0.7595761194
0.1924676395 0.2503150743 1.0066061672
0.2025022113 0.0015548015 0.2535208871
0.182473932 -5.9979344251e-04 0.2556027561
0.1923807569 7.5881118386e-04 0.5054251959
0.2025485978 1.0007950977 0.7559544772
0.1824540521 0.9978665095 0.756838029
0.1924418693 2.4544599793e-06 1.0056489861
0.2024580337 0.2499844692 0.2524771915
0.1823270415 0.2507309338 0.2591452467
0.2125964229 0.2507790928 0.506555406
0.2224649605 0.2512392066 0.7502261162
0.2124926055 0.2510342054 1.0014060966
0.2225886578 1.0012506559 0.2510828362
0.2125658667 1.0006193824 0.5013654593
0.2224642242 0.9997017581 0.7485344825
0.2125872192 1.0014524031 1.0018570761
0.2224984619 0.2516934631 0.250050185
0.2525594722 0.2491117499 0.5022895073
0.2325396603 0.2506599969 0.4999701837
0.2425164331 0.2508259502 0.749555169
0.2526187438 0.2487648749 1.0039739191
0.2325142582 0.2486561917 1.0011668013
0.242483668 1.0011920841 0.2507634691
0.2524549186 9.115814391e-05 0.4981386544
0.2324240623 5.3662895573e-04 0.5006632197
0.2425657647 0.9996627103 0.7492634128
0.252594078 -0.0020116008 0.9986081824
0.2324564592 -9.0475709835e-04 1.0034401065
0.2426018431 0.2508604425 0.2492559087
0.2725822293 0.2474333434 0.5057657315
0.2624710831 0.2485169211 0.7529145067
0.2725292162 0.2483386026 1.0040843631
0.2625771093 0.9996496943 0.2534141246
0.2726127855 -7.2819576709e-04 0.5016204008
0.2625108429 1.0010619247 0.7499058286
0.2725494643 -0.0013517247 0.9979179076
0.2624946444 0.2484505398 0.2521559836
0.2925534459 0.250434821 0.5036774199
0.3025725555 0.249497022 0.7485814212
0.2825023075 0.2500801364 0.7556194638
0.2924371116 0.2488989392 0.9999151029
0.3026082658 -3.1402830961e-04 0.2486033689
0.2825755687 1.0003590635 0.2499056875
0.2926403285 -0.0013537422 0.4958883583
0.3027963887 -6.2016340075e-04 0.7465105966
0.2825987619 1.0005022389 0.752943038
0.2926086679 -1.335991654e-05 0.9966293945
0.3024072577 0.2500495489 0.2487883626
0.2825317593 0.250441329 0.2519415382
0.3323592967 0.2480470454 0.4936297789
0.3125515372 0.2486353662 0.4943117705
0.3223906231 0.2489366854 0.7462418496
0.3324502289 0.2503066139 0.9946137919
0.3124819575 0.250171248 0.9967858568
0.3226582657 0.0012170376 0.2437686837
0.3326427696 -0.0021133074 0.4939417832
0.312626271 -0.002772064 0.4959021638
0.3227112788 8.8428492019e-04 0.7450803471
0.3327197122 -4.3449090606e-04 0.993813073
0.3125905607 0.9995065189 0.9948070688
0.3225198426 0.2492555761 0.2465399072
0.3524059833 0.2483646345 0.4952247741
0.3424159573 0.2484505398 0.745384068
0.3523927301 0.2491189087 0.9935001484
0.3426350045 -0.0014954208 0.2439831291
0.3524214455 -2.483628532e-04 0.4946651913
0.3426427356 1.0009122413 0.7448612999
0.3525484561 6.4492164103e-04 0.9920643767
0.3424811192 0.2494417042 0.2446614392
0.3724018657 0.2485312386 0.4908245019
0.3826179338 0.2496785944 0.7391679128
0.3624803149 0.250444583 0.7440430941
0.3723429623 0.2488397166 0.9916318044
0.3825332601 0.9982179401 0.2429780889
0.3625428999 0.9990835006 0.2428750079
0.3725675317 -0.0029197104 0.4892607992
0.3826142523 -0.0016063167 0.7401517845
0.3624398188 1.0000596967 0.7407150488
0.3723760955 -0.0021145244 0.9898462934
0.3824522678 0.2490141303 0.2403182297
0.3623404192 0.2486705093 0.2413186681
0.3925063514 0.2472127231 0.4922234589
0.4024831242 0.2490076223 0.7353318252
0.3925026699 0.2479051715 0.9905549756
0.4025751608 0.9996627103 0.2358157969
0.3924916255 0.9970074569 0.4872194263
0.4025641164 -0.0013250421 0.7366921269
0.3925247587 0.9956082426 0.9854745526
0.4026156569 0.2486216995 0.2359050724
0.4325054791 0.2484414286 0.486460124
0.4125114374 0.2494553709 0.4879741269
0.4225507951 0.2470298491 0.7319605228
0.432575427 0.2491032895 0.9873705076
0.4125813853 0.2497638489 0.9856954406
0.4225250249 0.9988231817 0.2354982704
0.4326048787 1.00024192 0.4801878263
0.4124451711 -0.0011803698 0.4826507271
0.4226133801 0.9995260428 0.7364114151
0.4324981162 0.9976192065 0.9824097322
0.4125335262 -9.7693052863e-04 0.9826398238
0.4225250249 0.2488345102 0.234615639
0.4524958393 0.2497879284 0.4873648442
0.4425190666 0.2488546849 0.733678847
0.4525768316 0.2488670501 0.9840387809
0.4424712075 0.9998579495 0.2385225947
0.4524479803 -0.0010045894 0.4838738941
0.4425890144 -0.0022131918 0.7353529937
0.452580513 0.9984261952 0.98494074
0.4425521997 0.2463003052 0.2348972711
0.4725340586 0.2488781136 0.4806728595
0.4825329202 0.2504074875 0.7313135051
0.462590419 0.2480841408 0.7342034559
0.4724641107 0.2502617089 0.9871956379
0.4824224762 -2.9723773701e-04 0.2327058785
0.4625167897 -6.9175111338e-04 0.235966737
0.4724751551 1.0011139885 0.4831514064
0.4824482464 0.9998449336 0.7299946199
0.4625204712 -5.7616949734e-04 0.7339089386
0.4724493849 -1.5334643461e-04 0.9827226568
0.4824961055 0.2500137551 0.2274137712
0.4626603669 0.2490596861 0.2367499689
0.5123122984 -8.6544893614e-04 0.4801823041
0.5124080165 3.0611652104e-04 0.9791240238
0.4925060115 0.2507387434 0.4790419701
0.5023870661 0.2493102431 0.7292923803
0.4924507895 0.2503105187 0.9797038547
0.5123307057 0.2493668625 0.4834413219
0.5123417501 0.2504484877 0.9811856447
0.5023502515 4.1584096059e-04 0.2296272526
0.4923845231 8.4627835275e-04 0.4782753048
0.5024312437 -4.3520678319e-04 0.7305910174
0.4924802412 2.3413832997e-04 0.9771360322
0.5023612959 0.2505936156 0.2283313766
0.5224621 1.0009187492 0.233119123
0.5323652435 -7.8468498033e-04 0.4827814191
0.5224436927 1.0011985921 0.7323222268
0.5323983767 1.0036065425 0.9809187385
0.5223884707 0.2494579741 0.2337412908
0.5323946952 0.2500593109 0.4848890584
0.5224805074 0.252027973 0.7303001816
0.5324425543 0.2514995255 0.9859623468
0.5424009197 0.00224738 0.233829646
0.562431776 1.1185350084e-04 0.2325945141
0.5525028623 1.3778334524e-05 0.4800378066
0.5425003193 1.0022984397 0.7331183438
0.562597442 1.0014524031 0.7316457574
0.5523887369 0.0016635497 0.9821152149
0.5424855934 0.2519524805 0.2373509682
0.5625274942 0.2499727548 0.2324104408
0.5524697291 0.2510758564 0.4848172698
0.5423604236 0.2509242206 0.7332251063
0.5622955618 0.2518789404 0.7325891331
0.5524402774 0.2516244786 0.9849223327
0.5823890031 0.0017402787 0.2303478995
0.5725042669 0.001495644 0.4819043098
0.5824294992 1.0011139885 0.7338288667
0.5723459639 0.0010478303 0.9811396264
0.5824847212 0.2506996955 0.2337228835
0.5724490449 0.2506639017 0.4863901761
0.5825509876 0.2492900684 0.7352858069
0.5725999851 0.2515652561 0.9853825159
0.6026186586 1.0022463759 0.2341490131
0.5925756194 1.0019274852 0.4820129131
0.6124408098 -0.0012043191 0.4894402707
0.6025008516 0.0013878069 0.7375664751
0.5923473685 0.0019319386 0.9857966809
0.6125181205 3.9872498929e-04 0.9882540594
0.6024198594 0.2530887727 0.2403025835
0.5923694573 0.2513687152 0.4860054629
0.6124592171 0.2512847624 0.4869368738
0.6024345853 0.2496161179 0.7384969656
0.5924283608 0.2522577045 0.990242051
0.6125402093 0.2510699992 0.990407717
0.6224175825 0.0011119989 0.2425307908
0.6325268881 -6.1352526739e-04 0.4925437465
0.6225574782 -2.8718734887e-05 0.7392645512
0.63243117 1.0002744598 0.9949267165
0.622524345 0.2505662821 0.2423973376
0.6324863919 0.2510042687 0.4937319396
0.6224359899 0.2506632509 0.7426735887
0.632534251 0.2499779612 0.9946414029
0.6425257496 1.0016801822 0.2472329432
0.6623283551 0.0014040117 0.2508131689
0.652388397 -1.7521322684e-04 0.4979812717
0.6423674466 1.0019014533 0.7467793436
0.662446162 1.0035024149 0.7488225573
0.6522742715 1.0009447811 0.9979271112
0.6424742091 0.2499415166 0.2469605147
0.6623320365 0.2500228662 0.2499931223
0.6523699896 0.2521106243 0.4992937143
0.6424778906 0.2519980363 0.7474880258
0.6624608879 0.2503664873 0.7515965419
0.6523368564 0.2535866327 0.9983228688
0.6824438851 1.0025001869 0.2512319356
0.6723198537 1.001478435 0.4973250504
0.6823334411 7.001092595e-04 0.7505666518
0.6723861201 3.5134693948e-04 1.0004305081
0.6825027886 0.2501998831 0.2510984825
0.6723529869 0.2520624653 0.5009715425
0.6825064701 0.2494078627 0.7506292367
0.6724744753 0.2506144411 1.0015625589
0.7023753419 1.4523940682e-04 0.2515724712
0.6924795614 1.0007170021 0.5026843445
0.7125877285 1.0024220912 0.5025462895
0.7025299634 1.0004957309 0.7528942586
0.692516376 0.9997538219 1.0018938908
0.7125398694 1.8441740955e-04 1.0026762023
0.7025483708 0.2507589181 0.2489319397
0.6925200575 0.2502441374 0.500681627
0.7125582767 0.247948775 0.5008344078
0.7024747415 0.2508604425 0.7481580527
0.6923985691 0.2491286706 1.0013968929
0.7125472323 0.2485240799 1.0019767238
0.7224614202 -8.2125979352e-04 0.2540602218
0.7425474985 0.9982830198 0.2514114071
0.7325559999 -3.9928276739e-04 0.5009338074
0.7224908719 0.9992527079 0.75088878
0.742495958 -0.0024103378 0.7526061839
0.7324897335 0.9997798538 0.9998414735
0.7224908719 0.2500625649 0.2509631886
0.7425033209 0.2522056407 0.2511509434
0.7325007779 0.2488872248 0.5006926714
0.7225313681 0.2509932051 0.7498358808
0.7424922765 0.251983068 0.7503715341
0.7324897335 0.2478915048 1.0001912128
0.7624715923 -7.0203371211e-04 0.2513193704
0.752505864 9.4630591123e-04 0.5006788659
0.7625525846 -3.925795543e-04 0.7535035412
0.7525574045 0.9990379448 1.0000807688
0.7626409398 0.2502200579 0.2494942837
0.7524874566 0.2511077455 0.4998707841
0.7626372583 0.2510563325 0.7512228731
0.7524580049 0.2489659713 0.9997402332
0.7825944853 -0.0012020413 0.2527339737
0.7725808979 0.9986669903 0.5021238413
0.7925933469 1.0005347788 0.5010046756
0.7824140935 3.4360245056e-04 0.7556102601
0.7724410022 0.9980357168 1.0018018542
0.7925418064 -0.0015946023 1.0030259416
0.782576078 0.2483242851 0.2510230124
0.7725367203 0.2497560393 0.5016940301
0.7925896654 0.2499389134 0.498258302
0.7825687151 0.2514988747 0.7520125475
0.772463091 0.2477242499 0.9996758076
0.7926154357 0.2497430234 1.0016730029
0.8026952895 1.0016931981 0.2486328206
0.8125505739 7.7573191594e-04 0.4965528629
0.8025517123 4.7229320247e-05 0.7503107899
0.8126057959 1.000970813 0.9960035453
0.802691608 0.2500853428 0.2482886036
0.8126094773 0.2495542921 0.4981386544
0.8027873261 0.2496668801 0.7489201161
0.8126242032 0.249374672 0.998948718
0.8225236652 0.9982830198 0.2467193787
0.8425618845 1.0009122413 0.2417107442
0.8325887932 -0.0014852033 0.4919501101
0.8225531169 0.0010037713 0.7451852689
0.8425397957 -0.0025098382 0.7454586177
0.8325372526 -0.0018467928 0.9956630097
0.8226746053 0.2493245606 0.2442647613
0.8426244694 0.2497742616 0.2492614309
0.8326440151 0.249387688 0.4982122837
0.8225347096 0.2500306758 0.7454650603
0.8427496392 0.2500111519 0.7486964671
0.8326145634 0.2520318778 0.9939879426
0.8624307563 2.3149816905e-05 0.2496415423
0.8525092055 0.9982700039 0.4943900017
0.8625043856 1.0005282708 0.7516158696
0.8525497016 -0.0025477472 0.9980559625
0.8625743335 0.2501224382 0.2499590687
0.8525828348 0.2499206911 0.5020281232
0.8625816964 0.2492575285 0.7526043432
0.8525791534 0.2501920736 0.9993996976
0.8824284794 1.0009057333 0.2535751887
0.8724222549 -0.0019719412 0.5050395623
0.8924383854 -0.0016527185 0.5076929789
0.8823769389 1.0010619247 0.7542113031
0.8724995657 6.5507408027e-04 1.0034309029
0.8824763385 0.2495100379 0.257126883
0.892482563 2.02863084e-05 1.0063852793
0.8725326989 0.2500183107 0.5041633734
0.8924862444 0.2484622541 0.5074739317
0.8825352419 0.2521633389 0.7595678361
0.872580558 0.2503586777 1.0067258149
0.8925120147 0.2498328334 1.0074068861
0.9025587353 -0.0012688782 0.2589538105
0.9223981554 -0.0029585305 0.2581807026
0.9126017745 -0.0012580099 0.5105590002
0.9024924689 0.9996887422 0.7585729199
0.9224791477 0.9995781066 0.76083334
0.9124140197 0.9988687375 1.0057226154
0.9025292836 0.2498002935 0.2631608057
0.9225343697 0.2484297142 0.2637295922
0.9126385892 0.2489340822 0.5113339488
0.9025440095 0.2500755808 0.7574252229
0.9225270067 0.249724801 0.7610431835
0.9125539154 0.2488123831 1.0134352866
0.942510004 1.0012051001 0.2598318401
0.9325258683 1.0015174828 0.5074306745
0.9424253303 1.0010163689 0.7592300616
0.9325958162 0.9998384256 1.0133248426
0.9425284113 0.2507198702 0.2597407238
0.932500098 0.250691886 0.5125617177
0.9424805523 0.2509469985 0.7632152485
0.9326215864 0.2483418566 1.013177584
0.9624930013 8.8213728881e-04 0.2612952228
0.9525346358 0.9993047717 0.5124061757
0.9724108706 0.9986669903 0.5097233074
0.9625629491 1.0012441479 0.762212049
0.9524462807 1.0011725602 1.0089715091
0.9625703121 0.251125317 0.2646352328
0.9724071891 -0.0014656794 1.0124965128
0.9524867768 0.2508858236 0.5137600349
0.9724808185 0.2510120783 0.515475598
0.9625298159 0.2508636965 0.7637803535
0.952567769 0.2507999183 1.0156533699
0.9725029073 0.2517383682 1.0144660971
0.9824539098 0.0011076386 0.2639053822
0.9924454084 1.0010163689 0.5147742787
0.9824502283 1.0023309796 0.764386875
0.9824612727 0.2508532837 0.2620802954
0.9923533718 7.9772886764e-04 1.0136653782
0.9925632153 0.2503137727 0.5168055276
0.9825533093 0.2500085487 0.7624734331
0.9926405261 0.2498048491 1.0171259563
0.0123382956 0.7524052588 1.014880262
0.0225238075 0.4991559158 0.7621218531
0.0024257276 0.500796576 0.7665460548
0.0123526902 0.5022120603 1.0113276474
0.0224056693 0.7533293911 0.2598125124
0.0022506739 0.7507912813 0.2629463603
0.012231754 0.7522685914 0.5162137319
0.0223948826 0.7496979417 0.7595613935
0.0224625848 0.5018092167 0.2596882629
0.0024032707 0.5010822761 0.2655509975
0.0023387346 0.752099384 0.7641089243
0.0123150288 0.5020422022 0.514348149
0.0324324732 0.7499842925 1.0075449411
0.0425244758 0.4996030136 0.7570101376
0.0324273191 0.5001835249 1.0061367803
0.0426422828 0.7507977893 0.2565387688
0.0324390998 0.7516373179 0.5105231059
0.0424839797 0.7508498531 0.7580022927
0.0424854523 0.5015436914 0.2601898627
0.0324564027 0.5017896928 0.5096147042
0.0724676793 0.7490731762 1.0089991201
0.0623856166 0.4989548194 0.7572310255
0.0525435855 0.7510385843 1.009634173
0.0724043581 0.4979291627 1.0080327353
0.0524555984 0.499662887 1.0081155683
0.0624864888 0.7518976368 0.2598520882
0.0725081754 0.7506611218 0.5090845731
0.0523738699 0.7504984225 0.5090100234
0.0623933477 0.4999427298 0.2601180741
0.0725431493 0.4999759205 0.5075889775
0.0624426793 0.7503031832 0.7599120531
0.0524706925 0.4979226547 0.5077445195
0.092507003 0.7501339759 1.0066705929
0.102361183 0.5010211011 0.75598669
0.0824113189 0.5016335014 0.7577050143
0.0925313007 0.4986372303 1.0097262097
0.1024933476 0.7502836593 0.257709475
0.0824337758 0.751123188 0.2587448873
0.0925022171 0.7489169848 0.5062231537
0.1024981335 0.7495873061 0.7565536358
0.1024675773 0.4990452802 0.2549778272
0.0825464287 0.5005369078 0.258284704
0.0824330395 0.7510516002 0.7575089762
0.0924584076 0.4993485518 0.5109372708
0.1124907366 0.7487607934 1.0002188238
0.1225348802 0.4994800129 0.746039369
0.1124726974 0.5001835249 1.0011023756
0.1224196503 0.7497565134 0.2484423048
0.1125161387 0.7489169848 0.502005114
0.1225816348 0.4975796845 0.2501422217
0.1225451883 0.7498411171 0.745974023
0.1124498723 0.4978374003 0.5040004686
0.1524431097 0.7509604886 0.9906654196
0.1426526191 0.4977423839 0.740072633
0.1325098122 0.7511492199 0.9927638552
0.1525384597 0.5009631801 0.995570973
0.1324623213 0.4998353483 0.9964269138
0.1424770132 0.748630634 0.2396463622
0.1524420052 0.7494376227 0.4895801664
0.1326596479 0.7486371419 0.4923974082
0.1425760446 0.4990192483 0.2408732107
0.1424048564 0.750114452 0.740496922
0.1524924413 0.4978582258 0.4921654759
0.1324840419 0.4991324871 0.4945179326
0.1724750705 0.7515657302 0.9979823332
0.1624331357 0.499450727 0.7462400089
0.1723613132 0.5014285003 1.0023540741
0.1624758407 0.7498020693 0.2443715238
0.172526611 0.7482531715 0.496886956
0.162471423 0.4999062852 0.243729108
0.1624316631 0.749613338 0.7436620623
0.1724448824 0.5002173663 0.4975983993
0.1925294882 0.7496784178 0.9991511987
0.202566637 0.4995112512 0.7552789282
0.1825306266 0.4991598206 0.7539858133
0.1924643262 0.5003611926 1.0047010086
0.2024819633 0.7515396983 0.2493295381
0.1824102427 0.750114452 0.2520483007
0.1925574673 0.7500233404 0.4989439751
0.2024830677 0.4999648569 0.2518559441
0.2025305586 0.750368263 0.7499757765
0.1825184778 0.5004926536 0.25018824
0.1824345403 0.7506676298 0.7518312353
0.1924300886 0.4997956496 0.5016470915
0.2125684437 0.7509735046 0.997604983
0.2225080337 0.5014818657 0.7470269222
0.2125912688 0.5018450106 0.9997586405
0.2226766448 0.751103664 0.2489871617
0.2125305246 0.7502706434 0.4998873507
0.2226166369 0.4993719805 0.2480106529
0.222606697 0.7490211124 0.7453527756
0.2125412009 0.5010640537 0.4984221273
0.2526423052 0.7467953853 0.9955249547
0.2426677413 0.5006019876 0.746363338
0.2324744984 0.75060255 0.9968410788
0.2526566629 0.4989691369 0.9947702542
0.2326107126 0.4979981472 1.0001267871
0.2425860128 0.7505244544 0.2430986569
0.2526559266 0.7491577798 0.493991483
0.232697227 0.7499192128 0.49574202
0.2425536159 0.5017909944 0.2490902428
0.2426754724 0.7505569942 0.747787145
0.2525013051 0.4979922901 0.496231655
0.2325672713 0.5012384674 0.4999572986
0.2726691119 0.7488323812 0.9934173154
0.2626120832 0.4988057868 0.7463964712
0.2725144904 0.4992379163 0.9964177102
0.2625896263 0.7492163516 0.242322788
0.2725943782 0.7477650734 0.4930738776
0.2627026473 0.4990003752 0.2479471476
0.2624379499 0.7490927001 0.7446109602
0.2725837019 0.4987283419 0.4968013619
0.2927485636 0.7491707958 0.995515751
0.3026226235 0.4987237863 0.743098798
0.2826429395 0.4998919676 0.7489247179
0.292691869 0.5003091288 0.9999519175
0.3027363808 0.7492228596 0.2420825723
0.2825969212 0.7499908005 0.2453397493
0.2927272111 0.748858413 0.4954429009
0.3026506026 0.4992235987 0.2431437549
0.3028858483 0.7478887249 0.7418747106
0.2827283495 0.4986626114 0.2478330222
0.2826271092 0.7509604886 0.7437237269
0.2926863468 0.5001470802 0.4978128447
0.3327123493 0.749873657 0.9933897044
0.3226258688 0.5005993844 0.7420670672
0.3127985636 0.7500558802 0.9951199934
0.3326902605 0.5002303823 0.9944849405
0.3128456863 0.5007594806 0.9938314803
0.3228342398 0.75012096 0.2444120199
0.3328758064 0.7488453971 0.4925925259
0.312867407 0.7482011077 0.492826299
0.3227212188 0.4992860753 0.2417033813
0.3228346079 0.7495417503 0.74456034
0.3326217852 0.4994097268 0.4951815169
0.3127812607 0.4995424894 0.4938663131
0.3527170672 0.7489104768 0.9892940735
0.3425720514 0.4994897748 0.7438120821
0.3525620775 0.4996479186 0.9922852646
0.3427509707 0.7490666682 0.2430471164
0.3527034458 0.7480774562 0.4938847205
0.342666297 0.4991337887 0.248947586
0.3426523074 0.7502446115 0.7452625797
0.3525528738 0.4995288227 0.4946633505
0.3725822576 0.7474266588 0.9915489714
0.3825222157 0.4986743257 0.7363617153
0.3625649887 0.4983983876 0.7411605062
0.3724718136 0.4984029432 0.9914109165
0.3825038083 0.7454287108 0.2373610922
0.3625171296 0.7484679346 0.2369423255
0.3726632498 0.7489820646 0.4880541987
0.3824117717 0.4974358583 0.2374531289
0.3825884821 0.7456825218 0.7329057391
0.3624435003 0.4983625938 0.2400586864
0.3625870775 0.74912524 0.7392608698
0.3724902209 0.4995886961 0.487949277
0.3926278398 0.7475633262 0.9872508599
0.4026267013 0.4997748241 0.7373391445
0.39265361 0.497163825 0.9822624735
0.4025825237 0.7485069825 0.2314624634
0.3925726178 0.7487868253 0.4883330698
0.4025751608 0.4981758149 0.2321288087
0.4025052129 0.7485655542 0.7345485933
0.3926830617 0.4985142296 0.484398503
0.4324576201 0.7476999937 0.9860911981
0.4225250249 0.4982910061 0.7314994191
0.412507756 0.749366035 0.9823545102
0.4326011972 0.4970831261 0.9820876039
0.4126071556 0.5003149859 0.9793633191
0.422455077 0.7485525383 0.233377746
0.4324944347 0.7500819121 0.4845328765
0.4124746228 0.7493139712 0.483471694
0.4224440326 0.4989684861 0.2327684634
0.4224513956 0.7489625406 0.731958682
0.4326196046 0.4985357059 0.4829977052
0.4124783043 0.4997891416 0.4782062773
0.4525694686 0.7477780894 0.9865329741
0.4425963773 0.4996706965 0.7357901677
0.4525952389 0.4981413227 0.9831644327
0.4425117036 0.7470687202 0.230989395
0.452532654 0.7495352423 0.4866432769
0.4425595627 0.4987680405 0.2330151216
0.4426258291 0.7477390415 0.7360911276
0.4525142467 0.497953893 0.4830262366
0.4726076879 0.750107944 0.9840019662
0.4824482464 0.4984439434 0.7291782549
0.4625977819 0.4986229127 0.7355361466
0.4725782362 0.5005844161 0.9814341437
0.4824887426 0.7497695294 0.2328862703
0.4624615677 0.7494701626 0.2344315657
0.4724861995 0.7497760374 0.4819972669
0.4825034684 0.4993492026 0.2321656234
0.4824813796 0.7511427119 0.7313365143
0.4625720117 0.5000559686 0.2338176812
0.4625094268 0.7480123764 0.7333475151
0.4725524659 0.4998997772 0.4838021055
0.4924876041 0.5007536234 0.9790411908
0.5022876665 0.750114452 0.2259347422
0.4923513899 0.7509279487 0.4803654571
0.5023981105 0.5013875 0.2316336515
0.5023502515 0.7498411171 0.7291073866
0.4924213377 0.7511296959 0.9792528751
0.4924287007 0.501647819 0.4794202407
0.5022876665 0.5004054468 0.7300921788
0.5124153794 0.7517804933 0.9840295772
0.5123343872 0.5013152615 0.9809739604
0.5123233428 0.7502511195 0.482537522
0.5123417501 0.5005922256 0.4774414527
0.5223663819 0.5026357294 0.7327649231
0.5324977763 0.751357475 0.9830908034
0.532361562 0.4997963004 0.9828054898
0.5223516561 0.498747215 0.2339750639
0.5223406117 0.7492684154 0.232581629
0.5324904133 0.7515787461 0.482713312
0.5323394732 0.5002310331 0.4847344368
0.5224768259 0.7503031832 0.7306223099
0.5424929564 0.5012156895 0.734623143
0.5523335149 0.7531341519 0.9841216139
0.5624833166 0.4996108232 0.7320820111
0.5525065438 0.501047133 0.979722262
0.5424635046 0.5024515538 0.2335222436
0.542371468 0.7521709718 0.2347021534
0.5623765541 0.5019706145 0.2324187241
0.5624207317 0.7506611218 0.2279043265
0.5524476403 0.4991734873 0.4813870639
0.552539677 0.7510385843 0.4805799025
0.5424377344 0.7506285819 0.7296310752
0.5624685907 0.7495677822 0.7289951019
0.5824331807 0.4999472854 0.7360690388
0.5724195932 0.7506741378 0.9823268992
0.5724085488 0.5007913696 0.9811304228
0.5823006479 0.5029253343 0.2328273669
0.5824847212 0.7527241495 0.2331301674
0.572552126 0.500298716 0.4803231202
0.5723717342 0.750615566 0.4798104761
0.5824110919 0.7521774797 0.7314994191
0.6023867262 0.5029578741 0.7388586696
0.5922626948 0.7528152612 0.9861188091
0.6123340472 0.7525809741 0.9865605851
0.5924357237 0.5000702861 0.9840111699
0.6125181205 0.5009150211 0.9877754688
0.6023130969 0.750615566 0.2349616968
0.6025045331 0.5034244959 0.2377301592
0.5922553319 0.7516503338 0.4818306805
0.5924246793 0.5003136843 0.4844242733
0.6124039951 0.7505830261 0.4878535588
0.612418721 0.5013068012 0.4877173446
0.6021253421 0.7503812789 0.7331643621
0.6224065381 0.5014337066 0.7389166527
0.6324385329 0.7514681106 0.9924785416
0.6323906738 0.500745163 0.9892204442
0.6224286269 0.7500103244 0.2365051514
0.6224286269 0.5011239271 0.2417098239
0.6323391333 0.751357475 0.4920449078
0.632320726 0.5010939904 0.4914963694
0.6224249455 0.7488063493 0.7379861622
0.6424042613 0.4996602838 0.7436270884
0.6523515823 0.7517219216 0.9976141866
0.6622657702 0.5011805465 0.7452312872
0.6522632271 0.50088964 0.994089183
0.6422974988 0.7494506387 0.2454004935
0.6422054621 0.4991669793 0.2440107401
0.6622657702 0.7487542855 0.2451400298
0.6622731331 0.4999589998 0.2465297832
0.6523405379 0.7504073108 0.4969633464
0.6523699896 0.5011844512 0.4957907995
0.6423674466 0.7499387367 0.7431880736
0.6622068667 0.7494506387 0.7440973957
0.6824991071 0.5007874648 0.7469901076
0.6722756761 0.7500363563 0.9937394437
0.6722830391 0.4994624414 0.9946966248
0.6822855821 0.7494376227 0.2447396704
0.6824438851 0.5001620485 0.2452339072
0.6722940835 0.7517804933 0.4981957171
0.6722977649 0.5017935976 0.4949643104
0.6823555299 0.7493139712 0.7467222809
0.7024489712 0.4998496658 0.7465032337
0.6923433471 0.749860641 0.995819472
0.7124478328 0.7501014361 0.9960219526
0.6924317023 0.5000911116 0.9967950604
0.7124551957 0.5010145931 0.9997494369
0.7023569345 0.7502641354 0.2479802808
0.7025520522 0.499196916 0.2499655113
0.692302851 0.7501925477 0.4972689081
0.6923875247 0.5003657481 0.4971464993
0.7123999737 0.5025927768 0.4994722654
0.7124956918 0.7518260491 0.4959426599
0.702312757 0.7513444591 0.746863097
0.7224687831 0.5007464646 0.7496895425
0.7324418744 0.7499647686 0.9973196693
0.7424554619 0.4994559334 0.7488207165
0.7324897335 0.503045081 0.9981848138
0.7224209241 0.7527436735 0.2492844401
0.7224503758 0.4998262371 0.2474363442
0.7425033209 0.748624126 0.2472126951
0.7424370545 0.4997923956 0.2488868418
0.7324602818 0.5011018 0.4962362569
0.7324124227 0.7489885725 0.4976361343
0.7225276866 0.7499452447 0.7457825867
0.7424002399 0.7496588938 0.7444655423
0.7524359161 0.501647819 0.4999462542
0.7524248717 0.7490015885 0.9987922557
0.7624495035 0.5006748769 0.7482123543
0.7525279528 0.4995066956 0.9998046589
0.762508407 0.7483442831 0.249578037
0.7623758742 0.4988461362 0.2489963654
0.7524911381 0.7503422311 0.5015200809
0.7625857178 0.7479407887 0.7481322824
0.7725845793 0.5001548898 0.5001809476
0.7725072686 0.7492684154 1.0034861248
0.7926780206 0.5004126055 0.5020419287
0.792633843 0.7486501579 1.0038818824
0.7824509081 0.4979246071 0.74712172
0.7725514462 0.5002824461 0.9994089013
0.7925381249 0.4991539634 0.9951199934
0.7825319004 0.7495612742 0.2523658271
0.782465634 0.4991025504 0.2498578284
0.7725477647 0.7492033357 0.5033451676
0.7925528508 0.7493269872 0.4982730279
0.7825466263 0.7492423835 0.7527562036
0.8126646993 0.4981491322 0.496934815
0.8125763442 0.7502706434 0.9961416002
0.8026474304 0.4986801829 0.7494935044
0.8126646993 0.4992235987 0.9977982599
0.8026032528 0.7512468395 0.2513819553
0.8025480309 0.4986300715 0.2465886867
0.8126352476 0.7492488915 0.4997980752
0.8025958899 0.7498996889 0.7477466488
0.8327839108 0.499354409 0.5008528152
0.8325998376 0.7498931809 0.9992340316
0.8226230648 0.5011004984 0.7467508123
0.8427533207 0.5001099848 0.7512744136
0.8326476966 0.5010132915 0.9991051803
0.8225825687 0.7500493723 0.2482287797
0.8226451536 0.5011942132 0.2501992844
0.8427459578 0.7489300008 0.2496406219
0.842661284 0.501384246 0.2507165304
0.8326219263 0.7508823929 0.4968390969
0.8227371902 0.7498411171 0.7476573733
0.8425876547 0.7484939665 0.7493766179
0.852726412 0.4995958548 0.5007782655
0.8626001037 0.7492553995 0.7536590832
0.8627179106 0.5009417038 0.7530488802
0.8527043232 0.7516633498 1.0002464348
0.8527337749 0.4979623534 1.0029247013
0.8624786153 0.7495677822 0.250612529
0.8626590072 0.4999238567 0.2535503388
0.8525644275 0.7493465111 0.5023217201
0.8726357799 0.4987387547 0.5037685362
0.8824689755 0.7499582606 0.7540299909
0.8926114143 0.4998639833 0.5115134203
0.872517973 0.7479147568 1.0059619107
0.8924015707 0.749372543 1.0071307761
0.8825315605 0.4998223323 0.7579562743
0.8726247356 0.4997234111 1.0079406987
0.8926924065 0.4989040572 1.0087782322
0.8826272786 0.7500884201 0.2561338075
0.8825867825 0.4999511902 0.2572584954
0.8724369808 0.7481099961 0.5044947054
0.892593007 0.748871429 0.5049696145
0.912542871 0.4997689669 0.5113081785
0.9024593358 0.7517674774 0.7589981292
0.9226116805 0.7495287344 0.757548552
0.9125723228 0.7514746185 1.0102232076