POSCAR file written by Ovito 3.7.11
1
271.5806902085 0.0 0.0
0.0 15.3629238149 0.0
0.0 0.0 10.8632276083
Sr Ti O 
800 800 2400 
Direct
0.0123985843 0.2515394826 0.5557611477
0.0225233468 0.2496511702 0.8072094371
0.0024568244 0.2521760802 0.807030853
0.0124178051 0.2496440101 1.0537485042
0.0225642555 0.0013378903 0.3062966149
0.0023475383 1.0009658378 0.3048900348
0.0125166707 5.3303053055e-04 0.5577642356
0.0224736378 0.0014160656 0.8063229603
0.002356265 0.0012907639 0.8077129707
0.0125358547 1.0008551818 1.0588943045
0.0224392466 0.250752523 0.3073920536
0.0022128454 0.2505572477 0.3060821298
0.0325532941 0.2482562534 0.5499967467
0.0424910404 0.2482940066 0.8033855276
0.0325330423 0.2515544537 1.0523953152
0.0426026094 0.9984207493 0.3009602635
0.0324671319 -2.133117763e-04 0.5562057669
0.0426217566 0.9992474149 0.7985711205
0.0325624995 -7.3020557176e-04 1.0581118483
0.0424343353 0.2489026147 0.2990731632
0.0724482512 0.248987234 0.5415250472
0.0526335141 0.2484111718 0.5487696712
0.0624254473 0.2487125467 0.7971728252
0.0725465646 0.2500762195 1.039507801
0.0525057436 0.2489605464 1.0473415686
0.0625031406 0.9979195427 0.2940949005
0.0725914868 0.999325525 0.5426950494
0.0524228953 -0.0010251364 0.5490375474
0.0625484311 0.9987917725 0.7949230334
0.0724508287 -0.0016208563 1.0400048909
0.0524519842 0.999507782 1.0495048299
0.0622884715 0.2489755175 0.2947484816
0.0925299441 0.2510669163 0.5367244481
0.1024883104 0.2488563996 0.7867367003
0.0825215006 0.2513240288 0.7888180338
0.092488704 0.2513337926 1.0364792352
0.1023369742 1.0006338697 0.2858984415
0.0824699505 0.9988113 0.2874025985
0.0924364175 7.1750062454e-04 0.5378557878
0.102417245 2.3653748959e-04 0.785400081
0.0825391749 0.9960188628 0.7872429955
0.0924496733 1.0000024795 1.0356323414
0.102458485 0.2501679989 0.2857649637
0.0824265012 0.249121974 0.2899635317
0.1124168513 0.2508260767 0.5335881795
0.1224164577 0.250744712 0.7829265988
0.1123851849 0.248393597 1.0338557055
0.1222971561 1.042059084e-04 0.2838198696
0.1124477814 0.9967934549 0.5337557172
0.1222732222 0.9992278874 0.7848348714
0.1123387898 -0.0025577939 1.0336071606
0.1225306043 0.2494057742 0.2826728808
0.152280142 0.2488550977 0.5238728349
0.1324079634 0.2477238027 0.5270827465
0.142435554 0.2475851572 0.7765739748
0.1524020211 0.2488655124 1.0257549823
0.132409068 0.2481833506 1.0317568818
0.1423574925 -1.1964471023e-04 0.2785231013
0.1522514213 0.9990586488 0.5245457472
0.1323195918 -0.0018159364 0.5342169061
0.1423243532 -0.0015476281 0.7771631183
0.1522702002 0.9970668404 1.0254512052
0.1323140686 -0.0032583702 1.0325301326
0.1424204572 0.2485159696 0.2783721332
0.1724715628 0.248931906 0.5202403969
0.1625356576 0.2494975536 0.7712569547
0.1725091207 0.251805708 1.019605797
0.1623559688 -7.9080601548e-04 0.2714800747
0.1724384235 -0.0011552549 0.5217104941
0.1623754842 0.999982952 0.7725217721
0.1723883463 -0.0017527323 1.0223121749
0.1623968407 0.2491603782 0.2716466919
0.1925595153 0.2483981535 0.5113719461
0.2024946841 0.2481820488 0.762592863
0.182455336 0.2500462772 0.7635769167
0.19262248 0.2493471916 1.01391688
0.2026305553 -1.2589352075e-04 0.2583163995
0.1824667506 4.4912723092e-04 0.2620961233
0.1925271124 -0.001055339 0.5101697251
0.2026589079 1.0006989615 0.7630494492
0.1825867886 0.9987917725 0.7659914846
0.1925330039 -0.0013226058 1.0125728964
0.202540711 0.2507935308 0.2573074913
0.182381693 0.2504687229 0.2633259604
0.2124825076 0.2491356433 0.5076189179
0.2224920558 0.2492860053 0.753019281
0.2124990773 0.2484235393 1.0053098616
0.2224084711 0.9994752361 0.2531070822
0.2124663062 0.9994882545 0.5065860757
0.2224250407 1.0006599065 0.7536940344
0.2125428948 0.9989870478 1.0066078184
0.2223889557 0.2517126267 0.2557011547
0.2524706231 0.2520908099 0.4878227755
0.2324150735 0.2518460649 0.4979136991
0.2424746989 0.251417761 0.7436058724
0.2525575218 0.2510578034 0.9870372075
0.2324371664 0.2505657096 0.9966292002
0.2426006283 1.0000154979 0.2405518818
0.2525597311 0.0023814417 0.4878798488
0.2325954987 7.0786704165e-04 0.4972730056
0.2423889048 1.0013563885 0.7432330551
0.2526204865 0.0031167184 0.9868899216
0.2324791429 -0.0017928939 0.9970526471
0.2425078382 0.2510011736 0.241974111
0.2725512113 0.2500052694 0.4822829855
0.262534667 0.2515414353 0.7332967816
0.2725865599 0.2511964489 0.9802344411
0.2625578646 1.0019161777 0.2408538178
0.2726034978 7.4849517301e-05 0.4828859371
0.2625991046 1.0014214802 0.7361973928
0.2725578391 0.0012981844 0.9851869287
0.2626801118 0.2507870217 0.2351271588
0.2925077111 0.2502571746 0.4770598601
0.30250474 0.248385786 0.7277210907
0.2825677555 0.2504316206 0.7320273615
0.2925043972 0.251939797 0.9797005298
0.3026089447 7.6950895379e-04 0.2278604419
0.2825331433 0.9988568643 0.2336211607
0.2926472645 -1.9663741861e-05 0.4818843931
0.3026476073 -6.6218466554e-04 0.7289113446
0.2825931623 0.9990261029 0.7330868992
0.2925677301 -0.0021396443 0.9787339662
0.3026266191 0.2494799788 0.2255609411
0.2825162055 0.2479451147 0.2320102215
0.3326563682 0.2510311158 0.4700453702
0.3125695204 0.252312122 0.4755244048
0.3226471882 0.2520068415 0.7229563925
0.3326188103 0.2502129122 0.9685988568
0.3125301214 0.2525757437 0.9748769173
0.3225647082 9.912115438e-04 0.2219671657
0.3328426848 0.0010281837 0.4674522183
0.3126715158 -1.4444467699e-04 0.4773940149
0.3225823825 0.0028941696 0.7234295484
0.3326438489 7.3038879624e-04 0.9692248218
0.312640954 0.9999048418 0.9758803024
0.3225757546 0.2499818364 0.220343339
0.3526935071 0.2496811124 0.4654988393
0.3427145207 0.2501185291 0.7159152071
0.3526349609 0.2507961345 0.9635543156
0.3425911688 0.0019435693 0.218076057
0.3526183913 -0.001176605 0.4630428473
0.3426839589 1.0003669935 0.7178529369
0.3525723644 5.1031350063e-04 0.9632781546
0.3425495605 0.2495698054 0.2184240199
0.3725807825 0.2500391171 0.4548868919
0.3825814935 0.2494897426 0.7070642465
0.3625101107 0.2504387807 0.7088445645
0.3726875648 0.2496895743 0.958325667
0.3826588186 0.9996640023 0.2057786068
0.3625984822 0.9979651069 0.2082097443
0.3725697361 1.8284763712e-05 0.4594545952
0.3825225792 -7.7837348621e-04 0.7027349622
0.362642668 0.9994947637 0.70974577
0.372466636 -0.0021821623 0.95877673
0.3826072686 0.2526538538 0.2036503259
0.362517475 0.2497130073 0.2120769191
0.3924791044 0.2485940797 0.450553005
0.4025092726 0.2512940866 0.7002835729
0.3925822046 0.2503684815 0.9510718375
0.4024982262 0.9973337167 0.1982587423
0.3925895689 1.0004906678 0.4500448687
0.4024540404 3.0690169975e-04 0.6981350402
0.3926079796 1.0013498793 0.9510350161
0.4025055905 0.2502968806 0.1993339292
0.4323420269 0.2481299753 0.4468625733
0.4124584336 0.2505422766 0.4476542349
0.4224002303 0.2490386565 0.700146413
0.4324598556 0.2495222884 0.9480708878
0.4124952551 0.2488563996 0.9464507432
0.4223855017 1.000093608 0.1977846659
0.4324524913 1.0013889343 0.4489208934
0.4125247122 1.053124686e-04 0.4494262681
0.4225659269 0.9982384924 0.6979895954
0.4323751662 1.0011676223 0.949129505
0.4125283944 0.0015552969 0.9491387104
0.422444416 0.25059435 0.2015570254
0.4524060454 0.2497735427 0.4489015621
0.4424090166 0.2505936991 0.6980641589
0.4523397668 0.2476111939 0.9457787514
0.4425305274 0.9996835298 0.1964397617
0.4524355026 3.1848803593e-04 0.4455949942
0.4422470021 -4.0546269989e-04 0.6965866974
0.4524391848 0.9985314054 0.9451067595
0.4423906058 0.2504101403 0.1967030352
0.4724332425 0.2493810393 0.4384755631
0.4824229071 0.2500234951 0.6841207891
0.4622373777 0.2484554342 0.6906759311
0.4724847926 0.2514470523 0.9387826722
0.4823345356 -0.0018739787 0.1848897874
0.4624141208 5.1962162464e-04 0.1944375944
0.472344871 0.9986355522 0.4358483513
0.4825260072 1.0002303007 0.6874135489
0.4623331135 -5.522446554e-04 0.6931991223
0.4724111496 7.2023447914e-04 0.9369508041
0.4823161248 0.2503372375 0.1846550505
0.4623478421 0.250270193 0.1926167727
0.5126312404 -0.0025157902 0.4427542179
0.5124618616 -0.0016502127 0.9407618262
0.4923168358 0.2502727966 0.435276698
0.502472197 0.2509718823 0.6866338543
0.4924088895 0.248101335 0.9364629197
0.512546551 0.2500280515 0.4424099371
0.5124139937 0.2514190628 0.9421518366
0.5023801433 -0.0019879414 0.1905280749
0.4923610216 -3.9276980351e-04 0.4345743285
0.5024869256 -1.6930973553e-04 0.6900665358
0.492497261 -4.4484322454e-04 0.9364353036
0.5024280113 0.2500963979 0.1899334081
0.5225583084 0.9997811675 0.1961396668
0.5324743301 0.0030272823 0.4485526787
0.522573037 0.9997941858 0.6968840308
0.5324080514 0.9984728228 0.9464875646
0.5226024942 0.2492443466 0.1968972685
0.5325663837 0.2482543006 0.4462421315
0.5225141227 0.248639644 0.6947069614
0.5325774302 0.250634056 0.9462666358
0.5424455839 -0.0027627093 0.1974827299
0.5623844094 -0.0028406697 0.2015772772
0.5524094735 -9.6271339664e-04 0.4484376116
0.5425965519 0.9971905148 0.6965075313
0.5624138666 0.9965591245 0.7024385494
0.5524094735 0.0014488718 0.9507128282
0.5425707769 0.2477504903 0.1959537183
0.5624396416 0.2494956008 0.1991617888
0.5523689698 0.2477218499 0.4498478739
0.5424603125 0.2503736889 0.6970322372
0.5624580524 0.2508651318 0.6997413768
0.5524352485 0.2492853544 0.9477487
0.5823121885 -8.6937178945e-04 0.2019998036
0.5725066313 -9.4357641441e-04 0.4553950282
0.5823637386 0.9989089377 0.7058647871
0.5724072133 -0.0016082936 0.9532903311
0.5824373815 0.2483493346 0.2041971247
0.5723262061 0.2487223105 0.4536570549
0.5822900956 0.2485628357 0.7035662069
0.5723409347 0.2485328934 0.9522501246
0.6023872535 0.9967153448 0.2037994529
0.5923276281 0.9981083088 0.4583711234
0.6124321503 -1.4301265792e-04 0.4597381205
0.6023762071 -0.0015804994 0.70803081
0.5923902246 -3.8001181536e-04 0.9579482469
0.6123953288 -4.8135971103e-04 0.9600010438
0.6024793072 0.2500944452 0.2107356971
0.5923828603 0.2501250383 0.4564904669
0.6124726539 0.2506073684 0.4588995115
0.6025050822 0.2494871389 0.7076846882
0.5924086354 0.2503072953 0.9562544593
0.612325368 0.2508534153 0.9607742947
0.6224660006 -0.0013998047 0.2066761302
0.6324667116 2.8699447917e-05 0.4644208908
0.6224807292 4.3441648948e-04 0.7092118587
0.6324593473 1.0001847365 0.9642815396
0.6223813112 0.2491037483 0.2129413031
0.6324114794 0.2500215424 0.4612072971
0.6224954578 0.2501640934 0.7127154214
0.6324740759 0.2489930923 0.9653125407
0.6424674226 1.0005427413 0.2154000567
0.6624688447 7.2453053638e-04 0.2233102288
0.6524865444 6.5377577556e-04 0.469990138
0.6424490119 0.999214869 0.7150057168
0.6624798911 1.0005752871 0.7215166731
0.6525417766 0.9993125067 0.9697771439
0.6425447477 0.2501465186 0.2148615427
0.6624504339 0.2479854716 0.2228674507
0.6523208478 0.2485172714 0.4700177541
0.6424895155 0.2500781722 0.7199002106
0.6624209768 0.2502578255 0.7213795131
0.652401855 0.2486097017 0.9694273399
0.6823671666 1.0005427413 0.2244038265
0.6723922306 0.9990911946 0.4746959218
0.6824334452 1.6754020673e-04 0.7271669275
0.6724806021 0.001119898 0.9752267213
0.682378213 0.2479652932 0.2265201404
0.6723627734 0.2477596031 0.4754360333
0.6824003059 0.2472453781 0.7270352908
0.6724327342 0.2481820488 0.9733027995
0.7024348673 -4.05137241e-04 0.232199852
0.6923936526 0.9975094645 0.4783891151
0.7125129034 1.0019096686 0.4860479807
0.7025306031 0.9988113 0.7354434733
0.6926403565 0.9993190159 0.9812562369
0.7124429426 -1.1567411188e-04 0.9858036883
0.7024201387 0.2478709101 0.2329823082
0.6924120634 0.2480603271 0.480302911
0.7124981748 0.2494897426 0.4846736194
0.7023980458 0.2497273275 0.7329736732
0.6923826062 0.250404282 0.980206825
0.7124687176 0.2487444417 0.9857116346
0.7225467537 0.0018726844 0.2421379665
0.7426181365 1.0001847365 0.2501659673
0.7326247898 0.0015120759 0.4953766999
0.7225430716 0.9989740294 0.740298384
0.7425997258 0.002052598 0.7500661992
0.732654247 1.0015191179 0.9969145666
0.7224473357 0.2505429275 0.2388553326
0.7426365473 0.2511059714 0.2497029374
0.7324738218 0.2507024023 0.4935255006
0.7225136144 0.2493263622 0.7406776451
0.7425481757 0.2501927337 0.7490766222
0.7325953326 0.2511580448 0.9931127499
0.7626085121 0.002427787 0.261234501
0.7527182655 0.0010358645 0.5057704801
0.7625275049 0.001439043 0.7637849581
0.7526372583 1.000607833 1.0046378698
0.7626379693 0.2497488078 0.2592866452
0.7526924905 0.2517028629 0.5036468019
0.7626968836 0.2513669894 0.7605419072
0.7526041189 0.2517158813 1.0065617915
0.782632027 0.0027316355 0.264807104
0.7725208516 0.9988633734 0.5121866211
0.7925222736 1.001375916 0.5161246772
0.7824994697 0.0022024393 0.7634222666
0.7726460446 0.9999048418 1.0162182218
0.7923933985 3.4947172144e-04 1.0153897387
0.7826762128 0.2516638079 0.2666343694
0.7725944945 0.2519424007 0.5138095274
0.7927247917 0.2530229242 0.5154075791
0.7826430735 0.2522554921 0.7668365373
0.7726165874 0.2518044061 1.0132540935
0.7926879702 0.2527111346 1.0177371074
0.8025340311 1.0007184891 0.267263096
0.8124353241 0.0031552527 0.5205322071
0.802482481 0.001465991 0.7678417634
0.812556835 1.0026517148 1.0215389241
0.8027181384 0.2525060955 0.2707307579
0.8126378422 0.2517119758 0.5239022921
0.8025634883 0.253016415 0.7666432246
0.8125421064 0.2507518721 1.0215665402
0.8226164603 1.0009267827 0.2759170618
0.8425810609 1.0026647332 0.2771689917
0.832584032 0.0023319069 0.5282868085
0.8226606461 0.0025679296 0.7749096444
0.8426142002 5.7507981803e-04 0.7762306146
0.83268345 0.003379559 1.0281299671
0.8226127782 0.2492710342 0.2732972142
0.8426473396 0.2516442803 0.2815387796
0.8326466285 0.2500156841 0.5272383172
0.8226348711 0.2522372664 0.7754076548
0.8426731146 0.2504804394 0.7830066855
0.8326724036 0.2526134969 1.0313794617
0.8625125221 0.0011168387 0.2790146679
0.852482354 1.0044742845 0.528726825
0.8625603901 0.999507782 0.7808268545
0.8525744076 0.0022536015 1.0304405142
0.86250884 0.2498021831 0.2802030808
0.8525412683 0.2490041579 0.5297633494
0.862659808 0.2525262739 0.7839760106
0.8526443684 0.2522424738 1.0283324851
0.8824182084 0.9994101443 0.2851675354
0.8724800938 0.0015699425 0.5317351391
0.8924557408 0.0012723429 0.539804564
0.8824034798 0.9991888323 0.7863187766
0.8725537368 0.0024217986 1.0314438993
0.8825802228 0.2511098769 0.2896735626
0.8924226015 0.0015401305 1.0416066248
0.8725316439 0.2528797223 0.531997492
0.8924262837 0.2510291631 0.5438282301
0.8824108441 0.250285815 0.7871067561
0.8725279617 0.253427795 1.0323276145
0.8924815159 0.2498282198 1.0418735804
0.9026405592 0.002719984 0.2932747023
0.9225793847 9.9401049018e-04 0.3002891922
0.9124829379 0.0022386954 0.5458469671
0.9025705984 1.0004581219 0.7956732709
0.9225462454 1.0008812185 0.7985775642
0.9125271237 1.000679434 1.0485382663
0.9024748626 0.2505507385 0.2960160607
0.9224320989 0.2512641444 0.2992296544
0.9124718915 0.2488036752 0.5481786867
0.9024748626 0.2512172783 0.7953142615
0.9224136881 0.2512205329 0.8002225634
0.9125160772 0.2493667191 1.0490905884
0.9424777066 1.0039014769 0.3006629301
0.9326095529 1.0006989615 0.5526009451
0.9425071638 0.9990651579 0.8001627285
0.9325322278 1.002658224 1.0488696595
0.9424445673 0.2532702729 0.3006656917
0.932384942 0.2504895522 0.5497472812
0.9424298387 0.250514938 0.7971903154
0.9323996705 0.2487021321 1.0512446443
0.9623539357 -3.1342292822e-04 0.3005911282
0.9524747355 1.0024108752 0.5519307944
0.9725203433 0.9973792809 0.5503760078
0.9623944393 1.0005948147 0.8012646109
0.9525851999 0.9996314564 1.0485842932
0.9623723464 0.2513630839 0.2970617904
0.972461429 -9.8712281275e-04 1.0519810737
0.9523642711 0.2534609918 0.5494692791
0.9721999965 0.2504348751 0.5525337459
0.9622802927 0.2528400163 0.8010123839
0.9524968284 0.2517458235 1.0512170282
0.972236818 0.2516533932 1.0519994844
0.9823222184 0.0017452998 0.3066767965
0.9923744795 1.0018250492 0.5549823736
0.9824253185 1.000204264 0.8073033319
0.9823700863 0.2513923752 0.3026153885
0.9924076188 3.237604698e-04 1.0544481121
0.9924665331 0.2507310427 0.5554730197
0.9823590399 0.250135453 0.802456706
0.9923450223 0.2498926606 1.054494139
0.0124180997 0.7512607656 1.0569335613
0.0224784983 0.4997175017 0.8044404627
0.0025172117 0.501495809 0.8055699612
0.0124458999 0.5003182988 1.0567586593
0.0225508525 0.7508962517 0.3084028029
0.0023769955 0.7509613435 0.3112711954
0.0124249116 0.7495618703 0.5573352655
0.0224759208 0.7510329444 0.8104414416
0.0223345263 0.5016272944 0.306212846
0.0023997143 0.5001139106 0.3056301463
0.0023859799 0.7497636548 0.8090348615
0.0123641562 0.4990724422 0.5581453378
0.0324575583 0.7490085902 1.056500909
0.0424203432 0.501029101 0.7995045447
0.0325860652 0.4995892709 1.0549544073
0.0424472228 0.7500305311 0.3028897084
0.0325278873 0.7496464896 0.5576510096
0.0423971456 0.7493145215 0.8034775812
0.0424328625 0.4987059755 0.302664177
0.0326007938 0.5002017845 0.5555641528
0.0724541427 0.7483381449 1.0407044988
0.0622965722 0.4987600017 0.7954357724
0.052436151 0.7495293244 1.0515208053
0.0724453055 0.5005962407 1.0403915163
0.052461926 0.4982399184 1.048077998
0.0624037227 0.7488458607 0.2933658355
0.0723665076 0.749294994 0.5405594042
0.0523639809 0.750173733 0.5481455473
0.0623993041 0.4988530829 0.2973462363
0.0723602479 0.5002571125 0.544502063
0.0624777338 0.7476872271 0.7963673555
0.0523912288 0.5002955167 0.5527804498
0.0924945955 0.7505447561 1.0370683787
0.1025045118 0.498385073 0.7876231772
0.0824257647 0.4991791927 0.7892700174
0.0924242665 0.5000208294 1.0380257369
0.1024548029 0.7481038145 0.2868014881
0.082446753 0.749112737 0.2910387186
0.0924636654 0.7469191441 0.5362881137
0.102508194 0.747830429 0.7850723699
0.1022986798 0.498970899 0.2876750774
0.0825329152 0.5000982886 0.2915827558
0.0824670048 0.7496725263 0.7901776666
0.0924618244 0.5010629487 0.5380555443
0.1123362123 0.7492884848 1.0360834044
0.1223468651 0.4991329775 0.7828953005
0.1123678788 0.4991518542 1.0378140134
0.1223656441 0.7477327914 0.2830447777
0.1125357847 0.7479866493 0.5357063345
0.1224101981 0.4964974115 0.2801938754
0.1222688036 0.7500565678 0.7830398248
0.1124805525 0.4993692607 0.5339582353
0.1524708772 0.7473357315 1.0210050128
0.1422768535 0.4998847876 0.7754822183
0.1323612001 0.7494642326 1.0287191106
0.1524285326 0.4991303739 1.0224226393
0.1324341066 0.4992891978 1.0323920521
0.1423243532 0.7498482741 0.2781861848
0.152360781 0.748305599 0.5228749731
0.1323302701 0.7468084881 0.5298517209
0.1423832676 0.5010479776 0.2750526778
0.1423412911 0.7493600858 0.777292914
0.1524160133 0.4982073725 0.5228445954
0.1323457351 0.4981592046 0.5316541318
0.1727075885 0.7487742598 1.0191271179
0.1625433901 0.4991616179 0.7706061352
0.1724873961 0.4994740584 1.0183998938
0.1625352894 0.7487742598 0.2703321654
0.1725647212 0.7487742598 0.517923406
0.1623725385 0.4999316536 0.2697623532
0.1625746884 0.7503039165 0.7705076378
0.1724505746 0.4979033939 0.5184913772
0.1927241073 0.7503755175 1.0117812348
0.2025329785 0.498899949 0.7633624317
0.1826523308 0.4983655455 0.7646741965
0.1924600974 0.5000540262 1.0111000376
0.202717454 0.7483576724 0.2580540466
0.1825072543 0.7482144705 0.2617951078
0.1927263166 0.7482014521 0.5093660966
0.2025112538 0.4976319612 0.2604989921
0.202667745 0.7488653883 0.7587781588
0.1825635911 0.4985458497 0.2682158515
0.182575374 0.7478890116 0.7660319882
0.1925738757 0.4991238647 0.5124572589
0.2125638831 0.7491192462 1.0061935768
0.2224692265 0.4996322315 0.7530386123
0.2125160152 0.5005129232 1.0083016059
0.2225458151 0.7491973563 0.252449819
0.2124773526 0.7487872781 0.5084335929
0.2224972108 0.4995996856 0.2545385168
0.2225016294 0.748637567 0.7512398835
0.212491713 0.4998945513 0.5086895021
0.2526219593 0.7525300553 0.984993616
0.2424065792 0.5002935639 0.7439768487
0.2324728832 0.749112737 0.9967672807
0.2525262235 0.5021714617 0.9875711188
0.232383407 0.5007928178 0.998276961
0.242437141 0.7491973563 0.2406107961
0.2525564171 0.7515862245 0.4872989901
0.2325233286 0.7518856467 0.4997547726
0.2426713255 0.499897155 0.240682598
0.2424400867 0.7499328934 0.744749179
0.2525103903 0.502152585 0.4890645796
0.2325086 0.5019384331 0.4980775547
0.2725670445 0.7511175637 0.9865769392
0.2626337168 0.5005350544 0.7330602037
0.2724466383 0.5012764497 0.9869543592
0.2625099967 0.7495618703 0.2384705482
0.272598711 0.7506033387 0.4810503868
0.2626414493 0.4994766621 0.2340832702
0.2625144152 0.7500110035 0.7340424164
0.2724319097 0.4998997587 0.4841728474
0.2925511605 0.7483186173 0.9813574959
0.3024679185 0.5001445037 0.7296661848
0.2826008949 0.4999459738 0.7356975414
0.2925868773 0.4993477804 0.9801792089
0.3025828015 0.7492038655 0.230105631
0.2825184148 0.7490671728 0.234304199
0.2924649982 0.7488328424 0.4796373629
0.30249443 0.5010466758 0.2317174908
0.3025798558 0.7493731041 0.7305701518
0.2824985312 0.50020569 0.234341941
0.2824094232 0.7503104257 0.73557511
0.2923688942 0.5003222043 0.4843284181
0.3326545271 0.7517229172 0.9697863492
0.3225426153 0.4989637389 0.720135868
0.3125120789 0.7513909492 0.9751254623
0.3325624735 0.4993041689 0.9750334086
0.312546691 0.5007348862 0.9735237283
0.3226280411 0.7529206059 0.2228260265
0.3326519496 0.7506423938 0.4726099856
0.312615179 0.7495423427 0.4775983741
0.3225827507 0.4987137865 0.2196741088
0.3225790685 0.7511110545 0.7250294413
0.3326438489 0.5007505082 0.4691045817
0.3125496368 0.4989136183 0.4746462128
0.3525937209 0.749626962 0.9640422
0.342641246 0.4974731372 0.7176596242
0.3525668412 0.5009711693 0.9675770611
0.3426084749 0.7504341001 0.2176811467
0.3527108131 0.7490085902 0.4656065421
0.3426335135 0.4986708259 0.2144436191
0.342651556 0.7483706908 0.7164574032
0.3525896705 0.4991173555 0.4679677188
0.3725991933 0.7477978831 0.9593474627
0.3825336256 0.4988647994 0.7045677509
0.3626610787 0.4990255761 0.7089099226
0.3725476432 0.500656776 0.9585926226
0.38259254 0.7491713196 0.2095288735
0.3625727072 0.748487856 0.2137605808
0.3726065576 0.7495944162 0.4605003249
0.3825336256 0.4987281067 0.2041363693
0.3825115328 0.7499068567 0.7096527957
0.3627384038 0.4976430268 0.2091643409
0.3625137929 0.7496920538 0.7116310292
0.3724040395 0.5009802822 0.4577488406
0.3925122438 0.7487221864 0.9548368328
0.4025608227 0.5015823811 0.7004271767
0.3925048795 0.4998366196 0.954892065
0.4025608227 0.7498027098 0.2026874445
0.3926337546 0.7505707928 0.4506920061
0.4024245833 0.5009015211 0.1998135288
0.4025718691 0.750284389 0.7054542277
0.3925711581 0.498717692 0.4541697938
0.4323604377 0.7504406092 0.9510350161
0.4224554625 0.4992097858 0.697591003
0.4124473872 0.7475570436 0.9506207745
0.4325334986 0.4999323046 0.9480616824
0.4125504873 0.4994232869 0.9486047991
0.4222971301 0.751273784 0.205506128
0.432319934 0.7479541034 0.4520129763
0.4123700621 0.7490281177 0.4514450051
0.4223965481 0.5002662254 0.1990973513
0.4224149588 0.7489890626 0.699971511
0.4323346626 0.4998685146 0.4493820823
0.4124805265 0.5017262339 0.4496913826
0.4522366667 0.7471014011 0.9456498762
0.4423316915 0.5009568491 0.6966916386
0.4524170919 0.4982405693 0.9437167491
0.4423059165 0.7509222884 0.1983443522
0.4522992632 0.7498938383 0.4486502556
0.4424274273 0.4999453229 0.1978932892
0.4424126987 0.7500956228 0.6993685594
0.4524465491 0.5006060044 0.4415087317
0.4724221961 0.7491452829 0.9354135078
0.482445 0.5023615296 0.6892988082
0.4623478421 0.4987873402 0.6912982139
0.472319096 0.4991655234 0.9378069033
0.4824008142 0.749626962 0.1839259855
0.4623036564 0.7508571966 0.18962779
0.4724811104 0.747941085 0.4387655322
0.4824486821 0.5001601258 0.1866535358
0.4823234891 0.7502778798 0.6844917654
0.4623404778 0.4991544578 0.1901138333
0.4623073385 0.7457605105 0.6878213467
0.4723154138 0.4999583413 0.4376249872
0.4923536573 0.4968039938 0.9354779454
0.5025752971 0.7501607146 0.1878042067
0.4923499752 0.750616357 0.432983641
0.5024280113 0.5006131645 0.1894215897
0.5025495221 0.7500500586 0.6857556623
0.4925782683 0.7485464386 0.9343088637
0.4923867966 0.4999824252 0.435590601
0.5023580505 0.5002955167 0.6894709485
0.5125539153 0.7530638078 0.9436062847
0.5124950009 0.4999023623 0.9411760677
0.5125907367 0.748233998 0.4403912001
0.5124950009 0.4990301325 0.4394550142
0.522598812 0.4982451257 0.6959294342
0.5325700659 0.7497050722 0.9460733231
0.5325148337 0.4991284211 0.9460180909
0.5225067584 0.4998678637 0.194203778
0.5225619906 0.7483837091 0.1938843518
0.5326289802 0.7492429206 0.4462145154
0.5325590194 0.4993236964 0.4475133927
0.5226393157 0.7485204018 0.69197757
0.5425855055 0.4982203908 0.6967082083
0.5524168377 0.7488263332 0.9455210011
0.5625427418 0.4994024575 0.7013946608
0.5525862165 0.5003469392 0.946671672
0.5425192268 0.500221312 0.1972498341
0.542497134 0.7487482231 0.1936385685
0.5625906097 0.4995176699 0.2006650253
0.562623749 0.7501086412 0.1991737558
0.5525420307 0.4999544358 0.4500743259
0.5525751701 0.7474463875 0.4466149489
0.5426260091 0.7492689573 0.6953881586
0.5625685168 0.750798614 0.6986035934
0.5823416457 0.4972915312 0.7035836971
0.5724587634 0.7484813468 0.95138482
0.5723961669 0.4987684636 0.9513387932
0.5823858315 0.4991193083 0.2048258513
0.5825331173 0.748305599 0.2077098929
0.5723703919 0.5009548964 0.4514275149
0.5725692278 0.7500110035 0.4525616162
0.5825073423 0.7496399804 0.7053723
0.6025382215 0.4987007681 0.7084846346
0.5924970069 0.7492884848 0.955168226
0.6125131575 0.7480647594 0.9596236237
0.5923681317 0.4995443576 0.9554812085
0.6125315682 0.5000468661 0.9583072562
0.6024093464 0.751788009 0.2084757795
0.6025198108 0.5001015432 0.2113073504
0.5924159997 0.7487286955 0.4546319033
0.592375496 0.4983303959 0.4575067395
0.6126641255 0.7483316357 0.4612892249
0.6124726539 0.4989767573 0.4594822113
0.6025271751 0.7469647084 0.7099050228
0.6226832473 0.4988882325 0.7120323832
0.6325661296 0.7472966765 0.9643275664
0.6326950047 0.4995612814 0.966371158
0.6225175507 0.7497245997 0.2131438212
0.6226316972 0.4989494187 0.212099012
0.6326213618 0.7485464386 0.4626479371
0.6325624474 0.5011859722 0.4657501459
0.6225985579 0.7508506874 0.7098010022
0.6425300191 0.4992983107 0.7174469802
0.6526117374 0.74790203 0.9685252139
0.6625424876 0.4998958532 0.7225265019
0.6526154195 0.4996921159 0.9710935114
0.6425373834 0.7506033387 0.2170671487
0.6426699407 0.4990203688 0.2195848167
0.6625424876 0.7487547322 0.2213255516
0.6624798911 0.4993783735 0.2195700881
0.6525970088 0.7490736819 0.468887335
0.6525712338 0.5000644409 0.4685936838
0.6425079263 0.7520288486 0.7180665014
0.6626860913 0.7494902693 0.722554118
0.682477631 0.4989565788 0.7240766857
0.6725763379 0.7503169349 0.9741681041
0.6725763379 0.5002206611 0.9718575569
0.6825549561 0.7489369892 0.2256216966
0.6825623204 0.5006925765 0.2273357359
0.6724585092 0.7494902693 0.4698667861
0.6725837022 0.4984521176 0.4715219111
0.6824371274 0.748819824 0.7251914557
0.7025968817 0.4997057852 0.7322593367
0.6924967527 0.7494186684 0.9788628414
0.7125460427 0.750212788 0.9875803242
0.6924857063 0.4992898487 0.9762761332
0.7125055391 0.4982640023 0.9859233581
0.7026373853 0.7476026078 0.2309764587
0.7025563781 0.5007322825 0.2323637076
0.6925225278 0.7491452829 0.4816579411
0.6925998529 0.4988179333 0.4777935279
0.7125349962 0.4993178382 0.4862698301
0.7125497248 0.7491973563 0.4852977433
0.7026557961 0.7487742598 0.7304237865
0.7225357073 0.501836239 0.742253604
0.7326100612 0.750102132 0.9933336787
0.7425849972 0.5007830541 0.751578641
0.7324959147 0.5000839684 0.9982309341
0.7226240788 0.7508506874 0.2385368269
0.7226130323 0.5016279453 0.24272711
0.7425224007 0.7481819246 0.2518661987
0.7425481757 0.5002089446 0.2508922708
0.7324259539 0.4984696923 0.4965467021
0.7326026969 0.7521069587 0.4943410961
0.7226019859 0.7497376181 0.7413109744
0.7425923615 0.748637567 0.7519689486
0.7525820261 0.4999960945 0.5068972171
0.7526262118 0.7520744128 1.0053650938
0.7625753728 0.5010492794 0.7596130856
0.7525267939 0.4981852413 1.0050152898
0.7624943656 0.7512802932 0.2616165237
0.7625164584 0.5009190959 0.2599613987
0.7525599332 0.7517164081 0.5052844367
0.7625495978 0.7497180905 0.7612718928
0.7725503088 0.5004133328 0.5131347739
0.7725024409 0.7508506874 1.0164759721
0.7924744057 0.5033750086 0.5159433315
0.7924412664 0.7528034407 1.0156106676
0.7826209806 0.5035422945 0.7640436289
0.7725834481 0.5006919256 1.0152608636
0.7925222736 0.5008989174 1.0152424529
0.7825326091 0.7516513163 0.2670918762
0.7825915234 0.5019065381 0.26347969
0.7726349982 0.7534153034 0.5145855398
0.7925664594 0.7515016052 0.5163474471
0.7824368732 0.7519312109 0.768120686
0.8125862922 0.5033541792 0.5230296232
0.8126709815 0.749516306 1.0186484388
0.802581899 0.5008761353 0.7665401245
0.8126231136 0.5006365976 1.0180500899
0.8025377132 0.7535194503 0.2672428442
0.8024935275 0.5025620123 0.2675226874
0.8126157493 0.7512802932 0.5227958069
0.802456706 0.7516122612 0.7678988367
0.8327018607 0.5015179402 0.5277077909
0.8326724036 0.7511305821 1.0297409063
0.8226164603 0.5031146415 0.7758587178
0.8427025718 0.4995990347 0.779585971
0.8326134892 0.502485204 1.0264177687
0.8228042498 0.7518791375 0.2763506346
0.822583321 0.5002050391 0.2749845581
0.8425957895 0.7516838622 0.2792733387
0.8428019897 0.5007550646 0.2834682246
0.8326871322 0.7512998207 0.528023535
0.8226201425 0.7524128901 0.7746712254
0.8426105181 0.751788009 0.7779244022
0.8526554149 0.5008832954 0.5319091205
0.862483065 0.7510264352 0.7792766706
0.8626156223 0.5008266656 0.7799081588
0.8526922363 0.752152523 1.0286270569
0.8526443684 0.4998567981 1.031987016
0.8625751186 0.7532851199 0.2846612402
0.8625751186 0.5012784025 0.2823737064
0.8526480506 0.7500956228 0.5288557002
0.8725905582 0.502311409 0.5358701901
0.8825065799 0.7502192972 0.7850558002
0.8926140732 0.501646171 0.5414026158
0.872384358 0.7506684305 1.0317200603
0.8924888802 0.7528685325 1.037777192
0.8825434014 0.49931914 0.7906047956
0.8725426903 0.5031146415 1.0371972538
0.8925367481 0.5007192641 1.0419748395
0.8825286728 0.7476611904 0.2859076469
0.8824697584 0.4997559058 0.2901568444
0.872458001 0.7514495318 0.5338726254
0.8924446944 0.750870215 0.5393636269
0.9125418522 0.5012100561 0.5505674795
0.902460134 0.7504991918 0.7941240075
0.9225904312 0.7519897935 0.798734976
0.9125234415 0.7510654903 1.0485842932
0.9024306768 0.5001015432 0.7949110664
0.9225167882 0.5010694579 0.7987193269