POSCAR file written by Ovito 3.7.11
1
271.5927729589 0.0 0.0
0.0 15.3636073184 0.0
0.0 0.0 10.8637109183
Sr Ti O 
800 800 2400 
Direct
0.0124760222 0.2494052067 0.5428395088
0.0225686692 0.250451185 0.7911901893
0.0026320931 0.2500489357 0.7878405052
0.0125707228 0.2514997669 1.0427607641
0.0224670833 0.002328142 0.2918957916
0.0025152637 1.0011908883 0.2890404137
0.0125742943 6.4435773549e-04 0.5446206681
0.0225363414 6.3654706983e-04 0.7957816222
0.0025468552 5.8441087659e-04 0.7915381367
0.0126281985 1.0022127838 1.0421716468
0.0224567001 0.2513793525 0.2919731132
0.0025762006 0.2516898264 0.2891379862
0.032499714 0.2517412466 0.5405677252
0.0425224402 0.2511313638 0.7857270469
0.0326326336 0.249198875 1.0418310634
0.0424333362 1.0022973993 0.2885838478
0.0324732037 -3.9628328512e-04 0.5419512303
0.0424263405 1.0006181062 0.7898425835
0.0324636306 0.0014578386 1.0420243675
0.0426586736 0.2507636117 0.2893975661
0.0725814138 0.2509172214 0.5250113466
0.0524836773 0.250100356 0.5366445722
0.0625248134 0.2516305955 0.7817505051
0.07259651 0.2510623696 1.0245809725
0.0525952414 0.2503203564 1.0331599932
0.0624747384 0.9995701752 0.278511783
0.0724319253 1.0012494683 0.5270309143
0.0525289657 0.0013439981 0.5332976495
0.0625443279 0.9994790508 0.77817622
0.072381114 0.0022360412 1.0304629405
0.0525009826 1.0008719528 1.0349181401
0.0626142856 0.2506217179 0.2803472516
0.0925116202 0.2526707159 0.524594362
0.1024945809 0.248385264 0.7719536686
0.0825356552 0.2490270403 0.7737918987
0.0924376123 0.2501485217 1.022307348
0.1024989993 0.9994790508 0.2761728033
0.0824344006 1.0008198817 0.2760825947
0.0925672181 -4.8864440647e-04 0.5264574454
0.1024640205 -9.6040861196e-04 0.7763692868
0.0825625336 1.0017571616 0.7748808452
0.092427671 1.0031110103 1.024488923
0.1025093089 0.2495249703 0.2711763522
0.0825551697 0.2525392363 0.2765769009
0.1124856421 0.2497755624 0.5236904351
0.1225554977 0.2484106486 0.774056081
0.1124738597 0.251739294 1.0233751231
0.1225407697 3.0146951329e-04 0.2744523967
0.1124937425 1.0015228416 0.5258223034
0.1225507111 1.0011257995 0.7761630958
0.1125909468 3.1025651215e-04 1.0261274054
0.1225091047 0.2494833134 0.2721198604
0.152513585 0.2504173388 0.5183110578
0.1324990612 0.2529408347 0.5226024091
0.1424179555 0.25134095 0.7718837109
0.1525872246 0.2485395246 1.0147132578
0.132468869 0.2530072254 1.0218839199
0.1425840129 -6.9797460789e-05 0.2731057113
0.1525021708 0.9999737263 0.518925949
0.1325627595 -0.0010188584 0.5245382118
0.142569285 2.4113212111e-04 0.7702930942
0.1525688147 0.9999281641 1.0142253951
0.1326165165 0.0021909346 1.0285206945
0.1424359972 0.2511697663 0.2713512464
0.1724485779 0.2488395843 0.5088317923
0.1624453662 0.2483820095 0.7615318154
0.172499021 0.2476061501 1.0080028436
0.162439475 0.0029559242 0.2639909622
0.1723841432 2.1257521064e-06 0.5092137981
0.1625830723 1.0011583439 0.7668375531
0.1724379001 0.0020571119 1.0103777227
0.1624092827 0.2506685819 0.2626958246
0.19250839 0.2480995238 0.5068232706
0.2024954009 0.2477161503 0.7531893622
0.1825964915 0.2459483363 0.756519716
0.1924708338 0.2474089308 1.0067141496
0.2025557855 -0.0016423448 0.2589402019
0.1825003917 -0.0011491013 0.2611779271
0.1925746657 -0.0016213862 0.5089937996
0.2024085061 0.9972790466 0.7588734236
0.1825478893 1.0003772773 0.758242884
0.1924572104 -2.6604043534e-04 1.0085459361
0.2024725726 0.2479211802 0.2568957807
0.1824646765 0.2487146137 0.2606274706
0.2125321187 0.2484770393 0.5059119797
0.2223725867 0.2503131966 0.7496684659
0.2125763025 0.249257455 1.0080304585
0.2224440172 0.9974938399 0.2526081114
0.2123447057 0.999407453 0.5046334111
0.2223228799 0.9971618866 0.7533154702
0.212413927 0.9996287552 1.0064840256
0.2224668455 0.2497059173 0.2481013641
0.2523431927 0.2484874535 0.4959963993
0.2324479653 0.2510187601 0.5015865701
0.2423977882 0.2479133696 0.7477409477
0.252338038 0.2516859211 0.994848959
0.2323595977 0.2461247271 1.0003259089
0.2423653867 0.9998305307 0.2494241165
0.2523244146 -0.0018290848 0.4965726296
0.232234042 8.9930651831e-05 0.500199383
0.242449336 0.9985482798 0.7496344076
0.2525232417 -6.6230153951e-04 0.9959903738
0.2323183595 -0.0028518589 1.0050572572
0.2423105252 0.2494097629 0.2477110739
0.2725583845 0.248946981 0.4905930891
0.2624712236 0.2492249105 0.7436990508
0.2725182509 0.250129646 0.9902004553
0.2623788059 0.9996873352 0.2426373012
0.2723613985 -0.002382503 0.492453411
0.2624097345 1.0008263906 0.7432378824
0.2724287787 -0.0031381979 0.9910012867
0.2624274081 0.247343191 0.242015046
0.2924694446 0.2491995259 0.4886204666
0.3023165402 0.2492411827 0.7380232739
0.2825291948 0.2489040223 0.740921915
0.292457294 0.2489255017 0.9897678223
0.3024413594 -8.8191142214e-04 0.2411672694
0.2825269856 0.9992837841 0.238427874
0.2924156876 -0.0013965041 0.487228677
0.3024126399 -0.0025330211 0.7399793274
0.282388543 1.0001299396 0.7383454474
0.292319956 -0.0014651078 0.9886908423
0.3024336272 0.2491956205 0.2404575672
0.2824165261 0.2493973961 0.2396944762
0.3326579219 0.2474805285 0.4799042921
0.3123897095 0.2476940201 0.4896376144
0.3225608196 0.2470860899 0.7343514162
0.33245394 0.2506510079 0.9810139075
0.3124195336 0.2483130153 0.9847787352
0.3224558831 -6.3340207659e-04 0.2383045276
0.3325776547 -0.001699623 0.4794063039
0.3124037011 -0.0015709423 0.488322226
0.3226178904 -8.0699412074e-04 0.7353262212
0.3325386256 0.0015235132 0.9822013471
0.3123514169 0.999641773 0.9898966917
0.3224974895 0.248063074 0.2339487416
0.3526518265 0.2504622501 0.4718563976
0.3425212182 0.2489365668 0.7280727145
0.3527457171 0.2494045558 0.9733093579
0.3425388917 -8.2281071869e-04 0.225800513
0.3526172159 7.5025734398e-04 0.4732656766
0.3426835937 1.0005269818 0.7249844512
0.3525722957 8.0525744795e-04 0.9722139679
0.3425569335 0.2501309477 0.2287019157
0.3727116386 0.2502298828 0.4661253909
0.3827266327 0.2534342084 0.717956466
0.3626414149 0.2493010645 0.7257816005
0.3727742324 0.2524136148 0.9661294908
0.3827560885 0.9982228354 0.2132127332
0.3626635068 0.9999802352 0.2173715332
0.3726637729 -0.0013711845 0.4684496427
0.3827413606 -3.294370049e-04 0.7138805107
0.3625935491 0.9992642575 0.7201969527
0.3728000062 7.8892013896e-04 0.9689646178
0.3826382651 0.2482785182 0.2211556913
0.3627003266 0.2502611255 0.2265166587
0.3927084889 0.2516540275 0.4645421381
0.4026130234 0.2486553828 0.713264699
0.3926458951 0.247167451 0.9605328765
0.4025283378 1.0023494704 0.2099449732
0.3925685735 1.0013340839 0.4664079831
0.4025246558 -0.0016068063 0.7114421174
0.3925280717 0.9980470954 0.9629353705
0.4026019774 0.2518629628 0.2123262958
0.432543864 0.2494898223 0.4575528137
0.4125654237 0.2465491066 0.4575261193
0.4226246015 0.2523823721 0.7064659172
0.432551228 0.2478365647 0.953012426
0.4125396498 0.2507544992 0.9582684569
0.4224957321 0.999700353 0.2091837232
0.4324628604 1.0006766862 0.4550794416
0.4126132895 -1.330031256e-05 0.4611814081
0.4224552303 1.0007417751 0.7063858341
0.4325217721 0.9986003509 0.9582040222
0.412499148 -3.2364409454e-04 0.9619872598
0.4225546439 0.2501491726 0.2062077604
0.4524781205 0.2489007679 0.4534786994
0.4424263066 0.2487321877 0.7011482131
0.4525664881 0.2484705304 0.9552492308
0.4424704904 1.0004423662 0.2078784602
0.452375025 -0.00256483 0.4537226308
0.4426067238 -0.0030437279 0.7058675949
0.4525038944 1.0003577507 0.9510885899
0.442558858 0.2511404763 0.2027163199
0.4723902851 0.2497410653 0.4518052381
0.4825709684 0.2505253864 0.7035801629
0.4625557083 0.2490159752 0.7046829169
0.4724381509 0.2479530738 0.9563262108
0.4825930603 -1.9021188962e-04 0.2007262081
0.4624562947 -8.217692966e-04 0.2062620697
0.4725117906 1.0007222484 0.4516505948
0.4824494629 1.0010802372 0.7027333068
0.462621984 -0.0034357322 0.7045715369
0.4725007446 -0.0010868112 0.9571178372
0.4825599224 0.2485297613 0.202051722
0.4624562947 0.249087573 0.2018979992
0.5124686712 6.6850571013e-04 0.453561544
0.512498127 4.112744546e-04 0.9504810627
0.4925380966 0.2476198187 0.4535458956
0.5023505816 0.2483052046 0.7017502173
0.4925785984 0.2502507113 0.9542550953
0.5123545297 0.249210591 0.4535265652
0.5125165369 0.2482440211 0.952588998
0.5025346807 0.0013788858 0.201273903
0.492468139 -5.2092849117e-04 0.4498924479
0.5025420447 4.2917389673e-04 0.7020438555
0.4925196867 -0.0014634806 0.9530400409
0.5023505816 0.2489378686 0.2026914665
0.5225425769 0.9984571554 0.205209943
0.5325759809 -0.0018835252 0.4546210347
0.5224983931 0.9989518309 0.7041471883
0.5326054367 1.002837637 0.9544760143
0.5225867607 0.2513910685 0.2030697903
0.5325575709 0.2494338458 0.4605591529
0.5225388949 0.2516195304 0.7021018467
0.5324581574 0.2495913609 0.9533898293
0.5425099713 -0.0024458931 0.2077726032
0.5625252314 -5.4787528768e-04 0.2092978647
0.5525544212 2.6762329545e-04 0.4570447001
0.5425431091 0.9998826018 0.7060397277
0.5625657332 1.0001104129 0.7113555908
0.5525396932 -0.001260924 0.9588483693
0.5424915613 0.2525288221 0.2061608151
0.5625031395 0.2488493477 0.2105580234
0.5526317428 0.2492802361 0.4568679649
0.5426057028 0.2490270403 0.706066422
0.562617281 0.247934198 0.7112432903
0.5526022869 0.248894259 0.9559948324
0.5826251771 5.6149522878e-05 0.2099845546
0.5725733633 1.196762702e-04 0.4601421683
0.5825036717 0.9986003509 0.7096968574
0.5724408119 6.9460635119e-04 0.9611588137
0.5825220816 0.2493726623 0.2097949324
0.5725475894 0.2500528411 0.4586463627
0.582437396 0.2460707034 0.7141133961
0.572411356 0.2497423671 0.9593086171
0.6023753345 1.0014317172 0.2178676804
0.5924818459 1.0007613017 0.4644850674
0.6124602862 -0.0016784041 0.4698892981
0.6024379282 2.604635186e-04 0.7153339735
0.5925333937 -3.5410569059e-04 0.9659638016
0.6123682366 8.3656519945e-04 0.9728675199
0.6026146634 0.2506920139 0.2179928678
0.5925812594 0.2478189907 0.4651349374
0.6123829645 0.2492027803 0.4735537918
0.6024600201 0.2498647342 0.7216596205
0.5926143973 0.2502435515 0.9651353554
0.6125523358 0.2503034333 0.9730147992
0.6223795487 -7.6045557122e-04 0.2229930009
0.6324092706 -7.1573951035e-04 0.4772689127
0.6222469973 -0.0016876467 0.7287428354
0.6324350445 0.9991015353 0.9783260599
0.622302227 0.2512804174 0.2244004389
0.6323540409 0.2506920139 0.4772505028
0.6223500928 0.2509575765 0.7232152583
0.6324092706 0.2489840817 0.9761720997
0.6423248511 0.999641773 0.2315664985
0.6624984365 -0.0010842728 0.2404989895
0.6525055344 -7.0187557882e-04 0.4855331238
0.6424831764 0.9993749086 0.729933957
0.6624395248 1.0013080483 0.7363608585
0.6523251172 0.9994465063 0.987227254
0.6423984908 0.2518545013 0.2305649991
0.6623695671 0.2498738467 0.2361560904
0.6523840289 0.2508892332 0.482107959
0.6424684484 0.2520237324 0.7303371341
0.6624432068 0.2505579308 0.7379358268
0.6523582551 0.2489346141 0.9817963289
0.6826352021 1.0002340818 0.2416947135
0.6725465684 1.0006506506 0.4861250026
0.6825836543 4.1342238766e-04 0.7419418244
0.6725281585 -3.0997542964e-04 0.9891326803
0.6825394705 0.2509705943 0.2395840167
0.6725355224 0.2478163871 0.4893844781
0.6825100147 0.2490107681 0.7394297914
0.6725023846 0.2490211823 0.9895376984
0.7024921369 0.0015111464 0.2393934741
0.692458733 1.0000323063 0.4890061543
0.7125991805 1.0002470996 0.4924883899
0.7023743135 1.0017831971 0.7408344679
0.6925544646 1.0013015394 0.9926213592
0.7124850391 -0.0021989459 0.992013832
0.7024921369 0.2503418357 0.240614972
0.6924734609 0.2488617146 0.4899063992
0.7123745796 0.2510968667 0.4930913146
0.7024479531 0.2476634283 0.7392622612
0.6925213267 0.2510220145 0.9913786899
0.7123745796 0.2513734945 0.9912406156
0.7223453898 7.5370705464e-04 0.2405109559
0.7424453356 1.002896217 0.2447222241
0.7323640658 -3.1524762896e-04 0.4942888796
0.7224337574 1.0026553881 0.7407322929
0.7423643319 0.0012300275 0.7432691793
0.7324119316 0.999348873 0.9931552468
0.7225110791 0.2514223111 0.2425121138
0.7423238301 0.2520855668 0.245180631
0.7324266595 0.2529701247 0.4944564098
0.7224116655 0.2508605941 0.743550851
0.7423901058 0.2528438523 0.7481883087
0.7323787938 0.2509621327 0.995079083
0.7625084615 0.0019450288 0.2478905706
0.7522283646 0.0011765244 0.4968248455
0.7625268714 0.0033464575 0.7476636261
0.7523277782 1.0009826039 0.9964414167
0.7623795921 0.2509972807 0.2494830283
0.7524161458 0.2533001253 0.4988011499
0.7623795921 0.2504310075 0.7480750877
0.7523830079 0.2519710104 0.9977209058
0.7824058981 1.5091893281e-04 0.2566500084
0.7723209464 0.9994725419 0.5004746112
0.7923877543 1.0022453282 0.5071758204
0.7823874882 7.8104438443e-04 0.7538935415
0.7724240419 0.9978843732 0.9996723569
0.7923914363 -1.3462598571e-04 1.0078095395
0.7822917567 0.2483247313 0.2535424146
0.7723909041 0.2478801743 0.5001386302
0.7922920228 0.2507590554 0.5061623546
0.7822880747 0.2498452076 0.7527272734
0.7724534978 0.2492555023 1.0019091616
0.7923362066 0.2487640812 1.0053794307
0.8023953844 1.0013080483 0.2609671336
0.8123588306 -3.3138967131e-04 0.5143188677
0.8022370591 0.0020885498 0.7578351044
0.8123330568 1.0006962128 1.0149433818
0.8024174763 0.2486827201 0.2602528288
0.8124324703 0.2499428409 0.513593517
0.8023364726 0.2506666292 0.7622562456
0.8125687037 0.2506464517 1.0149157669
0.8225431959 1.0007222484 0.2639697908
0.8425105902 1.0005334906 0.2675689293
0.8324771863 1.0112593927e-04 0.5168934943
0.8224069625 -4.5330114439e-04 0.7649413318
0.8425216362 -2.6870907944e-04 0.7682302632
0.8326207836 0.0010035182 1.0173274658
0.8223590967 0.2511984054 0.2662995656
0.8426320957 0.2524032006 0.2698710892
0.8325545079 0.2494273369 0.5192784989
0.8224916481 0.2508931385 0.7639527193
0.8425253182 0.2536874042 0.7727425335
0.8326060557 0.2511007721 1.0166555039
0.8625737162 0.0019244607 0.2723398589
0.8525660861 0.9990950264 0.5226493544
0.8625921261 1.0007287573 0.7729800214
0.8525439942 0.0017523007 1.0216906158
0.8624853486 0.252248289 0.2738559154
0.8526581357 0.2513188198 0.5259566957
0.8625921261 0.2514913053 0.7771986535
0.8527317753 0.2496974558 1.0255014683
0.8826626159 1.0002015374 0.2721161784
0.8726476219 6.3967133609e-04 0.5244360367
0.892464055 -1.443242289e-04 0.5235634067
0.8824932447 1.0014382261 0.7740275456
0.8725261165 0.0015585311 1.025142475
0.8825668844 0.2509510676 0.2759445203
0.8925340126 0.0018282594 1.0223717827
0.872640258 0.2498972787 0.5260828037
0.8926113343 0.2514496485 0.5240190521
0.8826037042 0.2504843804 0.7776561399
0.8725776642 0.2523198868 1.0265232186
0.8926334262 0.2502155633 1.0263759393
0.9025637346 -1.7732429129e-04 0.277525932
0.9222881181 1.2795966606e-06 0.2830102459
0.9125529548 -7.1678093244e-04 0.5323467774
0.9024275012 1.0021021327 0.7784017415
0.9224059415 0.9994399975 0.781347328
0.9125750467 1.0012429594 1.0320001685
0.9026521022 0.2494572778 0.277425598
0.9224280334 0.252347875 0.2853823635
0.912501407 0.2489736674 0.5344768046
0.9026263283 0.25134095 0.7775917052
0.9225569028 0.2502233739 0.7879463622
0.9125234989 0.2502910664 1.0272964351
0.942340198 0.9976825977 0.2902950494
0.9324098896 1.0010411839 0.5380096674
0.9425169332 0.9998826018 0.7880466962
0.9324098896 0.9990885175 1.0346972211
0.9424469755 0.2517549153 0.2886676129
0.9324651194 0.2512856245 0.5345817412
0.9425058873 0.25157527 0.7885161491
0.932538759 0.249140295 1.0372469944
0.9625137834 -9.8117196482e-04 0.2899728759
0.9524582876 0.9997068619 0.5368157844
0.9725140495 1.0005009462 0.5380915915
0.9624806456 0.9999932529 0.7883486189
0.9523809659 0.9993098197 1.0381674902
0.9625469213 0.2506900612 0.2894675237
0.9724293639 -7.8935503414e-04 1.0386553529
0.9525540191 0.2484510037 0.5416815251
0.9725066856 0.2500697642 0.534722577
0.9625911051 0.249924616 0.7906673477
0.9524472416 0.2508371621 1.0380846456
0.9724882756 0.2497104736 1.0402478106
0.9824848598 -0.0019745845 0.287893476
0.9925698115 1.0016009483 0.5386217971
0.9825658634 1.0024471037 0.786254491
0.9824517219 0.2477480438 0.2876955694
0.9925035358 -5.4253799948e-04 1.0407816982
0.9924667159 0.2492444372 0.5421436139
0.9825437715 0.2494481654 0.7878138108
0.9924961718 0.2493004136 1.0387658124
0.0123868077 0.7500389342 1.0416561692
0.0225980514 0.5019695895 0.7894044275
0.0025701989 0.499080945 0.7920048281
0.0125395364 0.5010752683 1.0410670519
0.0225099048 0.7515424874 0.2947152701
0.0025966724 0.7494791699 0.2904432493
0.012461331 0.7515034341 0.5440057769
0.0225050814 0.7520176362 0.7921778813
0.0225459514 0.5019865126 0.2922833203
0.0024979952 0.501592074 0.2913167997
0.0025857001 0.7504294675 0.7892691146
0.0125487781 0.5016636718 0.5436799214
0.0325855042 0.7497981054 1.0418770882
0.0426181718 0.4978826587 0.7873627679
0.0325361657 0.5003267462 1.0389683215
0.0424532189 0.7489910033 0.2912293526
0.0324489027 0.7489194055 0.5404075589
0.0425360636 0.7504424853 0.7890040118
0.0426803973 0.4994493481 0.2874893783
0.0324739401 0.4980245525 0.541479016
0.0724926781 0.7511844985 1.0286035391
0.0625689972 0.4999778698 0.7787119486
0.0524888321 0.7493424832 1.0334637568
0.0725545354 0.5013447363 1.0278947573
0.0526096011 0.5011052092 1.0317516346
0.0624036762 0.7513211852 0.2841268073
0.0724764773 0.7514904163 0.5259134324
0.0524722632 0.7517702985 0.5350033282
0.0626017669 0.4993367443 0.2807145294
0.0724333981 0.5011657418 0.5298669618
0.0623583878 0.7517833162 0.7821407954
0.052499878 0.4985784589 0.5356182194
0.0923783324 0.7506052075 1.024912351
0.1024794848 0.5014970443 0.7742015193
0.082488894 0.4999811242 0.7739474625
0.0925156704 0.5001106511 1.0256855675
0.1025895761 0.7508720719 0.2761663598
0.0823983172 0.7531632005 0.2764213371
0.0924880555 0.7509957408 0.5247996326
0.1026878851 0.7502146742 0.7732681366
0.1025100453 0.5011774578 0.2739037812
0.082477848 0.5011624874 0.273402111
0.0824303504 0.7491081633 0.776232133
0.0926007242 0.4986253228 0.5266995358
0.1125670139 0.7504229586 1.0232094338
0.1226026271 0.5016656245 0.7726145846
0.112676737 0.499057513 1.0219207398
0.1225956313 0.7504880475 0.2741072107
0.1125106796 0.7488217722 0.5225075981
0.1226107274 0.5022624895 0.2699935151
0.1226983586 0.7516010674 0.7733086384
0.1126130387 0.4976437825 0.5196135594
0.1527083619 0.7514513629 1.0133233092
0.142606473 0.5018628438 0.7661830806
0.1325800649 0.7513732563 1.0225834967
0.1524984888 0.5002779295 1.0144094942
0.1325461906 0.5005695277 1.0223533728
0.1426477112 0.7495182232 0.2668021563
0.1526409816 0.7506702964 0.5139607948
0.1326393448 0.7509436697 0.5211204109
0.1426782717 0.5028027272 0.2661771396
0.142563762 0.7498436676 0.7700436399
0.1526358268 0.5013134936 0.5143032192
0.1326459724 0.5004211251 0.5185964115
0.1725505688 0.7502537275 1.0078647693
0.1626077416 0.5008767472 0.7623114754
0.1726245766 0.5002857402 1.008582756
0.1625491981 0.7521673406 0.2596848829
0.172680911 0.7475720657 0.5082997458
0.1627060506 0.502037282 0.2637249389
0.1625145875 0.7495052054 0.7629033542
0.1725461504 0.4979711796 0.5105761318
0.1925054444 0.7491016544 1.0064287959
0.2026393665 0.4976073328 0.7547091008
0.1826598216 0.49804473 0.7545940388
0.192513913 0.4996693485 1.0077358999
0.2023746319 0.7527336139 0.2576561103
0.182476827 0.7497395254 0.2625227714
0.192627318 0.749238341 0.5081239311
0.2025296434 0.5003801191 0.260433246
0.2024821458 0.7489389322 0.754869267
0.182526902 0.4986650271 0.2600917421
0.1826005417 0.7517637896 0.7584389496
0.1926037533 0.4961467383 0.5065489628
0.2125335915 0.7500844965 1.0054714803
0.2225537403 0.4977531318 0.7533799049
0.212421291 0.4978885167 1.0048363382
0.222436285 0.7506768053 0.2498457036
0.2125851392 0.7500779876 0.5054857902
0.2224248709 0.5002557993 0.251933388
0.222395415 0.7496028387 0.7513584961
0.2124842529 0.5001737873 0.5028927536
0.2524665392 0.7487111211 0.9969200745
0.2424563317 0.4972519475 0.7522467746
0.2324630614 0.7466543125 1.0014305038
0.2525722121 0.4980837834 0.9990372148
0.2324225596 0.497377569 1.0041827862
0.242525553 0.7481578656 0.2502470398
0.2525630071 0.7490105299 0.4968727112
0.2323485517 0.7473507635 0.4993709368
0.2423079478 0.4967553193 0.2491755827
0.2423304079 0.7464265014 0.7512093758
0.2524621208 0.4987841397 0.4973090262
0.2323411877 0.4999843787 0.5008796293
0.272498 0.7480992856 0.9897770273
0.2624977339 0.4977192856 0.7436023987
0.2725259831 0.4997760943 0.9907435479
0.2625853651 0.7480667412 0.2448050687
0.2726677394 0.749121181 0.4887401311
0.2625073071 0.4975878061 0.2422037477
0.262523876 0.7487501744 0.7433630698
0.2725701669 0.4985101155 0.4927175933
0.292416424 0.749062601 0.9872640738
0.3023275861 0.497488871 0.7362181816
0.2823701331 0.499841834 0.7377830245
0.2923103829 0.4995313601 0.9896941827
0.3023091762 0.7484702922 0.2345636327
0.2824213127 0.749531241 0.2382373314
0.2924241562 0.7502211831 0.4864987239
0.3023540964 0.4972968588 0.2364920714
0.3024612421 0.7487697011 0.734282379
0.282527722 0.4980024223 0.2379934
0.2824938477 0.7478649656 0.7358803597
0.2924156876 0.5001249707 0.4911509095
0.3323725682 0.7501951476 0.9818975835
0.322559715 0.4985752044 0.735162373
0.3124836001 0.7476957345 0.9869603102
0.3324134382 0.4997546149 0.981354491
0.3125347797 0.498068162 0.9891050654
0.3224514647 0.747845439 0.231342818
0.3325474624 0.7506052075 0.4801077217
0.3123735088 0.74877621 0.488745654
0.3225564013 0.4988635481 0.2323074976
0.3224510965 0.7493034299 0.7360165931
0.3324723499 0.4991447321 0.4775708353
0.312511215 0.4983910029 0.4901779455
0.3524714093 0.7486850855 0.976558708
0.3425970671 0.4991232528 0.7304577191
0.3526367304 0.5001685802 0.975463318
0.3424792436 0.7485158544 0.2281247648
0.3524493174 0.7498631943 0.4752318556
0.3424497877 0.5004439062 0.2285454314
0.3424542061 0.7513081674 0.7280368152
0.3525527812 0.5013538487 0.4725430874
0.3724796737 0.7496679276 0.9702717218
0.3825830353 0.5005838473 0.7165444254
0.3625935491 0.5002160951 0.7227945918
0.3726895467 0.5009984634 0.9703729764
0.3824799398 0.7494531343 0.2168956368
0.3626303689 0.7501560942 0.2198596332
0.3725827692 0.7478194034 0.4700954891
0.3826088092 0.4990327792 0.2164989032
0.3826714029 0.7499998809 0.7152842667
0.3626230049 0.5004556222 0.2200428119
0.3625346374 0.7491667432 0.7218133433
0.3726932287 0.5009939072 0.4737470959
0.3925464816 0.7503188164 0.9639018911
0.4025725216 0.4992690519 0.7107112437
0.3926643051 0.4986266246 0.96631359
0.4025725216 0.7512495874 0.2108065573
0.3925906654 0.7506052075 0.4637606372
0.4025504297 0.4999225442 0.2101971891
0.4025283378 0.750520592 0.7100125874
0.3925943474 0.4999772189 0.4653107521
0.4325954118 0.745925317 0.956731229
0.4224920501 0.4994024841 0.7081982902
0.412499148 0.7508981075 0.9591061081
0.4326432776 0.4987268615 0.9545036292
0.4124696922 0.5013160972 0.9605789013
0.4226172376 0.7480472145 0.2089324279
0.4325328181 0.7505140831 0.4564739927
0.412495466 0.7504880475 0.458589292
0.4225546439 0.4977401141 0.2069846588
0.4225546439 0.7506507697 0.7102629623
0.4325328181 0.4997044965 0.4566737403
0.4125985616 0.4995879874 0.4635222288
0.4525738521 0.7482229545 0.956952148
0.4425846319 0.4970215328 0.7031263585
0.4525480782 0.4981534285 0.9498735355
0.442569904 0.7505726631 0.2041062685
0.4525002124 0.7451182149 0.4555047106
0.4426729995 0.4987066839 0.2030025941
0.442341621 0.7500259165 0.7031456889
0.4524449827 0.5001197635 0.4519359485
0.4725302005 0.7480341967 0.954549654
0.4824015972 0.499256685 0.7010690505
0.4625446623 0.4985921275 0.7054137905
0.4725670203 0.4998639642 0.9533806244
0.4823942332 0.7491927788 0.2019053631
0.4625630722 0.7487566833 0.204671453
0.4725154725 0.7498631943 0.455975084
0.4825415125 0.5009724279 0.2014920605
0.4825599224 0.7505986986 0.7050133749
0.4625888461 0.4981352036 0.2033035962
0.4625078425 0.7511844985 0.7056715293
0.4725596563 0.4991675132 0.4496107762
0.4926117363 0.5002434324 0.9529664013
0.5023027158 0.749296921 0.2036975684
0.4924276371 0.7499217743 0.4527082445
0.5025052249 0.4991902943 0.2010180052
0.502475769 0.7496418921 0.7008122322
0.4923613614 0.7511910074 0.9536935929
0.4923871353 0.4982054996 0.4513495927
0.5024941789 0.5003651486 0.7010129002
0.5124428973 0.7480016523 0.954991492
0.5124097594 0.5000071598 0.9513003039
0.5125423108 0.7506182253 0.4514683366
0.5123103459 0.4993373952 0.4501658351
0.5223842516 0.4998229582 0.7018882917
0.5324912952 0.7488412988 0.9559027828
0.5324949772 0.5030357454 0.9561789315
0.5224173895 0.4988459741 0.204545345
0.522520485 0.7502016564 0.2017295485
0.5324949772 0.7462507614 0.4567749948
0.5325686169 0.4986604708 0.4548226233
0.5225057571 0.7496679276 0.7056834958
0.5425541551 0.4978188716 0.7060047488
0.5526059689 0.7483986945 0.9571086322
0.5624773656 0.4995834312 0.7110453837
0.5525323293 0.5010375168 0.9588851891
0.5424289676 0.5004608293 0.2071116873
0.5424694694 0.7508720719 0.2047294442
0.5625473233 0.4992644957 0.2109326652
0.5625178674 0.7493229566 0.2131022738
0.5526022869 0.5009626645 0.4594094537
0.5524881455 0.7493750277 0.4602599918
0.5424105577 0.7503839053 0.7093838888
0.5624110899 0.7508720719 0.7140876222
0.5825183996 0.4981651445 0.7105989432
0.5724555398 0.7488608255 0.961729521
0.5726101831 0.4996394076 0.9624475077
0.5826251771 0.4978071556 0.2148539772
0.5825036717 0.7502016564 0.2121155023
0.5726948687 0.4997149107 0.4617705254
0.5724481758 0.7469862657 0.4623679271
0.5824999897 0.7493880454 0.7162618332
0.6024673841 0.5004920719 0.7198812226
0.592463436 0.7506963319 0.9664516644
0.6124529222 0.7513211852 0.9739168851
0.5925702135 0.4990379863 0.9669487321
0.6126002015 0.5016656245 0.9728030852
0.6024563381 0.7482034278 0.2186105205
0.6025226138 0.5008344394 0.2208252333
0.5924450261 0.7494661521 0.4666150946
0.5925959874 0.5003000597 0.4678688099
0.6124566042 0.7502211831 0.4730134608
0.612493424 0.5022318977 0.4753331101
0.6025962535 0.7508200008 0.7213015476
0.6224531883 0.5015797071 0.7273013391
0.6323061751 0.752551365 0.9816122298
0.6324387265 0.4997799996 0.9805444547
0.6225489199 0.7507093497 0.225893483
0.6224495063 0.5019826073 0.2272484528
0.6323687688 0.7512300608 0.4802062147
0.6324350445 0.5021622526 0.4770710061
0.6224936901 0.7509176341 0.726001599
0.6424537205 0.5018172815 0.7328454851
0.6525534002 0.750344852 0.9845302014
0.6624542527 0.4991681641 0.7385037726
0.6523877109 0.4991727203 0.9837017552
0.6424610845 0.7496353832 0.2322393809
0.642350625 0.499203963 0.2305300203
0.6624616167 0.7523951517 0.2395398329
0.6624542527 0.4999583431 0.2367065469
0.6524355767 0.7507744386 0.4858166365
0.6523582551 0.5008058003 0.4873317725
0.642354307 0.7501495853 0.7310284265
0.6625720762 0.7497525432 0.7375915613
0.6825394705 0.4997526623 0.7408086941
0.6724508368 0.749706981 0.9908632123
0.6724692467 0.4991186966 0.9914063048
0.6824621489 0.7487566833 0.2428186389
0.682440057 0.4983311211 0.2408478574
0.6724766107 0.7486395233 0.491694002
0.6724802927 0.4991655606 0.491588145
0.6825505165 0.7493945543 0.7405150559
0.7024000874 0.5010642032 0.7417245874
0.6925876024 0.7507093497 0.9911025412
0.7124703111 0.7512951496 0.9890222208
0.6924219132 0.500907339 0.9920506519
0.7125807706 0.4998053842 0.9928514832
0.7024295432 0.751158463 0.2417867631
0.7025657766 0.5000826629 0.2427523632
0.6925102808 0.7495052054 0.49070631
0.6924182312 0.4995079281 0.4942658672
0.7123635336 0.5004764506 0.4914215353
0.7124187634 0.7551419025 0.4911242151
0.7024369072 0.7490235477 0.7420384764
0.7223232979 0.5005526046 0.7441408888
0.7323787938 0.7530395316 0.9939192583
0.7423643319 0.5014820738 0.7453421358
0.732319882 0.5002414797 0.9940113079
0.7223895736 0.7500649698 0.2436765409
0.7224043015 0.5009763332 0.2431279254
0.7423716959 0.7507353853 0.2449320972
0.7423238301 0.5030708934 0.2485082232
0.7324156136 0.5028495912 0.496708863
0.7323824757 0.751562014 0.495730376
0.7222275664 0.7499673365 0.7428162954
0.7424306076 0.7503904142 0.7463298277
0.7523498701 0.5014716596 0.4971902823
0.7524014179 0.7524407139 0.9988623206
0.7624421858 0.5006652084 0.7530770618
0.752371962 0.5022078148 0.998116719
0.7624458677 0.7487436655 0.2516738082
0.7624790056 0.5018394118 0.2499929829
0.7524419197 0.7537490004 0.5001183793
0.7624937335 0.7495182232 0.7510215947
0.7725160915 0.5015074585 0.5043729108
0.7725418654 0.7509111252 1.0058028587
0.792450348 0.5016473996 0.5071426826
0.7923767084 0.7487631922 1.0065484603
0.7824022161 0.5000357989 0.7571125152
0.7723724942 0.4988544357 1.0051216919
0.7923877543 0.5008090548 1.0089325444
0.7826157712 0.7507549119 0.2578337659
0.7823911702 0.501328464 0.2562486722
0.7725786852 0.7515034341 0.5067155726
0.7923472525 0.7527075783 0.5119301811
0.7824721738 0.7492318321 0.7556654959
0.8125502938 0.4996361532 0.5150884021
0.8124471982 0.7506768053 1.0118873358
0.8023806564 0.5017938495 0.7602762592
0.8123441027 0.5017730211 1.0124120184
0.8023327907 0.7511454452 0.2609625311
0.8025242538 0.4999570413 0.2590930042
0.8124508802 0.7515294696 0.5126030635
0.8023917024 0.7521998851 0.763257745
0.8325618719 0.5018387609 0.5204097882
0.8324550944 0.7503839053 1.0127618068
0.8225505599 0.4987808853 0.7634933919
0.8425952759 0.5013030794 0.7691884993
0.8326171017 0.5012763929 1.017934993
0.8225726518 0.7503643786 0.2665499404
0.8224806022 0.4997396445 0.2665480994
0.842573184 0.7497915965 0.2699300009
0.8426320957 0.4994304723 0.2709572742
0.8325545079 0.7525253295 0.5140454804
0.8225431959 0.7517052096 0.7654089436
0.8426210497 0.7497004721 0.7686803856
0.8525255843 0.5012848545 0.5275804503
0.8625000765 0.7500649698 0.7730389331
0.8625589882 0.5015784054 0.7778862639
0.8525071744 0.750110532 1.0236420669
0.8524850825 0.5015797071 1.0218931249
0.8625589882 0.749817632 0.2744652836
0.8625000765 0.4998281654 0.2772580678
0.8525219023 0.7512365696 0.5172257933
0.8724892966 0.500825327 0.5292097278
0.8824637889 0.7486134878 0.7750971617
0.8926518361 0.5018641455 0.5255378702
0.8725482084 0.751562014 1.0251148601
0.8925266487 0.749648401 1.0254094187
0.8826736619 0.4998099405 0.7760738077
0.8724966606 0.5013584049 1.0281524961
0.892673928 0.5001008878 1.0297541588
0.8825116546 0.7513276941 0.2724935816
0.8826257961 0.5001457991 0.279287761
0.8725739823 0.7513472207 0.5257072414
0.8925450586 0.750748403 0.5264813783
0.9125198169 0.5004653855 0.5347943757
0.9025674166 0.751737754 0.7782452572
0.9224022595 0.7480211789 0.7886523825
0.9123983115 0.7487111211 1.0316227652