POSCAR file written by Ovito 3.7.11
1
271.5759197609 0.0 0.0
0.0 15.3626539576 0.0
0.0 0.0 10.8630367904
Sr Ti O 
800 800 2400 
Direct
0.0124811171 0.2498765506 0.5499746111
0.0223150155 0.250277523 0.7989850906
0.0024779474 0.2499038896 0.801193497
0.0124434849 0.2498524662 1.0494684547
0.0224353502 -7.7239396488e-04 0.2976630289
0.0025893712 1.0001284297 0.3003805011
0.0124480877 0.0010489059 0.5479070493
0.0224421254 0.0010071814 0.7958653368
0.002567057 6.9095996225e-04 0.8002637386
0.012505972 0.999197601 1.0490450004
0.0224450344 0.2503946902 0.3006980918
0.0025143277 0.2500464431 0.2987842623
0.0324121552 0.2505235742 0.5504358081
0.0423986812 0.2499357851 0.7960752229
0.0323215728 0.2502462784 1.0464674523
0.0425459697 0.9996272142 0.2955531217
0.032541769 8.6702388939e-05 0.5479843757
0.042468275 1.0017297155 0.7954805457
0.0324843265 -6.1018240906e-04 1.0448472792
0.0423460256 0.2484510156 0.2981085765
0.0724458961 0.2496181317 0.5423091671
0.0523999361 0.2499885104 0.5451849744
0.0623301244 0.2499989253 0.7955818065
0.0723718836 0.2509317068 1.0432915448
0.0524581151 0.2489483256 1.0475444992
0.0624103966 1.0004408757 0.2947025308
0.0723181233 0.9999722067 0.5464415291
0.0524128239 -0.0013226895 0.5468953617
0.0624829361 1.0007533217 0.7941899306
0.0723700425 2.0633075473e-05 1.0421316481
0.0524131921 1.0005124779 1.0466423573
0.0623570045 0.2505828088 0.2949188607
0.0923596646 0.2475234415 0.5394048227
0.1024478197 0.2491110579 0.7851740355
0.0823676152 0.2497509213 0.7940997164
0.0923813896 0.2513196606 1.0426931854
0.1024610756 0.9985401625 0.2867866964
0.082552094 0.9996857979 0.2913277839
0.0923257882 -0.0014541772 0.5380580538
0.102386695 -0.0032848895 0.7849586261
0.0824195344 0.9992496753 0.7914660145
0.0924388321 0.9982342257 1.0410546012
0.1023844856 0.2481177399 0.2870278813
0.0823812394 0.249835542 0.2915468755
0.112293317 0.2489105717 0.5343298146
0.1224908338 0.2467585997 0.7781907212
0.1123051001 0.2481925968 1.0356693668
0.1224035654 -2.8387160275e-04 0.2781758446
0.1124774276 0.9977460289 0.5300363559
0.12242124 0.999243166 0.776082655
0.112536343 -3.1492092543e-04 1.0314808511
0.1223741077 0.2480109875 0.2817098472
0.1524960714 0.2492874597 0.520676174
0.1324096072 0.2509199901 0.5252706535
0.1424605719 0.2490114657 0.7737987633
0.1524783968 0.2521014266 1.021281125
0.1323598973 0.2489932397 1.0249081034
0.1425216967 0.001195365 0.2692437198
0.1525409944 0.9995165563 0.5181538591
0.1325683105 5.3747085766e-04 0.5238833803
0.1424649906 4.38334341e-04 0.7725900773
0.1524942303 1.0000372996 1.0217598125
0.1324445882 -0.0014842501 1.0230946142
0.1424447384 0.2488038193 0.2724168657
0.1725519733 0.248999749 0.5143565784
0.1624078486 0.2497600343 0.7662290568
0.1724352472 0.2492614225 1.0152791201
0.1626622894 -0.0028847438 0.2675176832
0.1724654413 -0.002092947 0.5161590209
0.162558451 0.9994840098 0.7640731219
0.1724588133 -0.0027533993 1.0144506225
0.1625440904 0.2471908167 0.2636633282
0.1925721577 0.2493206571 0.5128468716
0.2025229663 0.2492640262 0.7569664536
0.1823827418 0.2485551643 0.7655552121
0.1924683194 0.2491722452 1.0117718136
0.2023793601 0.0011923707 0.2611980875
0.1825716393 -0.0014433718 0.2617310876
0.1923390737 -0.0010104388 0.5118655622
0.2024603687 0.9979347983 0.759636057
0.1825153014 0.9979933819 0.760776622
0.1924602185 4.6593373894e-04 1.013171054
0.2024482174 0.2509733663 0.2599479767
0.1824011529 0.2471094506 0.265382921
0.2125827684 0.2505359419 0.5098164115
0.22263852 0.2488643557 0.7532925269
0.2124899767 0.2502423728 1.008733989
0.2224647197 1.0004343664 0.2544706869
0.2126398427 1.0009095447 0.5034774842
0.2225670851 0.9999917346 0.7541615289
0.2123393742 1.0008835076 1.0059170971
0.222588442 0.2490589835 0.2526120906
0.2526235055 0.2503894828 0.4960458607
0.2324247338 0.2474329624 0.5009791036
0.2425500792 0.2480122894 0.751954043
0.2525174578 0.2486814446 0.9970429672
0.2325698129 0.2517974426 1.0016825538
0.2424911638 0.9986508204 0.2477663002
0.2525170896 3.0730229371e-04 0.4963837036
0.2326486123 -0.0011751239 0.5011797842
0.2426564951 0.9990804337 0.7460118741
0.2524758488 -9.3467061362e-04 0.9928176294
0.2325819642 0.0021314663 0.9991602389
0.2426476578 0.2488793271 0.2489528929
0.2724945603 0.2510638454 0.4869204198
0.2624796812 0.2497691473 0.7414394878
0.2724930875 0.2493694767 0.9892642952
0.2625478022 0.9981365864 0.2400750807
0.2724743082 0.0012491317 0.4863588825
0.2625665814 0.9975898058 0.7399840937
0.2726131276 2.5073654651e-04 0.9848364358
0.262475999 0.2505671865 0.2430944942
0.2926855994 0.2513125004 0.4830660648
0.3027026878 0.2522140373 0.7334269954
0.2826132778 0.2500620654 0.7332106655
0.2925427296 0.2505691393 0.9803073155
0.3026106325 -0.0016843458 0.2283960261
0.2825466298 0.9988656271 0.232388464
0.2926204242 0.0012338349 0.4816042268
0.3025712328 0.0010325025 0.7318454855
0.2826541503 0.9981691328 0.7321050814
0.2925504622 0.0019676925 0.9829308913
0.302639722 0.2500262643 0.2310499801
0.2826158553 0.251233738 0.236634054
0.3324564304 0.2521020775 0.4718703005
0.312642818 0.2516405687 0.4784200343
0.3224864742 0.24997419 0.7273946123
0.3325864124 0.2503237389 0.9745078322
0.3127536526 0.2498069012 0.9788436364
0.3226477551 3.7154900542e-04 0.2256242413
0.3323919917 0.0016221142 0.4714542105
0.3124822736 6.3706302476e-04 0.4779754073
0.3225623278 -0.0015332 0.7249993336
0.3324752096 -0.0018594457 0.9709729091
0.312537875 0.9992822218 0.9767263647
0.3225950995 0.2501779308 0.2281373507
0.3525752981 0.249403976 0.4622247472
0.3425015036 0.2524490228 0.7205263671
0.3524228545 0.2500978665 0.9624393837
0.3425641012 3.1316065648e-04 0.2170299595
0.3524865568 -5.4515458231e-04 0.4612075362
0.3424414835 0.9984555417 0.7171028309
0.35260181 -0.0018220824 0.963488814
0.3425000307 0.2500282171 0.2177341824
0.3726190486 0.250267759 0.4598653701
0.3824763291 0.2461350096 0.7134206193
0.3624708735 0.2513580654 0.7156851794
0.3724533491 0.2479869031 0.9567503668
0.3823916382 0.9986898762 0.2084126638
0.362585022 0.9989437386 0.2104765434
0.3724570313 7.8254570023e-04 0.4622624899
0.3824836935 -0.0016842156 0.7097697065
0.3626255264 0.9991585452 0.7088427097
0.3724717602 3.6516989929e-04 0.9600367407
0.3824910579 0.2498531171 0.2136911141
0.3625445177 0.2522622061 0.2138522108
0.39255086 0.2486716806 0.4556713311
0.4025738399 0.2500165004 0.709474209
0.3924514403 0.2497522231 0.9593187094
0.4025370178 0.9983904488 0.2094390803
0.3925803177 0.9966654864 0.4583114768
0.4024191871 6.6856799788e-04 0.7088684852
0.3926097754 1.0002390877 0.9605706614
0.4025370178 0.2474004159 0.2106643362
0.432436576 0.2489619951 0.4525791939
0.4124642603 0.2515064773 0.4578990691
0.422343634 0.2487074818 0.7052037641
0.4324328937 0.2512005406 0.952525029
0.4124090271 0.2470476123 0.9571001769
0.422465147 1.0012545372 0.2034702153
0.4323702961 0.9992952403 0.4528525981
0.4123832516 0.0033760429 0.4590101765
0.4223730917 0.9996207049 0.7054670422
0.4323518851 1.0030641204 0.950610279
0.4123758872 1.309004814e-04 0.95950282
0.4224430537 0.2513391885 0.2053039566
0.4524015272 0.2512806049 0.4458941388
0.4423932761 0.2514986661 0.7004058424
0.4524052094 0.2505912708 0.9478025927
0.4424448271 0.9981756421 0.1997705132
0.4524972647 0.0023654753 0.443853273
0.4424926958 0.0020844041 0.699955692
0.4524236205 1.0011894443 0.9443597248
0.4424669203 0.2496565365 0.1983823194
0.4725064025 0.2479166028 0.4423030619
0.482382094 0.2473873973 0.689199952
0.4624134605 0.2503732096 0.6913015742
0.4724548515 0.2475846289 0.9428960457
0.48262512 0.0013153312 0.1947157572
0.4625276091 -6.5984830677e-04 0.1936018882
0.4724327583 0.9992366567 0.4437796288
0.4824446916 0.9995165563 0.6914645121
0.4624797403 8.3447742955e-05 0.6950767617
0.4724953559 9.1844729593e-05 0.9418650265
0.4823710474 0.248603984 0.189857079
0.4623987317 0.2492763939 0.1932778536
0.5124252584 -4.9112745898e-04 0.4360718394
0.5125320425 -8.5883736221e-04 0.94218722
0.4924418961 0.2488682613 0.4427642589
0.5025237914 0.246416211 0.6914083584
0.4923498408 0.2489379107 0.9386522969
0.5124326228 0.2486651714 0.4398755639
0.5124768093 0.248917081 0.942813196
0.5025274736 -9.1807191911e-04 0.1903569392
0.4925192225 -0.0026286097 0.4436820502
0.5024869693 -7.9634815932e-04 0.6888455391
0.4924860826 -4.1236502618e-04 0.9382380481
0.502516427 0.2467813823 0.1887054673
0.5225218826 0.9989827943 0.195860925
0.5325411803 1.5620920658e-05 0.4456152112
0.5224666494 0.9983123373 0.6936305731
0.5325853669 0.9996467421 0.9450777561
0.5224114162 0.2490648419 0.1927061902
0.5325448625 0.2495426239 0.4447821109
0.5223930052 0.2488350639 0.6914065173
0.5325264515 0.248475751 0.9467163402
0.5425973002 0.0019511589 0.1985268462
0.5625327937 4.783664866e-04 0.2029988922
0.5524877205 0.0011345682 0.4543282444
0.5425788891 0.9995295748 0.7038413458
0.562554887 1.000024281 0.7028397843
0.5525282248 7.0222103735e-04 0.9515768595
0.5425531136 0.2518000464 0.1985866821
0.5626469423 0.2502065717 0.205152986
0.5525355893 0.2504968861 0.4542582824
0.5424573761 0.2524535793 0.698710184
0.5624407384 0.2492737902 0.7046440679
0.5525245426 0.2521977641 0.953933475
0.5824940628 -0.0015355434 0.2108410823
0.5725631381 -0.0019423481 0.4585701522
0.5824498762 1.0001935226 0.707899143
0.5724968583 -0.0022866245 0.9560783632
0.5825934825 0.2500041327 0.2122826682
0.5725852314 0.2492021879 0.4576799775
0.5827186777 0.2505606772 0.7072713259
0.572717791 0.249761987 0.9581035796
0.6025032006 0.9988330806 0.2095025984
0.5925280894 0.9975182036 0.4615324914
0.612360481 -8.3255224323e-05 0.4638117804
0.6023816876 -9.2393028188e-04 0.7115233597
0.5924728562 -0.0026472328 0.96028529
0.6124856762 -9.2282370224e-04 0.9616292972
0.6023595943 0.2468399659 0.2122937148
0.5925317716 0.2497971372 0.4605373737
0.6125114517 0.249090879 0.4645371761
0.6025216116 0.2493161005 0.709943691
0.5925685937 0.2485460513 0.9589596938
0.6123678454 0.2487120383 0.9645474499
0.6222877235 -4.7667683082e-04 0.2212534561
0.6323364789 0.0015481686 0.4671754807
0.6224350119 -0.00117239 0.716373753
0.6324322164 1.0003757828 0.9669132708
0.6224166009 0.2478443496 0.2148537724
0.6324653563 0.2480096857 0.4683436623
0.6225012917 0.2483807153 0.7161270448
0.6323806654 0.2494742763 0.9667015437
0.6425472516 0.9983709209 0.2192356042
0.6625600716 5.5197415818e-05 0.2237849766
0.6525186806 -4.8995578643e-04 0.4718003384
0.6423999632 0.9985596903 0.7208734155
0.6625563894 0.9982146979 0.7247112006
0.6525555027 0.999353824 0.9711938418
0.6424367853 0.2483527253 0.2199287805
0.6625895293 0.2511660413 0.2223166947
0.6525297273 0.2501199981 0.4687082013
0.6423741877 0.2487491412 0.7169159586
0.662600576 0.248291538 0.7215932879
0.6525334095 0.2502215431 0.9717277625
0.6825986671 0.9985336532 0.231552602
0.672641967 0.9993668426 0.4754843911
0.6826686292 -0.0015425083 0.7289319356
0.6725756872 -0.0010049059 0.9756032902
0.6825507984 0.2489977962 0.2273079326
0.6726640603 0.2502397691 0.4755405449
0.6826465359 0.250985083 0.7284090616
0.6725867338 0.2501095832 0.9767815979
0.7026078049 -4.6346296812e-04 0.2345158618
0.692706338 1.0006621917 0.4853269427
0.7126197382 0.9976874452 0.4868697894
0.7026041227 1.0005450244 0.7341118868
0.6926106005 1.0002716341 0.9810069357
0.7127964844 6.7494710401e-04 0.9899270933
0.7027256357 0.2485558152 0.233337554
0.6926879269 0.2516236446 0.4820267606
0.7126712892 0.2511100614 0.4877903423
0.7026593559 0.2501662141 0.7358913155
0.6926437404 0.2502514858 0.9796813395
0.712719158 0.2517733583 0.990009943
0.7226058961 7.7914844783e-05 0.2435133458
0.7424824743 1.0020096151 0.2511603787
0.7327062025 8.3071446078e-04 0.4985644934
0.7224696543 0.9997053257 0.7437859772
0.7425929406 0.0011093122 0.7535631695
0.7326141472 1.0004148386 0.998414591
0.7227752778 0.2504194255 0.2432592732
0.7425855762 0.2498609283 0.2554713279
0.7326215116 0.2498121086 0.4984402188
0.7226537648 0.2508132377 0.7428479338
0.7426444916 0.2500887535 0.7536524631
0.7325515496 0.2504376516 0.999040567
0.762543163 5.7867467581e-04 0.2592870197
0.7524980898 2.2775874587e-04 0.5039791855
0.7625799851 3.7285086381e-04 0.7562981322
0.7524391744 0.9985531811 1.0040299637
0.7624547899 0.2504962352 0.2583167569
0.7524539033 0.2508119358 0.5068310584
0.7625137053 0.2490368519 0.7592577097
0.7525165009 0.2507670217 1.0049689276
0.7826590849 0.0023338402 0.2637388135
0.7725219564 1.0027516744 0.5108455896
0.7926157851 1.0025498863 0.5179264825
0.7827400936 0.0012397584 0.7653388822
0.7725919185 1.0014758531 1.0123609674
0.792648925 0.0047290643 1.0170557872
0.7824528811 0.2523142804 0.264991686
0.7724924987 0.2523520343 0.5113592581
0.7926268317 0.2526885647 0.5181225603
0.7824528811 0.2511152688 0.7619033788
0.7725330031 0.2508386239 1.0106027114
0.7926194673 0.2527341298 1.0163837836
0.8026240362 1.0029469531 0.2684851842
0.8126838383 0.004022676 0.5199636661
0.8027013626 0.0031626032 0.7692024427
0.8125954652 1.0015474554 1.0172214867
0.802358917 0.2533049947 0.2677542652
0.8124592234 0.2512688881 0.5182873392
0.8024951588 0.253026397 0.7634048005
0.8124334479 0.251159532 1.0173779807
0.8223827836 1.0018924478 0.2729010765
0.8425907608 0.9999526788 0.2745543895
0.8325309588 0.0021075772 0.5243988899
0.8223791014 0.0017976698 0.7680793681
0.8425318454 0.0017970189 0.7756748501
0.8324683612 0.0022065835 1.0224686382
0.8225668942 0.2525492659 0.2699774005
0.8424324257 0.2508854908 0.2780294767
0.8324904544 0.2530654527 0.5233623474
0.8224711567 0.2513886591 0.7699876743
0.8424287435 0.2504962352 0.7726204556
0.8325751453 0.2481711161 1.0232511082
0.8626404029 -0.001292942 0.2852254387
0.8525032744 1.0010657678 0.530917325
0.8625741231 1.001495381 0.7846778575
0.8524038547 -2.6330224013e-04 1.0316833727
0.8624636568 0.2510267425 0.2865409088
0.8526284696 0.2505743467 0.5286822226
0.8624415635 0.2507533522 0.7840859419
0.8526211052 0.2506791463 1.0313887958
0.8824359725 1.0021788567 0.2911436733
0.8725492343 -4.4393509222e-04 0.538148268
0.8925694188 0.0023687951 0.5383066031
0.8825758965 1.0012610465 0.7884585682
0.8725565988 -8.4087171638e-04 1.0376761721
0.8825685321 0.2513059911 0.2856940001
0.8925841476 -0.0010095926 1.0385783139
0.872630243 0.2499064933 0.5378997187
0.8926136053 0.2506622221 0.5363835681
0.8825906254 0.2522765265 0.7875610291
0.8726412896 0.2490492196 1.0356877778
0.8925362789 0.2531298947 1.0380996264
0.9024598391 0.0011578715 0.2900749114
0.9224579303 -2.1311559907e-04 0.2918083125
0.9123981282 6.9538628079e-04 0.541255134
0.9024708857 0.9994775005 0.7877994523
0.9224100615 0.9999982439 0.7950975957
0.9124202215 0.9998615487 1.0380904209
0.9025187545 0.2514836948 0.2883949023
0.9224542481 0.2504070579 0.2907450739
0.9124533614 0.2525687937 0.5353470255
0.902423017 0.2504168218 0.7876153418
0.9224468836 0.2512936234 0.7907378572
0.912464408 0.2504584813 1.0400788152
0.9425038902 0.9995491027 0.2959655294
0.9324624992 0.9991129802 0.5436356838
0.9424081527 1.0000633368 0.8013076456
0.9325435078 1.0005775709 1.0467344126
0.9424597036 0.2511718997 0.294409795
0.9324624992 0.2489209865 0.543820715
0.9424560214 0.2502755702 0.7979540714
0.9323667617 0.2533577199 1.0416621662
0.9624982991 0.0012739322 0.3009788604
0.9524863658 1.0006231359 0.5491884589
0.9724734103 1.0036825031 0.5507856182
0.962531439 1.0003302178 0.8007921359
0.9524937302 1.0010397306 1.0467344126
0.9625608967 0.2504617359 0.3000665925
0.9725912411 0.002658068 1.0527824452
0.952420086 0.2501043758 0.5486315244
0.9725433724 0.2515064773 0.5519059311
0.9624798881 0.2510644964 0.7989915345
0.9524605903 0.2479022823 1.049404016
0.9725212791 0.2497658926 1.0518250702
0.9825368946 0.0031675503 0.3009871454
0.9926961164 0.9989827943 0.5505683677
0.9825148013 1.0003757828 0.8016869134
0.982525848 0.2509609986 0.301197952
0.9927145275 0.0011148451 1.0482257083
0.992567239 0.2504571794 0.5513738515
0.9825847634 0.2514680725 0.8024896355
0.9925635568 0.2520246169 1.0539147252
0.0124609018 0.7501716182 1.0487872456
0.0222582726 0.5008911221 0.8007958181
0.0024714299 0.5012973019 0.8002683413
0.0124308181 0.5019820794 1.051788248
0.0224283171 0.7494946518 0.2974430168
0.0026110226 0.7525930748 0.2996403765
0.0124064418 0.7520007292 0.5472396484
0.0225370897 0.747737143 0.7958791451
0.0224392165 0.4992950437 0.2999147013
0.0024572534 0.5000286409 0.3031154637
0.0026880544 0.7529250487 0.801271744
0.012481559 0.5017392828 0.5514364491
0.0323664958 0.7507574544 1.0445066746
0.0424296118 0.4999075681 0.8000566142
0.0323466118 0.4994773039 1.0482349139
0.0424321894 0.7490455107 0.2937534407
0.0324471362 0.7512912164 0.5474127124
0.0424329258 0.7481016633 0.7940122638
0.0424089914 0.4991583485 0.298395789
0.0323874844 0.4999498785 0.5465989436
0.0723365344 0.7519030898 1.0388452743
0.0624413272 0.4996771391 0.7959767237
0.0524717393 0.7495988005 1.0414872611
0.0722824059 0.4999394636 1.0466055352
0.0523045669 0.4996901577 1.0472775388
0.0624608429 0.7504059527 0.2919335077
0.0724683575 0.7496118191 0.5432941587
0.0524982512 0.7485377859 0.5440177133
0.0623072947 0.5002701356 0.2929875407
0.0723844031 0.4995983767 0.5462353252
0.0623897762 0.7511284841 0.7929333758
0.0524257116 0.4997930045 0.5423165315
0.0923758663 0.7494035217 1.0380628043
0.1022493485 0.4987424048 0.785774236
0.0823731385 0.5001165163 0.7909679954
0.0922735008 0.5004940553 1.0401064318
0.1023944276 0.749989358 0.2845552762
0.0824718218 0.7519095991 0.2905130945
0.0923773392 0.7506272686 0.5397178107
0.1023255702 0.7498136071 0.7849991304
0.1023428766 0.5002252215 0.2889260614
0.0823020718 0.5009679317 0.2902627042
0.0824497285 0.7516427182 0.7909053978
0.0922878614 0.498501561 0.5390375221
0.1124255084 0.7495467261 1.0336993836
0.1223781581 0.4995280763 0.7770335862
0.1122830068 0.4978805745 1.0336257394
0.1224882563 0.7495988005 0.2774163885
0.1122881619 0.7507314173 0.5317393787
0.1222901533 0.502215763 0.2812145897
0.1225107178 0.7465654704 0.7784374294
0.1123452362 0.4991720181 0.532430714
0.1526301039 0.7496834213 1.020167256
0.1424992352 0.4987092074 0.7746696063
0.132549163 0.7487981576 1.0229749423
0.1524861294 0.4992423184 1.0204526274
0.1323757308 0.497794001 1.027964339
0.1424521029 0.7504515177 0.2727289331
0.1525560915 0.7482839235 0.5191167574
0.1325465854 0.7514864952 0.5216114558
0.1424837699 0.5003130969 0.2730953132
0.1425198555 0.747782708 0.7724851343
0.1524198496 0.4984208458 0.5224970276
0.1324556348 0.498538664 0.5272848233
0.1724411387 0.7476980872 1.0126187222
0.1625065318 0.5000950357 0.7679937567
0.1723873784 0.4982092938 1.0139351129
0.1623912786 0.7475028085 0.2677910874
0.172323308 0.7496638934 0.5168641645
0.1624295736 0.4970929502 0.2685100392
0.1624605042 0.7493709753 0.7663680603
0.172380014 0.499724006 0.5146787719
0.1923758958 0.747938931 1.0110445768
0.2023977711 0.5007199277 0.7615931524
0.182341501 0.4988061959 0.762265156
0.1924473307 0.4991466318 1.0115416753
0.2024040309 0.7492798452 0.2569414509
0.1823411328 0.7511610306 0.2631772762
0.1924465943 0.7481081726 0.5100833718
0.2025255439 0.5015947765 0.2597408523
0.2024596323 0.7504189713 0.7552266086
0.1823727998 0.4979339507 0.2607617454
0.1822892136 0.7473530948 0.7630540699
0.1922985694 0.5014463647 0.5140758097
0.2124943953 0.750991789 1.0062208796
0.2225284219 0.5016878594 0.7556638712
0.2125315857 0.5007602853 1.0036985646
0.2224871811 0.7499698301 0.251392358
0.2125161204 0.7514148929 0.5028975359
0.2225781318 0.5021871221 0.2565897997
0.2224625103 0.7506272686 0.7532198033
0.212593815 0.5011905495 0.5011466443
0.2527203476 0.7483099607 0.9927623962
0.2426936855 0.5001705434 0.7449817754
0.2326791746 0.749833135 0.997457216
0.2525439697 0.4977946519 0.9945666799
0.2325256264 0.500183562 1.0011670442
0.242629615 0.7492147523 0.2470749649
0.2526286606 0.7478998753 0.4927825006
0.2326950081 0.7494881425 0.4982450615
0.2426174637 0.5007309935 0.2479071448
0.2426774837 0.7498461536 0.7469766135
0.25250457 0.4968501536 0.4976706365
0.2325348319 0.4971938442 0.5016787239
0.2726348526 0.7495597447 0.9830965908
0.2625669497 0.5001718453 0.7417837746
0.2726319068 0.4969380291 0.9882793036
0.2625194491 0.7491561686 0.2362731972
0.2725917707 0.748830704 0.4848031481
0.2625312322 0.5002200141 0.2410757217
0.262565845 0.7475874293 0.7392375253
0.272454056 0.4990873973 0.4877967861
0.2926171102 0.7501195438 0.9795432566
0.3026758077 0.5018121869 0.72799021
0.2825897116 0.5004107363 0.729573561
0.2926001721 0.4990060311 0.9831150018
0.3026990056 0.7505882129 0.2279458757
0.2826843445 0.7491561686 0.2329987906
0.292783178 0.7501065253 0.480825439
0.3026003223 0.5012354636 0.2264821966
0.3025671824 0.7504384991 0.7292799046
0.2825057572 0.5015342401 0.230065909
0.2827325815 0.7497550235 0.7305870897
0.2927662398 0.4991889422 0.480397382
0.3325621098 0.7509462239 0.9744894212
0.3225527541 0.5002141557 0.7238670536
0.3126796401 0.7487395739 0.9752626856
0.3326850957 0.5001217238 0.9684597997
0.3124752774 0.4982867544 0.9797365727
0.3226363403 0.7497940792 0.226889081
0.3324950936 0.7498721907 0.4698220703
0.3125842708 0.7496704027 0.4772187128
0.3224956798 0.5015427022 0.2286049916
0.3225453896 0.74914315 0.7231508634
0.3325492221 0.4994200221 0.4723259741
0.3125463441 0.4993835701 0.4803421488
0.3525664607 0.7505621757 0.962356534
0.3424621039 0.5006144772 0.7135771133
0.3525594645 0.4987983847 0.9610033212
0.3425847216 0.7516557367 0.2131001191
0.352633477 0.7504450084 0.460402973
0.3425707292 0.50002799 0.2144699018
0.3426197026 0.7505361385 0.7158416734
0.3525649879 0.4978239437 0.4629464607
0.3726116842 0.7497810607 0.9553143043
0.3825573377 0.4988153089 0.7081578184
0.3625224244 0.4990919538 0.7095202366
0.3725454044 0.4977510396 0.9593739426
0.3826604396 0.749520689 0.2063036771
0.3625555644 0.7497159677 0.2083242907
0.3726190486 0.7508160381 0.4571589446
0.3825426089 0.5008436042 0.2083417812
0.3825021046 0.747424697 0.7056603583
0.3625297889 0.4999453219 0.2083638745
0.362566611 0.7494751239 0.7098157341
0.3725343578 0.4973298884 0.4611200837
0.3924956268 0.7488372133 0.955535237
0.402279263 0.499172669 0.7062605588
0.3924882624 0.499136217 0.9591806265
0.4025186068 0.7474637527 0.206415064
0.3924845802 0.7482774142 0.4562209012
0.4024744202 0.5004582542 0.2066286323
0.4026290731 0.7490194735 0.7046818106
0.3925250845 0.4988198654 0.4597788381
0.4326354154 0.7527037327 0.9473239052
0.4224025494 0.4993126188 0.7038652802
0.4124679425 0.7503473691 0.9532338548
0.4324770803 0.5009861577 0.9509140615
0.4125894555 0.4985152305 0.9587387611
0.4225166979 0.7521569522 0.2019034342
0.4325028558 0.7485898602 0.4515730296
0.4124900358 0.7519486549 0.454790362
0.4225019691 0.5002955219 0.2043023951
0.4224909224 0.7514995137 0.7000882516
0.4326206865 0.4993640422 0.4505466131
0.4125305401 0.5009802994 0.4564528805
0.4526114133 0.7496899306 0.9465966684
0.442547929 0.4998268528 0.6991382411
0.4524972647 0.5019332597 0.9449212621
0.4426289376 0.74831647 0.1952763739
0.4525561801 0.7513237629 0.447359659
0.4423454074 0.4996068388 0.2014680127
0.4425847511 0.7501716182 0.6965910712
0.4525414513 0.4998782762 0.4449653009
0.4725211314 0.7500609602 0.9478394148
0.48262512 0.4983108387 0.69179407
0.4626528043 0.4984338644 0.6911423186
0.4725726823 0.4992930909 0.9423345084
0.4825772512 0.7487200461 0.1920222194
0.462490787 0.7503799155 0.19220633
0.4724548515 0.7491561686 0.4386677985
0.482643531 0.4971665052 0.1914459533
0.4825072892 0.7485052394 0.6910741977
0.4625533846 0.4997669673 0.194730486
0.4625754778 0.751929127 0.6931518856
0.4724732626 0.4999655008 0.4395846692
0.4925229047 0.4993152225 0.9379618822
0.502446465 0.7466370726 0.1888196159
0.4925560446 0.7494621053 0.4435504111
0.502394914 0.4984149874 0.1900319841
0.5024059606 0.7482318492 0.6918207661
0.4924492605 0.7501390717 0.9412206394
0.4925597268 0.497444452 0.4402088041
0.5024869693 0.4994089563 0.6894494218
0.5124731271 0.7476329943 0.9424541803
0.5124583983 0.4981031923 0.9414968053
0.5121859146 0.7483294885 0.4442132092
0.512417894 0.4993126188 0.4395690198
0.5224150984 0.4970473852 0.6955600519
0.5324123029 0.7496508748 0.9446819183
0.5325595914 0.5006099207 0.9422700697
0.5224924249 0.4999225394 0.1940833374
0.5223451364 0.7501585996 0.1936037293
0.5324196673 0.7512326328 0.4471120303
0.5324896293 0.5026714134 0.445366662
0.5222604455 0.7496834213 0.6879608878
0.5424500117 0.5001184691 0.7030156099
0.5524508984 0.7499763394 0.9527827838
0.5625659336 0.4983238573 0.7062301806
0.5526202801 0.5008501135 0.9529668944
0.542420554 0.4972576353 0.1979468979
0.5424463295 0.7521309151 0.2010095774
0.5624628317 0.4977360683 0.204422067
0.5624517851 0.7506988708 0.204770036
0.5525687292 0.4998307584 0.453694904
0.5524214407 0.7497680421 0.4509949224
0.542420554 0.7504775549 0.6981550906
0.5623670942 0.7490585292 0.7029428862
0.5824535584 0.4991570467 0.7138505175
0.5724968583 0.7487200461 0.9556180868
0.5724489896 0.4999648498 0.9574223704
0.5824646051 0.498933778 0.2101902514
0.5824388296 0.7494490868 0.2065421003
0.5725152694 0.4972224851 0.4589825599
0.5723753453 0.7492733359 0.4549542204
0.5823688676 0.7484206186 0.7057441287
0.6023853698 0.4992240924 0.7149063916
0.5923292499 0.7499307744 0.9571462046
0.6122168748 0.748472693 0.9654219751
0.5924728562 0.5003977177 0.9612702816
0.6123420699 0.498703349 0.9643541338
0.6023485477 0.7507183987 0.211391573
0.6024148275 0.4988569683 0.2120994781
0.5923366144 0.7494035217 0.4589181212
0.5924507629 0.4993028548 0.4593194822
0.6122131925 0.7500088859 0.4645399377
0.6123936209 0.4975941657 0.46222935
0.6022749035 0.7517143204 0.7112020868
0.6221735749 0.4985275982 0.7170871815
0.6322849279 0.7471122509 0.9658454295
0.6323364789 0.5001614304 0.9659558958
0.6222067148 0.7494035217 0.2126149878
0.6222509013 0.4984260532 0.21684769
0.632233377 0.7477241244 0.4669840057
0.6322886101 0.4973116624 0.4657790019
0.6222877235 0.7500674695 0.7161252037
0.6422674036 0.4986278413 0.7156851794
0.6522388326 0.7485117487 0.9716541183
0.6623612322 0.4984937498 0.71953217
0.65236771 0.50014711 0.9719763118
0.6422784502 0.7477631801 0.2169397453
0.642293179 0.5006053642 0.2171247764
0.6622912702 0.7484661837 0.2211991435
0.6623943721 0.4983889502 0.224531545
0.6524155787 0.747359604 0.4681089213
0.6524818585 0.4988055449 0.469034077
0.6423594588 0.7469560279 0.7163470569
0.662287588 0.7493058823 0.7221575868
0.6825765739 0.4990353229 0.7285084813
0.6724394453 0.7481797748 0.9767171592
0.6724799497 0.5002922672 0.9780979885
0.6824182388 0.7510308447 0.2254999667
0.6825876205 0.4991843857 0.2275399119
0.6725425473 0.7481342098 0.4749624376
0.6725094074 0.5010232607 0.4752146691
0.6824697897 0.7505947222 0.7277803239
0.702574665 0.5006177318 0.7342739041
0.6924890875 0.7489999456 0.9813751569
0.7124540387 0.7508160381 0.9889052796
0.692514863 0.4986786137 0.9825994922
0.7125055897 0.5004549995 0.9856004947
0.7024826097 0.7495076704 0.2337159013
0.7025673006 0.5014144691 0.2327668112
0.6924927697 0.7509071682 0.4794160726
0.6924485831 0.4986564821 0.481937467
0.712527683 0.4993035058 0.4857577615
0.7125166363 0.7472424368 0.4864490967
0.7023684612 0.7507053801 0.7357302188
0.7226095783 0.5019885887 0.7418021857
0.7325184097 0.749520689 0.9960947977
0.7425487541 0.5033867846 0.7501156989
0.7325662784 0.5005650065 0.994447008
0.722569074 0.7486093881 0.2412432623
0.7224770187 0.5030567635 0.2405270722
0.7424898387 0.7509006589 0.2498449086
0.7426187161 0.50338353 0.2482845715
0.7325294563 0.5003996705 0.4961867053
0.7325184097 0.7519681828 0.4942471003
0.7225764384 0.7481797748 0.7421335847
0.7425045675 0.7505621757 0.7527116581
0.7524612677 0.5009568659 0.504962336
0.7525975095 0.7511805584 1.004122019
0.7624695188 0.5020569363 0.75684402
0.7524980898 0.5008559719 1.0033303435
0.7626241717 0.7509462239 0.2558386285
0.7624952943 0.5006457218 0.2582909815
0.7525459585 0.7515320602 0.5038889714
0.7625394808 0.7507769823 0.7579542068
0.7724262189 0.4995397931 0.5108041647
0.7727355247 0.7516296996 1.0089365106
0.7925863274 0.5002844561 0.5182376294
0.7927152048 0.7544872787 1.017783024
0.7825191609 0.5005409222 0.762429935
0.7725808718 0.5003248137 1.0103725732
0.7925863274 0.5012699629 1.0164942499
0.7825891229 0.7506533058 0.2643878033
0.7825265253 0.5004022742 0.2652973096
0.7725293209 0.7515776252 0.5092659208
0.7926783827 0.7526581677 0.5153581399
0.782729047 0.7517078111 0.76338731
0.8125107743 0.504044874 0.5153378878
0.812400308 0.7536605987 1.0171938701
0.8025393453 0.5037337299 0.7653674193
0.8126249229 0.502785326 1.0205722993
0.802741867 0.7525149633 0.2695576284
0.802568803 0.5033705114 0.2674283895
0.8123929436 0.7534718292 0.5168264218
0.8027197737 0.7535889965 0.7677350814
0.8324352213 0.502399325 0.5200722913
0.8324241746 0.7521244058 1.0189981538
0.8223128216 0.5022938745 0.7708750873
0.8425539387 0.5008989332 0.7744256598
0.8323836703 0.502491106 1.0241072224
0.8224232879 0.7528143907 0.2694177043
0.8224858855 0.5024012778 0.2690145022
0.8424692478 0.7521439336 0.2782329189
0.8424287435 0.5010187042 0.2724693372
0.8322805684 0.7507053801 0.5211769548
0.8225411187 0.7536150336 0.7712368646
0.8424250613 0.7517924319 0.7792898613
0.8524664523 0.5010317228 0.5287972917
0.8625998986 0.7496638934 0.786636794
0.8625667587 0.5000631401 0.7867711947
0.8526137408 0.750926696 1.0272647188
0.8525290499 0.5019775229 1.0320331828
0.8625115255 0.7484466558 0.2810580957
0.8625962164 0.4997877971 0.2827077265
0.8525290499 0.7511610306 0.5332187072
0.8726854762 0.5004934043 0.5365308566
0.8826826806 0.7509136775 0.7869866041
0.8925068212 0.5004634616 0.5403585155
0.8725676454 0.7513628186 1.040354981
0.892503139 0.7508160381 1.0399775544
0.8825538032 0.5025718213 0.7884530449
0.8726633829 0.4992436203 1.03415966
0.8926025587 0.5016696334 1.0374644449
0.882550121 0.7498070978 0.2896671064
0.8826421763 0.5018948549 0.2862288414
0.872630243 0.7501065253 0.5367849292
0.8924442236 0.751037354 0.5389537518
0.9125711921 0.5010792406 0.5403603566
0.90254453 0.7499958673 0.7891167635
0.9225389389 0.7520723314 0.7940720998
0.912464408 0.7505361385 1.0413860003
0.9025261189 0.4999895851 0.7877635508
0.9224211082 0.5010128458 0.7929039182