POSCAR file written by Ovito 3.7.11
1
271.5929843745 0.0 0.0
0.0 15.3636192779 0.0
0.0 0.0 10.863719375
Sr Ti O 
800 800 2400 
Direct
0.0124087269 0.2494223249 0.5269462077
0.0224743403 0.2490773541 0.7753022179
0.0024337638 0.2500862309 0.7775804432
0.0124495968 0.2501929766 1.0260901761
0.0225491213 -7.2276986564e-04 0.272064808
0.0025206953 0.999810615 0.2743006905
0.012505747 -5.5418979651e-04 0.524010749
0.02253918 -0.0019233203 0.7749524298
0.0024706572 -0.0012029953 0.7756372781
0.012578098 0.9977928613 1.0247278434
0.0225646593 0.2508829182 0.2769857746
0.0023449912 0.25239363 0.2770382428
0.0323262885 0.2485898388 0.5197893586
0.0425062274 0.2507091311 0.7702376541
0.0325269564 0.2497406093 1.0216257751
0.0424708804 1.0002857635 0.2667139703
0.0325129649 -0.0019692665 0.5211618168
0.0424484203 1.0017112088 0.7733857472
0.0325387387 -5.2535544492e-04 1.0215797503
0.0425717667 0.2517095464 0.2722627145
0.0725821148 0.2507006695 0.5081082764
0.0524799755 0.2511263504 0.5162021894
0.0626010027 0.2510768829 0.767559934
0.0724977974 0.2519900792 1.0098710532
0.0525002264 0.2510196048 1.0174559324
0.0625461412 1.0012946403 0.262847891
0.0725559727 1.0007804386 0.51058809
0.0526287275 0.0020023042 0.5197433339
0.0626370862 1.0016135756 0.7653433819
0.0724768101 0.00114196 1.0127337928
0.0526184179 1.0004419767 1.0202726473
0.0624850204 0.2503993082 0.2661846856
0.0924066327 0.2497367039 0.506413645
0.1024507066 0.2509994272 0.7606626645
0.0825102063 0.2515481261 0.7583881212
0.0923893274 0.2507188944 1.0071187729
0.1024311921 1.0002727457 0.2600146072
0.0825006331 1.0009431606 0.2565415794
0.0924147331 2.0479481624e-05 0.5105273374
0.1024540204 -0.0011144094 0.7584976601
0.0824851688 1.000865054 0.7557720743
0.0925270335 0.9979165301 1.0099631027
0.1024065229 0.2523448133 0.2601057362
0.0824711773 0.2507898412 0.2569760531
0.1124859437 0.250126586 0.51058809
0.1224744197 0.2507865868 0.7628046565
0.1123250412 0.2521306711 1.0096409294
0.1224659512 0.0015651676 0.2596648191
0.1123802709 0.9995437508 0.5083807429
0.1224828883 1.0012490781 0.7625054956
0.112408254 0.0017187772 1.0120342165
0.1224850975 0.2503524443 0.260798869
0.1525341063 0.2516268836 0.5073691188
0.1325626774 0.2512441612 0.5130412094
0.1425404756 0.2512825636 0.7615030765
0.1524899226 0.2498636272 1.0069346739
0.1325022929 0.2502385388 1.009521265
0.1425191201 -8.6114871776e-04 0.2598958634
0.1525370519 1.0008585452 0.5079343028
0.1325000837 8.3773482835e-04 0.5133164374
0.1424918735 0.001930381 0.7582610929
0.1523890363 1.0004354678 1.0050936838
0.1324986109 7.7869925974e-04 1.0103957353
0.1424771455 0.2478178852 0.2598001319
0.1725721792 0.2503107874 0.5025604526
0.1626636022 0.2491307269 0.7551811165
0.1726233587 0.2516320907 1.0041363689
0.1624264826 8.1254545123e-04 0.2502371087
0.172560765 -4.2902397684e-04 0.5012266553
0.1624478381 0.9997975972 0.7528154442
0.172566288 -3.869765928e-04 1.0056828006
0.1625432014 0.2513313803 0.2545928913
0.1926073064 0.2498330354 0.5001082538
0.2026270792 0.2500706096 0.7496415772
0.1824943795 0.2518722684 0.7493000735
0.1926260845 0.2508445158 1.000408364
0.2026524849 -5.2867497524e-04 0.2530418572
0.1825687555 0.0014029011 0.2488287513
0.1926227707 -0.0013582321 0.5004083352
0.2026815725 0.9982029209 0.7522254068
0.1825831152 1.0013922736 0.7483418382
0.1926062018 0.0010243445 0.9992301303
0.2025000509 0.251158244 0.2536558274
0.182625458 0.2495173546 0.2478870848
0.212723069 0.2498922662 0.4992356245
0.2225804665 0.2475197784 0.7551608656
0.2125386018 0.2490812594 1.0027372165
0.2226776708 0.9982029209 0.2530648695
0.2126711531 0.9992899044 0.5036917411
0.2226128679 0.9984112052 0.7596363125
0.2124785855 0.9996739285 1.0033631531
0.2226728842 0.2489191882 0.2523883057
0.2524218117 0.2478803705 0.5027233803
0.2326120216 0.2493949876 0.5056597595
0.2425883471 0.2477749266 0.7543968547
0.2524792506 0.2492439815 1.0016510323
0.2326816111 0.2485761701 1.0042008036
0.2425721464 0.9990360579 0.2555078634
0.2526221114 -2.4041277946e-05 0.501651924
0.2326753517 -6.0092357629e-04 0.506874813
0.2425780375 0.9993029221 0.7546012046
0.2524144477 0.0010829245 1.0040811392
0.2325914026 -0.0016618064 1.0027188066
0.2423770014 0.2495004315 0.257358979
0.2723346972 0.2485833299 0.5005022257
0.2624518941 0.2496937453 0.7513757899
0.2725305785 0.2494704906 0.9978217728
0.2625343704 0.9974088372 0.2473403108
0.2723582619 -7.443142683e-04 0.495599669
0.2624633082 0.9977603169 0.7497501956
0.2724768216 9.5450418898e-04 0.9973707303
0.2624607308 0.2481270572 0.2512109925
0.2924865432 0.2486887738 0.4903362783
0.3024875379 0.2480938619 0.7394691863
0.2823651477 0.2487200164 0.7464354929
0.2924828612 0.2495843961 0.992574951
0.3024757556 -0.0016832206 0.2366147024
0.2824759754 0.9979490745 0.2419508122
0.2925403001 0.0013958065 0.4909014622
0.3025225167 -0.0035703671 0.7361443582
0.2824862849 0.9979490745 0.7379411645
0.2925704924 -0.001240942 0.9902368936
0.3024636051 0.2474332102 0.2402948416
0.282503222 0.2491671767 0.2461501107
0.3325464882 0.2475380033 0.4872342099
0.3125242478 0.2474690091 0.4884731963
0.3224987323 0.2503752254 0.7372572367
0.3325645299 0.2469124996 0.9848243826
0.3124715955 0.2480157553 0.9893624233
0.3224862136 -0.0044412036 0.2353582266
0.3324363969 1.3314824598e-04 0.488530267
0.3125511263 -4.2681095663e-04 0.4867758034
0.3224523393 -0.003203162 0.7360541496
0.3324408153 -5.5868092577e-04 0.9854227044
0.3124325665 0.9999342838 0.9875766628
0.3223879047 0.2464126174 0.2370141972
0.3524369136 0.249182798 0.4829198496
0.3425139768 0.2499007278 0.735517501
0.3524225538 0.2488202532 0.9838394529
0.3425846709 -0.0026633022 0.2394571911
0.3525238083 3.3225497628e-04 0.4867748829
0.342417509 0.9963804337 0.7377745549
0.3525109214 -3.9537305185e-04 0.9881197549
0.3425010899 0.2474097783 0.235557974
0.3725386847 0.2494529166 0.4823242893
0.3824800313 0.2483483592 0.7332162634
0.3625200164 0.2478836249 0.7292222353
0.3724576811 0.2493949876 0.9820905123
0.3825205331 0.999478662 0.2369552855
0.3623543273 0.9991271823 0.2385597084
0.372652826 0.001203469 0.4855800803
0.3825463069 5.5166942147e-04 0.7359133139
0.3625200164 0.9988342826 0.7362815119
0.3725497306 7.6184125283e-04 0.9884695431
0.3826383564 0.2478211397 0.2321834391
0.3625126525 0.2489471764 0.2338771501
0.3925539292 0.2500029172 0.4857669408
0.4026278271 0.2482591875 0.7341478044
0.3926349328 0.2467400142 0.9844285697
0.4025247317 0.9997455262 0.2368696795
0.3924913355 1.0000709703 0.4880994753
0.4025910073 -1.0761533538e-04 0.7353821882
0.3926607066 0.9981638676 0.9854227044
0.4025100038 0.2475991868 0.2336810846
0.432632284 0.2496065263 0.4768335363
0.4126796332 0.2497100175 0.4798803749
0.4225362942 0.2504676515 0.7273619148
0.4326138741 0.2482813177 0.972084731
0.412532354 0.2502736868 0.9838026331
0.4227314392 0.9990946379 0.2264100941
0.4325917823 0.9986650516 0.4730843599
0.4125802197 0.0010229125 0.4797800409
0.4225326123 1.000253219 0.727888438
0.4325586444 0.9987757026 0.9710445716
0.4124918522 8.277762374e-04 0.9834988697
0.4226209798 0.2483756965 0.221595905
0.4526143908 0.2494359935 0.4651717844
0.4426362243 0.2482956372 0.7192081696
0.4524634296 0.2496566447 0.9699031577
0.4425441748 0.9982484831 0.2209027722
0.4526475286 -0.0019966754 0.4684432238
0.4426435883 -5.1904182843e-04 0.719214613
0.4524928854 0.9982484831 0.9661475379
0.4425662667 0.2497685975 0.2196941622
0.4724418543 0.2500601954 0.4652058427
0.4824310667 0.2492869401 0.711962953
0.4624231861 0.2496390707 0.7156900375
0.4725523137 0.2505073557 0.9619961052
0.4825010243 1.6165715342e-04 0.2135544602
0.4624968257 -7.4529060075e-04 0.2149149519
0.4724344904 0.9975715593 0.4638794093
0.4825010243 0.9999863548 0.7161033397
0.4624673699 -0.0013774984 0.7166197375
0.4724786741 2.5252115979e-04 0.9648036151
0.4824715685 0.2496572956 0.2172944316
0.4623974123 0.2482279449 0.214508093
0.5125017993 3.0641471085e-04 0.4641813317
0.5124797074 -4.9554476088e-04 0.9637910705
0.4923245476 0.2490799576 0.4667679228
0.5023542617 0.2512129186 0.714108627
0.4924129151 0.2492426797 0.9657977498
0.5124023858 0.251164102 0.4657609012
0.5124355236 0.2498115561 0.9655216012
0.5025162689 -2.9702383005e-04 0.2156541094
0.4925822862 1.9062168267e-04 0.4644740491
0.5024831311 2.9534960979e-04 0.7147179947
0.4924976007 0.0012162264 0.9662303824
0.5024684031 0.2503407283 0.2127241736
0.5224505099 0.9994070643 0.2196803548
0.53249127 5.8811916614e-04 0.4706220356
0.5224505099 1.0002922723 0.7170496087
0.5324507682 0.9991727445 0.9705106845
0.5223842342 0.2504637462 0.2178347622
0.5324581321 0.2503504916 0.471753324
0.522233273 0.2498968225 0.7213161033
0.5324286763 0.2509812024 0.971155031
0.5426093516 0.0018428365 0.2211402599
0.5624184053 0.0015320374 0.2270185414
0.5525580622 0.0015561202 0.4757105323
0.5424436625 1.0010147584 0.7237609381
0.562473635 1.0003248168 0.7304943595
0.5525028325 3.2195470985e-05 0.9740637954
0.542362659 0.2508614389 0.2221077002
0.5624073594 0.2515259959 0.2288917488
0.5525249244 0.25111138 0.475951702
0.5423074293 0.2516737475 0.7204443944
0.5625693665 0.2480183588 0.7287730337
0.5523334614 0.2513665282 0.9771474538
0.5825072894 0.0012068536 0.2350397353
0.5725180771 9.6810775441e-04 0.479956776
0.5825109714 1.0007413853 0.735331561
0.5725733068 0.0019678722 0.9827716786
0.5824262859 0.2512441612 0.234356728
0.572532805 0.2517238659 0.4826970898
0.5824704696 0.2504572373 0.7353085486
0.5723671159 0.250860788 0.979734045
0.6022868873 1.0024922748 0.2356178062
0.5923970884 1.0000970059 0.4873538743
0.612393923 0.0011909068 0.4817462184
0.6024636223 1.7356840927e-04 0.7350011033
0.5925406856 0.0023708371 0.9836829688
0.6123460573 0.0023893874 0.9837105836
0.6025740817 0.2507462317 0.2334840987
0.5926364171 0.2524359377 0.488236629
0.6122724177 0.2519920319 0.4856730503
0.6024893962 0.251053451 0.7346246208
0.5924891379 0.2524352868 0.9831306717
0.612397605 0.2526461746 0.9856344183
0.6224899128 0.0019610379 0.2330753989
0.6322471604 0.0024516124 0.4842941487
0.6224641389 0.0012768241 0.7367785792
0.6323870757 1.0015029246 0.9841616262
0.6223463156 0.2509245751 0.2348804897
0.6324496693 0.2521222095 0.4850876154
0.6224420471 0.2495902541 0.7350075468
0.6324864891 0.2535600218 0.9855883935
0.6424462457 1.0005005566 0.2364066705
0.6624246704 0.001361765 0.2385744363
0.6524207301 0.0019152804 0.4852192462
0.6425125213 1.0004159411 0.7371762331
0.6624909461 0.9995502597 0.7391810714
0.6524538679 1.0006958231 0.9844377747
0.642376288 0.2505483616 0.2360025731
0.6625314478 0.2503426809 0.238359961
0.652626921 0.2527600801 0.4906308367
0.6425125213 0.2513242205 0.7369764857
0.6625351298 0.2513932147 0.7384474368
0.6525422355 0.2517941618 0.9913230777
0.6825025086 0.99925736 0.2394341787
0.672373381 0.9996088396 0.4900711757
0.682425187 -5.873850997e-04 0.7419094187
0.6724212467 0.0014392858 0.9901172292
0.6825025086 0.2495355794 0.2433969099
0.6725758899 0.2519451679 0.4905028879
0.6824693708 0.2509219715 0.7428262318
0.6726384836 0.252399488 0.992584156
0.7025913928 -0.0011237821 0.248599548
0.6924659471 1.0002727457 0.49699606
0.712425962 1.0012816226 0.5025199509
0.7025361631 1.0005851721 0.7523119334
0.6924217634 1.0001620947 0.9982544055
0.7124517358 0.0021397067 1.0038786303
0.7024809334 0.2513417945 0.2500364408
0.692495403 0.2509297822 0.4949534815
0.7125511493 0.253384282 0.5016197067
0.7024551595 0.2502880063 0.752183064
0.6925764065 0.2519048129 0.9952535916
0.7125364214 0.2501539233 1.0010987353
0.7226324112 -0.0013985872 0.2562276906
0.7424966945 1.0003183079 0.2547751494
0.7324927543 0.0012986939 0.5036355909
0.7226140013 0.9989709691 0.7583126406
0.7424451468 -8.5810577408e-05 0.7533539338
0.7324890723 1.0013271847 1.0040811392
0.7225256338 0.2506466458 0.251574588
0.7424782846 0.2488339219 0.2499720062
0.7324743444 0.251729073 0.5033124971
0.7224114924 0.2515129781 0.7525549441
0.7425040585 0.2492407271 0.7518590498
0.7324780263 0.2503674147 1.0017154669
0.7623536139 5.6677002998e-04 0.2513297364
0.7524527691 -4.2752693376e-04 0.4996912695
0.7624346175 7.3456903315e-04 0.7470586681
0.752463815 1.0011644627 1.0004820036
0.7624603914 0.2504103733 0.2466886003
0.7524049034 0.2503869413 0.5026239668
0.7623609779 0.2503465863 0.7445052148
0.7525485006 0.2523623873 1.0014209085
0.7823762225 0.0018745348 0.2472399768
0.7724164659 1.0021733395 0.4985001489
0.7922954772 0.9994330998 0.4967871076
0.7823835864 7.7453357464e-04 0.7457561676
0.7725269253 1.0011384271 0.9981899709
0.7924169826 2.6391170501e-04 0.9977481332
0.7824019963 0.250802859 0.2451973983
0.7723023245 0.2504331544 0.4947436086
0.7923764808 0.2501643375 0.4972225018
0.7823651765 0.2500003137 0.745491065
0.7723354624 0.251012445 0.996671154
0.7923470249 0.2500842783 0.9946000401
0.8023767391 0.9977668257 0.2516160103
0.8123917253 -0.0013214569 0.4988950413
0.8023693751 -0.0013098711 0.7488536334
0.8124616829 1.0003573612 1.0022033293
0.802391467 0.250051083 0.2487661576
0.8124837748 0.2490057564 0.5008722647
0.8023546472 0.251059309 0.7485121298
0.8125721424 0.2515468243 1.0004359788
0.8226313123 1.0021212685 0.2528310638
0.8424845498 0.9997975972 0.2586044088
0.8325505671 3.0524311192e-04 0.5059920582
0.8224508953 -6.7558046405e-04 0.752192269
0.8424145921 0.0025221036 0.7581506335
0.8325873869 6.8230270284e-04 1.0066309106
0.8226570862 0.2514238064 0.2546407571
0.8424845498 0.2496950471 0.2580475093
0.8325468851 0.2500387161 0.5050586762
0.8225466268 0.250645344 0.752759294
0.8426097371 0.2503498407 0.7615803981
0.8325358392 0.2498076508 1.0053790373
0.8624372007 4.3880539063e-04 0.2599925154
0.8524553522 0.9986780694 0.5106460812
0.8624777024 0.9993745198 0.7592487841
0.8524590342 -2.3427819814e-04 1.0103405056
0.8624003808 0.2489829753 0.2598599641
0.8524811261 0.2489810226 0.508741577
0.8624372007 0.2481791282 0.7577944019
0.8524590342 0.2502059944 1.0087296393
0.8824266713 0.9992964132 0.2652467012
0.8724705968 -0.0014262499 0.5102723602
0.8924416576 -7.9111313691e-04 0.5135990294
0.8824229894 0.9991662356 0.7624981317
0.8724853247 -0.0027513934 1.0124024146
0.882485583 0.2500003137 0.2600468246
0.8924011558 6.6238552092e-04 1.0141329453
0.8723601374 0.2482904301 0.5121602956
0.8925815728 0.2487128566 0.5136238827
0.8824487632 0.2497282424 0.7592699555
0.8724411409 0.2477872935 1.0095580848
0.8926294386 0.2500699587 1.0157254017
0.9025266014 0.0012252086 0.2644062892
0.9226044396 9.4031482409e-04 0.2676583982
0.9124127184 5.4834989115e-04 0.5161543237
0.9025486933 1.0010407939 0.7628828986
0.9225639379 0.9997715617 0.7671705646
0.9125526336 0.9990360579 1.0172902433
0.9025081915 0.249194514 0.2631737463
0.9224902983 0.2507533915 0.2695306852
0.9124016724 0.2499671184 0.5145839591
0.9024640078 0.2501057576 0.7674098933
0.9224497965 0.2490858156 0.7699154809
0.9125452696 0.2487759928 1.0156057374
0.9426160022 0.9996218574 0.2778676089
0.9325126485 1.0000384259 0.5233212982
0.9427411895 0.9994851709 0.7788166681
0.9325641962 0.9996283663 1.0195546612
0.9424834509 0.2492075317 0.2764721384
0.9324426908 0.2501428582 0.5232955243
0.9425276347 0.2490122653 0.7759447235
0.9324426908 0.2512148713 1.0245253345
0.9625428792 6.8319771513e-05 0.2797389753
0.9526604443 0.9998887216 0.5273889658
0.9725652294 1.0020496707 0.5277497999
0.9625465612 1.0005070655 0.7785377581
0.952719356 0.9988603181 1.0286031276
0.9623845541 0.2505132137 0.2774487836
0.9725578655 6.4904231082e-04 1.0244148751
0.9525094831 0.2493058159 0.529964511
0.9724842259 0.2515526823 0.5277157416
0.9625244693 0.2509558177 0.7750555253
0.9524468894 0.2496696624 1.0290541702
0.9724289962 0.2512298417 1.0280968553
0.9824366184 2.2778740448e-04 0.277754388
0.9924516047 1.000591681 0.5222820593
0.9825065761 1.0007088409 0.7776025351
0.9823961167 0.2510215574 0.2778344711
0.9925289263 2.1301224012e-04 1.0257495929
0.9923116894 0.2514941023 0.5262521545
0.9823961167 0.2538704955 0.776864298
0.9922859156 0.2528004352 1.0276458127
0.0124279836 0.7499801597 1.0248383028
0.0223560383 0.5013668654 0.7715355522
0.0024015096 0.4993380466 0.7790200975
0.0124801941 0.5016207119 1.0253445751
0.022546949 0.7494334135 0.2744129909
0.0025229045 0.7509499832 0.272903379
0.0124739716 0.750351166 0.5269995964
0.022522832 0.750240515 0.7743743589
0.022406776 0.5011742025 0.2783646762
0.0024418273 0.5011104154 0.2788911994
0.0024703995 0.7486132942 0.7773530809
0.0124749289 0.5005818941 0.5280876216
0.0325214334 0.7508979122 1.0233839206
0.0424638847 0.5021127834 0.7686424362
0.0326101692 0.5009900011 1.0214877008
0.0425268465 0.7511061964 0.2735928298
0.0324838772 0.7499996863 0.5214241579
0.0425563024 0.7516594515 0.7717850063
0.0424318514 0.5004744976 0.2685963827
0.0324540532 0.5000436095 0.5231077433
0.072463555 0.7509499832 1.0088032789
0.0626878975 0.5028990565 0.7621833224
0.0525142179 0.7510996875 1.0182475582
0.0725883741 0.5010166875 1.010450965
0.05268543 0.5027102989 1.0177689008
0.0625645511 0.7504292726 0.2659794152
0.0726222483 0.7509564921 0.508269363
0.0526703339 0.752909157 0.516842854
0.062582961 0.5019279311 0.2623950075
0.0725979473 0.4991525434 0.5124364441
0.0627328176 0.7518351913 0.7635824749
0.0525418327 0.5032583468 0.520372032
0.0925005232 0.7486132942 1.0073028719
0.1026208141 0.4995593486 0.7589082009
0.0825941554 0.4988915372 0.7552409486
0.0924806405 0.5006971014 1.0055079066
0.1024297193 0.7507221723 0.2583126119
0.0825687497 0.748958265 0.2586255802
0.0924964731 0.7505985035 0.5070524685
0.1024816352 0.7488411051 0.7575808471
0.1026071908 0.501503552 0.2596546937
0.0825588084 0.501328463 0.2536125641
0.0825363483 0.7481511635 0.7587305454
0.0925285063 0.500221302 0.5036309884
0.112540437 0.7519132979 1.0128350472
0.1225189717 0.4995066267 0.7625404744
0.1125338095 0.5004940242 1.011583174
0.1224873066 0.7502144794 0.261642963
0.1125330731 0.7500061952 0.5099566304
0.1225079257 0.5014228418 0.2605006286
0.1224688967 0.7500973196 0.7626536953
0.1126273318 0.500815563 0.5083448436
0.1525657714 0.7513209896 1.0067781898
0.1425463668 0.5017378718 0.7610971382
0.1325059749 0.750071284 1.0120894463
0.152494341 0.4995762717 1.0069530838
0.132595447 0.5016447947 1.0115923789
0.1425404756 0.7516789781 0.2597964499
0.1525433113 0.7506896279 0.5055456181
0.1323553819 0.7513014629 0.5118823061
0.1424550537 0.5010192911 0.2602640614
0.1425518897 0.7510085632 0.759640915
0.1525411021 0.5013258595 0.5078256844
0.1325958152 0.5006769238 0.5118657372
0.1724609834 0.7514576761 1.0011079402
0.1626440877 0.4994089934 0.7539209587
0.1725828569 0.4999993491 1.0017430818
0.1625236869 0.7521085644 0.2530841999
0.1725471417 0.7515943626 0.5006071621
0.1626378283 0.5027708315 0.2567726236
0.1624931265 0.7502600416 0.7562461292
0.1726620195 0.4989253834 0.5037644602
0.192573064 0.7513274984 0.9992945649
0.2026701584 0.5001562132 0.7496636691
0.182618094 0.4993953248 0.7491666017
0.1926478082 0.5014208892 0.9979046174
0.2025869456 0.749238147 0.2468165491
0.1826412905 0.750683119 0.247491272
0.1926680591 0.7487109275 0.4985084334
0.2026760496 0.4988362117 0.2509735048
0.2027217061 0.7499215797 0.7472234367
0.1825518184 0.4999375147 0.2515230403
0.1825742785 0.7495050112 0.7481614211
0.1926352895 0.4981690512 0.5014779505
0.2126361743 0.7488996851 1.0020008204
0.222678039 0.4982946727 0.7583052767
0.2125249785 0.4989956794 1.002267764
0.2225878305 0.7483985011 0.2503411247
0.2127506839 0.7494008691 0.5007433954
0.2227141224 0.5009353265 0.253997331
0.222564634 0.7503186216 0.7568545765
0.2127908175 0.5001776925 0.5026092389
0.2523813099 0.7495701 1.0024886828
0.2425982884 0.4983128975 0.7535969445
0.2327489913 0.7454369593 1.0057564403
0.2523397035 0.499114141 1.0018627462
0.2326009757 0.4994994669 1.0032987184
0.2425139711 0.7498304553 0.2587360396
0.2524976605 0.7471878489 0.498768013
0.2325118718 0.7497718754 0.5091926195
0.2425338538 0.4996010055 0.2531357477
0.2425091845 0.7484766077 0.7517522724
0.2525392669 0.4986383417 0.4993663348
0.2325796202 0.5003703554 0.5039918225
0.2724400018 0.7480925836 0.9966343342
0.2623756771 0.5006046752 0.7491804092
0.2725427291 0.4989781054 0.9952720015
0.2625130149 0.7494529401 0.247664325
0.2723899269 0.7476564884 0.4973513711
0.2625218517 0.5000540237 0.2471884291
0.2624441619 0.7497914021 0.7469113889
0.2723913997 0.497558518 0.496813802
0.2924894888 0.7479949503 0.9872821044
0.3026123571 0.499830769 0.7423733482
0.2824240594 0.5023093517 0.7435791967
0.2923580421 0.4980941991 0.990163254
0.302508157 0.7478777905 0.2392657281
0.282544092 0.748958265 0.2417529058
0.2925207856 0.7505854858 0.4878113603
0.3023177986 0.5005753853 0.2416111495
0.3026421811 0.7467192093 0.7379255161
0.2823710389 0.5026536716 0.246360904
0.2824527789 0.7483659567 0.7427249773
0.2923377912 0.4994760349 0.4920852189
0.3327213822 0.7479689148 0.9875858678
0.3225745811 0.4986780459 0.7425491628
0.3125827913 0.7468168425 0.986803447
0.3325302874 0.4979132521 0.9874754084
0.3123968513 0.4970417127 0.9894636777
0.3225620624 0.7478517549 0.2381887489
0.332574103 0.7458014568 0.4918670615
0.3125809503 0.7480014592 0.4883222351
0.3226489571 0.5000416569 0.2382992083
0.3225863634 0.7480600392 0.7383415799
0.3325280783 0.4961122442 0.4892059103
0.3125106245 0.4979822463 0.4890632336
0.352580879 0.7497328221 0.9857172628
0.3424116178 0.4980675126 0.7373143074
0.3525355906 0.4979067432 0.9871072104
0.3426483691 0.7488541229 0.2375987116
0.3525668875 0.7491079693 0.4833506413
0.3424465966 0.4975839026 0.2340244293
0.3426115493 0.7481641813 0.7385081895
0.3524954571 0.496317274 0.4843530604
0.372479773 0.7499345975 0.9843273153
0.3826641303 0.4984482823 0.735699759
0.3624795147 0.498478874 0.7322810404
0.3724981829 0.4980850866 0.9831306717
0.3826273105 0.7491600404 0.2363394743
0.3626967515 0.7506375568 0.2369801389
0.3726344161 0.7493748335 0.4850618416
0.3827304059 0.4992911826 0.2343373976
0.3825463069 0.7495375556 0.7372093709
0.3625421083 0.4993738455 0.2341468551
0.362597338 0.7487109275 0.7343558363
0.3726933278 0.4978976308 0.4824329077
0.3926202048 0.7482292701 0.9831859014
0.4025615515 0.5000598817 0.7310024728
0.3926165229 0.498432661 0.9852846302
0.4024915939 0.7495440645 0.2345417475
0.3924876536 0.7484766077 0.482740353
0.4025836434 0.5013531968 0.233601922
0.4025689154 0.7485937676 0.7301528558
0.3925612932 0.4980850866 0.4837731485
0.4325770543 0.7476434707 0.9714956142
0.4224074249 0.4997136091 0.7302430643
0.412517626 0.7506896279 0.9829925975
0.4325549625 0.4979126012 0.9695257548
0.4124734423 0.4997149109 0.9813541163
0.4226172978 0.7491795671 0.2211338165
0.4325881003 0.7498955442 0.4728063704
0.4126170395 0.7497848932 0.4794744366
0.4226430717 0.49997071 0.2271059884
0.4224884285 0.7492576736 0.7280320352
0.432455549 0.4987873951 0.4711329104
0.4125728557 0.5000514202 0.4788761148
0.4525076133 0.7501689173 0.966865524
0.4425478568 0.4991512417 0.7200973678
0.4524892034 0.5000540237 0.9673441815
0.4425846766 0.7503967282 0.2202298903
0.4525076133 0.7484700988 0.4650134592
0.4425257649 0.5012093505 0.2220773239
0.4425368109 0.7475588552 0.711950066
0.4525591611 0.49931852 0.4662064208
0.4724676282 0.7488215785 0.9634781022
0.4824752505 0.4999889349 0.7154203324
0.4623311366 0.5011722498 0.7162579829
0.4724713102 0.4986956199 0.9653467072
0.4824310667 0.749849982 0.2130684388
0.4625815113 0.7485416965 0.2138388931
0.4723792607 0.7494919934 0.4674886704
0.4824273847 0.4988843775 0.2159772032
0.4825673 0.7488801584 0.7134817698
0.4624894618 0.4998880472 0.2160241484
0.4625410095 0.7497328221 0.7168277694
0.4722835292 0.4989019514 0.4645679396
0.4925749222 0.4999049703 0.966304022
0.5025420427 0.7512689185 0.2178439671
0.4924460529 0.7499085619 0.4658529507
0.5025309968 0.4993797035 0.2146167115
0.502490495 0.7515553093 0.7152528023
0.4925012826 0.7498695086 0.9675374854
0.4923871413 0.4995404729 0.4654396484
0.5025199509 0.4996530765 0.7173386441
0.5125828028 0.7495961356 0.9651165834
0.5125202092 0.5007856222 0.96483123
0.5125165272 0.749459449 0.4666445765
0.5123876579 0.4998965088 0.4654359664
0.5224799657 0.4986136079 0.7196518482
0.5325096799 0.751796138 0.9716889181
0.5324544502 0.5017144398 0.9697006488
0.5224762837 0.5018081677 0.2185601123
0.5225646512 0.7505985035 0.2162064064
0.5324434042 0.7495115201 0.4737738107
0.5324544502 0.4988921881 0.4696251395
0.5224468279 0.750181935 0.7184340332
0.5424105247 0.5004992313 0.7222651337
0.5525028325 0.7495701 0.9738704914
0.5624994089 0.5007003558 0.7267249322
0.5523997371 0.50028574 0.9753616934
0.5425209841 0.4998899999 0.223829026
0.5425614859 0.7501168462 0.2203431112
0.5625288647 0.5000227811 0.2286993654
0.5625251827 0.7507612256 0.229695341
0.5525543802 0.4993386975 0.4756212443
0.5524917866 0.7501428817 0.4766485167
0.5424768003 0.7517766114 0.724816746
0.5624846809 0.7515032383 0.7289939525
0.5824667877 0.5020594106 0.7308266582
0.5725659428 0.7500973196 0.9792922073
0.5725512149 0.4997546151 0.980663745
0.5824667877 0.4997682838 0.2328213422
0.5824704696 0.7485872587 0.2332024272
0.5724333915 0.4988355608 0.4831619398
0.5725475329 0.7501949528 0.4811350097
0.5824557417 0.749459449 0.734682612
0.6023642088 0.5023816003 0.7318189519
0.5925001838 0.7508393322 0.981952438
0.6124970184 0.7511582675 0.9828361133
0.592463364 0.5021895882 0.9842720856
0.6124233788 0.4999049703 0.9832319262
0.6024746683 0.750351166 0.2330560685
0.6024047106 0.5025163342 0.2365208119
0.5924780919 0.7505399236 0.4875665086
0.5924965018 0.5012692322 0.4865696125
0.6124712446 0.7503316393 0.483035832
0.6123497392 0.4994480467 0.4834408498
0.6024636223 0.7514967294 0.7331426238
0.6223389516 0.5019318365 0.7325498249
0.6324054856 0.7515357827 0.9823850707
0.6323981216 0.4999869822 0.9848427925
0.6223978633 0.7513470251 0.2347534614
0.6224199552 0.5021407716 0.2340456007
0.6325012171 0.751242883 0.4826142452
0.6324680792 0.4988329573 0.4843484579
0.6223168597 0.7524144819 0.7324412065
0.6424131078 0.5033084652 0.7355754922
0.6524980517 0.7505269058 0.9870151609
0.6625645857 0.503262903 0.7366506304
0.6524722778 0.4994480467 0.9844837995
0.6424388817 0.7506961368 0.2330882858
0.6425051573 0.5027116006 0.2348768077
0.6624651722 0.7514967294 0.2364453313
0.6624578082 0.502086097 0.2376134395
0.6526011471 0.7521150733 0.4860780681
0.652435458 0.4997721891 0.4837906379
0.6423689241 0.7504292726 0.7334316592
0.6625240839 0.7516008715 0.7352468755
0.6824804167 0.5004888171 0.7408121886
0.6725206602 0.7514902205 0.9897306213
0.6725464341 0.500145799 0.9897398262
0.6824030952 0.7505399236 0.2398990287
0.6823773213 0.5012210664 0.2422334042
0.6724727945 0.7500843018 0.487507597
0.672564844 0.4989852651 0.488718048
0.6823773213 0.7505334147 0.7410027311
0.7024625235 0.4998698223 0.7467668711
0.692499085 0.748958265 0.9955113303
0.7124590998 0.7487629985 1.0024058382
0.6924364913 0.5006834327 0.9935782906
0.712606379 0.5004413023 1.0009238412
0.7025361631 0.7510280898 0.2458003225
0.7026318946 0.5014644987 0.2465026603
0.6925174949 0.7511582675 0.4945613506
0.6925653606 0.4999205916 0.4966600793
0.7125180115 0.5008793501 0.5009615527
0.712418598 0.7486848919 0.501475189
0.7024882973 0.751574836 0.7498707805
0.7224667221 0.5001555623 0.7517117706
0.7324890723 0.7484505722 1.0062443026
0.7425077405 0.5004328407 0.7557914047
0.7324301606 0.4977531336 1.0044677472
0.7225035419 0.7494854846 0.253346541
0.7225182698 0.5011494687 0.2551488704
0.7424709207 0.7501493906 0.2534551595
0.7423862351 0.4996882245 0.2548708809
0.7323270651 0.5003358584 0.5044327396
0.732547984 0.7500452485 0.5053329838
0.7224114924 0.7523884464 0.755446219
0.7424525108 0.7492121115 0.7540691584
0.7523938574 0.4993172182 0.5019925072
0.7524454051 0.7486002765 1.0028384709
0.7622983842 0.4996784612 0.7533981175
0.7523312638 0.5010017171 0.9992209253
0.7623830698 0.7502079706 0.2487689191
0.7624235716 0.5011104154 0.2510996126
0.7524085853 0.7484700988 0.5007498389
0.7622910203 0.7518482091 0.7502039997
0.7724238299 0.5001353848 0.4998597201
0.7723612362 0.7496482066 0.9968000233
0.7923617528 0.4995957984 0.4949691299
0.7923175691 0.748626312 0.9975732392
0.7823835864 0.5013818359 0.7501947947
0.772394374 0.4992976915 0.9986686283
0.7924280285 0.4984626018 1.001522163
0.7825014098 0.7504943614 0.2475372967
0.7823651765 0.4989260343 0.2480767068
0.7723428263 0.7511777941 0.4978097776
0.7922623394 0.7508653677 0.499424326
0.7823357207 0.7495375556 0.7483372357
0.8124616829 0.499725976 0.5032204476
0.8124101352 0.7492121115 1.0057472353
0.8024466967 0.5000071598 0.74940501
0.8124911388 0.5003592903 1.0007857669
0.8023178274 0.7490298627 0.247398302
0.8024319688 0.4997975737 0.2509320825
0.8123917253 0.7501363728 0.5016565265
0.8023178274 0.7487434719 0.7504737047
0.8325137473 0.5003033139 0.508072377
0.8324695635 0.7506505746 1.0069346739
0.8224840331 0.4981768619 0.7551277277
0.8424624579 0.5030539679 0.75712152
0.8324769275 0.4986917145 1.0058300799
0.8224803512 0.7495310467 0.2549942272
0.8225613547 0.4992286974 0.2559754749
0.8424182741 0.7485742409 0.2598553616
0.8424587759 0.5003300004 0.2598010524
0.8324916554 0.7499736508 0.5091208209
0.8223846197 0.7493553069 0.7547586092
0.8424771858 0.7488280874 0.7579223507
0.8524111685 0.4991623068 0.5096261727
0.862551342 0.746901458 0.758155236
0.8623488331 0.498572602 0.7594853513
0.8524406243 0.7479233526 1.0094016007
0.8525289918 0.5004797047 1.0067045502
0.8625844799 0.7475067841 0.2603551904
0.8623341052 0.4996745559 0.2578928661
0.852495854 0.7507677345 0.5063004241
0.872437459 0.5016591143 0.5102806447
0.8824745371 0.7486523475 0.760566933
0.8926404845 0.4990855019 0.5102567118
0.8725368724 0.7515618182 1.0101932264
0.8924674314 0.7521020555 1.0064468115
0.8826623181 0.5020190555 0.760851366
0.8725331905 0.4983389331 1.007661865
0.8924637495 0.5000878699 1.0105522195
0.8824156254 0.7491990937 0.2594613897
0.8826107704 0.4995541415 0.2593527713
0.8725405544 0.7497783843 0.5099879273
0.8924968873 0.7514121139 0.5106138639
0.9125231778 0.5002870417 0.518224517
0.9025855131 0.7503056038 0.7634572875
0.9224645244 0.7510215809 0.7727064219
0.9125379057 0.7492056026 1.0134701888
0.902419824 0.5015705935 0.7630439852