POSCAR file written by Ovito 3.7.11
1
271.5790975037 0.0 0.0
0.0 15.3628337179 0.0
0.0 0.0 10.8631639001
Sr Ti O 
800 800 2400 
Direct
0.0123707228 0.2515237052 0.54598992
0.0223210835 0.2509033769 0.7983335305
0.0024384783 0.2510316085 0.8012553312
0.0123556627 0.2505356062 1.0468292749
0.0225350544 1.4831829885e-05 0.2950519774
0.002469924 0.9999403197 0.2963987305
0.0124918293 -3.1709063099e-05 0.5435799407
0.0224468296 2.1518549227e-04 0.7950085324
0.0025813464 -1.7185247932e-04 0.798169674
0.0125290928 0.9993870363 1.0495172579
0.0223270855 0.2521375242 0.2996215485
0.0023022748 0.2501528643 0.3003589027
0.0323594482 0.2493099209 0.5448972365
0.0423245008 0.2501600245 0.7982838212
0.0323605528 0.2529746094 1.0451630937
0.0424832022 0.9990615755 0.2946266869
0.0323936923 -1.7453880493e-05 0.5447122075
0.0424511674 1.000220216 0.7935006844
0.0324927427 -5.7392673941e-04 1.0455497214
0.0422184543 0.2512783078 0.2919718434
0.0724033989 0.2499640971 0.5438376925
0.0525237393 0.2510804276 0.5466711212
0.0622925324 0.2499348056 0.7947240848
0.0724170229 0.2504692122 1.0444450708
0.0523477317 0.251459264 1.0455128997
0.062341137 1.0006888795 0.2956972774
0.072457895 1.0002462528 0.543597431
0.0522321116 0.0014778432 0.5455020327
0.0623426099 1.0013398011 0.7970272812
0.0723098718 -4.8527122018e-04 1.041674239
0.0522578868 1.001971195 1.0448685202
0.0622229394 0.2512021499 0.2940706794
0.0924564886 0.248537277 0.5393077047
0.1024730916 0.2472894603 0.7850086832
0.082432153 0.2499686535 0.7929189017
0.0925500157 0.2514195577 1.0378171675
0.1024097583 1.0000574856 0.2860803738
0.0823769205 0.9990680848 0.2921191301
0.0922749577 -7.19993542e-04 0.5407934597
0.1024108629 -0.0015197809 0.784283296
0.0823563004 0.9964904353 0.7937998605
0.0923821088 0.9978443522 1.0394005
0.1023710955 0.2497681697 0.2861871567
0.0823949631 0.2479136941 0.2902808075
0.1123284156 0.2508311246 0.5303517504
0.1223851542 0.2504581466 0.7776673598
0.1123589776 0.2485841433 1.0307013769
0.1223660069 0.0024509709 0.2781287309
0.1124845395 0.997173903 0.5311517015
0.1224621115 0.9990941216 0.7777327183
0.1124421946 -0.0018826176 1.0304804468
0.1223954643 0.2514065393 0.2792306198
0.1522622695 0.2485515973 0.5200370758
0.1323918153 0.2487540339 0.5232801458
0.1423524494 0.2492630545 0.7727516648
0.1523683159 0.2514976683 1.0208239598
0.1323435789 0.2496692296 1.0261538988
0.1425174105 0.0021917089 0.2704909929
0.1523911454 0.9994716561 0.5170121744
0.1325346835 2.8665668178e-04 0.5260113942
0.1424964222 -9.1950100634e-04 0.7715172178
0.1524069787 0.998742624 1.0190289027
0.1323840828 -0.0022683733 1.0234290941
0.1424448718 0.2500949323 0.2716610019
0.1725042544 0.2495253759 0.5141364008
0.1624449383 0.2507556177 0.7665499725
0.1724409211 0.2517638953 1.0152730908
0.1625193181 -0.0020563941 0.2630705028
0.1725499133 -5.2640946405e-04 0.5136798119
0.1624810235 0.9993805271 0.7618349557
0.1724265606 -0.0015462083 1.0141868511
0.1624662948 0.2489779509 0.2651969551
0.1926059487 0.2496353817 0.5090531672
0.2025547998 0.2488926802 0.7590061298
0.1823864582 0.2500018505 0.7612688223
0.1924682356 0.2496373345 1.0130545843
0.2023220868 0.0019981899 0.2593745261
0.1823919815 6.601554845e-04 0.2606448743
0.1924037977 -4.2441005243e-04 0.5100169748
0.2025459626 0.9998361722 0.7603841813
0.1825591519 0.997265032 0.7631200325
0.1924001155 -6.1838468333e-04 1.0135884987
0.2024535402 0.2522800761 0.2577083449
0.182289249 0.2503624611 0.2599876072
0.2124775075 0.2516929448 0.5031211937
0.2225416105 0.2482007505 0.7539495919
0.212430744 0.2487852781 1.0011335638
0.2224024245 0.9993675087 0.2519614004
0.212554833 1.0008385915 0.5051399426
0.222410157 0.9992308152 0.7549842812
0.2124090192 0.9988793175 1.0066199948
0.222435564 0.2516538895 0.253361545
0.2524986288 0.2504568447 0.4956417889
0.232387729 0.2500246328 0.500189267
0.2425228979 0.2486570466 0.7489759028
0.2525284543 0.2480009176 0.9986388946
0.2324845701 0.251068711 0.9979668988
0.2425332079 0.996601092 0.2498165372
0.2525354505 3.6405125766e-04 0.496769453
0.2326340661 -0.0014110119 0.5030217752
0.2424750297 0.9970567371 0.7481879187
0.2524894234 6.1309385425e-04 0.9965216477
0.2325792018 -0.0020724914 0.9994397662
0.242485708 0.2484741376 0.2500761301
0.2725075324 0.2481037632 0.4901986233
0.2624942434 0.2473786366 0.7431240165
0.2725760208 0.2486062747 0.9870400638
0.2625781969 0.9990290295 0.243966492
0.272590013 6.410834822e-04 0.4860653892
0.2625435845 0.9968874975 0.7422476604
0.2725653425 8.500944016e-04 0.9869111879
0.2626470534 0.2495644312 0.2424393126
0.2926489942 0.2509873458 0.4822552653
0.302689163 0.2497213033 0.7311496045
0.2826198718 0.2502693793 0.734319031
0.2925503121 0.2523210841 0.9837261121
0.3025411399 -0.0014993419 0.2288530314
0.2824965192 0.999920792 0.2354910607
0.292731843 0.002304839 0.4818557501
0.3026921088 0.0014842873 0.7311183061
0.2826618485 0.9987621516 0.7346375386
0.2925816105 9.2716351669e-04 0.9803201063
0.3026239887 0.2489610269 0.229675996
0.2826044067 0.2493379105 0.2353069522
0.3325154644 0.2515562513 0.4716441762
0.3126265994 0.2520424897 0.4777354035
0.3225960706 0.2506254334 0.7253106058
0.3325338752 0.2488581813 0.9707924953
0.3126383824 0.2507328355 0.9797217539
0.3224903924 -0.0014533869 0.2234512902
0.332564069 0.0013998628 0.4706822097
0.3125312313 7.2166757383e-04 0.4803000339
0.3224060708 3.1523213915e-04 0.724518019
0.332455445 -8.2036564967e-04 0.9722929789
0.3125853591 0.9983846171 0.9767760191
0.3225485707 0.2484162056 0.2256145642
0.3525416742 0.2494127665 0.4685309028
0.3425747805 0.2503969599 0.7175421508
0.3524842324 0.2521297132 0.9652784479
0.3424484822 0.0013837199 0.2186764382
0.3524588255 -4.0891811883e-04 0.465991127
0.3423917768 0.9996669326 0.7191512584
0.3524606665 0.001218516 0.9644683708
0.3425600519 0.2493261939 0.218345043
0.3726536786 0.2507087514 0.461729017
0.3825329367 0.2473721274 0.7149305728
0.3625166687 0.2509079334 0.7116764563
0.3725542601 0.2484526572 0.9642658516
0.3823488283 0.999016011 0.2136493576
0.3624540719 0.9990876124 0.214149212
0.372421702 6.8957713992e-04 0.4641905466
0.3823009601 -0.0025894208 0.7109704005
0.3624872114 0.9991006308 0.7117547024
0.3722191828 -0.0011606024 0.9623695348
0.3825881693 0.2521720231 0.2106134097
0.3625350796 0.2502810959 0.2121138934
0.3924232413 0.2472354338 0.4601815857
0.402446104 0.2498632042 0.7110688985
0.3925631638 0.2501867123 0.9609334891
0.402401918 0.9956182004 0.2087962595
0.392460063 0.9989574281 0.4589554236
0.4023687785 -4.2629772502e-04 0.7089350819
0.3924453344 1.0008190638 0.9610071325
0.40249029 0.2482599844 0.2104541559
0.4324852347 0.2491556525 0.4482163791
0.4124800132 0.2526823456 0.4585853656
0.4223334961 0.2485144947 0.7090961768
0.4325220564 0.2508903585 0.9508811691
0.4124984241 0.2482736537 0.9567726387
0.4224991937 1.000734444 0.2009780952
0.4325772889 1.000402474 0.4522888575
0.4124431915 8.3811744452e-04 0.4600453454
0.4225654727 0.9979224628 0.7027518004
0.4325146921 1.0025179691 0.9496752589
0.412454238 8.0075454582e-04 0.9583283549
0.4225028759 0.2508011822 0.2086609398
0.4525604174 0.2519474551 0.4493320762
0.4426185624 0.2524460611 0.6993283042
0.4525604174 0.2501027434 0.9444097579
0.4426553841 0.9981763222 0.1969829424
0.4526266964 0.0025288212 0.4471246161
0.4424160432 2.4128744764e-04 0.6958403701
0.4526487895 1.0005001122 0.9455328193
0.4425486012 0.2500220291 0.1980342015
0.4725914141 0.2489467067 0.4425900256
0.48246699 0.2496139013 0.6904413906
0.4624433577 0.2504985037 0.6921075718
0.4726613753 0.2508708308 0.9431946423
0.4825185404 -9.870015742e-04 0.1949365773
0.4626458769 -1.2095041174e-04 0.1954677301
0.4724919955 0.9990485571 0.4448020884
0.4825811372 1.0003178542 0.6928614958
0.462494908 0.0013698553 0.697290224
0.4725914141 0.0013027453 0.9438298164
0.4823675715 0.2496672768 0.1936165199
0.4625611871 0.2513622766 0.1934940878
0.512513485 -0.0031881645 0.4407102786
0.5124950742 -0.0018106777 0.9424121815
0.4923757055 0.2479638151 0.4401634766
0.5025716301 0.248843861 0.690167069
0.4924603953 0.2474007679 0.9386931913
0.5124950742 0.2479221561 0.439056985
0.5124840277 0.2501372422 0.9418782671
0.502416979 -0.0023025271 0.1919079937
0.4923499303 -0.0016960505 0.4428413336
0.5024685294 -0.0014621743 0.6913287932
0.4925671782 -3.9863355786e-04 0.9421360189
0.5025311262 0.2482248346 0.1900788765
0.522499526 1.0005456767 0.1925008228
0.5324487453 0.0047480081 0.4495750993
0.522477433 0.9992959073 0.694220216
0.5323235516 1.0001421054 0.9479446397
0.5225142547 0.2492558944 0.1955947649
0.5324671562 0.2502902088 0.4420220511
0.5224222005 0.2474697656 0.6932241894
0.5324671562 0.2503123401 0.9457721603
0.5424016468 6.2943198591e-04 0.2004763998
0.5624105505 -4.9060877714e-04 0.2049557578
0.5523840056 0.001633088 0.4555457355
0.5424973832 0.9988597899 0.6991570834
0.5623810931 0.9982023591 0.7064514592
0.5524171451 0.0047122725 0.9557232206
0.5425121119 0.24883605 0.2005712156
0.5625762481 0.2514045865 0.2035427256
0.5524097808 0.2484747885 0.4547181682
0.5424090111 0.2513486073 0.7010699699
0.562532062 0.2525983767 0.7048110532
0.5524723777 0.2504353643 0.9523632419
0.5823531751 -6.9057188658e-04 0.2084860368
0.5725291495 5.266514684e-04 0.4622804217
0.5824341828 0.9997255156 0.7114987917
0.5725291495 0.0011714544 0.9603167259
0.5827324385 0.2495624785 0.2131237281
0.5724628705 0.2477438036 0.4580100268
0.5825814696 0.2507797018 0.7095656532
0.5726322503 0.2483817067 0.959534265
0.602542505 0.9964318524 0.2119712093
0.5925380532 0.9993414718 0.4651819705
0.6124328096 0.0011480863 0.4680816782
0.6023657609 -0.0024567565 0.714160079
0.5924938672 0.0012089475 0.9646708901
0.6126206002 -5.3428561517e-04 0.9682149773
0.6025535515 0.2487306007 0.2184822038
0.5925638284 0.2502127491 0.4616378833
0.6125690499 0.2491504451 0.4662562432
0.6026897918 0.2490567124 0.7135451569
0.5924975493 0.2497974612 0.9608506403
0.612395988 0.2491582562 0.9677547062
0.6223930755 -0.0019376921 0.2157159747
0.6324858993 -1.6313013014e-04 0.4686073078
0.6224667188 -6.6974239601e-04 0.714192298
0.632434349 0.999979375 0.9691447249
0.6225219514 0.2479019775 0.2191072519
0.6323680699 0.247615572 0.4654516894
0.6225882304 0.2480920466 0.7207824591
0.6324012095 0.2474866895 0.9703690459
0.6423320179 0.9987361147 0.2176058477
0.6623372394 -1.3670271399e-04 0.2219968336
0.6524432526 1.0511465306e-04 0.4716690309
0.6423467466 0.9974017255 0.7189192818
0.6624108828 0.9986189489 0.7230248997
0.6524653457 0.9994781654 0.9688317405
0.642508762 0.2490410903 0.2188633082
0.6625323944 0.2490788437 0.2263574417
0.6522996481 0.2488015511 0.4733195629
0.6424756225 0.2475804223 0.7219754816
0.6624697975 0.2493737112 0.7238681163
0.6523327876 0.2492018679 0.9719155567
0.6824345151 0.9990680848 0.2252804074
0.6725184353 0.9987361147 0.4780760041
0.6825081585 -0.0012583057 0.7263176789
0.6725147532 -3.1316755438e-04 0.9762144884
0.6825744375 0.2476442126 0.2295489612
0.6724595206 0.2498417238 0.4783604516
0.6825523445 0.2478752897 0.7294419988
0.6724484741 0.2485496445 0.9764722402
0.7026680311 0.0012342032 0.2362606339
0.6926819901 0.9993024165 0.4822460599
0.7125251962 1.0013593287 0.4884118511
0.702601752 1.0000965409 0.7351585654
0.6926672614 0.9993024165 0.9813050863
0.7125767465 0.0013620442 0.9897648685
0.7027048528 0.2495038955 0.2375245382
0.6925604785 0.2509795347 0.4817784245
0.7126908938 0.2510335612 0.4864943618
0.7025686125 0.252621159 0.7363626345
0.6925383855 0.2502986708 0.981756152
0.7127424441 0.2499139761 0.9911825034
0.7226879813 7.9945270266e-04 0.2459051537
0.7425532803 0.9989509189 0.2495790374
0.7326592936 0.0016301588 0.4980398012
0.7225554232 0.9972520135 0.7447542966
0.7425937842 7.2440144446e-04 0.7519603003
0.7325966967 0.9997320248 0.9982246506
0.7226217022 0.2501385441 0.2456253089
0.7426600632 0.2509007732 0.2511991915
0.732581968 0.2505987456 0.4990422716
0.7226474774 0.2488783599 0.7431497916
0.7425716912 0.2499406639 0.7492861255
0.732581968 0.2505941892 0.9967793995
0.7625143158 0.0019590044 0.2562253515
0.7527013368 0.002071744 0.5012524932
0.7624554011 7.9580754181e-04 0.7578057428
0.7526387399 0.9995302391 1.0013452884
0.7625769127 0.250429506 0.2527770007
0.7525650965 0.2527572016 0.5015065628
0.7625916414 0.25205681 0.7548314712
0.7525356392 0.25125162 1.005377263
0.7826336845 0.0031061886 0.2603070353
0.7725740002 0.9996278773 0.5074026352
0.7926013147 1.0016262066 0.5178968154
0.782600545 0.0020291738 0.7589923216
0.7725666358 1.0007409532 1.008939761
0.7925718573 0.0020509145 1.0157885944
0.7825821342 0.2537134054 0.2613058235
0.772459853 0.2536450586 0.5084354834
0.7925497643 0.2546181864 0.5118792315
0.7825158552 0.2524747016 0.7596882515
0.7724929925 0.2510303066 1.0078627267
0.792608679 0.2542614814 1.0144077812
0.8025763092 1.0015741328 0.2663467122
0.8124261099 0.0047142253 0.5180984141
0.8026020844 0.0023192895 0.7697276839
0.812536575 1.0024073125 1.0188539997
0.8025394875 0.2552040158 0.2683277189
0.812514482 0.2528183882 0.5184113984
0.802462162 0.2539529445 0.7648939172
0.8123708774 0.250188665 1.0183292907
0.8224121509 1.0014439485 0.2724545092
0.8425094266 1.001821483 0.2723716604
0.8323945098 0.0018689169 0.5228668223
0.822566802 0.0035272047 0.7681572391
0.8425204731 0.0013775362 0.7724543297
0.8324202849 0.0024176438 1.0191301623
0.8224968408 0.2507263263 0.2699018459
0.8424026438 0.2509437341 0.2760685576
0.8323797811 0.2516721153 0.5201843626
0.8224600191 0.25272075 0.7719719656
0.8424541941 0.24997321 0.7753411498
0.8324276493 0.2515608077 1.0229504122
0.8625625163 -0.0014475937 0.2830177301
0.8525175606 1.0034032225 0.5291136212
0.8625882915 1.0000184303 0.7831344595
0.8525359715 0.0012640805 1.0293113583
0.8625367411 0.2495670349 0.2846093475
0.8524549638 0.2490990223 0.5276177403
0.8625625163 0.2524089585 0.7837125599
0.8524070956 0.2524017984 1.0257856819
0.8824683193 0.9992177967 0.2862055675
0.872541193 0.0012956502 0.5357654586
0.8926274222 0.0037486482 0.5358814469
0.8825419626 0.9995627852 0.7858712312
0.8726958441 0.0011229607 1.0355250176
0.8826818851 0.2503442353 0.2880982021
0.892513275 0.0015055073 1.0376422645
0.8725117356 0.2513075992 0.5336795102
0.8924801354 0.2511637456 0.5371987427
0.8824425441 0.2514039356 0.785254468
0.8725448752 0.2505779161 1.0335826737
0.8924138564 0.2505948401 1.034724146
0.9026355562 0.0023843166 0.2839217025
0.9225413591 8.3408173073e-04 0.2904685981
0.9124669461 0.0014926842 0.5342898296
0.9025987345 1.0009948126 0.7866039827
0.9224677158 1.0010338679 0.7898562581
0.9125037678 1.0004415293 1.0367953657
0.9025177268 0.2515093849 0.2869143849
0.9225192661 0.2501229219 0.2885511089
0.9125221786 0.2494967354 0.5343469032
0.9024772229 0.2516701625 0.7854523845
0.9224345763 0.2516304563 0.7880519955
0.91250745 0.2500994888 1.0394557325
0.9424324334 1.0026481534 0.2914296441
0.9325053071 0.9991787414 0.5422469957
0.9424324334 0.9989444097 0.7935494731
0.9324648033 1.0024919323 1.0411035029
0.9425797202 0.2490827493 0.2946423361
0.9324684854 0.2484402897 0.5432568304
0.9425649915 0.2481193853 0.7951015071
0.9324611211 0.2494017008 1.0412692005
0.9624523836 -9.8081781919e-04 0.2995764419
0.9524884356 1.0010533956 0.5498635613
0.97260044 0.9996604234 0.5481568762
0.9625076161 1.0005066214 0.7994556714
0.9525510325 0.9990811032 1.0454024346
0.9626622672 0.2472061423 0.2974923345
0.9725673005 -1.6703565962e-04 1.0501984591
0.952606265 0.2512203757 0.5451623526
0.972578347 0.2508871039 0.5529676293
0.9625186626 0.25058768 0.7982230655
0.9526430867 0.247582375 1.0488176459
0.9726298973 0.2501229219 1.0506587302
0.9825938453 0.0023116737 0.3025571573
0.992528336 0.9999142828 0.5481835719
0.9826122562 1.0001421054 0.8021316873
0.9826233027 0.2511910843 0.3009508113
0.9926461653 4.2055125082e-04 1.0487992351
0.9926019793 0.2503019254 0.5482673412
0.9825533415 0.2507803527 0.7987394896
0.992572522 0.249665975 1.0491398357
0.0126613932 0.751769958 1.045825884
0.0223302521 0.4997357258 0.7970410894
0.0024548271 0.5027735769 0.7954393461
0.012369434 0.5012595333 1.0498762694
0.022535754 0.7494982417 0.2950575006
0.0024062961 0.7519847621 0.3020039115
0.0125129649 0.7492248546 0.5438699115
0.0225641067 0.7495112601 0.7974783469
0.0222487658 0.5014762901 0.2975227124
0.0023369609 0.5006750057 0.299534097
0.002589889 0.7506568821 0.7993507296
0.0122665174 0.4997207546 0.548611624
0.0325398744 0.7493940942 1.0428433275
0.0423801015 0.5012465148 0.7939793663
0.032461076 0.5000156221 1.0469673562
0.0424625821 0.7515681723 0.2889616706
0.0325457659 0.750051525 0.5455848815
0.0424224465 0.7489514676 0.79220272
0.0423546946 0.4991577075 0.2944784796
0.0324187311 0.5005194354 0.5467576522
0.0723098718 0.7504160411 1.0424659052
0.0623212533 0.5004113824 0.7945952089
0.0524037006 0.7504160411 1.04366261
0.0723687865 0.5013597752 1.0421713318
0.0523701929 0.4991609621 1.0427512733
0.0624033657 0.7507935756 0.2883789675
0.0723735733 0.7496609721 0.5422350287
0.0523996503 0.7496023891 0.5428646795
0.0624177261 0.5009503455 0.2943532859
0.0724140772 0.5000182258 0.5402577042
0.0624387145 0.7498562486 0.7919873131
0.0524651929 0.5020022348 0.5447941358
0.0925113529 0.7508065941 1.0381301518
0.1025371613 0.4978148563 0.7815695379
0.0823787616 0.5002877073 0.7937796086
0.0924016243 0.5004693145 1.0386456554
0.1024999714 0.7481443248 0.2846802292
0.0824369398 0.7487366634 0.2923741203
0.0924550157 0.7467838987 0.5386403117
0.1024414249 0.7475324585 0.7842345073
0.1022922971 0.5002284735 0.2845504328
0.0824328895 0.4996458987 0.2940218907
0.0824244205 0.7506308452 0.7922515087
0.0923309266 0.5000540265 0.5395636154
0.1124204698 0.7498822854 1.0311064154
0.1223571697 0.5000201786 0.7737200751
0.1122886482 0.5005370103 1.0314193997
0.1224746309 0.7512687484 0.2763852241
0.1126152565 0.7490035413 0.5288006369
0.1223601155 0.5001711924 0.2734855164
0.1224602704 0.7493420205 0.7764016144
0.1124112644 0.5003912039 0.5307816435
0.1525185484 0.7467643711 1.0195628171
0.142334775 0.4994792627 0.771935144
0.1324768734 0.7491857993 1.0226834549
0.1526036065 0.4990691821 1.0176480895
0.1324669316 0.5004673617 1.0246718259
0.1425435539 0.7510083798 0.273335468
0.1525016104 0.7470833226 0.5212006411
0.132533947 0.747877447 0.5225814543
0.1424735927 0.5005552361 0.269827282
0.1425435539 0.7489449583 0.7714638264
0.1524780445 0.4965807089 0.5196182292
0.1324006525 0.4991095393 0.5257278673
0.1725270838 0.748300546 1.0203728942
0.1625730777 0.4979932088 0.7662563196
0.1724188281 0.4982086638 1.015079777
0.1625380971 0.7483265828 0.2691313521
0.1724880529 0.7496609721 0.5171272422
0.1624243181 0.4977015959 0.2652890093
0.1625517211 0.7503444397 0.7674060767
0.1724453397 0.4984241189 0.5130335913
0.1925109488 0.7491011795 1.0147944089
0.2025341797 0.4995502132 0.7590530774
0.1825363225 0.4976989922 0.7642283653
0.1923990108 0.4982958873 1.0094368537
0.2025113502 0.7507415019 0.259732617
0.182355528 0.7499994513 0.2614687595
0.1924895922 0.7483526197 0.5117761308
0.2024693735 0.500249303 0.2563625123
0.2025706331 0.7505462254 0.7587023509
0.1824825628 0.4994389056 0.2663669641
0.1823901404 0.7474738756 0.7663557381
0.19243841 0.5005168317 0.5103143099
0.2123788254 0.749628426 1.0044014883
0.222410157 0.5004836347 0.7516868993
0.2124554145 0.501826486 1.0058559449
0.2225751182 0.749810684 0.2522467685
0.2125172749 0.751106018 0.5034746819
0.2225975794 0.5009483927 0.2511651315
0.2225202539 0.7483786566 0.7547403376
0.2125714028 0.5011339054 0.5042534605
0.2527600627 0.7487952464 0.9954446134
0.2425254754 0.4994395565 0.7481271629
0.2324786786 0.7497716288 1.0001393783
0.2525715357 0.4987710601 0.9975618603
0.2324330197 0.500597546 0.9994949988
0.2425052235 0.7469856844 0.2501921184
0.2525203536 0.7489059031 0.4969480382
0.2325957716 0.7502728384 0.5062215796
0.242643673 0.5004009677 0.2514827185
0.2426867544 0.7484437487 0.7533632065
0.2525626985 0.4990717858 0.499105789
0.232635539 0.5006405068 0.5011420281
0.272654451 0.7512492207 0.9867086686
0.2627472084 0.4984254207 0.7402795413
0.272642668 0.4985080877 0.9908142865
0.2624625768 0.7484046934 0.2450113073
0.2726080556 0.7500319974 0.4850463491
0.2626879255 0.4983010947 0.2423831596
0.2626076542 0.7468555001 0.7431985804
0.2725771254 0.4985425866 0.4896803581
0.2926003896 0.7504681148 0.9826674887
0.302687322 0.5016051726 0.7315463581
0.2827804144 0.49900409 0.7374967424
0.2927277926 0.5003280645 0.9821796014
0.302653446 0.7502337831 0.228429582
0.2826533796 0.7496154076 0.2343109257
0.2926729283 0.7501556725 0.4794540556
0.3026085236 0.5019703396 0.2322977
0.3026309848 0.7507610296 0.7291253323
0.2826195036 0.5014730355 0.2363075815
0.2825852594 0.7512101654 0.7344368604
0.2926158547 0.5005337557 0.4806931053
0.3325088365 0.7507089558 0.9685003454
0.3225239001 0.499244931 0.718890745
0.3125496421 0.7495112601 0.9754780547
0.3325349799 0.4985484449 0.9724126494
0.3125246033 0.498746325 0.9737290246
0.3224568847 0.7508977231 0.2240100593
0.3324517629 0.7502598199 0.4716883623
0.3125179754 0.7488538293 0.4778559945
0.3224903924 0.4978897122 0.2223558451
0.3224933381 0.7504290596 0.7243983485
0.3326277705 0.4998353168 0.46925629
0.3125500103 0.4976501731 0.4744058026
0.35254462 0.7509758337 0.9613109114
0.3424271256 0.4996055415 0.7154018903
0.3524069069 0.5010974538 0.9644959871
0.3424359628 0.7517048658 0.2162195112
0.3525405696 0.7486585529 0.4635406439
0.3425880363 0.4991661695 0.2136429138
0.3424676294 0.749387585 0.715744332
0.3525011704 0.4983329898 0.4672734422
0.3726536786 0.7480922511 0.9560730267
0.3825623941 0.4986779783 0.7095527656
0.3625461261 0.4995573733 0.7104659434
0.372443795 0.4996543606 0.9638976347
0.3826839056 0.7498171933 0.2083654458
0.3624393432 0.749114198 0.2143231945
0.3725947639 0.750110108 0.4562702022
0.3825439832 0.4997370277 0.2085495542
0.3824924329 0.7483135644 0.7086073689
0.3625755834 0.49891231 0.2121838546
0.3624614362 0.7500580342 0.7100250038
0.3724474772 0.4994258872 0.4586801815
0.3925926211 0.7472004885 0.9551893062
0.402468197 0.5002597177 0.7100443351
0.3924269235 0.4988472179 0.9602062608
0.4026338946 0.7476431152 0.2077422388
0.3926736288 0.7492834376 0.4537193799
0.4024129645 0.4993152305 0.2102562393
0.4026302125 0.7490881611 0.7104981624
0.3924895204 0.4985562559 0.4629201985
0.4325367851 0.75125573 0.9485614029
0.4224218682 0.4998431279 0.7036677398
0.4125426101 0.747063795 0.9547842677
0.4324999634 0.5008325287 0.9529523888
0.4124836954 0.4989429034 0.9619552908
0.4225470619 0.7522451308 0.206348538
0.4325331029 0.746582113 0.4500418141
0.4125757496 0.7490686334 0.4547421022
0.4225212867 0.5009334215 0.2030290631
0.4224955115 0.749387585 0.7026312094
0.432492599 0.4995632316 0.451742976
0.4124063698 0.5007589746 0.4592325067
0.4525825104 0.7480076313 0.9427251658
0.4425743764 0.5013877648 0.6946178902
0.452726115 0.5001705415 0.9433603399
0.4425817408 0.7495047509 0.1980489302
0.4525935569 0.7516527921 0.448409693
0.44247864 0.499601636 0.1987402573
0.4427658492 0.7501556725 0.6977182761
0.4526561538 0.5008442453 0.4449015069
0.4725288172 0.7500905803 0.9454223542
0.4825737729 0.5008097464 0.6941309234
0.4625611871 0.4992729206 0.6927979784
0.4725288172 0.4994668952 0.9445294284
0.4826216411 0.7500319974 0.1955653075
0.4625648692 0.7516332645 0.1925505321
0.4726797861 0.7475129309 0.4417412858
0.4825664086 0.4979404841 0.1926904545
0.4823454785 0.7502858568 0.692493279
0.4626016909 0.4992475347 0.1918242243
0.4625832801 0.7480336681 0.6923984631
0.4725067242 0.4998327132 0.4433955
0.4924125272 0.4968241536 0.9421544297
0.5025127154 0.7489449583 0.1907186532
0.4923977985 0.7494201311 0.4413141542
0.5024317077 0.4985067859 0.1925597375
0.502372793 0.7487561911 0.6908970589
0.4925671782 0.7481963985 0.939668966
0.492497217 0.4982958873 0.4438548505
0.5024132968 0.4982490209 0.6919409537
0.5124214308 0.7519652345 0.9412522984
0.5125539889 0.4993887846 0.9426883441
0.5122667797 0.7463738181 0.4415093092
0.5124508882 0.4981956454 0.4407820809
0.5223743323 0.497352051 0.6951011748
0.5323088229 0.7507480111 0.9442256495
0.5323787841 0.4996732374 0.947033303
0.5224663865 0.500356705 0.1921795536
0.5223080533 0.7498302117 0.1940758704
0.5324082415 0.7515030802 0.4436357615
0.5323382803 0.502307517 0.4488957392
0.5223190998 0.7491207072 0.6902821368
0.5423906003 0.4992436291 0.6986075198
0.5522477654 0.7496023891 0.9522435714
0.5625173334 0.4990314287 0.7047769931
0.5524723777 0.5010382199 0.9521515172
0.5424605615 0.4992651095 0.2005988319
0.5423537786 0.750201237 0.2037700995
0.5625173334 0.4989754494 0.2047652056
0.5624068683 0.7511515825 0.2041935489
0.5523987343 0.5004888421 0.4547172476
0.5523766413 0.7476431152 0.4515174432
0.5424789723 0.749960396 0.7002120247
0.562399504 0.7506568821 0.7036732631
0.5823421286 0.4990242686 0.7112576097
0.5723376768 0.7492639099 0.9563123676
0.5724481418 0.4997285657 0.9584296145
0.5824636402 0.5015491934 0.2099285263
0.5824268185 0.748873357 0.2116131184
0.5723155838 0.5001985311 0.4590686502
0.5724665527 0.7496870089 0.4560483515
0.5823531751 0.7497911564 0.7091716612
0.6024946368 0.4999310023 0.7140109512
0.5922876657 0.7493485297 0.9573617856
0.6123591663 0.7478253732 0.9635478287
0.5923723556 0.5005135771 0.9609518999
0.6124696313 0.4992384218 0.9666868774
0.6023399858 0.7527788865 0.214826731
0.6024799082 0.5014554607 0.213690782
0.5923355339 0.7489970321 0.4567838647
0.5924275881 0.4990587674 0.4623724759
0.6122818407 0.7493355113 0.4629809543
0.6124217631 0.4980225002 0.4647189378
0.6022810711 0.7476170783 0.7111581911
0.6224114863 0.4989031971 0.7176038271
0.6322723336 0.7463933458 0.9648365877
0.6324417133 0.4987814748 0.9671287376
0.6223194321 0.7499669052 0.2161108873
0.6223857111 0.4986037732 0.2164717398
0.6323128374 0.7479815944 0.4631171945
0.6323275661 0.4990848043 0.4667063883
0.6223341608 0.7505266978 0.71492597
0.642181049 0.4982600866 0.7164301359
0.6522517799 0.7487431727 0.9685095508
0.6623556503 0.4998275058 0.7236591532
0.6523511984 0.4990503054 0.9713816422
0.6422767854 0.751197147 0.2180016808
0.6423577931 0.5000852707 0.2199716409
0.6624292936 0.7489970321 0.2219949925
0.6623114642 0.4996192109 0.2219747406
0.6523291054 0.7486455344 0.4708037213
0.6524211596 0.4983544702 0.4684406896
0.6423688396 0.751529117 0.7185179254
0.6625139835 0.750350949 0.724550238
0.6823903291 0.4992071775 0.728287639
0.6724705672 0.7502663292 0.9766931703
0.6725663035 0.4997956106 0.9778806696
0.6825707554 0.7504616056 0.2282086519
0.6826002127 0.5012497694 0.2319027875
0.6723895594 0.7501231264 0.4730728576
0.6725184353 0.4981910889 0.476041606
0.6823424609 0.7498822854 0.7272667578
0.7026974884 0.5020562613 0.7385176237
0.6924021453 0.7503900043 0.9824005315
0.7124883745 0.7503965135 0.9914218443
0.6925899359 0.4989552709 0.9834131278
0.712521514 0.4995007431 0.9896175818
0.7026164807 0.7507284835 0.2357073881
0.7025649304 0.5028790261 0.237454577
0.6924794708 0.7509497968 0.4834252744
0.6925973002 0.5009353743 0.4825120966
0.7125951574 0.5006711001 0.4907932936
0.7124846923 0.7475650046 0.4870779855
0.7024839227 0.7509367784 0.7336617639
0.7225001907 0.5012471657 0.7425947047
0.732537782 0.7471744516 0.9939349243
0.7425127765 0.5019488592 0.7512947484
0.7324089061 0.5009275633 0.9965676748
0.7225591054 0.7508781954 0.2424522002
0.722573834 0.5021089859 0.2463138744
0.7424906835 0.7497260642 0.2483142125
0.7425606447 0.501585645 0.2493562662
0.732493596 0.4995755991 0.4985129598
0.7325709215 0.7504876425 0.4968348115
0.722595927 0.7495112601 0.7438751788
0.7424906835 0.7500059605 0.751361948
0.7525061818 0.5028171886 0.502963781
0.7526387399 0.7505136794 1.0017595324
0.7625216802 0.5026362324 0.7574264795
0.7525908717 0.4993913883 1.0021921872
0.7626137344 0.7526812482 0.2553784528
0.762517998 0.5014059906 0.257000448
0.7525282748 0.7515811907 0.5015157683
0.7625953235 0.7512101654 0.7564194064
0.7724966746 0.5000943836 0.5071310752
0.7726218684 0.7506048084 1.0119315229
0.7924503458 0.5019807544 0.5161017583
0.792630772 0.7537227227 1.0175744461
0.7826079094 0.5018395044 0.7626247809
0.7727544264 0.5010297579 1.0115172789
0.7926418185 0.500855311 1.0173351052
0.7825195373 0.7491792901 0.2644890582
0.7826520954 0.5000807143 0.2640711321
0.7726218684 0.7521670202 0.510426616
0.792630772 0.7500710527 0.5151002084
0.7826115915 0.7510279074 0.764102251
0.8124482029 0.5034127818 0.5185191019
0.8125328928 0.7518090133 1.0187251238
0.8026278595 0.4998854378 0.7688421224
0.8126286292 0.4997611118 1.0204833593
0.8026057665 0.7524794625 0.2683157518
0.8025173945 0.502033479 0.2678554808
0.8124887068 0.752765868 0.5192159523
0.8025210767 0.7514314788 0.7691771997
0.8324055563 0.5011710079 0.5211131896
0.83253075 0.7532540592 1.0226282224
0.8223753292 0.5045160939 0.7725454634
0.8423695042 0.5000624885 0.7753936207
0.8323687346 0.5023068661 1.0214499285
0.822500523 0.7517829764 0.2707423009
0.8224710656 0.5009731278 0.2708767
0.8424284189 0.7517569396 0.2737478709
0.8425131088 0.5012523731 0.2752336259
0.8324276493 0.7522906953 0.5223918226
0.8223753292 0.752674739 0.768374487
0.8423915972 0.7523883335 0.7752297642
0.8525175606 0.5003788364 0.5292194836
0.8626030202 0.7503965135 0.7867503489
0.8626140667 0.49924428 0.7851688576
0.8526206614 0.7525120086 1.0271664951
0.8524991498 0.5000696486 1.0339693014
0.8625846093 0.7504290596 0.2865848309
0.862599338 0.4993757662 0.2849766438
0.852613297 0.7499213407 0.532606158
0.8726663867 0.5009249596 0.5391530536
0.8826745207 0.7507610296 0.7876929841
0.8925832362 0.5011013593 0.5390149723
0.8725927433 0.7499343591 1.0367769549
0.8925169571 0.7529481261 1.036473176
0.8824646371 0.4991355761 0.7909471005
0.8726847976 0.5012849192 1.0418215258
0.892557461 0.5011736116 1.038111741
0.8826487455 0.747395765 0.2895029494
0.8825345983 0.4993471257 0.2877879794
0.8726001077 0.7501556725 0.5371214172
0.8924874998 0.7521214557 0.5363426385
0.9125626825 0.5002024366 0.5409867736
0.9024477656 0.7503444397 0.7882370245
0.9225450413 0.7508847047 0.7897319849
0.9125184965 0.75225164 1.0423646456
0.9024624943 0.4989422524 0.789898603
0.9225008553 0.5010714169 0.7934942406