POSCAR file written by Ovito 3.7.11
1
271.5849741303 0.0 0.0
0.0 15.3631661501 0.0
0.0 0.0 10.8633989652
Sr Ti O 
800 800 2400 
Direct
0.0122573351 0.2504283972 0.5100379301
0.0224108055 0.2526538499 0.7583810139
0.0023346948 0.2529148638 0.7637568636
0.012378844 0.2524807085 1.0085973604
0.022273795 5.342697565e-04 0.2606555766
0.0023941238 1.0001443013 0.2613321605
0.0122989059 1.9137168793e-04 0.5115402223
0.022405577 7.0213879956e-04 0.7574466839
0.0024289563 0.0012164859 0.763524892
0.0124412186 1.0017585519 1.0082935881
0.0222553109 0.2496902681 0.2574678082
0.0024476981 0.2514477183 0.2623953636
0.0324163296 0.2540227084 0.5051002489
0.0423583377 0.250464848 0.7605681747
0.0321990864 0.2497423407 1.0067747265
0.0424172511 1.003418366 0.2613588556
0.0323861365 2.9968269516e-04 0.5063401923
0.0424043638 1.0007431362 0.7556774402
0.032372881 7.3947975757e-05 1.0089747745
0.0424058366 0.2498894458 0.2596540485
0.0724321664 0.2502520013 0.5100093939
0.0524450518 0.2512439843 0.5085052606
0.0625313977 0.2510337412 0.759958789
0.0724008686 0.2489391209 1.006756316
0.0524001303 0.2506946184 1.0086986179
0.0623763818 1.0020579693 0.2609041176
0.0723680981 0.9989336134 0.5117095984
0.0522915087 -8.2534581987e-04 0.5117270883
0.0623760136 0.9992004854 0.7593438801
0.0724119149 -2.0255752828e-04 1.0101254273
0.0524472611 1.0011727352 1.0109723077
0.0625059913 0.2516800923 0.2585457397
0.0923809873 0.250816989 0.5078811465
0.102491635 0.2495770102 0.7528523575
0.082405104 0.2473964701 0.756621896
0.0925120696 0.2482120572 1.0083488194
0.1024356672 0.999076813 0.25530274
0.082447448 0.9986927776 0.257520278
0.0923831965 -5.679769962e-04 0.5064589397
0.1024791159 -0.0017587472 0.7573435854
0.08233809 1.0000792106 0.7582852796
0.0923548444 1.0037308016 1.0057529468
0.1023686532 0.2497768388 0.2529682957
0.0825744801 0.2499167839 0.2601769051
0.1124178101 0.2486670415 0.503880557
0.1223141602 0.2484952019 0.7527418948
0.1124770917 0.2478651235 1.0069128048
0.1224931097 -8.1825092817e-04 0.2501404515
0.1123128705 1.001244335 0.5046086901
0.1223995847 0.9996886661 0.7496756354
0.1122594802 -0.0012713476 1.0026231713
0.1223664459 0.2499577911 0.2531560822
0.1524240734 0.2490901314 0.4990745106
0.1322970395 0.2497104462 0.4989023729
0.1422935424 0.2489065755 0.7481963562
0.1524995562 0.2505507678 0.9998523995
0.1324649427 0.2511730354 0.9999812726
0.1422740274 -6.8234144314e-04 0.2440650049
0.1524097133 0.9983347785 0.4925949547
0.1322837839 -0.0037118277 0.4929152965
0.1424209427 -0.0032268495 0.7442951831
0.1524005081 1.0004241915 0.9969067284
0.1323125042 1.0193699806e-04 0.9958021017
0.1423539287 0.2502520013 0.2500207836
0.1724056649 0.2504427172 0.4997326839
0.1623576127 0.2487158596 0.7503301267
0.1723717897 0.2509211342 0.9995302167
0.1624474556 0.0012976541 0.2467566118
0.1725209143 -0.0012988159 0.5016160724
0.1624809627 0.9995715027 0.7472924034
0.1723209768 1.3057692786e-04 0.9999260412
0.1623690272 0.2502936594 0.2489538983
0.1924796768 0.2502513504 0.5029756837
0.2025019544 0.2504843753 0.7515442955
0.1824128459 0.2463179164 0.754820434
0.1925474272 0.2490133243 1.0037093875
0.2025582903 3.1543465655e-04 0.2513270046
0.1825030571 6.4705089323e-05 0.2546408845
0.1924251819 -0.0010462638 0.5018066205
0.2025925338 1.0008928449 0.7543058621
0.1824338338 1.0004957914 0.7541189961
0.1925993447 -3.8181745251e-04 1.0024666825
0.202462556 0.2492059929 0.2502997018
0.1824691819 0.250690062 0.2557086903
0.212524232 0.2501569688 0.5042367991
0.2223929664 0.2510526175 0.7493948761
0.2125923506 0.250943265 1.001822317
0.2226694913 1.0015893159 0.2506310898
0.2125352782 1.0007170999 0.501060077
0.222522576 0.9984389237 0.7517431283
0.2125408014 1.0015762978 1.0017302648
0.2224861233 0.2501875614 0.2485525507
0.2525883041 0.2504531317 0.5018655339
0.2323902058 0.2518330556 0.5020514794
0.242602111 0.2502441904 0.7494758821
0.2524958837 0.2495633411 1.0041144173
0.2325971392 0.25112617 1.0003218658
0.24242758 1.0012573531 0.2522107059
0.2524572218 5.408439222e-04 0.5013215053
0.2323636948 -1.8934410613e-04 0.5019446988
0.2425443022 0.9978856523 0.7491518582
0.2524678998 -2.5912138963e-04 1.0023838355
0.232506928 -1.0719958021e-04 1.0033411786
0.2424014372 0.2483175042 0.2512239061
0.2727076057 0.2484672129 0.5048038408
0.2624069622 0.248459402 0.753679907
0.2725183463 0.2492190111 1.006507775
0.2626172095 0.9983673238 0.2522401626
0.2725047226 0.0022367183 0.4993681571
0.2624434149 0.9997016842 0.7499932155
0.272570632 -5.1694584856e-04 0.9983335378
0.2625638192 0.2494878359 0.2528504688
0.2925548009 0.2511717336 0.501807541
0.3025406258 0.2505065061 0.7466618457
0.2825958553 0.247960156 0.7521564427
0.2925297627 0.2496622791 1.0020984736
0.3025542496 -0.0015069111 0.2445473585
0.2825660303 0.9985105235 0.2478465101
0.2926122415 -7.7626739472e-04 0.4994105012
0.3026971146 -7.9065245037e-04 0.7463424245
0.2826135293 1.0002744828 0.7505261979
0.2926354387 1.4867215623e-04 0.9996038585
0.3025402576 0.2513793731 0.2495761713
0.2826330444 0.2481398065 0.2538961821
0.332467171 0.2480538867 0.4961343626
0.3125408109 0.2482166135 0.4963792215
0.322451153 0.2500645399 0.748518539
0.3325201931 0.2502409359 0.9930313299
0.3125662173 0.2486260344 0.9928380202
0.3227199455 4.6156338926e-04 0.2452423528
0.3327135028 5.3492066399e-04 0.4966130342
0.3127046638 -0.0012074936 0.4976081187
0.3227468247 -0.0021626418 0.747379853
0.3327598971 3.1211502832e-04 0.9955443555
0.31260267 1.0001377922 0.9980757916
0.3225218491 0.2517341176 0.2456280516
0.3524763781 0.2482393953 0.4925967958
0.3424931307 0.248079923 0.7474590179
0.3524933157 0.2494806759 0.9908036661
0.3425803962 -0.0023625225 0.2447563171
0.3526291848 -6.524647891e-04 0.4921751966
0.342622372 0.9983152512 0.7451448251
0.3526324987 4.061711614e-04 0.9921476286
0.3425549898 0.2510669375 0.2452506375
0.3724355089 0.2479393269 0.4917646437
0.3824765651 0.250317092 0.7386210842
0.3625233257 0.2492567637 0.7434381769
0.3724097342 0.2498699186 0.992828815
0.3824692009 0.9982436514 0.239529592
0.3625859212 1.0004502278 0.2415114763
0.3724502372 -0.0032370557 0.4897993288
0.3824876114 -0.0019520146 0.7396999362
0.3624496839 1.0009123722 0.7390933121
0.3724649656 -0.0020020304 0.9937217215
0.3824949755 0.2471348053 0.2408753954
0.3624644123 0.2476112696 0.2431085823
0.3924992109 0.2478462472 0.4885805574
0.4026139089 0.2489990044 0.7356303075
0.3925139393 0.2472233287 0.9884287189
0.4025108104 1.0007301181 0.2363896907
0.3924439796 0.9977164163 0.4906250372
0.4025991806 -0.002647659 0.7363391096
0.392377702 0.9957962392 0.9914572369
0.4024298045 0.2493628616 0.2371362342
0.4325345628 0.248516031 0.4878505833
0.412607098 0.2472376487 0.4857306206
0.4225781946 0.2472929758 0.7350043524
0.4326781642 0.2475214443 0.9846821935
0.4126328726 0.249156524 0.988474745
0.4225892408 0.9980548882 0.2357425636
0.4324093717 0.9995910299 0.4854268483
0.412481907 -0.0013658594 0.4840838064
0.4225745125 0.9984584509 0.7368840588
0.4326082045 0.9977424526 0.984829477
0.4124855891 -0.0024408266 0.9862286708
0.4225155991 0.2491129132 0.2353513417
0.452565126 0.251281086 0.4867146589
0.4425314339 0.248459402 0.7326892391
0.4525909006 0.2493648144 0.9862562864
0.442535116 1.0016218613 0.2369107063
0.4524141604 -0.0025775302 0.481246757
0.4425793011 -0.0021987411 0.7350485375
0.4525062126 1.0001573195 0.9844336525
0.4425535265 0.2478729344 0.2363841676
0.4723931744 0.2503359683 0.4844879157
0.4825815142 0.251921579 0.7388337248
0.4626061822 0.2485433691 0.7350448554
0.4725772788 0.2490094189 0.987977663
0.4825667858 -0.0011651846 0.2358778804
0.4625067659 -5.8613731532e-04 0.2355354461
0.472459452 1.0013484802 0.4861236836
0.4824268664 0.9990703039 0.7327877349
0.46251413 -0.0010276479 0.7348156454
0.4724704982 -0.0011621904 0.9852345068
0.4825226007 0.2506334331 0.2339429427
0.4625509509 0.2505807096 0.2349932585
0.5124469367 -5.3562689367e-04 0.4851304402
0.5124064337 0.0010692506 0.981055336
0.492563657 0.2490608406 0.4822013385
0.5024169267 0.2494897886 0.7318561665
0.4924347839 0.2506431967 0.9842219324
0.5124101158 0.2481625882 0.4868757503
0.5125058501 0.2501393943 0.9851240441
0.5023837879 1.737320948e-04 0.2294240992
0.4922985466 7.7946661001e-04 0.4828834454
0.5024868864 -0.0023128257 0.7322197727
0.4924495122 -7.2360897834e-04 0.9833566415
0.5024206088 0.2506490549 0.2354645659
0.5223333452 1.0014916798 0.230744128
0.5324590895 -0.0019150561 0.482057737
0.522410669 1.0010165174 0.7337938657
0.5325143208 1.003854474 0.9820955261
0.522366484 0.2500280891 0.2352629715
0.5324112223 0.2511925626 0.4848690118
0.5224622183 0.2520979749 0.7324977705
0.5324922283 0.2496310355 0.9846913987
0.5422902666 3.7692428264e-05 0.2332866104
0.5624128821 0.0012601618 0.2343093105
0.5524417856 1.0037482007e-04 0.4809586335
0.542430186 1.0023378596 0.7312642707
0.5623981538 1.0017976063 0.7304956347
0.5524638781 0.0030846555 0.9827398916
0.5423933651 0.2507896509 0.2347585254
0.5624349746 0.2496004429 0.2343268005
0.5524233751 0.2519677934 0.4861310478
0.5425222382 0.2491793057 0.7359985164
0.5623981538 0.2516787905 0.7338638254
0.5524712423 0.251590918 0.9840562384
0.5824323991 0.0018360197 0.2341611065
0.5725165339 -3.7556874056e-04 0.4846167888
0.5823329827 1.0027349131 0.7319638676
0.5724760309 9.8202902258e-04 0.9814235449
0.5824913125 0.2516879032 0.2372540611
0.5724060712 0.2526981116 0.4850153749
0.5824581737 0.2496492609 0.7366410409
0.5724686667 0.2530235654 0.985160865
0.6025844713 1.0009709538 0.2359901841
0.5924697732 1.0020840056 0.4848929454
0.6123935559 -4.4834019854e-04 0.4891107782
0.6024776907 0.0014135156 0.7363694869
0.5924255882 -6.6964874698e-04 0.9857592045
0.6124230126 -2.6458901259e-04 0.9870295251
0.6024519161 0.2509458687 0.2409499577
0.5923556285 0.2512192498 0.4864578332
0.6125334753 0.250049569 0.4927762976
0.6024703265 0.2508586471 0.7396447049
0.5924219061 0.2524650868 0.9880973309
0.6125445215 0.2509536796 0.9911534646
0.6224382942 3.7236793017e-05 0.243197873
0.6325235355 -0.0016266129 0.4950619543
0.622386745 7.9769201988e-04 0.7401740051
0.63246094 1.001244335 0.99489999
0.6226039882 0.2505540224 0.243550433
0.6324683042 0.250309932 0.4940134795
0.622511936 0.2515115073 0.7418990638
0.6323504774 0.2502279177 0.9934547701
0.6424320366 1.0033077117 0.247738809
0.6622895417 -1.7697686372e-04 0.251116205
0.6523405376 0.0013551292 0.494324616
0.6423804873 1.0020124058 0.7484761949
0.6624331431 1.0026307679 0.7468569964
0.6522853063 1.0029692398 0.9987293624
0.6424283545 0.2522366182 0.24670046
0.6623521372 0.251309726 0.2496010254
0.6523405376 0.2532598448 0.4989557632
0.6423878515 0.2524657377 0.7466038528
0.6624883745 0.2494989013 0.7495660932
0.6522926705 0.2531010234 1.0005612016
0.6824305676 1.0018496789 0.249954506
0.672418968 1.0033988388 0.4976394164
0.6823790183 9.2435861848e-04 0.7494823257
0.6723858292 -7.1833662763e-04 0.9992816757
0.6825336661 0.2514496711 0.2515055859
0.6724815635 0.2516176052 0.5009127934
0.6824673885 0.2492281238 0.7531478451
0.6724116039 0.2514353511 1.0011411305
0.7025458189 0.0012306106 0.2505464018
0.6925379014 1.000287501 0.503612685
0.7125574184 1.000983972 0.5017716406
0.7024869054 1.0013549892 0.7489990516
0.6923427507 0.9999034655 1.0013988768
0.7125721467 6.2622185338e-05 1.0021444997
0.7024905875 0.2491200731 0.2475988896
0.6926409999 0.2507401819 0.4976578269
0.712583193 0.2467299408 0.4985406077
0.7025605472 0.2490972914 0.7505160721
0.6925526298 0.2486397034 1.0010398731
0.7125463721 0.2502825939 1.0001009404
0.7224327806 -7.3636676525e-04 0.2528633562
0.7425038469 1.0002159011 0.2522245137
0.732477519 -0.0016595489 0.5019833607
0.7225837463 1.0003916462 0.7540158976
0.7425958991 -0.0032463897 0.7538419189
0.7324996115 0.9998253566 1.0011687462
0.722532197 0.2495958865 0.2478584769
0.7425885349 0.2505663896 0.2467041421
0.7325511607 0.2492209638 0.4986667192
0.7224916941 0.2503229502 0.74733935
0.7426069453 0.2500456636 0.7477499029
0.7325732533 0.249726068 1.0009478209
0.7623944907 -4.8921718925e-04 0.2507378704
0.7525633135 0.0010430191 0.5000695951
0.7624092191 0.0011728751 0.7523313419
0.7525154464 0.9980223429 0.9974038104
0.7625675489 0.2509361051 0.2498320765
0.7524859897 0.2534056481 0.5011769833
0.7626411907 0.2516449433 0.7485351084
0.7523571166 0.2482042463 1.0013620559
0.782469239 -0.0019310098 0.2513794744
0.7725828305 0.999421794 0.5009348859
0.7926097117 1.0005739003 0.5009302833
0.782469239 4.3071037398e-04 0.7543546498
0.7724870962 0.9985040144 1.0006900747
0.7924329714 -0.0019617913 1.0025403243
0.7825686554 0.2485270964 0.2506135999
0.7724465932 0.2499050676 0.5009514553
0.7925581624 0.2515538163 0.4976035161
0.7825060599 0.2524318905 0.7519263122
0.7724870962 0.2485153801 0.9998892203
0.7925139774 0.2493127418 1.0025127086
0.8025329411 1.0000011017 0.2493184251
0.8126365928 8.8322126478e-04 0.4991647217
0.8026654963 -2.710329968e-04 0.7510729881
0.812562951 0.9996561207 0.9964004412
0.8026029008 0.2495828684 0.2485258555
0.8126071361 0.2499831765 0.4972988232
0.8025992187 0.2495138722 0.7469122277
0.8125334943 0.2473567647 0.9983335378
0.8225450939 0.9988880498 0.2502914171
0.8425756571 1.0023573868 0.2452598427
0.8326192889 -0.0013639067 0.4977498791
0.8225892789 -1.4111186072e-04 0.7469812669
0.8425793392 -3.1490416199e-04 0.7461997435
0.8325014621 1.103987955e-04 0.9958297174
0.8226150536 0.2515258272 0.2467713402
0.8426677093 0.2509126724 0.248295725
0.8326340173 0.2505462115 0.4979800097
0.8225966431 0.2520882113 0.7447618878
0.842693484 0.2517790303 0.7457569723
0.8326156068 0.2486305907 0.9966489822
0.8623742488 -4.7756594509e-04 0.2485764842
0.8525798925 0.9982827059 0.4962687589
0.862425798 1.0011466989 0.7498855144
0.8526572163 -6.9366723356e-04 0.9985452579
0.8626172666 0.2521884511 0.2509118491
0.8526314417 0.2496004429 0.499383806
0.8626945905 0.2480870829 0.7504203378
0.8525983029 0.2490133243 0.9992356496
0.8824563612 1.0003981552 0.2503853104
0.8725147214 -2.9446566663e-04 0.5029443859
0.8924200936 -0.0030377804 0.5056663701
0.8823569448 1.0029171672 0.7541687043
0.8725110393 -3.7778182604e-04 0.9989318772
0.8825484135 0.2497566607 0.2550100139
0.8923869548 -0.0028857414 1.0020248319
0.8725662706 0.249444876 0.5033659851
0.8924974175 0.250978414 0.5079971323
0.882570506 0.2507440873 0.754304021
0.8725073572 0.250957585 1.0050349395
0.8924642787 0.2499226421 1.0054491745
0.9025163812 -0.0024164892 0.2533447893
0.9224438459 -0.0021926877 0.2583174502
0.9124948419 -0.0013864281 0.5101014461
0.9024169648 0.9997147024 0.7573445059
0.9225432623 1.0006845545 0.758159168
0.9123917434 1.000547864 1.007999021
0.9025605663 0.2516091434 0.2601124685
0.9225764011 0.2480050686 0.261229062
0.9126826285 0.2479067816 0.5090989974
0.9024758782 0.2517197977 0.758488715
0.9226316325 0.2493980106 0.7609851712
0.91257953 0.2493928034 1.0095547035
0.9423676286 1.0005869184 0.2602882883
0.932518041 1.000814736 0.506822546
0.9425112301 1.0023053142 0.7614969816
0.9325511798 0.9993306669 1.0103923787
0.9424339062 0.2511678281 0.2576629589
0.9325033126 0.2502689249 0.5128289534
0.9425443689 0.2503769755 0.7627801895
0.9325217231 0.2485472745 1.0113957479
0.9623834635 -5.7144793814e-05 0.2620713398
0.9525081013 1.0005283367 0.508334964
0.9724797511 1.0009384085 0.5093282074
0.9625307471 0.9997147024 0.7623908086
0.9525228296 1.0015697887 1.0093890095
0.9626007067 0.2505325424 0.2624938595
0.9724466123 0.0014718369 1.0112576696
0.9525081013 0.2503600519 0.5152747809
0.9724502944 0.2518480265 0.51217078
0.9624202844 0.2494188397 0.7651578984
0.9524860087 0.2513644022 1.0164217992
0.9724981615 0.2523023599 1.0157866389
0.9825171252 7.0487261104e-04 0.2621735178
0.9925360889 1.001075099 0.513187957
0.9824471655 1.0024745501 0.7609106089
0.9824324372 0.2516390852 0.2619157715
0.9923961696 1.0512644479e-04 1.0108802555
0.992539771 0.2505416551 0.5110256504
0.9825834028 0.2489261027 0.7622840281
0.9925324069 0.2503756737 1.0112944905
0.0122632633 0.7507556035 1.0103003265
0.0223941625 0.5003697155 0.760064649
0.0024408863 0.5003352174 0.7633536749
0.0123451529 0.500809078 1.0095823192
0.0223929842 0.7503129864 0.2611158377
0.002357892 0.7490372077 0.2616129197
0.0122504496 0.7513804747 0.5124589035
0.0223585567 0.7504041135 0.7590668029
0.0223236873 0.5007231582 0.2580725913
0.0023492023 0.5000650907 0.2596871873
0.0024995788 0.7524609812 0.7611591499
0.0123485404 0.5022508381 0.5114141108
0.0322959253 0.7510940754 1.0088919275
0.0423874262 0.4988563555 0.757390532
0.0323935007 0.5006365875 1.0096191401
0.0424912611 0.7501177142 0.258184895
0.0323949735 0.7511526571 0.5075598843
0.0424824241 0.7498508421 0.7602294225
0.0424765327 0.5017815338 0.2566954901
0.0324612511 0.5001627269 0.5063245435
0.0724612549 0.7497206606 1.0077136591
0.0624492872 0.4982679352 0.7569330325
0.0525021242 0.7512177478 1.0074651181
0.0724638324 0.4998463858 1.0076952487
0.052526426 0.5020503586 1.0083119985
0.0624857398 0.7508337124 0.261022865
0.0724406352 0.7494993521 0.5071935164
0.0524649351 0.7514195292 0.5093622668
0.0624573878 0.5016005815 0.2558384839
0.0724980758 0.4998997602 0.5076224798
0.0624323496 0.7497727332 0.763338026
0.0524914461 0.4996641317 0.5070379482
0.0925260616 0.7503780772 1.0059922826
0.1025593854 0.5005845149 0.753743423
0.0824839007 0.5020503586 0.7554565148
0.0925400535 0.499972011 1.0064341332
0.1024356672 0.74923248 0.2532895579
0.0824338243 0.7497336788 0.2560925481
0.0925006552 0.7484969545 0.5054877888
0.1025152004 0.7501697868 0.7535933779
0.1025398704 0.4994363141 0.2550772121
0.0826135102 0.4994955467 0.2568528994
0.0824559168 0.7490176805 0.7575525439
0.0924074983 0.4989468317 0.5076574596
0.1124697275 0.7487182631 0.9989963138
0.1224474518 0.501618156 0.7476560096
0.1125360051 0.4992618709 0.9995762428
0.1224360374 0.749323607 0.2449468652
0.1125680393 0.7494277522 0.5009256807
0.1225906851 0.5008949978 0.2467796249
0.1223763875 0.7484188456 0.7449892568
0.1124244378 0.4985914362 0.4990634643
0.1523415946 0.7509378576 0.9932890761
0.1424783833 0.4996641317 0.7443642222
0.1324745161 0.749577461 0.9932614604
0.1524376972 0.4998782803 0.9961058741
0.1324384317 0.4992729363 0.9959309748
0.14233515 0.7496555699 0.2402098579
0.1523106651 0.7495318974 0.4902411795
0.1325562585 0.7483993184 0.4933424188
0.1424400896 0.5005942785 0.2448179921
0.1423830172 0.7503390227 0.7390749016
0.1524671539 0.498691025 0.4953261441
0.1324056611 0.4998678658 0.4959033116
0.1724914576 0.7517580011 0.9938137738
0.1624610794 0.5006561148 0.7496958869
0.1726218035 0.4996153137 0.9994289592
0.162411003 0.7499549873 0.2449422626
0.172483357 0.7500786597 0.4955894135
0.1625752241 0.5005148678 0.2473061636
0.1624297816 0.7486076088 0.7459125406
0.1725562623 0.4984150402 0.4974967355
0.1926726182 0.7477874653 1.00008253
0.2026308275 0.4987645776 0.750468205
0.1825623387 0.4990086679 0.7526553658
0.1927293224 0.49812799 1.0005704068
0.2025045318 0.7530728342 0.2493165841
0.1824684455 0.7498703693 0.2510867483
0.1924682623 0.7511852025 0.5012322146
0.2025376706 0.5024513176 0.2509274979
0.2025505579 0.7504887315 0.7485111748
0.1826750106 0.498395513 0.2508768692
0.1824592402 0.7505733494 0.7513316548
0.1924782039 0.4999967455 0.5007627483
0.2126527369 0.7502218594 1.0003218658
0.222513739 0.499690168 0.7495154645
0.2125426424 0.5017405266 1.0001469666
0.222596586 0.7528970892 0.2461674776
0.2126483184 0.7500005508 0.4997492533
0.2226562358 0.4986623851 0.2458848773
0.2224780227 0.7496230245 0.7459401563
0.212508399 0.499704488 0.4981576704
0.2525249722 0.7458087066 0.9989502877
0.2427457125 0.5004217881 0.7443089909
0.2327002377 0.7507230581 0.9969711649
0.2525522196 0.4996530663 0.9976339409
0.2326450064 0.4997077425 0.9950380683
0.2424518818 0.7497987695 0.2444902861
0.2524782097 0.749668588 0.4990211203
0.2325975074 0.746713468 0.4989456374
0.2425601352 0.4998223023 0.246744645
0.2427188332 0.7493431343 0.7464851054
0.252626966 0.5005832131 0.4973586572
0.2325621594 0.5004614934 0.5000990518
0.27260598 0.7479436831 0.9939610573
0.2625825978 0.4998288113 0.7478419551
0.2725073001 0.4987457013 0.9961611054
0.2625424631 0.7496816062 0.2463764362
0.2725765233 0.7489070262 0.4964142014
0.2627070524 0.4998092841 0.2503420458
0.2624482016 0.7489135353 0.7477462208
0.272604139 0.4998385749 0.4965679286
0.292634334 0.7511656752 0.9964740829
0.3026260503 0.4995866737 0.7455618216
0.2825925414 0.5004510789 0.7468652811
0.2927300683 0.5000065091 0.9995394219
0.3027611829 0.7505993857 0.2427274861
0.2826385675 0.7500591325 0.2465761895
0.2927002434 0.7490111714 0.4945621107
0.3027501367 0.5001178143 0.2461812854
0.3027449818 0.7506579674 0.7439904902
0.2826772294 0.4989175408 0.2470208017
0.2824971753 0.7502348775 0.7453906045
0.292798187 0.4987229195 0.4980214332
0.3327024565 0.7497857514 0.9937125163
0.3226105874 0.5000475162 0.7476974331
0.3126810985 0.7524219267 0.9965937508
0.3325768973 0.4982842078 0.995231378
0.3126527464 0.4992097983 0.995562766
0.3227733357 0.7485099727 0.2425406201
0.3327352271 0.7520834548 0.4939048578
0.3127256517 0.7512958567 0.4927809002
0.3226087464 0.5003261047 0.2458416127
0.3227501386 0.7506579674 0.7474691436
0.33253934 0.4992833508 0.4967603177
0.312729702 0.4972518686 0.4970070177
0.3525676939 0.7487312812 0.9909417445
0.342528847 0.4988212065 0.7433507273
0.352596046 0.4982822551 0.996142695
0.342678708 0.7491934255 0.246619454
0.3526288166 0.7482951732 0.4910273054
0.3426654524 0.4997865023 0.2467860685
0.3426908589 0.7510354937 0.744000616
0.3525927321 0.4995599865 0.494781195
0.3725938387 0.7479241559 0.9896898343
0.3824949755 0.4988915045 0.7347300368
0.3626227421 0.4991746493 0.7385584887
0.3724465551 0.4988309701 0.9890914948
0.3825870278 0.7461341603 0.2375707207
0.3625270078 0.7483863002 0.2415271252
0.3725312432 0.7478069926 0.4858374012
0.3824839293 0.4978175072 0.2379490553
0.3825612531 0.7453595804 0.7383329607
0.3624239093 0.4992137037 0.2405780668
0.3626448347 0.7493561524 0.7393630251
0.3725054685 0.5000637889 0.4897910441
0.3926096736 0.7497271697 0.9883366666
0.4026433656 0.497488148 0.7332627244
0.3926244019 0.4973058939 0.9841206749
0.4024960821 0.7465181957 0.2350825492
0.3925838989 0.748451391 0.4890343748
0.4025292209 0.497431519 0.2338665393
0.4026544119 0.7486466632 0.7378717791
0.3925765348 0.4983473459 0.486905207
0.4326965747 0.7482691369 0.9840930593
0.4225818767 0.4996940735 0.7356560821
0.4126549652 0.7496230245 0.9845625256
0.4324940598 0.4993712234 0.9822243992
0.4125776413 0.500056629 0.9836235929
0.4225340095 0.7492389891 0.2329800765
0.4325824299 0.7516473468 0.4875201158
0.4125371383 0.7491608802 0.4822574903
0.4226444722 0.4987274758 0.2309797817
0.4225450558 0.7504236407 0.7334744445
0.4325529732 0.4991785547 0.4851129502
0.4124671786 0.4990099697 0.4819242613
0.4525688081 0.7481715008 0.9867625737
0.4425866653 0.4985816726 0.7350835173
0.4524878021 0.4972544722 0.9835959773
0.4425056593 0.7479827376 0.2316140215
0.4526166752 0.7495318974 0.4851967178
0.4425203877 0.4978051399 0.2370552283
0.4426345324 0.7500786597 0.7348451021
0.4524878021 0.4976508748 0.485084414
0.4725662325 0.7499419692 0.9872780661
0.4824820978 0.4983102441 0.7332111752
0.4625509509 0.4986129161 0.7374418952
0.4725294116 0.4996719426 0.984083854
0.4824968261 0.7493496433 0.2354019704
0.4625104479 0.7479501922 0.2354397118
0.4723894923 0.7501632777 0.4864799257
0.482618335 0.5009997939 0.2340929878
0.4824894619 0.7514781108 0.73436551
0.4625767255 0.4996667354 0.2346664731
0.4625251763 0.7491413529 0.733577543
0.4726104176 0.497973725 0.4875652214
0.4923905988 0.5007908526 0.9840654436
0.5023359207 0.7502218594 0.2332820077
0.4924642406 0.7498248058 0.4841546866
0.5023948342 0.4996602263 0.2328005746
0.5024132446 0.7498703693 0.733970606
0.4923685063 0.7494733158 0.9831265109
0.4924679227 0.5003755736 0.4813516965
0.5024611118 0.4994005142 0.7311160666
0.5123880232 0.7488679718 0.9862470812
0.5122996531 0.5016838977 0.9824177088
0.5123990695 0.7506579674 0.484751185
0.5124506188 0.5005031515 0.4840681575
0.5224033049 0.5024643358 0.7340055858
0.5324627716 0.7508922941 0.9859433089
0.5323854477 0.501801061 0.9816997015
0.522325981 0.4967096626 0.2354507581
0.5223848944 0.7489200444 0.2334154835
0.532396494 0.7520378913 0.4822326362
0.5323780835 0.5014241856 0.4823817608
0.5223996228 0.7499094238 0.7336088408
0.542470689 0.5010720446 0.7361743362
0.5523976005 0.7516538559 0.98122103
0.5624570672 0.5006398421 0.7313047737
0.5525264736 0.5014840691 0.9809080524
0.5423381338 0.5026120918 0.2326983967
0.5424633248 0.752102982 0.2336069521
0.5623613329 0.5025515574 0.2306161754
0.5624092 0.7524414539 0.2317769539
0.5523865542 0.5018244937 0.4814014047
0.5524896527 0.7514390564 0.4812798958
0.5424117756 0.7502283685 0.7315855329
0.562490206 0.750098187 0.7304744626
0.5823955782 0.5012900987 0.7348920487
0.5723802966 0.7510029484 0.9800059407
0.5724944413 0.5009874267 0.9837616713
0.5823955782 0.5030377853 0.2337754076
0.5823661215 0.7537042145 0.2341942453
0.5725054876 0.5016057888 0.4839448075
0.5724355279 0.7504236407 0.480254434
0.5824103066 0.7513609475 0.7317604322
0.6023966847 0.5010720446 0.7418226604
0.5923887673 0.7542770131 0.9854646373
0.6123825096 0.751230766 0.9919082928
0.5924955479 0.4994311068 0.9852805329
0.6125003365 0.5016793413 0.9885852076
0.6023377713 0.7490111714 0.2370764003
0.6022862221 0.5012295643 0.2339696378
0.5924255882 0.7524674902 0.4848625682
0.5923924494 0.5019331953 0.4856164759
0.6123640992 0.7511136026 0.4898573217
0.6124451052 0.5009594376 0.4895526288
0.6023524997 0.7496230245 0.736479029
0.6224419763 0.5009757103 0.7407309211
0.6324093908 0.7510680391 0.9938874155
0.6323578416 0.4992176092 0.9930865612
0.6223904271 0.7488679718 0.2401398982
0.6223609704 0.5002375812 0.2386937578
0.6323872983 0.7492454981 0.4929889382
0.6322878819 0.4998997602 0.4945501439
0.6224198838 0.7473904118 0.740540373
0.642281071 0.4986942796 0.743940782
0.6523110809 0.7514195292 0.9987937989
0.6622343103 0.4992813981 0.7481135092
0.6523221272 0.4995372048 0.9953786615
0.6422884351 0.7515366925 0.243820146
0.6422074292 0.4993139435 0.2453058688
0.6621643506 0.7509899302 0.2473208919
0.6623079521 0.500908016 0.2472831505
0.65227426 0.7496100063 0.4974939739
0.6522705779 0.5003000684 0.497331962
0.6423583948 0.7501697868 0.7444756054
0.6622821775 0.7493366252 0.7459281895
0.6823569258 0.5028249385 0.7470364982
0.6723895113 0.7492194618 0.9961979263
0.6723858292 0.4992957181 0.9971368589
0.6823274691 0.748542518 0.2462107422
0.6824121571 0.5005845149 0.2459327444
0.6722974591 0.7499745145 0.4978198388
0.6723048233 0.5014736546 0.4957265713
0.6823164228 0.7496230245 0.7470779217
0.7024942696 0.5010707428 0.7482396207
0.6923869358 0.7495904791 0.9988766459
0.7124322274 0.7491348439 1.0000272987
0.6925158089 0.5012835896 0.9973577843
0.7124543199 0.502737066 0.9990515451
0.7024353562 0.7520053459 0.24775814
0.7023948532 0.4988472428 0.2460533329
0.6923795716 0.748536009 0.4985719054
0.6925010805 0.4999850291 0.4972546382
0.7124616841 0.501041452 0.4976992504
0.7125721467 0.7517449829 0.4986354215
0.7024206278 0.7496881152 0.7504461125
0.7225653358 0.5012959568 0.7497814954
0.732477519 0.7500070599 0.997762814
0.7425222573 0.4990945877 0.7483178651
0.7324738369 0.5010726956 0.9969067284
0.7225027403 0.7521160002 0.2475675919
0.722447509 0.5007784854 0.2477001471
0.7424338872 0.7490697531 0.2470235633
0.7425296215 0.5024506667 0.2481383157
0.7325990279 0.4998177459 0.5001837398
0.7324149235 0.7491088076 0.4985580976
0.7225358791 0.7494733158 0.7458628324
0.7424596618 0.749492843 0.7469205124
0.752541221 0.4997598151 0.4954743482
0.7524602151 0.7491804074 0.9981126125
0.7625491384 0.5004621443 0.7495596496
0.7525375389 0.4980908883 0.9973853999
0.7624975892 0.7486401542 0.249892831
0.7623208489 0.4987105523 0.2519115362
0.752500718 0.7518296009 0.5031422982
0.7625270459 0.7484318638 0.7465900449
0.7725496917 0.5000318945 0.5007627483
0.7723803156 0.7503715681 1.0004415337
0.79262444 0.4982360407 0.502181273
0.7925029311 0.7497727332 1.001408082
0.7825023778 0.498557589 0.7495642522
0.7725533738 0.4992364855 1.0027796601
0.792580255 0.4991622821 1.0013068245
0.7825244704 0.7487312812 0.2499508239
0.7824950136 0.5008045217 0.2510232323
0.7724171365 0.7492845526 0.501826872
0.7925949833 0.7492194618 0.4996912604
0.7825465629 0.7499419692 0.7509266251
0.8126586854 0.4981013028 0.4959594634
0.8125334943 0.749837824 0.9975787096
0.8025955366 0.4977791036 0.7511696429
0.8126550033 0.5002362794 0.9979469185
0.8025034844 0.7494277522 0.2493119815
0.8025550336 0.4968430986 0.2488259457
0.8125666331 0.7483928093 0.4998799675
0.8025844903 0.7505408041 0.7481770252
0.8327518441 0.4993184999 0.4979128115
0.8325714218 0.7504757133 1.0008465634
0.8226776491 0.4986298397 0.7480978603
0.8426750735 0.4987417958 0.7505326415
0.8327813008 0.5006040422 1.0006348433
0.8226187356 0.7481324463 0.2510158681
0.8226481924 0.5003762245 0.2518774769
0.8426492989 0.748366773 0.2477848351
0.8426677093 0.4990086679 0.2485691201
0.8326524277 0.7529882162 0.498511151
0.8227071058 0.7505993857 0.7491205605
0.8427339869 0.74775492 0.7522033894
0.8527419044 0.4991089076 0.5011300366
0.8625951741 0.7465116867 0.7490469187
0.8628271457 0.4998236041 0.7527777952
0.8526093492 0.7521094911 1.0022917833
0.8527492685 0.499015177 1.0030558167
0.862510486 0.7481324463 0.2483886977
0.8626982726 0.4980726629 0.2521435078
0.8526167134 0.7483472458 0.501890388
0.872746693 0.4993282635 0.5017127272
0.8825115926 0.7482431006 0.7531690172
0.892560013 0.5008357652 0.5097718991
0.8724889468 0.7483212095 1.0011963619
0.892475325 0.7505147678 1.005844999
0.8825336851 0.4989546426 0.7549023605
0.8726988258 0.5011742371 1.0036633614
0.8926778398 0.5000963343 1.0082015359
0.8825925985 0.7485555362 0.2529995934
0.8825631418 0.4996439536 0.2577347597
0.8724263513 0.7498182967 0.5020597641
0.8924679608 0.750449677 0.5048388206
0.9126200329 0.4997233643 0.5093226843
0.9024059185 0.7474555025 0.7580505464
0.9226353146 0.7495969882 0.7570655877
0.91257953 0.7504757133 1.00775048