POSCAR file written by Ovito 3.7.11
1
271.6272043437 0.0 0.0
0.0 15.3655550517 0.0
0.0 0.0 10.8650881737
Sr Ti O 
800 800 2400 
Direct
0.0224716194 0.49867626 0.7661318521
0.0122896495 0.2492677624 0.5134831891
0.0224825167 0.2486573061 0.7668396236
0.0024455325 0.2504366105 0.7662294123
0.0123445041 0.2469385267 0.0175728096
0.0224020387 -1.1535373417e-04 0.2644562179
0.0024393107 -0.0025289665 0.2664856538
0.0024625411 0.4961218453 0.2639408056
0.0124652579 0.4990498228 0.5194306788
0.0123004732 -0.0015990619 0.5170017984
0.0223689787 -9.5788756757e-04 0.7690227628
0.0024343407 -6.3469715998e-04 0.7659523782
0.0225397274 0.2509917483 0.2688758783
0.0024069134 0.2484386352 0.2666310737
0.0323506004 0.4999407766 0.0174612597
0.0424489998 0.4980339142 0.2652072473
0.0324566281 0.499008822 0.5164431283
0.0325987346 0.2499934114 0.5162047501
0.0423157289 0.2463723252 0.7625948352
0.0325611831 0.247266533 0.0143163243
0.0524347448 0.49851486 0.0106924237
0.0424570991 -0.0024355303 0.7657793469
0.0423882548 0.2483299505 0.2645114407
0.0524873905 0.2478711321 0.510040051
0.0524354811 0.2483878723 0.0107314477
0.0624293255 0.2517798747 0.257840533
0.0624790259 0.4981881553 0.7622055149
0.0725516547 0.5003839757 0.0070425683
0.0625117914 0.4997019307 0.2612542191
0.0723149332 0.498632656 0.5088361951
0.0723351816 0.2510353523 0.5069420549
0.0624433152 0.2475971426 0.7558282082
0.0724544627 0.2499419977 0.0071036815
0.0924307387 0.2508225387 0.5048675205
0.1024698657 0.2495384978 0.7503353857
0.0824067059 0.2486286706 0.7541420737
0.0924925882 0.2507444419 0.0028574205
0.1024672886 0.0016882908 0.2519436642
0.0923777249 -0.0017698335 0.5067681033
0.1024912185 0.250216638 0.2557926895
0.0825709015 0.2473107879 0.252679047
0.1023689921 0.4983964133 0.7509446767
0.0824291632 0.4986476245 0.7557683835
0.1024904822 0.4986261479 0.2523394272
0.0825046342 0.499526213 0.2586228552
0.1223710387 0.2520909601 0.2493813288
0.1124769635 0.5002694338 0.001008563
0.1125480168 0.2494233051 0.4999352089
0.1224339927 0.5000507629 0.2496215477
0.1124776998 0.4991344276 0.5020879756
0.1224660219 0.2502530831 0.7502571535
0.1125152513 0.2482616159 -0.0011241855
0.1223548401 -0.0019871182 0.2503293192
0.1524420326 0.2503467992 0.4932173619
0.132432623 0.2494779728 0.4980548744
0.1424205769 0.2503031952 0.7471462722
0.1524493957 0.2483716021 -0.0048762765
0.1325010992 0.2494948938 -0.0053448047
0.1424102687 9.7578810507e-04 0.2486063696
0.1424610736 0.2503331323 0.2433813774
0.1425862451 0.5009345578 0.7444734913
0.1524166302 0.4995515945 -0.0090206396
0.1323788728 0.4998750452 -0.0035686939
0.1524516046 0.5007503797 0.4932210434
0.132345371 0.500739316 0.4957723343
0.1826183179 0.2508915241 0.2455994911
0.1723365789 0.4984849229 0.4947470319
0.1824165708 0.4979948658 0.7430367795
0.1723590362 0.2495241801 0.493669268
0.1624314591 0.2501333348 0.7451600941
0.1723678718 0.2499966655 -0.0079611166
0.182472898 0.5020129439 0.242909223
0.1623699778 9.9095189181e-04 0.7487771839
0.162435877 0.251456424 0.2432838173
0.1824736343 0.2533073171 0.7437813662
0.1825001412 -3.6760625528e-04 0.2469901839
0.1924446532 2.6484730513e-04 -0.0067842224
0.2025261177 0.2514024071 0.2463882559
0.2024955611 0.4995249114 0.7450284799
0.1923673414 0.4992658905 -0.0033127273
0.2025787633 0.5012131029 0.2449579868
0.192412624 0.5028284042 0.4959904641
0.1925304326 0.2515989506 0.4967102006
0.2024072047 0.2491844592 0.7471112978
0.1924365539 0.2502342098 -0.0060965427
0.2024605867 0.0035437396 0.2455470295
0.2125475734 0.249705755 0.4939904803
0.2224733097 0.2525328576 0.7466308599
0.2125332155 0.2518364949 -0.0066520651
0.2223080096 6.1582714164e-04 0.7466750381
0.2225727106 0.2521300085 0.246589819
0.2326353993 0.2508036653 0.49469365
0.2325275309 0.2504112291 0.9960931704
0.2324539006 0.0016946037 0.5012495102
0.2224615288 0.5019127197 0.7468499101
0.2124411775 0.4998776484 -0.004602565
0.2124224018 0.4989587099 0.4989853777
0.2423962037 0.5021815027 0.7516414037
0.2623986184 0.2497304857 0.7529520235
0.2624107674 4.4394919834e-04 0.2541949114
0.2625075913 -9.4363490964e-04 0.7554324451
0.2524957075 0.2510275426 0.498134027
0.2425099625 0.2511114966 0.7503565544
0.2525052795 0.250814729 0.9993329048
0.2623713752 0.251624332 0.2520863229
0.2424834556 -0.001498187 0.2503504879
0.2623448683 0.5005017717 0.2550278545
0.2523683271 0.0018135711 0.5006439008
0.2424760926 -4.9939453062e-04 0.751661652
0.2524217091 0.0018374556 1.0006306393
0.2425530363 0.2512377531 0.248595325
0.2725294152 0.2491759987 0.5063161971
0.2726059907 0.2512598805 1.0069904589
0.2725157936 0.0014817249 0.5036231679
0.2724351684 -5.7208959411e-04 1.0046342884
0.2827511454 0.2511687676 0.7523491752
0.2723777367 0.5002961169 0.5048868484
0.2825335678 0.2504509283 0.2544701048
0.3125324039 4.1284065729e-04 0.5024533661
0.2926039877 0.5018417818 0.5035486172
0.2926908714 0.2507724266 0.5030028324
0.3025319329 0.2522237246 0.753123214
0.2926371213 0.2504912782 1.0059044115
0.292398559 1.0670137471e-04 0.5025288372
0.3023828314 6.3053536398e-04 0.7521117174
0.3125272498 0.5021222793 0.5010405842
0.3026018817 0.2524293794 0.251552503
0.3126424813 0.2502589404 0.5001165236
0.3126196559 0.2526506535 0.9988543077
0.3223929774 0.0011228703 0.2496988595
0.3325046302 0.0015867651 0.4988546838
0.3224636625 0.0019501102 0.7523537771
0.3324876953 0.0019859696 1.0003269142
0.3225306661 0.2536639589 0.2503072301
0.3226580466 0.5023637285 0.7498632313
0.322528089 0.5001158435 0.2501875808
0.3323912395 0.2506780597 0.4986660061
0.3225063681 0.2509143023 0.7496147289
0.3324910086 0.2521801206 0.9992132555
0.3624857951 0.2497825502 0.2399336374
0.3525538003 0.4986001157 0.4921478814
0.3524923189 0.2488987552 0.4942334604
0.3425960348 0.2502882267 0.7474067395
0.3624857951 0.5006475523 0.7417758602
0.3525571136 0.2513334216 0.9924668768
0.3625815146 0.5034043677 0.2409055577
0.3424870619 0.0015361974 0.2478396938
0.3424542964 0.2507197113 0.2457706816
0.3625262918 0.2501938598 0.7414656924
0.3425187229 0.5011063707 0.7460611452
0.3425952985 0.5006026466 0.2454200171
0.3825537409 0.2520675311 0.2379235294
0.3924901536 0.2532207599 0.4923908615
0.3923539375 0.2537889138 0.9926969716
0.3925711469 0.0030337027 0.9890338628
0.3826052821 0.5034486226 0.7389530575
0.392471746 0.5045354691 0.9888129718
0.3725436979 0.2520922617 0.4928308027
0.3824432954 0.2512442611 0.7389990764
0.3725289718 0.2493634309 0.9918778342
0.3926447773 0.5031538073 0.4885151451
0.3724406154 0.0013669227 0.4897558161
0.4126575003 0.5042627813 0.9850394175
0.4024007956 0.2525387149 0.7387524148
0.4024449738 0.003364052 0.7390607418
0.4024854705 0.2534094937 0.2371863058
0.4124182017 0.2531185833 0.484295207
0.412484469 0.2528960075 0.9858953701
0.4123298453 0.0032001139 0.48731313
0.4125065581 0.0017672336 0.9847448962
0.4425109165 3.248516458e-04 0.7312227935
0.4423820634 0.2497011994 0.2326451553
0.4226528172 0.5018684649 0.7338044568
0.4327475351 0.5011395618 0.983125029
0.4326959939 0.5003117362 0.4811465901
0.442613999 0.5007009184 0.730758002
0.4425919099 0.5008414925 0.2317210947
0.4325266441 0.2499348389 0.4863356874
0.4225055565 0.2518312884 0.7379765353
0.4323388868 0.2510789563 0.982904138
0.4224282447 0.0039017481 0.2338352055
0.4324530138 0.0010954714 0.9803362803
0.4224061556 0.2533053647 0.2352783599
0.4424777829 0.2508667935 0.7314952257
0.4725852238 0.2480221192 0.4803615067
0.462398468 0.2505264218 0.733452872
0.472636765 0.2498098841 0.9811922329
0.4724858228 -2.0282210062e-04 0.9848093227
0.4625310026 0.2504307533 0.235433904
0.4525209595 0.4984803673 0.9828673228
0.4525467301 0.4976857328 0.4859841026
0.4625899068 0.5018997036 0.7309853357
0.4726478095 0.4986651963 0.9850210099
0.4626046329 0.5023760938 0.2316437829
0.4525246411 0.2478913071 0.4782151827
0.4525356856 0.2493068108 0.9812842708
0.4524583738 7.1130042556e-04 0.4772662718
0.482540044 0.2519490844 0.7365481069
0.4824406431 9.0953602393e-04 0.732741419
0.4925684946 0.5012267699 0.9848093227
0.4925721762 0.4979766432 0.4850186249
0.4824811398 0.2511720216 0.2355563144
0.4924654122 0.2517870336 0.4834245283
0.4924028264 0.2485375577 0.9872115122
0.4826026298 0.5000566201 0.2350878414
0.5024644106 0.2499660776 0.7387975134
0.5125002243 0.2494590995 0.4873140504
0.5125628101 0.2505498508 0.9867421188
0.5024717737 -0.001622556 0.7367597941
0.5024533661 0.2522933609 0.236742683
0.5222930578 0.2491063624 0.2385696355
0.5224697706 0.2490464883 0.7350009497
0.5125039058 0.4993316219 0.4844958496
0.5225286749 0.4998314412 0.734016144
0.5424861751 0.4988155325 0.7371840889
0.5523857727 0.49871661 0.9890062514
0.5423536405 0.4979037529 0.2370997901
0.5523563205 0.4988350567 0.4889109081
0.5324503615 9.1277265449e-05 0.4869615452
0.532347279 0.2488844375 0.4866753073
0.5324025018 0.2479062756 0.986337152
0.5324172278 0.498702943 0.9842018725
0.5524814921 0.0011309403 0.9883067633
0.5423462775 0.249511164 0.2375443332
0.5523158238 0.2474272822 0.4884350721
0.5424604045 0.2471363718 0.7386935106
0.5523010978 0.2501749864 0.9890982893
0.5722770056 0.2513828829 0.493654542
0.5723248653 0.2479114821 0.9936817772
0.5622706441 0.498887772 0.7415650934
0.5623847711 0.4978581965 0.2413740306
0.5723248653 0.4980274061 0.9876624979
0.5722880502 0.4985057487 0.4876527499
0.5623295484 0.2495931656 0.2417854401
0.5623958157 0.2496445793 0.7413257948
0.6025685223 0.4982506327 0.7464044466
0.5923744035 0.498921614 0.9951819951
0.5922860471 0.4964309783 0.4944350234
0.582489532 0.2485583835 0.7410257512
0.6024323062 0.2462694978 0.2474825867
0.5924406708 0.2480162619 0.4960355627
0.6024138986 0.2469626065 0.7488204417
0.5924480338 0.2485089223 0.9974093125
0.5823422714 0.4985428447 0.7419737417
0.5823864496 0.4999193 0.2416980041
0.5823901311 0.248029278 0.2431706106
0.6124276232 0.4970349265 0.996949123
0.6123134962 0.4984901294 0.4944350234
0.6224781629 0.5008375877 0.748624401
0.6123466298 -3.3871045564e-04 0.4984994175
0.6224376662 0.5009690506 0.2482612274
0.6123171777 0.24723985 0.5017483557
0.6123797635 0.2469098912 0.9981548196
0.6223493098 -0.0017912711 0.747912948
0.6223566728 0.2474897596 0.2494512776
0.6223787619 0.2484399368 0.7499166132
0.6426491911 -5.4469064896e-04 0.251115323
0.6524714768 -3.4964400145e-04 0.498274845
0.6324145756 0.4976525417 0.4970765114
0.6425056119 0.2503285767 0.2523716404
0.6526518711 0.2500506824 0.5003070421
0.642627102 0.2500656509 0.7514306369
0.6324697983 0.0014288144 0.497845028
0.6526224189 0.2493966221 1.0006306393
0.6426050129 0.5002648782 0.7470809253
0.6526997308 0.4988142309 0.497643465
0.6325434286 0.2495625777 0.4997391681
0.6325691992 0.2514199788 1.0000692081
0.6825752361 0.4983697302 0.7454251633
0.6626103728 -0.0018622285 0.2472175175
0.6825236949 0.4989170583 0.2450583082
0.6624778383 8.1067854726e-04 0.7485452484
0.6726682756 0.5012456433 0.4926899847
0.662533061 0.2502823694 0.2461498778
0.6625588316 0.2487321488 0.7418577739
0.6724731552 -0.0010687199 0.9919882797
0.6627097738 0.4995672138 0.7482424437
0.6625882837 0.5000390484 0.2480026009
0.6825568286 0.2492794769 0.2412166458
0.6726020083 0.2499829985 0.4942306993
0.6826194143 0.2493191761 0.7431960051
0.6725504671 0.2487738004 0.9949519003
0.7025216918 0.2483891739 0.2405696193
0.6926073682 0.250337688 0.4904985621
0.7025069658 0.2499517598 0.7416976279
0.6926515464 0.2510002088 0.9900094646
0.6924895597 0.5007542845 0.9930467156
0.6924785152 0.4994298937 0.4927056311
0.7324855536 0.4998125678 0.98616228
0.7324965981 0.5007165377 0.4857724154
0.7126863585 0.2522725351 0.489707036
0.7126495434 0.2494493374 0.9878741851
0.7225012812 -0.0029458535 0.2384030469
0.7325039612 3.0947521624e-05 0.4892118721
0.7325555024 -5.6258782216e-04 0.9876440903
0.7126789955 0.4997539952 0.9905524883
0.7225380964 0.2522465028 0.2383432223
0.7324818721 0.2471142444 0.4860494495
0.7225196888 0.2486267182 0.7380023059
0.7325775915 0.2474025516 0.983962574
0.7124912382 0.5011460699 0.4885786513
0.7126164097 -5.4703355164e-04 0.4901386938
0.7125427794 5.3525732195e-04 0.9886657111
0.7525424548 0.4973824571 -0.0161578324
0.7424219663 -0.0025521092 0.2336235183
0.7425618639 -0.0017594206 0.7337354284
0.7424403739 0.2472548185 0.2347767533
0.742477189 0.2497695341 0.7332724777
0.7625083196 -0.0023877936 0.2390463919
0.7525571809 -8.4295517534e-04 0.4857788581
0.7626298097 -0.0037751825 0.7380869808
0.7525166842 -0.0027213644 -0.0123408179
0.7625709054 0.2496797228 0.2311265298
0.7523546975 0.2486377819 0.4836813141
0.7625819499 0.2474578701 0.7330387014
0.7524099202 0.2456492794 -0.0180576422
0.7825946729 -6.5714997726e-04 0.2404260402
0.7825689023 -0.0011069873 0.7400740792
0.7726913939 -1.3110324658e-04 -0.0118761461
0.7826057175 0.2511921966 0.2391669616
0.7724705029 0.2495254817 0.4840080487
0.7825210426 0.2513392789 0.7392613845
0.7724079171 0.2487132754 -0.0113499101
0.7926783463 2.9400342728e-04 0.4919444776
0.7926304866 9.3530795333e-04 -0.0089691029
0.8124775413 0.5000859064 -0.0034890351
0.7925237226 0.2510268918 0.491423543
0.7925274041 0.249907505 -0.0089972454
0.8025595362 0.0018783263 0.2442161613
0.8124370447 4.8800878471e-04 0.4943705969
0.8026258035 3.814067131e-04 0.7442995396
0.8124333631 -0.0015418561 -0.0079580766
0.8025337656 0.2498821236 0.2433141898
0.8125658977 0.2508895717 0.4973636697
0.8025632177 0.250283671 0.7421412507
0.8125732608 0.2509500967 -0.0058425549
0.832637525 -7.8405337376e-06 0.5020980998
0.8226090744 0.0015548755 0.7473487556
0.832416634 6.2754165501e-04 0.0010075506
0.8225428071 0.2508075701 0.2492036956
0.8325602131 0.2521163416 0.4993792999
0.8225612147 0.2490900923 0.7456856306
0.8324571307 0.2482882989 -9.5851722747e-04
0.8224986289 9.4467956402e-04 0.2497347543
0.8424929443 7.5718226957e-04 0.7493459782
0.8426291604 0.2499764905 0.2544286877
0.8426328419 0.2507529024 0.7511066634
0.8626823801 -4.8807050104e-04 0.2530315522
0.8424671737 0.498578639 0.7544080632
0.8525876622 -4.0450697237e-04 0.5032798665
0.8626345204 -8.6625404081e-04 0.7504430701
0.8524956243 8.7087812983e-04 -0.0011583407
0.862660291 0.2487946262 0.2500090273
0.8425702562 -3.167782834e-04 0.2512055201
0.8524882613 0.2515677119 0.5015486334
0.8626418834 0.2486462424 0.747417784
0.8524551276 0.2499797445 0.0027267267
0.8725782961 -0.0028293071 0.5012384657
0.8926536049 9.2756718999e-06 0.5037685878
0.8726813786 3.8596235719e-04 0.0013618965
0.8826546064 0.2476407467 0.2535478849
0.8925431594 -5.6759903065e-04 0.0036004426
0.8726445634 0.249621801 0.500547261
0.892561567 0.249097902 0.5046171773
0.88256625 0.2478828466 0.7550357618
0.8725672516 0.24765962 -0.0010148352
0.8925247518 0.2498684566 0.0034280555
0.9026084252 -0.0019989629 0.2552947644
0.9125374748 -9.2723075933e-06 0.5059121507
0.902564247 0.001775629 0.755577865
0.9026341958 0.252847197 0.2572487292
0.9125890161 0.249558022 0.5042407423
0.9026047437 0.2485987335 0.7564273749
0.9026378773 0.4983977149 0.7557628612
0.9126368758 0.2498925365 0.0079345997
0.922691097 9.1025191086e-04 0.2590121756
0.9226248297 8.6755901771e-04 0.7592363719
0.9226248297 0.2509325249 0.2566633681
0.9225659254 0.2533203332 0.7574858109
0.9425418333 -7.5112640669e-04 0.2618138095
0.9326864139 7.8627331109e-04 0.5115375077
0.9426964569 0.00130015 0.7636109338
0.9325686054 -0.0018458737 0.0095714019
0.9425381517 0.2518007005 0.2617098067
0.9325686054 0.2504040702 0.5124542053
0.9425307887 0.2507860935 0.7595281321
0.9326643248 0.2507119016 0.0121623611
0.9525408317 -4.4342518899e-04 0.5156948601
0.9526586403 -4.1778342085e-04 0.0150503266
0.9625692823 0.2504437694 0.265121652
0.9525113796 0.2501522082 0.5131122764
0.9724725614 0.2502094791 0.5115798452
0.9626686833 0.2493562721 0.7657149204
0.9525150611 0.2489618834 0.0118181393
0.9724872874 0.2494649567 0.0140269571
0.962488289 7.0017163786e-04 0.2649394169
0.9825525532 0.4990856172 0.7630034836
0.9825967314 0.5022765204 0.2613315309
0.9825525532 -4.0626414938e-04 0.2634796957
0.992518418 -0.00115762 0.5197776618
0.9823574328 0.2483937295 0.2613131233
0.9924374247 -0.0028343769 0.0166446073
0.9925478701 0.2493321922 0.514378718
0.9825488717 0.2486117497 0.7633753167
0.9924411062 0.247364154 0.0115417495
0.0123873202 0.7499096184 0.0169339745
0.0024216762 0.4984302552 0.7650890626
0.0125805998 0.5005681539 0.0177982104
0.0225401692 0.7511331343 0.2697649645
0.0025391534 0.7455492162 0.2686356594
0.0125108719 0.7492653202 0.5170524193
0.0224018546 0.7509639246 0.767168199
0.0223137191 0.5018417818 0.2679591808
0.0025580028 0.7485299091 0.7691378102
0.0124109187 0.9988235032 0.0173258719
0.0522657632 1.0002357529 0.5129861844
0.0523802584 0.9988755677 0.0132146305
0.0325118508 0.7507231263 0.0146574168
0.0424460546 0.5001841782 0.7634185745
0.0425160034 0.7506840779 0.2653719951
0.0325361488 0.7480483124 0.5144725967
0.042354753 0.7505539167 0.7659606616
0.0525547623 0.7488748364 0.0116105018
0.0526460639 0.7492978605 0.5138136052
0.0524410034 0.5016042375 0.5106456604
0.0425075359 0.9977496728 0.2659094965
0.0324378523 0.9981857131 0.5153359123
0.0323977238 0.9986868339 0.0176280323
0.0723616885 0.9989406484 0.5082572767
0.0624672451 0.9974307778 0.7608755671
0.0724813378 1.0000860675 0.0098770598
0.0724802333 0.750280578 0.0100365615
0.062428221 0.7475732238 0.2601589679
0.0725269886 0.7484453043 0.5095384444
0.0624090771 0.7489854735 0.7586068326
0.0623729983 0.9983809549 0.2590931689
0.0825848913 0.9986282613 0.254757263
0.1024591893 0.9990187451 0.7522129591
0.0824840178 1.0023769056 0.7575861322
0.0923920828 1.0005090915 0.0059673815
0.0925172543 0.7507166182 0.0039045358
0.0926181279 0.5006944103 0.0074286674
0.1024227423 0.7488618203 0.2565989416
0.0824696598 0.7475602077 0.2583034837
0.0924454648 0.7502024813 0.5056047441
0.1024937955 0.7499877152 0.7555962726
0.082486963 0.7487707074 0.7595897975
0.0925658503 0.50070222 0.5009531482
0.1124287356 1.0022532524 0.0039896709
0.1123562098 0.7492132557 0.0031747672
0.1223592579 0.4995860872 0.747604621
0.1223883419 0.7503391506 0.2532110262
0.112317922 0.750176449 0.5027184353
0.1222399768 0.749968191 0.7506621203
0.112325285 1.0003854383 0.5036213272
0.1224295748 1.0000014626 0.7525709865
0.1524994643 1.0007889383 0.4954759722
0.1323011929 0.9995003418 0.5022435197
0.1424132139 1.0018107041 0.747832875
0.1525009369 1.0015764139 -0.0037810806
0.1324101657 0.9996825675 -0.0017939729
0.1523963818 0.7503651828 -0.0016688658
0.1323645149 0.749551675 -6.9218712929e-04
0.1425012021 0.7515626664 0.2458875697
0.1523746609 0.7502610538 0.4969605437
0.1323740869 0.7497924733 0.4988151075
0.1424677003 0.5009664474 0.2445281698
0.1423756624 0.7495256427 0.7451241993
0.1723984284 0.7525193517 -0.0064791995
0.1624509712 0.4981211222 0.7403520337
0.1724076322 0.4985135584 -0.0087788817
0.1624668017 0.7532157144 0.2458553564
0.1824320331 1.0015829219 0.7446235131
0.1723991647 0.7517644164 0.4946411884
0.1624907316 0.4990856172 0.2408567776
0.1624399266 0.7519075938 0.7468130949
0.1824103122 0.7501504168 0.2467297166
0.1824246701 0.7504172473 0.7456994362
0.1623611422 1.0028780265 0.249466924
0.1724437111 1.000248769 0.4949154613
0.1725254407 0.9999884465 -0.0055329118
0.1925171791 1.0022337282 0.4920632065
0.202412727 1.0011403737 0.7424873132
0.1924358176 0.7504562957 -0.0062223033
0.2023608176 0.7514325052 0.2451567887
0.1924251412 0.7505213764 0.4930875884
0.2022886598 0.7500853361 0.7442820524
0.2325072825 0.7502480377 1.0022136914
0.2324531642 0.4992613349 0.9994065352
0.2324432242 0.7511851988 0.5015762448
0.2324314433 0.5016582544 0.5042766371
0.222500921 1.0005936964 0.2443578997
0.2124728386 1.0005481399 0.4958993466
0.2124676845 1.0019799138 -0.0066425116
0.2124529584 0.7514455213 -1.2061330488e-04
0.232382111 1.000971164 0.996903104
0.2224460664 0.7503977232 0.2464618863
0.2125553046 0.7509053521 0.4954695295
0.2226069487 0.4999101887 0.2466284749
0.2224420168 0.7501048603 0.7460648267
0.2524795089 0.7497339007 1.002581843
0.2524084556 0.500574662 1.0048827908
0.2424418545 0.7493759573 0.2539638963
0.252353601 0.7497989814 0.5045978494
0.2424959728 0.5014207101 0.2507582159
0.242433387 0.7484062559 0.7528627467
0.252411769 0.5017246367 0.5018210657
0.262392728 0.4984458746 0.7539515552
0.2623540721 0.750794715 0.2581764714
0.2624328565 0.7493954815 0.7546979826
0.2825744326 0.5017675899 0.7528829951
0.2825232595 0.7482760946 0.252744394
0.2826119841 0.5009065732 0.2505732197
0.2824459477 0.7503586748 0.7560601437
0.2724303824 0.749864062 1.00667753
0.2723799456 0.5001666064 1.0055914827
0.2724447403 0.751002973 0.5095660557
0.282500066 0.9997541562 0.2557521928
0.2824941755 1.0018627686 0.756240538
0.3124996384 1.0003724222 0.9989555494
0.2926327035 0.7526104646 1.0026554734
0.302748406 0.4996394533 0.7501835232
0.292437215 0.5001594475 1.0041925064
0.3024730286 0.7514259971 0.2522961693
0.2926043558 0.7517904486 0.4992145521
0.3026456917 0.4997247089 0.2503053894
0.3024722923 0.751933626 0.7513063857
0.3025035852 1.0003138497 0.2516473021
0.3125092104 0.7524087146 0.9977498528
0.3124469927 0.4999511895 0.9992684783
0.3126472672 0.7515301261 0.5008657122
0.2924070265 1.0018562606 1.0043213595
0.3325373957 0.7516798116 0.9998207057
0.3325996134 0.5021847567 0.9986058053
0.3226657777 0.7477229093 0.2531705295
0.3325664797 0.7531376177 0.4963144375
0.3225001095 0.7533328596 0.7498558682
0.3324707603 0.5002362427 0.4993075104
0.3526215402 1.001075293 0.4931695022
0.3424668136 0.9998582852 0.7475190257
0.3626109667 0.7503456587 0.2425502751
0.3525990829 1.0033205748 0.9961207818
0.3624673875 0.7510224972 0.743093843
0.3625557439 0.9991163661 0.2425373898
0.352572576 0.7508142392 0.9929914929
0.3625189288 0.9988820758 0.7443317529
0.3526274306 0.4998574734 0.9941143554
0.3426516257 0.7508077311 0.2471466483
0.3526182268 0.7509769408 0.4906274151
0.3427120025 0.7513609165 0.7489207631
0.39257851 1.0038932843 0.4869955992
0.3725584239 0.752141884 0.9886104884
0.3725105642 0.4998665847 0.9909022323
0.3825574224 0.752551892 0.2362456783
0.372466386 0.7510810698 0.4884525593
0.3825316518 0.5035397355 0.2398379179
0.3825390148 0.7508663037 0.7374721675
0.3824948366 1.0029756474 0.2420569519
0.3825132442 1.0004179787 0.7407836915
0.3723743481 1.0011403737 0.9875612562
0.37257315 0.502372189 0.4898561374
0.3925564209 0.7555586171 0.9879570192
0.3927110445 0.7525649081 0.4878460295
0.4126280481 0.7510290053 0.9818733134
0.412591233 0.7523891904 0.4839684724
0.412591233 0.5041196039 0.4848621605
0.4024376108 1.0058717354 0.2361619238
0.4025480563 0.5054648205 0.739969156
0.4027873549 0.7523176017 0.234729814
0.402603279 0.5030457735 0.240107589
0.4027468582 0.754510819 0.7394288935
0.4324566953 0.7519141018 0.9846988772
0.4225681423 0.7518685454 0.2341177619
0.432511918 0.7521614082 0.4796739835
0.4226601802 0.5036445153 0.2333814586
0.4226491357 0.7528707871 0.7321210835
0.442613999 0.750482328 0.23039851
0.4426066359 0.7528707871 0.7327368171
0.4324493323 1.0019083251 0.4813730033
0.4224687414 1.0028715184 0.7323520986
0.4425735023 0.998803979 0.232457398
0.4524804629 1.0012184704 0.9819653513
0.4625383656 0.9970272779 0.2321159373
0.4723275176 1.0011013253 0.4847793264
0.4623432452 0.9985371485 0.7317777821
0.4525393671 0.7489269009 0.9821862423
0.4524767813 0.7497469169 0.4812616375
0.4725925868 0.748523401 0.9804099107
0.4624905059 0.7479116431 0.2316520663
0.4726330835 0.7472608368 0.4808401039
0.4624536907 0.7514975858 0.7336986132
0.4725373641 0.499465688 0.4840973255
0.4826173559 1.0017391154 0.2328844539
0.4923660112 1.0023508734 0.4874033272
0.4924580491 1.0010427527 0.9876440903
0.4824848213 0.5014129005 0.7333663564
0.4924801382 0.7504432796 0.4811916887
0.4825216365 0.7502024813 0.2358167817
0.4925059089 0.7518425131 0.983520792
0.4824885028 0.7507556666 0.7368168576
0.5125002243 0.9992595435 0.4873729547
0.5125112688 1.0022402363 0.9860610383
0.5025343595 1.0016870509 0.2342438538
0.5223703697 0.7511201181 0.7353727828
0.5224182294 0.9993506563 0.236762011
0.5225397194 0.9992595435 0.7391398944
0.5023981433 0.7513023439 0.2346046424
0.5026043083 0.5008440958 0.2367721352
0.5022508827 0.749343417 0.7336829668
0.5026484865 0.4986873237 0.7374749287
0.5124781352 0.7517644164 0.9858861663
0.5123640082 0.5005902813 0.9826464319
0.5123860973 0.7508272553 0.48648755
0.522436637 0.4998190758 0.2333069079
0.5224145479 0.7498770781 0.2339152785
0.5324724506 0.7487446752 0.4845878875
0.5325350364 0.5000214766 0.4856914221
0.532347279 0.9994352612 0.986778934
0.5424456784 0.9983419066 0.239255318
0.5523121423 0.998075076 0.4871815158
0.5524299509 0.7491937315 0.990257967
0.5423794112 0.9998257449 0.7382977476
0.5423757296 0.7482565704 0.2373970726
0.5523305499 0.7470265465 0.4895422882
0.5424935382 0.7497404088 0.7356295686
0.5323509606 0.7488748364 0.9864752089
0.5624105417 0.9995068498 0.2412359738
0.5623442744 0.9982377776 0.7372383912
0.5623994972 0.7481003769 0.2385042886
0.5623332299 0.7474170303 0.7377197495
0.5723837696 0.9995654224 0.4893554512
0.5723285468 0.9981726969 0.9882975595
0.572243872 0.7494410379 0.9874876259
0.5723101393 0.7496492959 0.4940677922
0.602388128 0.9992660515 0.2453970077
0.5922492319 0.749245796 0.9939486871
0.592370722 0.9966953666 0.4934207657
0.6025942929 0.9995068498 0.7452042723
0.592370722 0.9987779468 0.9955133316
0.602159874 0.7474690948 0.2464434787
0.6024249432 0.4999980476 0.2427877329
0.5922970916 0.747280361 0.4919159459
0.602274001 0.7483802236 0.7473487556
0.5824085387 0.9990252532 0.2411071207
0.5825153026 0.9999624143 0.7414362403
0.5822907301 0.7478400544 0.2391089777
0.5823238638 0.7493564331 0.7401541522
0.6123760819 0.7490440461 0.9978879096
0.6122803625 0.7498966023 0.4963208802
0.6124386677 0.9992270031 0.9977130376
0.6223640359 0.9983419066 0.2501452434
0.6223787619 0.7516733035 0.2463449981
0.6222904055 0.7508337634 0.749214364
0.6426749617 1.0007889383 0.746767076
0.6525377441 0.9993766886 1.0037323169
0.6323888049 1.0003073416 0.9992868859
0.6324661168 0.751822989 0.9991580328
0.6324440277 0.4995808807 1.0005017863
0.6324992504 0.7487511832 0.4991105492
0.6525487886 0.7484453043 1.0000876157
0.6526518711 0.4982200448 0.9984769523
0.642520338 0.7502415296 0.249855324
0.6426749617 0.5016881915 0.2516712319
0.6526150559 0.7483216511 0.5017998969
0.6425571532 0.74758624 0.7511609658
0.6724768367 0.7494735782 0.9975473694
0.6727050907 0.4998021549 0.9940499288
0.6824795167 0.9981076163 0.2461333109
0.6725725561 1.0013291075 0.4940779163
0.6826635925 0.9983353985 0.7445876183
0.6826230958 0.752343634 0.2466349175
0.6724952443 0.7489073767 0.4939426206
0.6825568286 0.7493238928 0.7458209263
0.6625477871 0.7489269009 0.2483523449
0.6625809207 0.7516277471 0.7488047953
0.7027094492 0.9986217533 0.2397155075
0.7025990037 0.4986489261 0.7421817473
0.6925705531 0.7495972314 0.9910955119
0.6925521455 0.998589213 0.4935560614
0.7024554245 0.9994678015 0.7386401286
0.6925705531 0.9978538018 0.9907365641
0.7025805961 0.7509704327 0.2409055577
0.7026137297 0.4999655073 0.2409975956
0.6925079673 0.7501569248 0.4928252804
0.7026689525 0.7521939485 0.7433303805
0.7225380964 0.5013530263 0.7396764755
0.7324818721 0.7486600703 0.9925589147
0.7225822746 0.7498315217 0.2399308762
0.7225528224 0.5008597151 0.2405337245
0.7323861527 0.7476838609 0.4909394236
0.7225896376 0.752141884 0.7430423018
0.7225822746 1.000554648 0.7399332612
0.71256855 0.7492653202 0.9919146493
0.7125906391 0.7508272553 0.4896785043
0.7423741066 0.4977325909 0.734652126
0.7426502203 0.7495126266 0.2360201855
0.7425140042 0.4966450935 0.2334339202
0.7425618639 0.7501048603 0.7349760994
0.7524835505 0.4974807288 0.4840752364
0.752487232 0.7474235384 -0.012262963
0.7625120011 0.4960060017 0.7337998549
0.7626261281 0.7496362798 0.2359723257
0.7625156826 0.4976870344 0.2352433855
0.7524982766 0.7493108766 0.4891225953
0.7625451348 0.7484518123 0.7378467618
0.7825909914 0.747078611 0.2417237747
0.7824474123 0.4991461421 0.2419704363
0.7725551778 0.7484257801 0.4873250949
0.7825725838 0.7491937315 0.7404238233
0.7726840309 0.9991814467 0.4870186087
0.7726582603 0.5005909321 0.4903034417
0.772591993 0.7466035224 -0.0088056896
0.7824989535 0.4999648565 0.7392126044
0.7726840309 0.4991480946 -0.0097454132
0.7927041169 0.7482695866 0.4922371582
0.8125069935 0.4987517535 0.4948869296
0.8126468911 0.7492002396 -0.0052623019
0.8025227211 0.5007946345 0.7449843017
0.8025190395 0.7494084976 0.2434430428
0.802614759 0.4995789283 0.2462198266
0.7925568562 0.4987387374 0.4925390425
0.7925642193 0.7517448922 -0.0102621693
0.8124701783 0.7507361424 0.4954594054
0.7925679008 0.500665124 -0.0067619676
0.8026110775 0.7508532876 0.7433506288
0.8324129525 0.5013022634 0.5002987586
0.8324608122 0.7493108766 -0.0010615076
0.8226053929 0.5001841782 0.7524973562
0.8325197165 0.4995919445 0.0017840744
0.8225170365 0.7508142392 0.2476924331
0.8224765398 0.4991246655 0.2474678606
0.8324976274 0.748419272 0.500615369
0.8224839028 0.7512632955 0.7456506561
0.8624762152 0.7504367715 0.7514085478
0.8625829792 0.4982532359 0.7559598224
0.8526981077 0.7508793198 0.006959274
0.8526134328 0.5007373635 0.0030811647
0.8624688522 0.7479962479 0.2537522091
0.8624504446 0.498783643 0.2545501777
0.8525508471 0.7504042312 0.506138564
0.8425003074 0.7507426505 0.2515929997
0.8425076704 0.4982773157 0.2528474764
0.8424524476 0.751100594 0.7549943447
0.8525876622 0.4986118302 0.5018008173
0.8725598885 0.4978028779 0.5063612957
0.8825957022 0.7481849817 0.7559045996
0.8925100258 0.4980879311 0.5071040417
0.8725967037 0.7479441834 0.0039428236
0.8925137073 0.7508793198 0.0053846895
0.8824815752 0.4982838238 0.7517260785
0.872655608 0.4990680454 0.0053633367
0.892554204 0.4994097187 0.0054833541
0.882665651 0.7481654576 0.2534981844
0.8825478425 0.4974351724 0.255366554
0.8727255568 0.7496297717 0.5065646995
0.8924805736 0.7516342551 0.5033111594
0.8825993837 0.9991033499 0.2547784318
0.8826582879 0.9989862048 0.7513330767
0.9126552833 0.7526625291 0.5077842018
0.912681054 1.0011273575 0.0071739064
0.9126221497 0.499522959 0.5082443913
0.9026268327 0.750482328 0.7575088204
0.9126552833 0.7509899569 0.0065454716