POSCAR file written by Ovito 3.7.11
1
271.624961272 0.0 0.0
0.0 15.3654281644 0.0
0.0 0.0 10.8649984508
Sr Ti O 
800 800 2400 
Direct
0.0223838103 0.4994474609 0.7672348323
0.0125990321 0.2488166318 0.5181018009
0.0223197882 0.2501651136 0.7672716478
0.0023501213 0.2474147835 0.7676121908
0.0125216828 0.2508543232 0.0167640396
0.0224594293 -0.0010644622 0.2672651338
0.0024640284 -3.5794107013e-04 0.2665380283
0.0024366377 0.5010549657 0.2685831275
0.0123812686 0.4993446326 0.5165638348
0.0125339055 -9.6853258112e-04 0.5201689894
0.0225484123 -0.0013035053 0.7629172983
0.0025050776 -0.0028450439 0.7653673677
0.0223088172 0.247634107 0.2664239003
0.0024625926 0.2489214125 0.2684275822
0.0325289751 0.4985753732 0.0160309516
0.0423366157 0.4994839063 0.2648794915
0.0324119019 0.4990374495 0.5184220955
0.0322539636 0.2469058487 0.5141018003
0.0425737073 0.2519574489 0.7640116381
0.0323412162 0.251079504 0.0171530871
0.0523758256 0.5000963201 0.0153664324
0.0423969931 5.7154816032e-04 0.7629531934
0.0424713603 0.25032261 0.2648491187
0.0523960741 0.2493522498 0.5149448746
0.0524686006 0.2494700467 0.0146404314
0.0624293936 0.2472761606 0.2624966103
0.0622905993 0.4996401011 0.7608215778
0.0722734815 0.4977878911 0.0081838267
0.0622758731 0.4981783781 0.2619563433
0.0724914291 0.4998691869 0.5069853704
0.0724741258 0.2479582112 0.5109789283
0.0624268165 0.2517511416 0.7623604644
0.0724045446 0.248225044 0.0111631184
0.0924281093 0.2479738307 0.5030221853
0.102350246 0.2494127753 0.7554216691
0.0824253467 0.2497303714 0.75804201
0.0923158221 0.2482517273 0.0046340793
0.1024268222 -0.0025106634 0.2539222879
0.0923809855 6.1137783467e-04 0.5070093005
0.1023020177 0.2487684717 0.2520649475
0.0823204226 0.2510593288 0.2585030524
0.1024570109 0.5006078581 0.7545500629
0.0824006804 0.4995730675 0.7573655258
0.102371599 0.4997240559 0.2536240826
0.0823406711 0.500490712 0.2557603001
0.1224235116 0.2477701266 0.2503723564
0.1123290785 0.5011948902 0.0019045805
0.1123574265 0.2487235657 0.501055319
0.1224246161 0.4993485375 0.2508574002
0.1124078636 0.5009508359 0.5003935609
0.1222810358 0.2492715492 0.7481957132
0.1123069893 0.2501794315 0.0027560302
0.1225450027 0.0011093789 0.2497897516
0.1524767143 0.2501944001 0.4955265561
0.1324719254 0.2510319947 0.4957741401
0.1424371362 0.2488322513 0.744415685
0.1524200185 0.2512148728 -0.006170202
0.1323946129 0.250301784 -0.0021423598
0.1424901505 -0.0011488725 0.2434188349
0.1424643797 0.2502926727 0.2477225631
0.1423616645 0.4997845813 0.7485749125
0.1525267833 0.500345581 -0.0015999483
0.1325768495 0.5007341156 -0.0022012553
0.1525628625 0.4998288365 0.4968298237
0.1325831081 0.4995964968 0.499141835
0.1823451033 0.2519001775 0.2442490237
0.1726151433 0.5025505309 0.4978891887
0.1825560559 0.5042699754 0.7498109918
0.1725389353 0.252119501 0.4972449181
0.1624728501 0.2506694926 0.7417585286
0.1725595519 0.2502711959 -0.0036534138
0.1824721166 0.5006065565 0.2495476899
0.1625648887 -0.0011601315 0.7439306412
0.1623649808 0.2495390328 0.2455973902
0.1824765345 0.2490294472 0.7459591735
0.1825203449 0.0013775133 0.2454004275
0.1925610274 0.0020334664 -0.0022285816
0.2024967858 0.2505523465 0.2424524289
0.2024441397 0.5034252218 0.7462104391
0.1925926887 0.5017246509 -0.0034372886
0.2024665971 0.5016524108 0.2458771878
0.1925761217 0.498361907 0.497485139
0.1924365911 0.251269541 0.4940631413
0.2025509046 0.2535161429 0.7415542028
0.1924549989 0.2525301632 -0.0035443756
0.2025291834 -0.0016233142 0.2447635199
0.2123386648 0.253488158 0.4954262339
0.2225405991 0.250011522 0.7477299975
0.2124078779 0.2516379004 -0.0032536899
0.2226723985 0.0016531321 0.7470525929
0.2223638848 0.2500779048 0.2469503587
0.2323331454 0.2513964493 0.501826603
0.2323994132 0.2512949227 0.9999444835
0.2325481477 7.7499188909e-04 0.4969264643
0.2225575342 0.5017103331 0.7466503839
0.2124851904 0.5031427696 -0.003784164
0.2124748821 0.5039868723 0.4927451475
0.2425369204 0.5001919894 0.7497014658
0.2625428137 0.252295871 0.7530157783
0.2625980369 0.0017402107 0.2540704701
0.2624747051 0.0030396863 0.7535854976
0.2524226098 0.249852724 0.5047423881
0.2424640258 0.2508016074 0.7526595886
0.2524962407 0.2502347504 1.0038745347
0.2625177792 0.2496698459 0.2523640732
0.242450404 0.00288629 0.2506843675
0.2626683545 0.5011044274 0.2528721267
0.2524800419 -1.7135336367e-04 0.5023714719
0.2425593778 0.0013066399 0.751027743
0.2524741514 9.785657802e-04 1.0022454503
0.2423362761 0.250844561 0.2537639814
0.2725253278 0.2523850322 0.5031206667
0.272375857 0.2501202076 1.001223821
0.2724005234 0.0011410735 0.5050847719
0.2724237171 0.0019517245 1.0027424591
0.2821691396 0.2506480159 0.7550010524
0.2725790784 0.501095316 0.5043815965
0.2824643996 0.2507072397 0.2535062731
0.3125430049 0.0017357201 0.4958385672
0.2924605354 0.4985239591 0.5014621299
0.2923335221 0.2498201834 0.5024349786
0.302546501 0.2499158527 0.7484147652
0.2924494908 0.2510645353 1.0004322885
0.2925540467 0.0012573735 0.5023705516
0.3026208682 9.0272928618e-05 0.7520861877
0.3125441094 0.4994038565 0.4978864276
0.3024091793 0.2493633136 0.2520014408
0.3124292451 0.2519515916 0.4990212644
0.3124944085 0.2499932993 0.999014893
0.3226565821 0.0013470553 0.2464054897
0.3324362429 0.0013551254 0.4935026258
0.3225343547 -5.0391812823e-04 0.744399118
0.3325592066 3.596438798e-04 0.9929863601
0.3226201348 0.250602459 0.2455403263
0.3224927532 0.4987029323 0.7460622568
0.3225741154 0.5014695328 0.2460391758
0.3326486682 0.2517537449 0.495121586
0.3224905443 0.2522665845 0.746836302
0.3326483 0.2514960235 0.9935385921
0.3625951059 0.2515031824 0.2442858392
0.3526063332 0.5039204895 0.4956121521
0.3525919752 0.2524383988 0.4943659485
0.3425008555 0.2526251817 0.7435689292
0.3625546089 0.501015917 0.7438680549
0.3525709904 0.2497381811 0.9977907787
0.362480978 0.4992281374 0.2428141409
0.3425141091 4.0441972286e-04 0.2434243572
0.3426477492 0.2517472368 0.2447902111
0.3626061506 0.2516821556 0.7440484507
0.3425910534 0.5007829264 0.7439131539
0.3425001192 0.5019745626 0.2437575372
0.3824938663 0.2525522908 0.2438725856
0.392470858 0.252662278 0.488257342
0.3925665782 0.2505276157 0.9872891665
0.3924561318 0.0027636771 0.9863319643
0.3824533692 0.5007894346 0.7415449989
0.3926770246 0.5019582923 0.9856508782
0.372520556 0.2504690426 0.4925509459
0.3826300835 0.2541122864 0.7414106225
0.372520556 0.2531048299 0.9916425955
0.392511355 0.5034922554 0.4871114606
0.3726273209 0.0012751407 0.4926853224
0.412502154 0.5014714852 0.9877493598
0.4025509331 0.254345277 0.7384524996
0.4024809837 0.0011223301 0.7358201937
0.4025177992 0.2543316099 0.2388122995
0.4124800647 0.2518715418 0.4873093437
0.412380663 0.2520361972 0.9867645461
0.4126457343 0.0036429888 0.4849605169
0.4124837463 0.0042652298 0.9875744864
0.4424036769 1.1005760346e-04 0.7315468383
0.4424441739 0.250979279 0.2326549125
0.4224754642 0.5024112572 0.7321082741
0.4324193221 0.5008024508 0.9814907303
0.4324892715 0.5019094814 0.4833001393
0.4424220847 0.50062543 0.7315008189
0.4424993971 0.5001965451 0.231335078
0.4323162388 0.2518103655 0.4807442254
0.4224496934 0.2537081323 0.7346310541
0.4324414113 0.2511536965 0.9829725529
0.4225196428 8.0336727801e-04 0.2337741028
0.4325518577 0.0014407722 0.9853563544
0.4224496934 0.2517719676 0.236152382
0.4423484537 0.2504312956 0.7323346893
0.4723420153 0.2519411786 0.4817345615
0.4625122854 0.2494908727 0.7359223566
0.47240092 0.2511016316 0.9826412137
0.4723530599 0.002352234 0.9838193086
0.4624239283 0.2500896194 0.2341947195
0.4526199692 0.5013647521 0.9805519359
0.4525721091 0.5019674037 0.4781054768
0.4625086039 0.4980436601 0.7319895443
0.4724635063 0.5016953644 0.9843623368
0.4625638271 0.4968578812 0.2313764954
0.4523917133 0.2518253342 0.4824994028
0.4523512163 0.2498885186 0.9812606336
0.4523733056 6.0766820813e-04 0.485365487
0.4824110457 0.2497368795 0.7353084587
0.482473632 0.0013669051 0.733697782
0.4924248529 0.499578274 0.9860466444
0.4924800761 0.5026117072 0.4832173045
0.482392638 0.2499744258 0.2350663257
0.4924579869 0.248971525 0.4846733562
0.4925610702 0.2516697902 0.981094964
0.4825398999 0.500469886 0.2324901633
0.5024791572 0.2506180785 0.7333784078
0.5124377412 0.2483552063 0.481840406
0.5123309763 0.2480395627 0.9822086319
0.5024460233 6.7880192392e-04 0.7326467004
0.5024681125 0.2491836896 0.2340041994
0.5226208996 0.2503857388 0.2337998736
0.5224073699 0.2500642378 0.7360143953
0.5124819198 0.4991721676 0.48396834
0.5224368222 0.4978991799 0.7334271883
0.5422656332 0.4982317447 0.7327801564
0.5524340654 0.5003123896 0.988568504
0.5424165766 0.4988200784 0.2340235276
0.5523714791 0.4989912419 0.4873866562
0.5323291384 -7.3781984328e-04 0.4855771759
0.5324764003 0.2482328537 0.4855596886
0.5324432664 0.2496880686 0.9854852086
0.5324506295 0.5005421261 0.9875008554
0.5523088928 -0.0037384912 0.988356815
0.5424386659 0.2487235657 0.2371141861
0.5524524731 0.2489663185 0.4886337802
0.5423503087 0.2502399569 0.7356351959
0.5525445118 0.2459563145 0.9882555725
0.5725684447 0.2458977415 0.4915523264
0.5724432721 0.2492624378 0.9911547906
0.5624883696 0.4975184551 0.7373066182
0.5624000125 0.4990758474 0.2357888292
0.5723512334 0.4996075606 0.9912928486
0.5723917304 0.499087562 0.4927423864
0.5624662803 0.2463370393 0.2368297866
0.5624184202 0.2474063229 0.7388629921
0.6022122593 0.4990127187 0.7455670888
0.5923898925 0.4991780249 0.9929679524
0.5923714848 0.5009378196 0.4919131179
0.5822693204 0.2491107987 0.744391755
0.6024184259 0.2521592006 0.2428417525
0.5923420324 0.2495806847 0.4939747841
0.6024441967 0.2502406078 0.7423429742
0.5924083002 0.2481762331 0.9932164568
0.5823245436 0.4990764982 0.7422978752
0.5823171805 0.4984107179 0.2425785219
0.5823613591 0.2492461675 0.2435651764
0.6124101439 0.501116142 0.9947442987
0.6125426795 0.4988714926 0.4972357142
0.6223135047 0.497657078 0.7467138906
0.6123990992 -0.0021478554 0.4921376923
0.6224129064 0.4969834879 0.2473691346
0.612498501 0.2499041381 0.4924497034
0.6124322331 0.2503948501 0.9954622003
0.6224791743 -3.1563831142e-04 0.744691801
0.6225196713 0.250267291 0.2464229771
0.6224644481 0.2498475175 0.7446494632
0.6423484822 4.8863475326e-04 0.2443649924
0.6525905454 4.3377132928e-04 0.4956250375
0.6325261154 0.5010256792 0.4990507167
0.6424331578 0.2489949542 0.2443981264
0.6523880603 0.2491980075 0.4970433534
0.6423963423 0.2485400369 0.7433738073
0.6324745738 -0.0018856173 0.4946853227
0.6523806972 0.2500056647 0.9965482566
0.642293259 0.4995561464 0.7510903293
0.6523770156 0.5010347906 0.4985454245
0.6323825351 0.2485673709 0.4980787884
0.6322315917 0.2476686 0.9971833234
0.6825362468 0.5008870563 0.7442352892
0.6624902246 6.6793336899e-04 0.2465168565
0.6825730623 0.500905279 0.2449181448
0.6625785818 -0.0017964171 0.7455634072
0.672478261 0.4997383737 0.496997334
0.662519677 0.2498540256 0.2453774178
0.6625012693 0.2500661902 0.7494051013
0.6726476122 8.671468219e-04 0.9994014554
0.6623834598 0.4990888637 0.7456444012
0.6625307216 0.4995034307 0.2466852873
0.6825951516 0.2514413553 0.2470295119
0.6724635348 0.2500785556 0.4973194694
0.6825730623 0.2513971001 0.7435882574
0.6725850259 0.2514934202 0.9965482566
0.7027074416 0.2506694926 0.2426493916
0.6925574171 0.2497062914 0.496449704
0.7026706261 0.2501150011 0.7440696196
0.6925537356 0.249607368 0.9954622003
0.692745176 0.4997956451 0.991679411
0.692745176 0.5004048049 0.4944819172
0.7326163276 0.499343331 0.9876389134
0.7326641877 0.4977859387 0.4872108623
0.7125555792 0.2488283464 0.4899803059
0.7125482161 0.2519821798 0.9925629822
0.7225804311 0.0020658768 0.2401109651
0.7326200091 -0.0024588327 0.4830267844
0.7325942383 -2.4157594311e-04 0.9834419501
0.7125187638 0.5009267558 0.9884396498
0.7226246096 0.2484163826 0.2375541309
0.7327010032 0.2500121729 0.4865868401
0.7226356543 0.2515877879 0.7379518093
0.7325500597 0.25049898 0.98815433
0.712654981 0.4979824838 0.4907672365
0.7125555792 3.0983985267e-05 0.4901533386
0.7125887131 4.8655215591e-04 0.9926182054
0.7525482218 0.4995620037 -0.0124112154
0.742644861 -0.0023203335 0.238044697
0.7425565039 -0.0022315888 0.7377935027
0.742644861 0.2496997833 0.2361082034
0.7426374979 0.2467516064 0.7369761994
0.762521532 -0.0022155919 0.2367487926
0.7525592665 -0.0018890471 0.4859692607
0.7624221303 -9.7588675302e-04 0.7364423751
0.752636579 -9.9397931751e-04 -0.0153617726
0.7625914814 0.2473100028 0.2421367363
0.7526623498 0.2479523539 0.4876508072
0.7624994428 0.2498715975 0.740126683
0.752562948 0.249783738 -0.0111047449
0.7824681525 -0.0015258226 0.2411427186
0.7825565096 -7.3742935627e-04 0.7419343225
0.772472753 -0.0028450895 -0.0093768293
0.7824387001 0.248660437 0.2432347576
0.7725647916 0.2491107987 0.494276671
0.7826080512 0.2481378352 0.7439002685
0.7726384226 0.2488127269 -0.0099329361
0.7924525073 -0.0010576287 0.4954428009
0.7925519091 -0.0023443159 -0.0059220106
0.8125279819 0.5010211235 -0.0037438602
0.7925114121 0.2475508031 0.4953130264
0.7925003674 0.2494505224 -0.0050355493
0.8025878056 -0.0020444024 0.2454215964
0.8126052944 8.2528269717e-05 0.4967009695
0.8025141746 1.224881064e-04 0.7453185844
0.8126273836 0.0019196395 -1.3435212461e-04
0.8024368622 0.2509200551 0.2466273029
0.8125316634 0.2499412344 0.4974750147
0.8024773592 0.2509922952 0.748457103
0.8124653956 0.2504911702 -6.9014603727e-04
0.8325040547 4.7905088748e-05 0.4971004173
0.8224976105 -5.8455369444e-04 0.7478965875
0.8327065397 -4.9591314466e-04 -0.0027704777
0.8224644766 0.2498833121 0.2471298341
0.8324709208 0.2476796638 0.5004285356
0.8224681582 0.2520784999 0.7500723816
0.8325887302 0.2527690111 4.6257386938e-04
0.822574923 -4.6462603742e-05 0.2444303399
0.8426761684 -0.0012991449 0.7538211166
0.8424957726 0.2494915235 0.2477299262
0.8425104988 0.249665941 0.7521211624
0.8625528394 -0.001462759 0.2558017175
0.842606219 0.5010412987 0.7502141212
0.8526200262 -8.8112857353e-04 0.4999020744
0.8626191073 -5.3333481582e-04 0.7554989816
0.8526752494 -0.0014862533 0.0051860352
0.8624828901 0.2507274149 0.2587156618
0.842565722 -2.8836930235e-04 0.2504413854
0.8526310709 0.2471713799 0.5053029036
0.862556521 0.2505523465 0.7591519964
0.8527010203 0.2489044914 0.0067224367
0.8726918193 0.0019475593 0.5071685274
0.8926237135 -2.094258465e-04 0.5049467139
0.872588736 -6.7573240973e-04 0.0067768316
0.8825546831 0.2518103655 0.2567469546
0.8927488861 1.8080083224e-04 0.0060515668
0.8725298312 0.2486545797 0.5073728532
0.8925979427 0.2487788847 0.5014216329
0.8825657277 0.2515487392 0.754126685
0.8726329145 0.2508185285 0.0078562611
0.8927231153 0.2480031172 0.004076325
0.9026632916 0.0011603375 0.2524294207
0.912691825 -0.00232513 0.5077575749
0.9027332409 -0.0031846895 0.7514906975
0.9025418005 0.2477388877 0.2508095401
0.9125666524 0.2499418852 0.5061137642
0.9025344374 0.2508432594 0.7518855434
0.9025675713 0.5002505625 0.7531087373
0.9126402833 0.2490053672 0.0039654184
0.9225730965 -0.0026568877 0.2556728634
0.9226577721 -0.0027016115 0.7581027555
0.9224074269 0.248325269 0.2549577229
0.9224847394 0.2469826445 0.7553213469
0.9426154371 0.0010537345 0.2609522014
0.9325022282 -0.0023147821 0.5088841282
0.9425381247 -0.0023612565 0.7590728431
0.93264949 2.1197471135e-04 0.0122110707
0.9425049907 0.2485074963 0.2586530755
0.932527999 0.2493587579 0.5051712883
0.9425859848 0.2483975091 0.7622877538
0.9324654127 0.2487508998 0.0073150737
0.9526955122 -4.3499717213e-04 0.51138758
0.9525445688 -7.9782467947e-04 0.0118199984
0.962436885 0.2501371287 0.2624800433
0.9525556134 0.2500232367 0.5126742806
0.9724838261 0.2489903985 0.511984911
0.9623522094 0.2494843646 0.7613811729
0.9525114349 0.2516379004 0.010902557
0.9724433291 0.2498175802 0.0121231738
0.9625731022 -4.1703476998e-04 0.2596342077
0.9824019131 0.4986690901 0.7636361203
0.9823319637 0.4955217649 0.2653654556
0.9824608179 -0.0017042101 0.2644901679
0.9924783067 -0.001226254 0.5131804933
0.982549175 0.2493886953 0.2700649501
0.9925335299 -0.001442779 0.0165095527
0.9923936311 0.2494550781 0.5162656295
0.9824387286 0.248947445 0.7682058403
0.9924893513 0.2497238633 0.0159389129
0.0126232567 0.7486360913 0.0153872332
0.0024594264 0.4979948492 0.7672375935
0.0122520463 0.4979492924 0.0182205516
0.0224962448 0.7467096888 0.2651749356
0.0024558921 0.7510050458 0.2661312174
0.0124524697 0.7493910328 0.5141515012
0.0225975977 0.7475817764 0.7694897797
0.0224621536 0.4975132486 0.2651666521
0.0024388098 0.747724955 0.7674676901
0.0124528747 0.9987560332 0.0193823557
0.0525720521 0.9991660446 0.5123779161
0.0524597649 1.0001878189 0.0128881992
0.0324759609 0.7488833997 0.0168293871
0.042332566 0.4987855854 0.7657760194
0.0424687833 0.7475362196 0.2658431363
0.0324428269 0.750848851 0.5171887773
0.04263703 0.7479852796 0.7637787803
0.0523717759 0.7492283299 0.0158586552
0.0522893093 0.7490786432 0.5138698629
0.0524269991 0.4969281689 0.5151409169
0.0423421381 0.9990944553 0.2631399606
0.0324163198 1.0001682945 0.5170820125
0.032445404 1.0002594082 0.0154795479
0.0724233204 0.9996997101 0.5086475888
0.0624087769 1.0006043384 0.7616922636
0.0723898184 0.9995109748 0.009424692
0.0724490913 0.7483562423 0.0102326075
0.0624235031 0.7514215653 0.262405492
0.072391291 0.7510310783 0.5112955413
0.0624952933 0.7496513575 0.7621819094
0.0624643683 0.9999079699 0.2646687229
0.0823977351 1.001417853 0.2567009353
0.1023947927 1.0003179812 0.7525555849
0.0823774866 0.9970574148 0.7555910202
0.092448726 0.9979295024 0.0065401081
0.0923636822 0.7494886546 0.0054744844
0.0923426974 0.4982291414 5.3467696296e-04
0.1024290311 0.7515972844 0.254465316
0.082447436 0.7509920296 0.2568353118
0.0923953435 0.7490721351 0.5040659038
0.1023900067 0.75012645 0.7546467035
0.0823833771 0.7492283299 0.7552339102
0.0922907876 0.4997155953 0.5070037782
0.1123489589 0.997239642 0.0025522566
0.1124733952 0.7512198136 0.0020346312
0.1224470735 0.5002434036 0.7517879824
0.1225067146 0.7493519841 0.2479986791
0.1125411356 0.7493129354 0.5032798936
0.1225549429 0.7519226902 0.75104431
0.1123931375 0.9990619147 0.5026126133
0.1224400786 1.0004871923 0.7486973239
0.1524137598 1.0002203595 0.4961174444
0.1324130207 1.0007865656 0.4976176747
0.1425302794 0.9982223676 0.7444534209
0.1524159688 0.9990033417 -0.0065487295
0.1324240653 0.9995370072 -0.0017013013
0.1524947539 0.750569002 -0.0038420471
0.1325521831 0.7511287 -0.0010370398
0.1424566484 0.7503282017 0.2470506808
0.1525514497 0.7514866464 0.4968003713
0.1325396659 0.7503086773 0.4983024424
0.1424433948 0.4992964726 0.2479287297
0.1425796121 0.751070127 0.7489080925
0.1725440894 0.7488899079 0.0013936739
0.1624791087 0.5029188904 0.7496416407
0.1725613927 0.5014148646 -2.7911974764e-04
0.1624956757 0.7492803949 0.2466328253
0.1825081958 0.9994524017 0.7488795605
0.1725378308 0.7499312065 0.5014115086
0.1623351602 0.5013465294 0.2497326876
0.1625490581 0.7500939094 0.7456821371
0.182496783 0.7511677487 0.2489126231
0.1824780071 0.7519226902 0.7486062056
0.1625545804 0.9961397703 0.2432412003
0.1724041907 1.003428861 0.4961634637
0.1724627272 1.0024201029 -0.0038457747
0.1924572078 1.0022183513 0.4977953093
0.2024610748 1.0010989552 0.7474345534
0.1925584503 0.751519187 0.0014072956
0.2025799888 0.7513369597 0.248203005
0.1926026289 0.7513304516 0.5005362209
0.2025991328 0.7517664954 0.7499785022
0.2325466751 0.7518185604 0.9992818051
0.2323880004 0.5034271743 0.9991805626
0.2325834905 0.7503151854 0.5012789729
0.2324925563 0.5001757192 0.4975329991
0.2224724905 1.001027366 0.2472540863
0.2125256874 1.0024005786 0.4942094827
0.2126217758 1.0014569017 -0.0030972149
0.2125021255 0.7509659971 -0.0046093275
0.2324837206 1.0021207296 1.0009569089
0.2225107786 0.7511742568 0.2515753018
0.2125124338 0.7508553591 0.4983429394
0.2223329599 0.5030171629 0.2471289137
0.2225556934 0.7510766351 0.7511565971
0.2525385785 0.7510831432 1.0039389618
0.2524620023 0.5010809982 1.0011501901
0.2425317662 0.7515712519 0.2525877272
0.2526571243 0.7507251968 0.5005481859
0.2424905329 0.5006182711 0.2498753476
0.2425159356 0.7518771334 0.7539002699
0.2524796738 0.5002987226 0.5031630045
0.2625914101 0.503075736 0.7545233717
0.2625129932 0.749345476 0.2499867144
0.2625096798 0.7510440945 0.7535993034
0.2824666086 0.4981458375 0.7550986134
0.2825030559 0.7519031659 0.256419297
0.2825063693 0.4996732925 0.2557198031
0.2824574047 0.7500223202 0.7533977387
0.2725801828 0.7504062991 1.0029817596
0.2725128105 0.5012847022 1.0031382253
0.2725636159 0.7496904062 0.5026356229
0.2825380306 1.0023550218 0.2537492552
0.2825008469 0.9996866939 0.7540364871
0.3125249653 1.0010338741 1.0024295276
0.2923832229 0.747282403 1.005098649
0.3023613192 0.4996713401 0.7517428835
0.2925518378 0.4999850313 1.0024939547
0.3026031968 0.7493584923 0.2512347587
0.2924388143 0.7480178202 0.5072918592
0.302463298 0.4991799773 0.2525435486
0.3025939929 0.7486360913 0.752608047
0.3024389998 0.9997387588 0.2532715745
0.3124737918 0.749286903 1.0033867298
0.3126284168 0.500670336 0.999567125
0.312371813 0.7499507309 0.4993194697
0.2925150223 0.9989252443 1.0037272728
0.3325293861 0.7516753818 0.9956002583
0.3325257045 0.499913442 0.9955174235
0.3224371619 0.7550270619 0.2434068699
0.3324266709 0.750569002 0.4988279832
0.322506375 0.7502045474 0.7467930438
0.3325492664 0.5019979918 0.4958284429
0.3524369821 1.0007540251 0.4941073198
0.3425700686 1.0033963204 0.7447847601
0.3625030673 0.7521634906 0.2398330084
0.3524704842 0.9983460219 0.9925445745
0.3626466476 0.7499507309 0.7400963103
0.3624883411 1.0027650331 0.2440953191
0.3524506038 0.7518576091 0.9957751318
0.3625435643 1.0034223529 0.7444920771
0.3525849803 0.5021880288 0.9908326553
0.3424239112 0.7519877714 0.2449135429
0.3524638574 0.7525149289 0.4966098512
0.3422884302 0.7517860198 0.7445620265
0.3925260812 1.0019319942 0.4883226894
0.3724432436 0.7509659971 0.9940263971
0.3725794608 0.5033855223 0.9892403863
0.3825343633 0.7522220636 0.2396452495
0.3726457286 0.7513629922 0.4923190085
0.3825343633 0.5008772941 0.2398495753
0.3827221222 0.7529249402 0.7378128309
0.382512274 1.0010143497 0.240453349
0.3825343633 1.0029928172 0.7402288459
0.3726457286 1.0018018318 0.9948363374
0.3726494102 0.5008206735 0.4896296386
0.3925408074 0.7498596172 0.9882555725
0.3923420039 0.7533935246 0.4901735871
0.4124469308 0.753692898 0.9852551119
0.4124947909 0.7537124223 0.4838339635
0.4125536957 0.5028941595 0.4871326295
0.4025877486 1.000474176 0.2367524741
0.4024809837 0.5011916362 0.7334833319
0.4023999897 0.7554045327 0.2370359532
0.402503073 0.5021535358 0.2341440982
0.402429442 0.7523392097 0.7339067097
0.432614444 0.7507121805 0.9783153962
0.4225785475 0.7533740003 0.2323493442
0.4325518577 0.7506926562 0.4833977003
0.4224644196 0.5009892337 0.2334252762
0.422534369 0.7517599873 0.7348289372
0.4424073585 0.7508683753 0.2318587781
0.4424589001 0.7478876579 0.7298855403
0.4324782268 1.000474176 0.483915878
0.4224239226 1.000304965 0.7323199631
0.4423116382 1.0012746744 0.2298440516
0.4523548978 1.000526241 0.9820889817
0.4623981574 1.0036371208 0.229771341
0.4725445004 1.0003309975 0.4855569274
0.462556464 1.0018473887 0.7290056506
0.4525352936 0.7519291984 0.9802574121
0.4525537014 0.7510375864 0.4814731717
0.4725297742 0.7523782584 0.9873996129
0.4625638271 0.7524758802 0.235002819
0.472441417 0.7513890247 0.4854759334
0.4625270116 0.7486881562 0.7332605983
0.4725445004 0.5005727143 0.4850249439
0.4823963195 0.9992246176 0.2356857459
0.4925168916 0.9993612881 0.4832016579
0.4923880375 1.0016261127 0.9833038921
0.4826061677 0.4991318172 0.7338404419
0.4925316178 0.750738213 0.4852927765
0.4824441796 0.751408549 0.2334823402
0.4925021654 0.7490981676 0.9839757744
0.4824699505 0.7506926562 0.7333471146
0.5124046073 1.0004481436 0.4850405905
0.5124414228 0.9972526583 0.9861386831
0.5024165709 0.9978709293 0.2352172691
0.5225914472 0.7478355929 0.7380456887
0.5224331407 0.9992701744 0.2331371952
0.5223963252 0.9978774375 0.7326871974
0.5025711959 0.7501394663 0.2363567078
0.502423934 0.4985454359 0.2329494363
0.5027589547 0.7503737585 0.735037865
0.5024055262 0.5008037524 0.7316250711
0.5125629138 0.7474451059 0.981720827
0.5126402263 0.4985630078 0.986700119
0.5126070924 0.7480243283 0.4804184085
0.5225141347 0.4972809088 0.2336157963
0.5225988103 0.7487402212 0.2375688571
0.5324248586 0.7479917877 0.4865334577
0.532373317 0.4995216534 0.4864165686
0.5323769985 0.9987300008 0.9857245091
0.5423539903 0.9988992118 0.2346724002
0.5524635177 0.9991660446 0.4878845854
0.5523677975 0.7473995491 0.9861847025
0.542412895 0.9975064748 0.7353489557
0.5424423474 0.7492478543 0.2366042918
0.5524230207 0.7495016708 0.4858855055
0.5422472254 0.7491111838 0.7379168346
0.5325132158 0.7490721351 0.9853103351
0.5624405095 0.9984436436 0.2390985398
0.5624920511 0.9996085965 0.7439343228
0.562363197 0.7477770199 0.2387598375
0.5623779232 0.7502175637 0.739712509
0.5724138197 0.9966083547 0.4940925936
0.5723291441 0.9992246176 0.9931612336
0.5724395905 0.7469504891 0.9918358767
0.5724101382 0.7464038073 0.4885030852
0.602385292 0.9988731793 0.2452724937
0.5924856127 0.7482065556 0.9927102441
0.592353077 1.0016391289 0.4956416044
0.602263801 0.9981442702 0.7453756483
0.592353077 0.9990488985 0.994863949
0.6026061848 0.750237088 0.2416783837
0.6023816104 0.4974266906 0.2474694568
0.5923825294 0.7503802666 0.4939103571
0.6025767324 0.7501524825 0.7432486347
0.5823650406 0.9989577848 0.2459351721
0.5822509127 0.9974479018 0.7443521783
0.5823429514 0.748896416 0.2438053973
0.5823061359 0.7482976692 0.7429771206
0.6123622838 0.7490981676 0.9936398347
0.6125279534 0.7478551173 0.4951188248
0.6123990992 0.9984501517 0.99396197
0.6225233529 0.9994849423 0.2417520146
0.622497582 0.7470350946 0.246220492
0.6225049451 0.7485124371 0.7436950222
0.6423079852 0.9992181095 0.7469826435
0.6525426852 0.9997127264 0.9904552967
0.6325482047 0.9987495251 0.9939251545
0.6324635291 0.7474255816 0.9979472444
0.632456166 0.4992997266 0.9974318278
0.6324635291 0.7495797682 0.4964368185
0.6524837805 0.749625325 0.9954069771
0.6523880603 0.5010744901 0.9988216118
0.6425141518 0.7488183186 0.2462747948
0.6422269912 0.4978223841 0.2473746569
0.6524911436 0.7485905345 0.492834425
0.6424110685 0.751349976 0.7459554919
0.6726586568 0.7483627504 0.9957659279
0.672518758 0.5009801224 0.9961985097
0.6825767438 1.0014959504 0.2437391295
0.6725482104 0.9991530283 0.4957502101
0.6824773421 1.0008256143 0.7442619804
0.6824920683 0.7471782732 0.2451123464
0.6725776628 0.7495862763 0.4986936067
0.6826724641 0.7501004176 0.7451234624
0.662633805 0.7500353364 0.2478541784
0.6625785818 0.7473409761 0.7455091044
0.7024386887 1.0016326208 0.2441174084
0.702541772 0.5015710594 0.7431759241
0.6924948308 0.7507512292 0.9978552057
0.6925758249 0.9999209861 0.4962766713
0.7026338107 1.0003244894 0.7482997169
0.6926200034 1.0007540251 0.9979012251
0.7026006767 0.7491892812 0.2455200777
0.7025675428 0.5006827014 0.2436562947
0.6925721433 0.7494691302 0.4982509007
0.7023834655 0.7477509874 0.7450406276
0.7226319727 0.4986873129 0.7372900512
0.7325500597 0.7514345815 0.9828436988
0.7225288894 0.7514931545 0.2374501272
0.7225583418 0.4994350955 0.2361496208
0.7326384169 0.7517664954 0.4846650727
0.7224994371 0.7490721351 0.7347350578
0.7225693864 0.998743017 0.7373701249
0.7124340882 0.7520463445 0.9923328856
0.7124819483 0.751851101 0.4935274762
0.7427148104 0.4998945685 0.7366789145
0.7425123253 0.7494626221 0.2373249546
0.7425712301 0.5001086855 0.2381726308
0.7425491408 0.7486360913 0.7390295821
0.7525739927 0.4986222317 0.4861165225
0.7524966802 0.749456114 -0.0137411373
0.7625252136 0.5003397237 0.7371924902
0.7625620291 0.747952739 0.240631904
0.7625509844 0.498987337 0.2380594232
0.752522451 0.7472498624 0.4845905214
0.7625730737 0.749566752 0.7369108519
0.7825344203 0.751851101 0.2418550979
0.7825749173 0.498942431 0.2389282682
0.7724801161 0.7489484809 0.4904064449
0.7826338221 0.7494170653 0.7432366697
0.7725022053 0.9976887021 0.4912219075
0.7723770328 0.4972015098 0.4883226894
0.7725022053 0.7509659971 -0.0131683347
0.7825565096 0.498248015 0.7418395227
0.7724911607 0.4985851354 -0.0106106905
0.7924193734 0.7526450912 0.4937842641
0.8125316634 0.5018339873 0.4983714714
0.8124727587 0.7521699987 -0.0015538921
0.8024884038 0.4999661578 0.7464764308
0.8026062133 0.7507642455 0.2455449282
0.8024294991 0.500404154 0.2459554207
0.792504049 0.5009111363 0.4954566067
0.7925739984 0.7485514858 -0.0049210532
0.8126457914 0.7504128072 0.4982656269
0.7924414627 0.4992027557 -0.0072765529
0.8025473086 0.7495927845 0.7452357495
0.8326108195 0.4983736216 0.4999011541
0.8326439535 0.7520788851 -3.9906454155e-04
0.8224460689 0.5012319865 0.7450682392
0.8325114178 0.4996472601 -0.0022419916
0.8225859677 0.7497945361 0.2492163507
0.8225233814 0.5010562673 0.2507147402
0.8326108195 0.7527296967 0.4993277531
0.8226375093 0.7504388396 0.7495698505
0.862751643 0.7495342114 0.756242654
0.8625712472 0.5009645029 0.7515836566
0.8525390322 0.7497489793 0.0019278663
0.8525537584 0.4982349987 0.0018595736
0.8627663692 0.7512133055 0.2555909489
0.8627369168 0.5003013258 0.2538219657
0.8526826125 0.7496838981 0.5001514992
0.8426872131 0.7489940377 0.2497133595
0.8425104988 0.5007061307 0.2525002904
0.8426945761 0.7488313348 0.7472090586
0.8525279876 0.5001308131 0.5027617159
0.8726145068 0.5005974451 0.5043052044
0.8826246325 0.7509204403 0.7547488664
0.892546401 0.5006397479 0.5014842192
0.872750724 0.7505755101 0.0031274983
0.8927930646 0.7475362196 0.0022690536
0.8827166711 0.4993459343 0.7555634086
0.8725482389 0.5007887837 0.0046520268
0.8925684903 0.4986053106 0.0044575491
0.8825657277 0.7526971561 0.2564956891
0.8826651295 0.5006963685 0.2525656379
0.8726071437 0.7494365897 0.5013185496
0.8927452045 0.7475557439 0.5027009704
0.8826467217 0.9997517751 0.2516259231
0.8825510015 0.9996541533 0.7537668138
0.9126034678 0.7472954193 0.5054124296
0.9125924232 0.9982549082 0.005257089
0.9124451613 0.5004620763 0.5040465757
0.902700107 0.7483237017 0.7543494186
0.912618194 0.7492218218 0.0047605404
0.912618194 0.4999817773 0.0055940426