POSCAR file written by Ovito 3.7.11
1
271.8621151225 0.0 0.0
0.0 15.3788436121 0.0
0.0 0.0 10.8744846049
Sr Ti O 
800 800 2400 
Direct
0.0125299861 0.2510274442 0.4971627197
0.0224182341 0.2498270938 0.7456857622
0.0025792801 0.2499038226 0.7459377282
0.0125327817 0.2493738738 0.9971910151
0.0224774921 0.0010054596 0.2465319911
0.0024521568 0.9987631186 0.2489431398
0.0124595828 0.0018551984 0.498213804
0.0224572244 0.0012053446 0.745891749
0.0024750728 5.8325620979e-04 0.7462779742
0.0124461937 0.9998295186 0.9957656602
0.02252097 0.2495312328 0.2496199535
0.0024477796 0.2490129884 0.2477357263
0.0324622595 0.2487119255 0.4977668863
0.0424121564 0.249025343 0.7457050735
0.0325350906 0.2508765876 0.9995175621
0.0424596069 0.9997319821 0.248763821
0.0325902656 7.2455421988e-04 0.4994258154
0.0424158347 0.9992182893 0.7482982998
0.0324493853 0.0013639391 0.9950759723
0.0425762101 0.2513356598 0.2481624132
0.0725005708 0.2485083991 0.4969484567
0.0524521724 0.2508726861 0.4972096185
0.0625091088 0.2485968323 0.7473722789
0.0725737697 0.2513805266 0.9960507311
0.0524941054 0.2503732987 0.9982485364
0.0624771073 0.999627943 0.2463866968
0.072445028 0.9998165138 0.4989595865
0.052576868 0.0015737078 0.4998589394
0.0624337029 0.9986330698 0.7494937588
0.0724196475 4.6783790885e-04 0.9969703149
0.0525735575 0.9997970065 0.9973289526
0.0624859353 0.2503375353 0.247376169
0.0925085076 0.2491384855 0.4965493573
0.1025231431 0.2487353342 0.7449546931
0.0824192018 0.2507836027 0.7450760782
0.0924798166 0.2513408617 0.9965748939
0.1025367529 0.9996734601 0.2487463489
0.0825575072 0.9991532649 0.2487500272
0.0924375157 0.0013870228 0.4954348217
0.1024859919 7.8086534586e-04 0.7492804153
0.0824615027 0.9983534649 0.747071575
0.0925210139 0.9982169137 0.995774856
0.102569858 0.2499838026 0.2463499135
0.0824008101 0.2489069986 0.2452648046
0.1125429283 0.2512511281 0.4988685477
0.1225016532 0.2509182032 0.7453335616
0.112490696 0.2512166651 0.9959035977
0.1224519956 0.001505042 0.2487233593
0.1124770861 0.9991662698 0.4970477717
0.1224700195 0.9990882405 0.7476978116
0.112534836 5.8449167329e-04 0.9965840897
0.1224306613 0.2510183407 0.249225452
0.1525124548 0.2487749991 0.4964619968
0.1325210705 0.2496112128 0.4988768239
0.1425949273 0.2505735739 0.7491746632
0.1525036268 0.2504591309 0.9976232195
0.1324761948 0.249974049 0.998331299
0.1425368096 0.0016192899 0.2499500841
0.1525190758 0.9988671576 0.4972353668
0.1324482395 0.001134338 0.4994009867
0.1424415407 0.0014305241 0.7470531834
0.1525657906 0.9994718845 0.997080665
0.1324949544 6.4919094621e-04 0.9993888204
0.1425938238 0.2491475889 0.2473090394
0.1725145062 0.2493316079 0.4968105191
0.1625612988 0.2487242801 0.7476867766
0.1724744123 0.2516841905 0.9993336453
0.1624851573 2.9118316524e-05 0.245548956
0.1724891256 8.6599881608e-05 0.4948646797
0.1625296651 0.9983599673 0.7485944058
0.1725284838 6.8853070511e-04 0.9978715071
0.1625403323 0.2494434499 0.2472345531
0.192477935 0.2486286942 0.4962661255
0.202566873 0.2484882415 0.7455634576
0.1824596212 0.251418891 0.7490256906
0.1925728361 0.2484862908 0.9990853577
0.2024951454 9.2814560029e-04 0.2488870452
0.1825754887 6.4711016557e-04 0.2452896333
0.1924838204 6.5374265385e-04 0.4988115335
0.2024907314 0.9990622308 0.7461308408
0.182528406 0.9985745478 0.7481713973
0.1924871309 7.4180222184e-05 0.9993152537
0.2024874209 0.2516731364 0.2475646837
0.1825990301 0.2486072362 0.2471315597
0.2124700549 0.2491892045 0.497144328
0.2225339802 0.2498160397 0.7495801997
0.212589233 0.2497211041 0.9981105989
0.2224265728 0.9994133625 0.2475858341
0.2124358464 0.9995434113 0.4968960404
0.222496829 0.9999270552 0.7486928013
0.2125498748 0.9994458747 0.9954989808
0.222536555 0.2512693349 0.247612502
0.2525598629 0.2515847032 0.4983517416
0.2325813529 0.2501001963 0.4964472835
0.2424212675 0.2496151143 0.7464471776
0.2524164079 0.2496261684 0.9992508828
0.2324824057 0.2506470514 0.9960875145
0.2425367672 0.9983339576 0.2488024435
0.2524370065 8.3997252082e-04 0.4981779402
0.2324202418 8.2521198318e-04 0.4974459515
0.2425794359 0.9991337576 0.7494606538
0.2525113089 8.9953486654e-04 0.9969335316
0.2325659039 0.0019143706 0.9971082525
0.2425069727 0.25146961 0.2471444339
0.2725034288 0.2513837778 0.4964215351
0.2624829079 0.2486403986 0.7467396053
0.2724839336 0.2490494021 0.9992324911
0.2624527456 0.9986980942 0.245867132
0.2725324877 7.9081407828e-04 0.4955920705
0.2624910003 0.9984770112 0.7489705156
0.2725129925 0.0016043993 0.9982117531
0.2624795974 0.2496976953 0.2480226364
0.2925352747 0.2489655206 0.49537229
0.3024336749 0.2494460509 0.748925456
0.2825478589 0.2513024973 0.7486992384
0.2925853001 0.2507692973 0.9996554997
0.3025830153 7.9985246917e-04 0.2489265873
0.2825842744 0.9997644943 0.249718349
0.2924403737 0.0011846668 0.4969291454
0.3024259504 0.0014458048 0.7492013311
0.2824389801 0.9990817381 0.748711193
0.2924377988 0.0015871678 0.9973197568
0.3024756079 0.2485272562 0.24693201
0.2825000405 0.2502211417 0.2500604341
0.3325555622 0.2513863788 0.499201437
0.3125181988 0.2496424245 0.4968197149
0.3225637323 0.2483666459 0.7488187843
0.3324426373 0.2491384855 0.995830031
0.3124240334 0.2493055982 0.9950575806
0.3225762387 8.2397651967e-04 0.2454845851
0.3324823633 0.0011199676 0.4978220613
0.3124523566 8.1864451929e-04 0.4952444679
0.322493844 0.0011608029 0.7463524605
0.3324536723 0.0010762712 0.9989382243
0.312548729 0.9985680454 0.9957472685
0.3224920048 0.2486260933 0.2464078472
0.3525005994 0.2490194908 0.4982974861
0.3425661516 0.2495507401 0.747844945
0.3524961854 0.2485415615 0.9972737776
0.3425621054 9.840665799e-04 0.2460676012
0.3524777937 1.8966354751e-04 0.4975645778
0.3425753474 0.9991662698 0.746709259
0.3525359114 1.8706257171e-04 0.9981565781
0.3425760831 0.2484141137 0.2460004716
0.3724552003 0.2509955822 0.495405395
0.3824198105 0.2491683967 0.7485291154
0.3625310518 0.2513857286 0.7466173006
0.3724699136 0.2506678593 0.9981657739
0.3824933772 0.9990622308 0.2472547839
0.3624317367 0.9990427235 0.245741149
0.3724331303 7.0511192581e-04 0.4961226704
0.3825228038 0.0013704415 0.7491222469
0.3625715135 0.9997189772 0.7487029167
0.372506697 5.1491557076e-04 0.9953058682
0.3824565938 0.2498368475 0.2488658948
0.3626009402 0.250827169 0.2485320858
0.392421204 0.250987129 0.497654697
0.4025586959 0.2490988206 0.7460517566
0.392487414 0.2514572554 0.9968139857
0.4025329476 0.9989386844 0.2463848576
0.3924837357 0.9983664698 0.497089153
0.4025476609 0.0015696763 0.7466531644
0.3924947707 0.999627943 0.9981841656
0.4024557025 0.2501119007 0.2464409523
0.4325481632 0.2507985583 0.4983333499
0.4124681311 0.2504188158 0.4964656752
0.4224290629 0.2513941817 0.7495599688
0.4325665549 0.249081264 0.998386474
0.4124423827 0.2482417991 0.9985979783
0.4225210213 0.9989061722 0.2470791434
0.4324672398 0.9989126747 0.4988382014
0.4124754877 2.0468418273e-04 0.4960711737
0.422572518 0.9984835137 0.7491010965
0.4325628765 0.9997449869 0.9965473064
0.412412956 6.774280709e-05 0.9976600028
0.4224584896 0.2484394732 0.2482920745
0.4524185302 0.2500085119 0.4950292852
0.44252013 0.2490507026 0.7490781069
0.4524847402 0.25098973 0.9981841656
0.4425274867 0.9993028211 0.246739817
0.4524810619 0.0016150633 0.4964500422
0.4425753051 0.0014331901 0.749320877
0.4524442785 0.9992117869 0.9953702391
0.4424943817 0.2504428748 0.246366466
0.4724139606 0.2493062484 0.4997458306
0.4824374241 0.2490389982 0.746791102
0.4624603854 0.2501398612 0.7471957188
0.4725574156 0.2489401611 0.9950207973
0.4824705291 9.726388237e-05 0.2470156921
0.4624824554 0.0013923548 0.247250186
0.4724213172 0.9991337576 0.4985411758
0.4825367392 0.9993093235 0.7491240861
0.4624787771 0.0016014732 0.747844945
0.4725758073 -1.5730662363e-04 0.9975404569
0.4824374241 0.2500871914 0.2500742279
0.4624493504 0.2492301699 0.2462230109
0.5124747097 0.0017145506 0.4952214783
0.5124783881 0.0018191749 0.9998026331
0.4924498527 0.2494265436 0.4956601197
0.5025836663 0.2510495525 0.7475111361
0.4925234194 0.2498576553 0.9963817813
0.5124563181 0.250024768 0.4949961802
0.512434248 0.2500169651 0.9961059062
0.5025248129 3.9780663556e-04 0.249093032
0.4925602027 9.2858760825e-06 0.4978616034
0.5024254978 0.0013623135 0.7465299402
0.4925123844 0.0014476255 0.9988462659
0.5024549245 0.2508492773 0.2466496978
0.5225349566 0.9989972064 0.246794992
0.5324370351 0.0016936128 0.4956757527
0.5225459916 0.9999985821 0.745814504
0.5324774968 0.9985680454 0.9975312611
0.5224724249 0.2504357222 0.2455388405
0.5324995668 0.2489369099 0.4972831852
0.5225276 0.2495097748 0.7489677568
0.5324554268 0.250560569 0.9955817434
0.5424825687 0.0011039716 0.2475003128
0.5624890341 0.00169966 0.248578065
0.5524287872 9.6781048117e-04 0.4993917908
0.542530387 0.9989256796 0.7483966953
0.5624522507 0.9989126747 0.7466715561
0.5524030388 1.7093652178e-04 0.9975588486
0.542497282 0.2484901923 0.2452684829
0.5624816774 0.2506847656 0.2494893726
0.5524986755 0.2490695596 0.4987388863
0.5426002754 0.2505085495 0.7493521429
0.5625147824 0.2490168899 0.7481180614
0.5525832773 0.2505105002 0.9992232953
0.5825286045 3.6783038951e-04 0.2483619628
0.572571351 2.4662491744e-04 0.5001964267
0.5825801012 0.9986135625 0.7455744926
0.5724720359 9.1696140437e-04 0.9980278363
0.5825911362 0.2498687094 0.2475803166
0.5725456026 0.2489843777 0.498565085
0.5824256111 0.2518200915 0.7465621256
0.5724352526 0.2497536163 0.9988554618
0.6024210415 0.9996604552 0.2500328466
0.592430683 0.9995564162 0.4983802487
0.6125217501 0.0013095787 0.4965806231
0.6024063282 2.534524789e-04 0.7451257357
0.5925373547 0.0011802452 0.9959495769
0.6125070367 4.366912237e-04 0.9971542317
0.6025939232 0.2483835523 0.2462533572
0.5924821797 0.2510807642 0.4976969979
0.6125548551 0.2504461261 0.4954449371
0.6025313916 0.2504792885 0.749183859
0.5925814947 0.2492932435 0.9962162562
0.6124518617 0.2511165276 0.995094364
0.6225856753 5.0048015509e-04 0.2458009219
0.6324215438 3.1360004417e-04 0.4988234881
0.6224275069 9.0116047641e-04 0.7464444189
0.6324951105 1.0000440992 0.9968967482
0.6224973953 0.2507868539 0.2488585381
0.6324399354 0.2488114128 0.4966312002
0.6225452136 0.25136297 0.7485668183
0.6324951105 0.2508349719 0.9980094447
0.642430294 0.9997059723 0.2471435143
0.6625250394 0.0013589972 0.2475380157
0.6524795059 0.0011393448 0.4986570434
0.6425921407 0.9998035089 0.7481153027
0.6625544661 0.9997384845 0.7491470757
0.6525162892 0.9994133625 0.9973013651
0.642507539 0.2511197788 0.2488281918
0.6625765361 0.2503837026 0.2495408693
0.6524647925 0.2489980328 0.4959176032
0.6424376506 0.2489830772 0.7478026442
0.6625066477 0.2490220918 0.746506031
0.6525457159 0.2489330084 0.9968231815
0.6824064414 0.9996149381 0.2465025644
0.6725264329 0.9992247918 0.4993862733
0.6825388615 0.001177059 0.7464582126
0.6724418312 8.3418534967e-04 0.9953518474
0.6825315048 0.2492802387 0.2492723508
0.6724749362 0.2515918559 0.4987076205
0.6825903582 0.2505319583 0.7485999233
0.6724418312 0.2504058109 0.9967863982
0.7025673969 5.5796172017e-04 0.2488107197
0.69255129 0.9995629186 0.4989595865
0.7125172937 0.9989842015 0.4967902882
0.7024239418 0.9988671576 0.7459092211
0.6924556533 0.9997254796 0.997705982
0.7125687904 9.3087662487e-04 0.9976048278
0.7024754385 0.2491827021 0.248270924
0.6924188699 0.2493459133 0.4997283585
0.7124143003 0.2504766875 0.4959930091
0.7024496902 0.2513018471 0.7454209221
0.69246301 0.2487736986 0.9965289147
0.7124915454 0.2487762996 0.9970622733
0.7225665056 0.0013444968 0.2478497547
0.7424479076 0.9996929674 0.2497394994
0.7325053675 7.6051271026e-04 0.4955617243
0.7225665056 0.998828143 0.7449684869
0.7425913627 1.070175416e-04 0.7482817473
0.7325862908 0.9995434113 0.9969059441
0.7224193722 0.2513298076 0.248737153
0.7425251527 0.2511158773 0.2499841087
0.7325237591 0.2507647456 0.4985393367
0.7225076523 0.2504643329 0.7460857812
0.742528831 0.25032323 0.7485373916
0.7324796191 0.2514572554 0.9977519612
0.7624911564 3.4338121703e-04 0.2488088806
0.7525927562 1.8459164471e-04 0.4976500991
0.7625647231 1.9395515757e-04 0.7473373348
0.7524272311 0.9989126747 0.9962622354
0.7625610447 0.2506197412 0.2496788069
0.7525486162 0.2510332964 0.4981742619
0.7625794364 0.2510918183 0.7493870871
0.7524161961 0.2514279944 0.9964093688
0.7824571601 9.1839194106e-04 0.2465559002
0.7724263399 0.9996604552 0.4979811493
0.7925652253 0.9991337576 0.4995223718
0.7825196918 0.0010557885 0.7466770736
0.7724778366 0.9986785869 0.9958576185
0.792462232 8.0349383528e-04 0.997365736
0.7825969368 0.2513967827 0.2491794729
0.7724851932 0.2508076617 0.496644994
0.792484302 0.2492977953 0.4987333688
0.7825491185 0.2481897796 0.7486357871
0.7725477249 0.2497815768 0.999011791
0.7924401619 0.2484342713 0.9973197568
0.8025371922 0.9986005576 0.2496714502
0.8125606557 8.1072808042e-05 0.4955663222
0.8025813322 0.00135295 0.7489392497
0.812420879 0.9987826259 0.9961518854
0.8024489121 0.2498459509 0.24774952
0.8125937608 0.2504461261 0.4992216678
0.8024856955 0.249726306 0.7472343414
0.8124686974 0.2502120382 0.9979450738
0.8224921609 0.9998685333 0.2465062427
0.8424655213 0.9986005576 0.2471058114
0.8325082678 0.0014727249 0.4978827538
0.8224995176 3.1561580041e-04 0.7474752723
0.8425869063 0.0016164288 0.7449942352
0.8325266595 1.478528616e-04 0.9960047519
0.8224811259 0.2495617943 0.2492879837
0.8425979414 0.2497510153 0.2462643922
0.8324604494 0.2510033851 0.4963038284
0.8225988326 0.249054604 0.7482569186
0.8424691996 0.2491072738 0.7492776566
0.8324825194 0.2502595061 0.9978990946
0.8624793434 -4.4992956344e-06 0.2492668333
0.8525515165 0.9991922796 0.4989586669
0.8625308401 0.9983599673 0.7491866178
0.8524705932 6.1966987093e-04 0.9952506932
0.8625565884 0.2488523781 0.249011189
0.8524853065 0.2500884919 0.495575518
0.8625602667 0.2513779256 0.7479231096
0.8525441599 0.2512699852 0.9993704287
0.8824490254 0.9986200649 0.2492291304
0.8725028069 9.203426729e-04 0.4959985266
0.8925570907 0.0018580595 0.496541081
0.8825667321 0.9985745478 0.7478964417
0.8724255619 3.2239487479e-05 0.9983404948
0.8825740888 0.2502848656 0.2491620008
0.8925791607 3.0435341729e-06 0.9984968241
0.8725469469 0.25146961 0.4987407255
0.8925681257 0.2498589558 0.4961907196
0.8824343121 0.2480831396 0.7465326989
0.8725028069 0.2509377105 0.9988554618
0.8924504189 0.2491801011 0.9957564643
0.9024702041 4.1718390523e-04 0.2468667196
0.9225502363 0.0015348232 0.247897573
0.9124679193 0.001195786 0.4950191698
0.9024628475 0.9998360211 0.7455671359
0.9224582779 0.9995434113 0.7466494861
0.9125893044 0.9989646942 0.9969795108
0.9025621625 0.2485545664 0.2454726305
0.9224178162 0.2492548792 0.2458358661
0.9125598777 0.2510820646 0.4992924758
0.9024702041 0.2497250055 0.7492252403
0.9224877046 0.2501099499 0.7472775618
0.9125745911 0.2507992085 0.996510523
0.9425530233 0.9990037088 0.2451829616
0.9325516298 0.9997449869 0.5001642413
0.9426008417 0.9983144502 0.74867349
0.9324633497 0.9984705088 0.9955725476
0.9424279599 0.2500215168 0.2456243618
0.9325258814 0.2488952942 0.4979204568
0.9425861283 0.2510261437 0.7458108256
0.9325626648 0.2490981704 0.9967588107
0.9624491387 0.0011704265 0.2488024435
0.9525139552 0.9999855772 0.4970468521
0.9724726022 0.9997970065 0.4995003017
0.9624491387 0.9996669577 0.7495029546
0.9524477451 0.9981388844 0.9995727371
0.9624049986 0.2497718231 0.2451452587
0.9724799589 0.0011331025 0.9988002867
0.9525397035 0.2506047856 0.4979020651
0.9724983506 0.250048827 0.4976942391
0.9625742021 0.249675587 0.7464738456
0.9525580952 0.2495910553 0.9964277605
0.9725939873 0.2502295948 0.9988370701
0.9824188207 8.7885710896e-04 0.2486847368
0.9924569976 0.9990232162 0.4980271285
0.9825733108 0.9985355332 0.7459193365
0.9824850307 0.2499805514 0.2487389922
0.992526886 0.0011356384 0.9960323395
0.992548956 0.2492646328 0.4991618949
0.9824923874 0.2508304202 0.7467414444
0.9924606759 0.2498615568 0.9963909771
0.0124677487 0.7502463837 0.9991313369
0.0224309243 0.501796624 0.7473686006
0.0024846365 0.5012868328 0.746846277
0.0125647832 0.5003914469 0.9983588865
0.0224921686 0.7490564373 0.246898905
0.0025142471 0.7515338668 0.2494378759
0.0124731559 0.7492775203 0.4990855694
0.0225404284 0.7517354424 0.7453032154
0.0225071394 0.498549956 0.2478525134
0.0024859239 0.4992463673 0.2469145379
0.0024204863 0.7513127838 0.7473980273
0.0124026422 0.5001801176 0.4976721691
0.032461156 0.7509876618 0.9980186405
0.0424360655 0.501207503 0.7491737436
0.0324593169 0.4989836687 0.9995635413
0.0425471513 0.7515858863 0.2492024624
0.0324972037 0.7506300277 0.4956987423
0.0425640716 0.7487573251 0.7468839799
0.0425596576 0.49970674 0.2470920176
0.0324799155 0.4983646365 0.4965217698
0.0725071918 0.7507990911 0.9951771265
0.0625348572 0.500162561 0.7482054219
0.0524396661 0.7514168228 0.9988830493
0.0725075597 0.5003530825 0.995885206
0.0524948411 0.4990090282 0.9979634655
0.0624715898 0.7515793838 0.2464795748
0.0724689372 0.7492580129 0.4991508599
0.0524227457 0.7502919008 0.4991986782
0.0624355421 0.5010143806 0.2457806911
0.0725211695 0.4982150804 0.4989706215
0.0624568764 0.7495376178 0.7467855845
0.0524815991 0.5010572967 0.4955598851
0.0925769246 0.7514168228 0.9964645438
0.1025591908 0.498899137 0.7451478057
0.0824306047 0.4980687755 0.7462623413
0.09243678 0.5010703015 0.9956277226
0.1024094825 0.750324413 0.2481017206
0.082491665 0.7502268764 0.2497744436
0.0924562752 0.7512477594 0.4983259932
0.1024234602 0.7506690423 0.7479663301
0.1024385414 0.5007074654 0.2463968122
0.0824107417 0.4996638239 0.2477090583
0.0824261907 0.7501748569 0.7478283925
0.0925088754 0.501266025 0.495931397
0.1125664697 0.749362052 0.9967863982
0.1225332868 0.499434938 0.7475791853
0.1124248538 0.4988295609 0.996455348
0.1225163665 0.7509031301 0.2488438248
0.1124855463 0.7493230373 0.4992602904
0.1225693345 0.5012270103 0.2487215201
0.122420362 0.751403818 0.7472076734
0.1125848613 0.5002334376 0.4984492174
0.1525654228 0.7500513106 0.9988830493
0.142443012 0.5009363513 0.7482789886
0.1325567504 0.7503894374 0.9976048278
0.1525260646 0.4986130297 0.9994899746
0.132436101 0.4993783668 0.9984048657
0.1424547827 0.751507857 0.248911874
0.1524995806 0.7494855983 0.4990460273
0.132418445 0.7503959398 0.4959828937
0.1425415914 0.5005858698 0.2490516507
0.1425044402 0.7486792958 0.747093645
0.1524010012 0.4983295233 0.4989209639
0.1324614815 0.4983061145 0.496815117
0.1725266447 0.7485167348 0.998331299
0.1624252004 0.4982508438 0.7455202371
0.1725542322 0.4986448916 0.9959863603
0.162556517 0.7515793838 0.2460409333
0.1725244377 0.7498432325 0.4984574937
0.1624130619 0.5004629737 0.2454045813
0.162574173 0.7486272763 0.7481346139
0.1724788263 0.4987385267 0.4999141145
0.1925426737 0.7507340667 0.9979266821
0.2024657187 0.5001944229 0.7483231286
0.1824349763 0.5002431912 0.7469658229
0.192420553 0.4985779165 0.9974117152
0.2025017664 0.7507145594 0.2469752305
0.1825011864 0.7510071692 0.2464381935
0.192440416 0.74957013 0.4972500802
0.2024749146 0.5004499688 0.2489100348
0.2025701835 0.7510396814 0.745639783
0.1824691848 0.500024059 0.2460777167
0.1824941975 0.7492385056 0.7488141864
0.1924341629 0.5000214581 0.4987434843
0.2124156156 0.7491669788 0.9976783945
0.2224372399 0.4990519443 0.7454549467
0.2124141442 0.5012016508 0.9956828976
0.2225681887 0.7486532861 0.2485789846
0.2125219195 0.7497977154 0.4972804264
0.2224490106 0.5015267728 0.2488925627
0.2225273592 0.7489003788 0.7491001769
0.2124100981 0.5006918596 0.4978239005
0.2525609664 0.7511372179 0.9980186405
0.2425639869 0.4991481804 0.7483038173
0.2324831413 0.7497196861 0.9957288768
0.2525598629 0.4989544077 0.9957288768
0.2325975376 0.5008550708 0.9988370701
0.2425433882 0.7495506227 0.2497606498
0.2525642769 0.7512087448 0.4983866857
0.2324180348 0.7508706179 0.4951672228
0.2425581016 0.4996833312 0.2471306401
0.242426785 0.7491084568 0.7463460234
0.2524388457 0.501554083 0.4959111661
0.2324161956 0.4989986243 0.4961199116
0.2725041645 0.7504024423 0.9988922451
0.2625123346 0.5001352507 0.74869556
0.2724434719 0.498901738 0.9988738534
0.2624531134 0.7505585008 0.2482019553
0.2725850879 0.7510851984 0.499448805
0.2624247902 0.4990421907 0.2472603014
0.2625973042 0.7507210618 0.7475957378
0.2724122061 0.5012601728 0.499826754
0.292444052 0.7504609642 0.9994899746
0.3025421858 0.4998211829 0.7465244227
0.2825199035 0.4989114916 0.7475460803
0.292441845 0.5012068528 0.9961610812
0.3025237941 0.750161852 0.2489523357
0.282565147 0.7485232373 0.2463342805
0.2925698511 0.749732691 0.4983995599
0.3024189615 0.4997587595 0.2474055957
0.3024171224 0.7504674667 0.7484343982
0.282556319 0.499517519 0.2470745455
0.2825191679 0.7502008667 0.7490707502
0.2925227684 0.5004779293 0.496726837
0.332540481 0.7491279641 0.997365736
0.3224607389 0.4991741902 0.746609944
0.3124920826 0.749140969 0.997650807
0.3325662294 0.5007724898 0.997705982
0.3125240841 0.5012731777 0.9971634275
0.3225199601 0.751937018 0.2482405778
0.3324735353 0.7491734812 0.4997991665
0.312557557 0.7483476714 0.4991858041
0.3224136563 0.5007841942 0.2467379778
0.3225199601 0.7501748569 0.7492638628
0.3325787357 0.501044942 0.4983011644
0.3125325443 0.4999772415 0.4967056865
0.3525524639 0.7500383057 0.9995727371
0.3425396676 0.4996904839 0.7486505004
0.3525127379 0.5011028137 0.9960231436
0.3425157584 0.750382935 0.2488401464
0.3525737983 0.7491539739 0.4955856335
0.3424182825 0.4993224458 0.2469881046
0.3425749796 0.7489589007 0.7466678777
0.3524755867 0.4996930849 0.4970836355
0.3725765853 0.7507145594 0.9962898229
0.3824749855 0.5006541454 0.7467966195
0.3624207017 0.5006268352 0.74613268
0.3725361236 0.5008908342 0.9960875145
0.3824345238 0.7485167348 0.246317728
0.3624758768 0.749407569 0.2489422202
0.3725471587 0.7495441203 0.496019677
0.3824602721 0.5002978117 0.2463839381
0.3824896988 0.74930353 0.7464278664
0.3625751918 0.4998309366 0.2477007821
0.3624574851 0.7497261886 0.7454944888
0.3725324453 0.4983483804 0.4987563584
0.3925168407 0.7491279641 0.9969611191
0.4025770876 0.4997646117 0.7459239344
0.3925977641 0.500290659 0.996400173
0.4024189192 0.7512087448 0.2487169222
0.3925352324 0.7505259886 0.4980731077
0.4024336325 0.5006320371 0.2498305382
0.4024115625 0.7499082569 0.7475322865
0.392421204 0.4994199824 0.4967360328
0.4325591982 0.7503374179 0.9956185267
0.4225909097 0.4997184444 0.7477750566
0.4124276694 0.7503569252 0.995719681
0.4324929882 0.4986396897 0.9975312611
0.4125600895 0.4992385643 0.9972645818
0.4225026296 0.7511502228 0.2457071244
0.4324157431 0.7487183105 0.4964436051
0.4124203127 0.750545496 0.4962835976
0.4225246996 0.4998309366 0.2456455123
0.4224400979 0.7500318032 0.7490266102
0.4324562048 0.5000624234 0.4963148634
0.4126226212 0.4998914093 0.4976969979
0.4525693419 0.7511632277 0.9982485364
0.442464955 0.5000949356 0.7472371001
0.4524847402 0.4989778165 0.9961886687
0.4424686333 0.7508316033 0.248341732
0.4525068102 0.750382935 0.4970863942
0.442398745 0.5007607854 0.2481771265
0.4424612767 0.7491474715 0.7459018644
0.4524700269 0.4989661121 0.4964298114
0.4724360306 0.7486467836 0.9972921693
0.4825330608 0.5015202704 0.7488518893
0.4624824554 0.4994037263 0.7451790715
0.4725758073 0.4999063649 0.9986071741
0.4824521375 0.7515533741 0.2463489939
0.4625192388 0.750324413 0.2457558623
0.4725537373 0.7487508227 0.497462504
0.4824521375 0.4994739526 0.2455388405
0.4824263891 0.7488418568 0.7494441013
0.4624750987 0.498635138 0.249729384
0.4624861337 0.7487833349 0.7458043885
0.4724286739 0.5012835816 0.4978349355
0.4924241043 0.500996824 0.9978439196
0.5024990645 0.7511632277 0.2471039722
0.4924903143 0.7491084568 0.495553448
0.5024438895 0.5005559586 0.2487877301
0.5025358479 0.7505324911 0.7459965816
0.4925675594 0.7496936764 0.9955081767
0.4925013493 0.5014539455 0.4980620727
0.5024218195 0.5005501064 0.7483617511
0.5124048214 0.7512867741 0.9953886308
0.5125114931 0.5003537327 0.9976691986
0.5125445981 0.7497131837 0.498790383
0.5124599964 0.5009337503 0.4980197718
0.5225570266 0.4988022506 0.7487424588
0.5324480701 0.7513062814 0.9967128315
0.5325547418 0.5012647245 0.9985703908
0.5225239216 0.5014610982 0.2485403621
0.5224503549 0.7507210618 0.2489330244
0.5324480701 0.7491864861 0.4970100688
0.5324370351 0.50021328 0.4954899967
0.5225202433 0.7514818472 0.7470844492
0.542519352 0.4997756658 0.7460655503
0.5525354589 0.7515273643 0.996059927
0.5625515658 0.5004272103 0.7464959156
0.5524508572 0.4990773038 0.9987910909
0.5424384286 0.498302213 0.2460970279
0.5424936037 0.7485362422 0.2463306022
0.5624191457 0.5003777917 0.2451388216
0.5626104191 0.7502008667 0.2477440025
0.5525943123 0.4991910965 0.495723571
0.5524398222 0.7510396814 0.4986754351
0.542475212 0.7497587008 0.7486357871
0.5625552441 0.7497782081 0.7467432836
0.5825102128 0.501316744 0.7479700084
0.5724499659 0.7511372179 0.9959127936
0.5725088193 0.4995688883 0.9953702391
0.5825286045 0.5014350884 0.2485799042
0.5825138911 0.7492905251 0.2469706325
0.5725676726 0.499323096 0.4975075636
0.5724278959 0.7510982033 0.4985687633
0.5824623945 0.748711808 0.7495544513
0.6024467898 0.4999408278 0.7476453953
0.5925226413 0.7482306275 0.9971082525
0.6125585334 0.7505975155 0.9962898229
0.5924380396 0.5009005879 0.9975772403
0.6124261134 0.5005104415 0.9989198326
0.6025203565 0.7509876618 0.2458570165
0.6024982865 0.4994576965 0.2485973763
0.5924159696 0.7512152472 0.4973797415
0.592585173 0.4991956482 0.4956941443
0.6124261134 0.7513257887 0.4954890772
0.6124702534 0.49994668 0.4970468521
0.6025644966 0.7484712178 0.7472996318
0.6224716469 0.5006847069 0.7486596963
0.6325392505 0.749628652 0.9961886687
0.6325760338 0.5013869703 0.9985428033
0.6224275069 0.7506755447 0.247091098
0.6224017585 0.5012517196 0.2458744886
0.6324987888 0.7483541738 0.4981034539
0.6325944255 0.4989427033 0.4956095426
0.6224311852 0.7510982033 0.7457299022
0.6424082239 0.5000273102 0.7468315637
0.6524169742 0.7496351544 0.996115102
0.6625655011 0.498304814 0.7468067349
0.6524831842 0.4997880205 0.9996279122
0.6425884624 0.7501878618 0.2460179437
0.6425480007 0.5015098664 0.2461715142
0.6624514727 0.7489849105 0.2463480743
0.6624477944 0.4998771039 0.2494268409
0.6525273242 0.7498302276 0.4971103034
0.6526045692 0.4995604351 0.4973006573
0.6424707556 0.7506560374 0.7489907464
0.6625323961 0.7486988031 0.7456682901
0.6825241481 0.4993458546 0.7466035069
0.672559538 0.7486012665 0.9993888204
0.6725006846 0.5003608854 0.9967036356
0.6825609315 0.7509941643 0.2493725855
0.6825903582 0.5016353635 0.2467664849
0.6724896496 0.7491669788 0.4962578492
0.6725043629 0.4989719643 0.4974808957
0.6825241481 0.7496481593 0.7481907085
0.7025931452 0.4995630361 0.7488095884
0.6925145067 0.7495506227 0.9966024814
0.7125908604 0.7515858863 0.995830031
0.692429905 0.4986637487 0.9999865498
0.712487867 0.4999544829 0.9991773161
0.7025011869 0.7506690423 0.2497882373
0.7024644035 0.5015709894 0.2464777356
0.6925917517 0.7498887496 0.4968978796
0.6924188699 0.500541003 0.4978478096
0.7125577554 0.499384219 0.4976620537
0.7125025804 0.7492840227 0.4957667915
0.7024864735 0.7494010666 0.7462816525
0.722581219 0.4993751156 0.7456094368
0.7324906541 0.7484582129 0.9964461522
0.7424295159 0.5002295361 0.7489999423
0.7324943324 0.4985948228 0.9968875524
0.7224561556 0.7489589007 0.2466129144
0.7225481139 0.5008576718 0.2498415732
0.7424699776 0.7510071692 0.2454818263
0.7424295159 0.5000695761 0.2489302656
0.7324759408 0.4997802175 0.4965999344
0.7325862908 0.7509291399 0.4976243508
0.7225370789 0.7507405691 0.7475856224
0.742539866 0.7493165349 0.7464536147
0.7525596512 0.5013850196 0.4993191437
0.7524382661 0.7494921008 0.9992508828
0.7625500097 0.5008914845 0.7496234201
0.7524603362 0.498789896 0.9964921314
0.7625132264 0.7488678666 0.2468713175
0.7624249463 0.5015079157 0.245500218
0.7525486162 0.7504804716 0.4980841427
0.7625831148 0.7488613641 0.7491875374
0.7725697949 0.5010631489 0.4978744776
0.7725697949 0.7484517104 0.9995267579
0.792506372 0.5014006255 0.4959718587
0.792473267 0.7505715057 0.9979082904
0.7824019851 0.5013746157 0.7495489338
0.7725697949 0.4987794921 0.9975036736
0.7925247637 0.5012575718 1.0001612708
0.7824277334 0.7486402812 0.2468115445
0.7824718734 0.4986344877 0.2453319342
0.7725550816 0.7504024423 0.4994350113
0.7924916586 0.7506690423 0.4984556545
0.7824166984 0.7504999789 0.7491010965
0.812453984 0.5017003879 0.4971682372
0.8125459424 0.750057813 0.9993888204
0.8024305205 0.4993692634 0.7455469051
0.8124282357 0.4999265224 0.9975128694
0.8024746605 0.7483216616 0.2457282748
0.8025997239 0.5006547957 0.2486746213
0.8125128374 0.7508055935 0.4976638929
0.8025702972 0.7508055935 0.7494505383
0.8324420577 0.500482481 0.4972050205
0.8325891912 0.7509941643 0.9971634275
0.8225105526 0.5006834064 0.7497907844
0.8424213813 0.5005026386 0.7472628485
0.8325266595 0.4991930473 0.9989658118
0.8225510143 0.7511697301 0.2485486384
0.8225399793 0.4987710389 0.2465963619
0.8425685147 0.7510266765 0.2493017775
0.8424029896 0.5008654747 0.2459701254
0.8325009111 0.7483541738 0.4991674124
0.8224553775 0.7504999789 0.7482688732
0.842572193 0.7510917009 0.7487976338
0.8524889848 0.4994739526 0.4977668863
0.8624903784 0.7493100325 0.7450981482
0.8624719867 0.4986175814 0.7487314238
0.8525478382 0.7500643154 0.998441649
0.8524595581 0.5017875206 0.9985244116
0.8625014134 0.7488808714 0.245867132
0.862409455 0.5011359762 0.249104067
0.8525662299 0.7500318032 0.4960628975
0.8725285552 0.4988211077 0.4986460084
0.8825740888 0.750486974 0.748107946
0.892560769 0.4987541326 0.4972068597
0.8724182052 0.7516899253 0.9956828976
0.892571804 0.7497196861 0.998331299
0.8824821304 0.4987437287 0.745836574
0.8724844152 0.4985915716 0.9959679686
0.8924872023 0.4998198824 0.9986623492
0.8824122421 0.7486597885 0.2457043656
0.8825078788 0.4985083404 0.2469366079
0.8724917719 0.7504349545 0.4967369524
0.892483524 0.7498497349 0.4984096753
0.912530451 0.5009578093 0.4986147425
0.9025768759 0.7510721936 0.7455395484
0.9224582779 0.7519565253 0.7488114276
0.9124495277 0.7505519984 0.9953518474
0.9025069875 0.5011086659 0.749188457
0.9225024179 0.5004382644 0.7455606988