POSCAR file written by Ovito 3.7.11
1
271.591627901 0.0 0.0
0.0 15.3635425442 0.0
0.0 0.0 10.863665116
Sr Ti O 
800 800 2400 
Direct
0.0123607084 0.2499801892 0.5460273797
0.0226208185 0.250749543 0.7915513324
0.0026377651 0.249525216 0.7901245579
0.0125129223 0.250593329 1.0448986116
0.0224308274 0.001228185 0.2932636972
0.0024091498 1.000913118 0.2892981847
0.0125864518 -1.0803028687e-04 0.5427816979
0.022463634 -1.7429104653e-04 0.7947334997
0.0024924366 4.8444041432e-05 0.7942714088
0.0126494139 1.0018634197 1.0425605425
0.0224477646 0.2517707919 0.2935821901
0.0026227057 0.2507293654 0.2895945856
0.0324878016 0.2507475903 0.5428194384
0.0424976831 0.2497510754 0.7891423848
0.0325017932 0.249447109 1.0443831318
0.0424155745 1.0013622332 0.2904248763
0.0324951656 5.0257107496e-04 0.5415960943
0.0424096833 0.9997480222 0.7892583677
0.0324944292 0.0016502231 1.0424408776
0.0426943018 0.2510951664 0.2888121609
0.0724452189 0.2516816197 0.527853955
0.0525267109 0.2509727988 0.5361145189
0.0625826173 0.2513503159 0.7837114368
0.072530273 0.2515514414 1.0240677044
0.0524913637 0.2514746362 1.0349019854
0.0624353374 0.999682933 0.2808498388
0.0725475784 1.0013427065 0.5300033217
0.0524427613 0.0017226673 0.5359746029
0.06246958 1.0003858959 0.7793501094
0.0724779886 0.0017272235 1.0315605716
0.0524817905 1.0008805735 1.0378936093
0.0625141322 0.249585098 0.2835966098
0.0925445129 0.2529046449 0.5271249192
0.1023938593 0.247178752 0.7766548864
0.0825386817 0.2498949224 0.776462502
0.092476396 0.2503121439 1.0237179146
0.1025374572 1.0005225831 0.2751123645
0.0823553182 1.0012515816 0.2769404768
0.0925091658 -1.665454371e-04 0.5290745375
0.1024748632 -5.0103860398e-04 0.7789239181
0.0824871337 1.0014793937 0.7755613328
0.0924237434 1.0032433098 1.0260007537
0.1024211061 0.2498877626 0.2748997291
0.0825475185 0.2518157034 0.2802303426
0.1125013137 0.2504214937 0.5267696064
0.1225141407 0.2491750364 0.7741640144
0.1125454977 0.2495720802 1.0272342232
0.1225586929 6.3027599681e-04 0.2756508568
0.1125388701 1.0005876723 0.5271875132
0.1226481655 1.0002036463 0.7757040103
0.1125256149 -0.0013459609 1.0258258588
0.122453756 0.2505061096 0.2736478495
0.1525338437 0.2508654017 0.5189803383
0.1325578966 0.2509402542 0.5232671052
0.1424897197 0.2511589538 0.7727786624
0.1525990151 0.2502854573 1.0177991018
0.1325450096 0.2524509735 1.0247488742
0.1425968658 0.0014184406 0.2730366378
0.1524996011 1.000223173 0.5192859442
0.1325601058 -0.0016753771 0.5247684401
0.1426344222 5.4357724252e-04 0.7705151537
0.1524764045 1.0002882622 1.0187103964
0.1325810932 3.9591916369e-05 1.0276484481
0.1425405312 0.25217825 0.27239597
0.1725337238 0.2481199412 0.5114423666
0.1625731812 0.2491372847 0.764397513
0.1725499246 0.2491184088 1.0073790457
0.1623953406 0.0028865265 0.2629461205
0.1725105272 -3.8941070337e-04 0.5102217841
0.1625006458 1.0020066158 0.7674204339
0.1724206865 0.0020426456 1.0097539348
0.1624645622 0.2504371151 0.2647769943
0.1924872108 0.2483002381 0.5071049722
0.2024414941 0.2483783451 0.7566542699
0.1826330779 0.2471227753 0.7574965271
0.1924014202 0.248505269 1.0077564505
0.2024219795 -0.0018115436 0.2580352549
0.1823900659 -0.0017404663 0.2598762542
0.1925722649 -0.0014417722 0.506409995
0.2024565902 0.9979775972 0.7588883226
0.1825506011 0.9983095518 0.7595989483
0.1923027426 -0.001272996 1.0084560303
0.20252618 0.2484401798 0.2565845474
0.1824817477 0.251157652 0.2605528214
0.2125872413 0.2488574013 0.5063501625
0.2223935082 0.2489400645 0.7524034025
0.2125743543 0.2482865694 1.0088242301
0.2225035999 0.9965911982 0.2536426305
0.2123534343 0.999682933 0.5032664887
0.2225444701 0.9970207866 0.7535724371
0.2123968819 0.9987065957 1.0072777907
0.2224561022 0.2494607778 0.252403638
0.2523657134 0.2489680528 0.4972813999
0.2325764436 0.2493136763 0.5040341854
0.2423926519 0.248511127 0.7489708593
0.25238891 0.2508074724 0.9977414143
0.2324299 0.2460748399 1.0026476774
0.2424854383 0.999064586 0.2492582906
0.2523458306 -0.0019005335 0.4978290972
0.2323584693 -1.6185901795e-04 0.5007093406
0.2425071621 0.9975154642 0.749790104
0.2525424493 4.8948815483e-04 0.9982016641
0.232398603 -0.0038023931 1.0044334468
0.2423182755 0.2483100015 0.2502625558
0.2725044049 0.2489237922 0.4940173081
0.2623873772 0.2475237245 0.7481902756
0.2725007229 0.2504559909 0.9899079622
0.2623954776 1.0009782072 0.2431885159
0.2723987315 -0.002752121 0.4931814944
0.2623730174 1.0002166641 0.74436652
0.2724149323 -0.0026909567 0.9916569115
0.262508515 0.2481876339 0.244248011
0.2924505278 0.2492336166 0.4858708862
0.3022792549 0.2484401798 0.7386483761
0.2825047131 0.2488398272 0.740337493
0.292461942 0.248781247 0.9897882972
0.3024320579 -0.0014368254 0.2372015862
0.2823758432 0.9989344077 0.2416475995
0.2924302768 -0.0018488853 0.4877754
0.3024048111 -0.0022213319 0.7371295517
0.2823489646 0.9986935779 0.7384688787
0.2922579593 -0.0021033709 0.9885272127
0.3023348531 0.2494106591 0.2386532141
0.282303676 0.2487233176 0.2424456727
0.3325224552 0.248384854 0.479571907
0.3124113787 0.2485664528 0.4868825153
0.3224643396 0.2484603574 0.7314132489
0.3324293006 0.2511986582 0.9785029715
0.3124253703 0.2479233719 0.9827556799
0.3223704486 -0.0021307278 0.2346048566
0.3325346058 -0.0014605178 0.4787020348
0.3123244836 -0.0010910067 0.4878932239
0.3225707493 -4.6478394471e-04 0.7325233714
0.3325007314 0.0018762126 0.9802611258
0.3123878139 0.9983160608 0.9874134081
0.3223605072 0.2496117846 0.2317282952
0.3525521595 0.250143563 0.4736530942
0.3424141445 0.2475842574 0.7252661522
0.3526394229 0.250509364 0.9758335225
0.3425135585 -9.2600569612e-04 0.2246257199
0.3527226361 8.4884537886e-04 0.4739043906
0.3426626794 1.0004965475 0.7230891705
0.3525871385 0.002960663 0.9730996385
0.3424980941 0.2496768737 0.226936174
0.372666918 0.2511947528 0.4698523512
0.3827960962 0.2499958106 0.7188309391
0.3626076978 0.2485911866 0.7258433054
0.372703738 0.2521138117 0.9719398089
0.3827040462 1.0008610467 0.2156968732
0.3627107937 1.0013427065 0.2165603019
0.37268901 8.386914707e-04 0.4710600467
0.3826709083 8.0532994782e-05 0.7124021695
0.3626113798 1.0000018699 0.7195415648
0.372770014 7.2595705447e-04 0.9675950505
0.3826745903 0.2479845557 0.2221072328
0.3627402497 0.2487168087 0.2237448017
0.3927080365 0.2504579436 0.4646644151
0.4025905208 0.2489237922 0.7102500413
0.3926896265 0.2490982312 0.9619984126
0.4026052488 1.0010172607 0.2099492733
0.3926159865 1.0027746679 0.4634152971
0.4025316088 -9.5731357961e-04 0.7099508789
0.3925349826 0.9988172473 0.9623850225
0.4026015668 0.2506727378 0.2114717798
0.4325362156 0.2490435563 0.4577588267
0.4126166031 0.2491958649 0.4570380755
0.4225543173 0.2515071808 0.7044573369
0.4325398976 0.2479435496 0.9540360906
0.4126092391 0.2522186052 0.9588595088
0.4224512214 1.0000279055 0.2090333762
0.4324736216 0.9994616299 0.4528433585
0.4125908291 -0.0015619918 0.4566468631
0.4224585854 1.0000148877 0.7080426831
0.4325362156 0.997528482 0.9532444609
0.4125135071 -0.0011615633 0.9581875441
0.4226537313 0.2497907798 0.2031964879
0.4525662881 0.2491203615 0.4540252801
0.4425033859 0.2488665138 0.6996366802
0.4526104721 0.2491789417 0.9533088959
0.4425254779 1.0006006901 0.206820495
0.4523858702 -0.0020770683 0.4548334788
0.4424849759 -0.0031555761 0.7049949087
0.4525331501 1.0001190304 0.9553339951
0.4425365239 0.2502769958 0.2015948185
0.4723864867 0.2498200699 0.4494706478
0.4825782589 0.2503264635 0.7015936625
0.4625886884 0.2479565674 0.7033757498
0.4724785367 0.2493130254 0.9538519907
0.4824457069 -8.8011784193e-04 0.2013214301
0.4624708644 -9.8237290423e-04 0.2039853561
0.4724932647 0.9993639962 0.4505494734
0.4824604349 1.0015705185 0.7037144937
0.4625813244 -0.001748277 0.7027507306
0.4725006287 -0.0022048709 0.9543858805
0.4825046189 0.2480086387 0.1983997642
0.4625371404 0.249417168 0.2010986692
0.5124871337 -0.0012681794 0.4534674573
0.5124171757 1.2987057417e-04 0.9513206166
0.4925343832 0.2476831929 0.4510971707
0.5023211355 0.2497406611 0.698827561
0.4926374791 0.2495004821 0.9506486519
0.5124245397 0.247898638 0.4512435301
0.5124797697 0.2482384034 0.9538704007
0.5025494194 8.8301718517e-04 0.2019289598
0.4923466012 1.4458072317e-04 0.4489192685
0.5024500055 -3.276410954e-04 0.7030121525
0.4925454292 -0.0010988174 0.9493415424
0.5023984575 0.2499066385 0.201389547
0.522509534 0.9980361774 0.2033410063
0.5325024782 -7.3988658878e-05 0.4537988372
0.522542672 0.9972030362 0.7044996799
0.5325282522 1.0019219999 0.9511641317
0.5225647639 0.2504104285 0.2019455288
0.5324987962 0.2505835657 0.4584639294
0.522542672 0.2498226735 0.6990954264
0.5324509302 0.2503876473 0.9549842053
0.5424770125 -0.0010087991 0.2079269356
0.562554951 0.00164072 0.2095479355
0.5524994128 -7.8573856737e-04 0.4535401768
0.5424843765 1.0010237696 0.7066343186
0.562444491 1.0008154843 0.7078097967
0.5524662748 8.2235409283e-04 0.9587306389
0.5424880585 0.2503778839 0.202780422
0.562470265 0.248967402 0.2087342138
0.5525178227 0.2508543366 0.4548141483
0.5425727445 0.2479292299 0.7051771677
0.562577043 0.2493253923 0.7083841885
0.5526135547 0.2506096013 0.9548737453
0.5825334755 6.5357791425e-04 0.2095884375
0.5724558453 -2.7648101968e-04 0.458291796
0.5825297935 0.9994355942 0.7113758123
0.5723637953 0.0012282501 0.9591724787
0.5825629315 0.2488196496 0.2097393994
0.5725663052 0.2497868744 0.4578582406
0.5824340616 0.2473395222 0.7134009116
0.5724705733 0.2504039196 0.9600101334
0.602526728 0.9992077822 0.2192739349
0.5924049138 1.0018178573 0.4606031706
0.6124497143 -8.7006489851e-05 0.4683574597
0.6024052221 5.8302127037e-04 0.7184885132
0.5924417338 0.0011809302 0.9613080379
0.6123576644 6.2890912456e-04 0.9702552945
0.60262246 0.2505367015 0.2172138566
0.5925521938 0.248822904 0.4664658329
0.6124681243 0.2491307757 0.4728007116
0.6023868121 0.2498064012 0.7183274257
0.5925853318 0.2504859319 0.9665272709
0.6125785843 0.250941556 0.9729063336
0.6225273446 -9.4195253906e-04 0.2240890686
0.6325607908 -0.0023033052 0.4745625479
0.6224058386 -6.8716437333e-05 0.7276502463
0.6324282389 0.9994421031 0.9747381279
0.6224132026 0.250347292 0.2226273151
0.6324797868 0.2518098454 0.4784268055
0.6223506086 0.2504768195 0.7226408871
0.6325055608 0.2499027331 0.9790552713
0.6423843631 1.0003338246 0.2311640289
0.6626058996 -0.0015152578 0.2399621646
0.6524951314 -9.6818346847e-04 0.4818685537
0.6425905551 0.99868056 0.7315255498
0.6625690796 1.0012776173 0.7360093036
0.6523957174 0.9998456559 0.9834920796
0.6424948231 0.2513177713 0.2277351677
0.6624328456 0.2502782975 0.2365627594
0.6524656754 0.2502522619 0.4810557525
0.6424874591 0.250419541 0.7299901564
0.6624070717 0.2517258803 0.7346626126
0.6525356333 0.2496378203 0.9821021251
0.6826912021 0.9991557109 0.2384939677
0.6724368359 1.001147439 0.4867554863
0.6826985661 2.1689477423e-04 0.7408695418
0.6724257899 -2.9125625783e-04 0.9858761737
0.6825365581 0.251445997 0.2384065202
0.6726393458 0.2491379355 0.4892831784
0.6825549681 0.248949177 0.7388011791
0.6725362499 0.2490761008 0.9865573434
0.7026218606 4.9423966313e-04 0.2411901112
0.6924484984 0.9999042361 0.4888413386
0.7124969809 1.0007243595 0.4928620811
0.7023567567 1.0002166641 0.7412377417
0.6925589584 1.0008480289 0.9910125618
0.712364429 -0.0017642238 0.9925037712
0.7025887226 0.2501292434 0.2420894393
0.6925295024 0.2492095336 0.4889665265
0.7124748889 0.2495506008 0.4896108763
0.7024598527 0.2506877083 0.7388205096
0.6925331844 0.2492590014 0.9893372524
0.7124491149 0.250275694 0.9899447822
0.7223573732 0.0014047068 0.2415297755
0.7423763998 1.001837384 0.2463274197
0.7322472215 -6.5093892764e-04 0.4941995671
0.7224236492 1.0023255527 0.7411429302
0.7423211698 0.00161514 0.7447540504
0.7323724095 0.9988953542 0.9952468602
0.7224899252 0.250959781 0.2435668413
0.7423174878 0.2528102657 0.2467241551
0.7324313215 0.2532867183 0.4948678498
0.7225193812 0.2496371694 0.7428440136
0.7422769858 0.252490027 0.746999149
0.7324313215 0.2520298467 0.9951271952
0.7624285643 0.0010174263 0.247007669
0.7522736121 0.0017658865 0.4992236542
0.7624396102 0.0021797233 0.7493105237
0.75236198 1.0007829397 0.9996284386
0.7622776023 0.2506180629 0.2505681617
0.752424574 0.2530283143 0.4986317729
0.7622960123 0.250959781 0.749850857
0.752310432 0.2504924409 1.0004016583
0.7824144528 3.7187205198e-04 0.2543256412
0.7723552325 0.9990385504 0.502480382
0.792543631 1.0022474457 0.5092801129
0.7823481768 0.0013068778 0.753876202
0.7724178265 0.999604826 1.0002083533
0.792447899 5.0979597115e-04 1.0088978701
0.7823039928 0.2495479972 0.2518853967
0.7723147306 0.24826509 0.5020735211
0.7922306611 0.2507371761 0.5043701678
0.7823150388 0.2506213174 0.7535659936
0.7724215085 0.2494790027 1.0013313629
0.792400033 0.2498500109 1.0078853205
0.8024261153 1.0020651961 0.2609587618
0.8123527836 4.9469528722e-04 0.5150378383
0.8023009273 0.0026695843 0.7609861413
0.8124116956 1.0005486188 1.0147890679
0.8025549852 0.250509364 0.2595807738
0.8124558795 0.2515123879 0.5123453768
0.8023856133 0.2499710767 0.7610303253
0.8124890175 0.2497738566 1.0129296586
0.8225224638 1.0003533513 0.2655483731
0.8424310303 1.0007959576 0.2708403256
0.8324380861 -2.5786552138e-04 0.5190972417
0.8224230498 8.2420580273e-05 0.765887802
0.8425009883 -0.0012495639 0.769730888
0.832541182 -3.2591956381e-05 1.0191338263
0.8224083218 0.2506193647 0.268422173
0.8425930383 0.2527523363 0.2718547162
0.832570638 0.2493260432 0.5203076988
0.8225077358 0.250563388 0.7677380063
0.8425046703 0.2538601537 0.7742440978
0.83255591 0.2517473598 1.0206158307
0.8625384248 0.0013769137 0.2740455054
0.8524828866 1.0007503952 0.5222140536
0.8625605168 1.0001971373 0.7748461046
0.8525454806 0.0013633101 1.0220702202
0.8625862908 0.2507130931 0.2727135424
0.8525823005 0.2529599707 0.5273430777
0.8626194288 0.2517421526 0.7754011659
0.8526338485 0.2512181849 1.0256509638
0.8826789573 0.9997935846 0.2737638325
0.8725534611 0.001083622 0.5245125412
0.8925467136 3.4961156101e-04 0.5258399017
0.8825979533 1.0020521783 0.7776002396
0.8725350511 0.0016236016 1.0237363245
0.8825905893 0.2504982989 0.2769239078
0.8925319856 0.0013371442 1.0260007537
0.872715469 0.2527920407 0.5256208228
0.8926350816 0.2524451155 0.530504994
0.8826053173 0.2492804808 0.7757104538
0.872656557 0.2540176695 1.0284124628
0.8926203536 0.2494503635 1.0280442629
0.9025948878 -0.0016128915 0.2815438956
0.9223635384 -2.7954020995e-04 0.2861758498
0.9125178741 -0.0018782991 0.5338418052
0.9024218339 1.0003468424 0.7825654147
0.9223782664 0.999682933 0.78321989
0.9125767861 0.9997740578 1.0351229053
0.9026832558 0.2477782231 0.280293857
0.9224776804 0.2510964682 0.2867005346
0.9125105101 0.2475061504 0.5343729335
0.9026096158 0.2493709547 0.7782574763
0.9225218644 0.2503948071 0.7868503406
0.9125215561 0.2510743379 1.0293329625
0.942367837 0.9997350043 0.2929120663
0.9324411687 0.9992142911 0.5399106595
0.9424746149 1.0006332347 0.7896385341
0.9324080307 0.9991231663 1.0373965394
0.9424856609 0.2503928544 0.2866057232
0.9324301227 0.2518345792 0.5345257365
0.9425703469 0.2521925696 0.7874127659
0.9326363146 0.2485820742 1.0375530244
0.9625488714 -0.0020484226 0.2924481345
0.9524675592 1.0002492087 0.5384921695
0.9725749537 1.0007048327 0.5403672273
0.9624936414 0.999533228 0.7906354352
0.9523791912 1.0004054226 1.0392835637
0.9626151474 0.2495564588 0.2899176809
0.9724865857 -6.051520382e-05 1.041281048
0.9525706552 0.2500237989 0.5409222886
0.9725049957 0.2497907798 0.5377115858
0.9626114654 0.2502900136 0.7920631302
0.9525080612 0.2520773618 1.0402132684
0.9725418157 0.2506330334 1.0401488334
0.982512668 -0.002160747 0.2886179354
0.9924614282 1.0019285089 0.5389873983
0.982494258 1.0011799836 0.789933094
0.9825384419 0.2495232633 0.2902242073
0.9924098803 -9.3394657301e-04 1.0433613772
0.9924282902 0.2487675783 0.5422146701
0.9825384419 0.2487838505 0.7886867374
0.9924761562 0.2469242534 1.041133768
0.0124745558 0.7514003518 1.0442634669
0.0226872786 0.501668235 0.792587815
0.0025634992 0.5000494678 0.7951550885
0.0126069973 0.5008416028 1.041308663
0.0225265593 0.7522400019 0.2945588402
0.0025273788 0.7502743094 0.2900925759
0.0124615215 0.7503133629 0.5458248698
0.0224885979 0.7532228481 0.7932625412
0.0224655118 0.503534992 0.2953845284
0.0024595196 0.501932497 0.292452737
0.0024893806 0.7501050776 0.7887990384
0.0125638811 0.5013102447 0.5437206075
0.0325629144 0.7492328829 1.0416400429
0.0426029882 0.4996302936 0.7853342777
0.0325850064 0.5009489999 1.0404525983
0.0424862689 0.7497861407 0.2902527428
0.0324554 0.7487056608 0.5414929984
0.0424527627 0.7505802284 0.7906253097
0.0426847286 0.5006534951 0.2883491495
0.0325791152 0.4999869822 0.5435935786
0.0724776204 0.7510033079 1.0288174826
0.062548743 0.5003742626 0.7769945508
0.0525399661 0.749844721 1.0347915254
0.0725085492 0.5019904264 1.0280534679
0.0526136061 0.4990431894 1.0351413153
0.0623948354 0.7500855508 0.2835496643
0.0724709929 0.751458932 0.5257312828
0.0524379747 0.7507299335 0.5327905946
0.0625446928 0.4995163876 0.2806942744
0.0724470599 0.5017906027 0.5287192246
0.0624257642 0.7504630679 0.7840575447
0.0525620581 0.4989872128 0.5359681594
0.0923865552 0.7526045011 1.0269948933
0.1025496078 0.4997259747 0.7757923783
0.0824267489 0.5010336158 0.7747052682
0.0925172662 0.5013903043 1.0268292034
0.1025650722 0.7498577388 0.2761120271
0.0823954519 0.752226984 0.2789278356
0.0924495174 0.7486926429 0.5261519511
0.102586796 0.7493760791 0.7756754748
0.1024354658 0.5007452708 0.2744707762
0.0825037027 0.5007843243 0.2762804785
0.0824046569 0.750384961 0.7776803231
0.0925886969 0.5001874568 0.5271258397
0.1125097823 0.7495583287 1.0240216794
0.1225793121 0.5008708929 0.7760473567
0.112592259 0.4996023053 1.0220426052
0.1225465423 0.7505411749 0.2740685179
0.1126231878 0.7484062506 0.5240412454
0.1226212869 0.5005871042 0.2730605707
0.1226466927 0.7517062708 0.7714292099
0.1125583847 0.4981364975 0.521188617
0.1526339941 0.7504630679 1.0141907431
0.1425062887 0.5032082444 0.7683105571
0.1325354364 0.7499879171 1.0233773297
0.1525861281 0.4995085769 1.0156083126
0.132562315 0.499970059 1.0201647859
0.1426454682 0.7508991653 0.2687894523
0.1526365715 0.7518755026 0.514355748
0.1326849255 0.7491547759 0.5219590752
0.1427084304 0.502268357 0.2678680322
0.1426016524 0.751224611 0.7690497183
0.1525990151 0.4997344362 0.5148693868
0.1325737292 0.4999498814 0.5179208432
0.1725329874 0.7505216482 1.0080878304
0.1626295157 0.5003521323 0.761772248
0.1726213554 0.5008923723 1.0083547753
0.1625474072 0.7522725464 0.2612883006
0.1726110458 0.7485754824 0.5095986058
0.1626711223 0.50097829 0.2595402718
0.162515742 0.7507104067 0.7637697323
0.172552502 0.4981827108 0.5116909015
0.1924813196 0.748536429 1.0031171323
0.2025825146 0.4988986915 0.7532852412
0.1826374963 0.4991186928 0.7538053235
0.192423144 0.4987463829 1.0050593865
0.2024300799 0.7518104134 0.2548006191
0.1824434549 0.7483932328 0.2607958333
0.1925093028 0.7491677938 0.5054066504
0.2024275025 0.5009398874 0.2586602741
0.2024249251 0.7484843576 0.7525967074
0.1825837391 0.5002349718 0.2585847932
0.1825737977 0.7505932462 0.7581629689
0.1926838295 0.4968002171 0.503779207
0.2124344383 0.7490766689 1.0055748663
0.2225547797 0.4976646011 0.752295704
0.2123688987 0.4987092821 1.006384906
0.2225205371 0.7506453176 0.2490189607
0.212608965 0.7490050709 0.5044382847
0.222474144 0.4987242526 0.2513579504
0.2224332738 0.7478920463 0.7492488502
0.2124649989 0.4992586345 0.5014623093
0.2525085749 0.7505021214 0.9937832657
0.2424014887 0.4970045971 0.7520121902
0.2324033896 0.7497080337 0.9993154687
0.2525439221 0.4995697607 0.9982016641
0.2324240088 0.4981866161 1.0023623225
0.2424861747 0.7480873138 0.2463347837
0.2525118887 0.7510814149 0.4962219048
0.2324983852 0.7486991518 0.5003770402
0.2423226939 0.4963159538 0.2502772838
0.2424515639 0.7477228145 0.7514598904
0.2524592361 0.500119764 0.4976910222
0.232413331 0.4996589328 0.5026792099
0.2724716351 0.7500985687 0.9908376668
0.2624635946 0.4971172013 0.7456165585
0.2724918861 0.5002082853 0.9914820166
0.2625873098 0.748686134 0.2446981353
0.2724771581 0.7508210583 0.4901723811
0.262449603 0.4970996273 0.2450654147
0.2625777366 0.7487186786 0.7423478643
0.2725253922 0.4987607025 0.4941848391
0.292401189 0.7492654275 0.9862996035
0.3023635727 0.4973202795 0.7347500601
0.2824807801 0.4978579159 0.7410619262
0.2923400678 0.5001770425 0.9894845324
0.3023392715 0.7478269572 0.2326920583
0.2823832072 0.7503328896 0.2381699518
0.2924542098 0.7490441244 0.482265289
0.3025285262 0.4972708117 0.234959249
0.3024545181 0.7490115798 0.735077758
0.2825533155 0.4976320565 0.2404583139
0.2825106043 0.7484127596 0.7347988466
0.292467465 0.49895597 0.4893641824
0.3324175182 0.7497015248 0.9766711771
0.3225449753 0.4992866229 0.7312889814
0.3125196295 0.7483346526 0.9819180252
0.3323505059 0.4991974507 0.9804360207
0.3125152111 0.4984092211 0.9848360091
0.3224013774 0.7483411615 0.226888308
0.3325010996 0.7510358525 0.4791613642
0.3124176381 0.7480417514 0.4840528993
0.322468758 0.4976372637 0.2306595951
0.322450348 0.7500269706 0.7314068054
0.3323924807 0.500173788 0.4750062287
0.3124393619 0.4986533054 0.4856766607
0.352455323 0.7492133562 0.9756862425
0.3425757842 0.4999231948 0.7289601173
0.3525757243 0.4988075667 0.9749774578
0.3425466965 0.7492914631 0.2271478889
0.3525039253 0.7485885003 0.4738390352
0.3425161359 0.5002974574 0.2278428662
0.3424251905 0.751224611 0.7247037269
0.3525444273 0.499519642 0.471679543
0.3725049101 0.7493240077 0.9706511094
0.3825714943 0.4999257984 0.7140507843
0.3625303758 0.4997819513 0.7241192096
0.372792106 0.499526151 0.9688745451
0.3825089003 0.7506062641 0.2187446476
0.3626739737 0.7503524164 0.221508908
0.372571186 0.7486210449 0.4707931018
0.3826083143 0.4989572717 0.2164765364
0.3827114102 0.7502808183 0.7164109455
0.3625745598 0.4998470405 0.2202275725
0.3625856058 0.7501376222 0.7224135237
0.372758968 0.5001757407 0.4709100053
0.3925349826 0.7508145494 0.9666653459
0.4027267548 0.5003156824 0.7111153109
0.3926233505 0.4973157233 0.9630938072
0.4025978848 0.7510683971 0.2098047549
0.3927006725 0.7523571623 0.4638414884
0.4026089308 0.4992703506 0.2113134538
0.4025352908 0.7511465041 0.7113178209
0.3926270325 0.4992872738 0.4620391501
0.4324957136 0.7466162989 0.9551130752
0.4225543173 0.500954207 0.708394314
0.4125576911 0.7505086303 0.961114733
0.4325730356 0.4980219406 0.9511457217
0.4125098251 0.5001451488 0.9572486344
0.4225690453 0.7476642343 0.2052897041
0.4325178056 0.7482630545 0.4551841891
0.4125319171 0.7509317099 0.4590051832
0.4226721413 0.4987203472 0.2048561487
0.4224475394 0.7487447142 0.7060755753
0.4325141236 0.4991492847 0.4537905527
0.412649741 0.4992840193 0.4565695411
0.4525883801 0.7484322863 0.9535390208
0.4425512519 0.4983402266 0.7036196822
0.4526178361 0.4986962642 0.9515323315
0.4425070679 0.7490636511 0.2025143976
0.4526141541 0.7465512097 0.4533827713
0.4425991178 0.4984014104 0.2054765655
0.4424997039 0.7490311065 0.7027939941
0.4525405141 0.5005291748 0.4526896351
0.4725411307 0.7490571422 0.9534377658
0.4824493889 0.5001516577 0.7024303967
0.4625886884 0.4995456777 0.7032330724
0.4725521766 0.4993412978 0.9518545064
0.4824493889 0.7496494535 0.2008418497
0.4626512823 0.7497015248 0.2039411721
0.4726110886 0.7488879104 0.4545886259
0.4824825269 0.5007296494 0.2011327276
0.4824898909 0.751693253 0.7031621939
0.4626181444 0.4987639569 0.1996083802
0.4625702784 0.7492328829 0.7039335726
0.4726663186 0.4984326532 0.4485197716
0.4925491112 0.4989299343 0.9501699921
0.5024168675 0.7508340761 0.2018866169
0.4924091952 0.7500269706 0.4540087111
0.5025751934 0.4989865619 0.2025705481
0.5024426415 0.7505932462 0.700141114
0.4925049272 0.7509252009 0.953097181
0.4923907852 0.4986240153 0.4505356659
0.5023874115 0.4992462676 0.7019811929
0.5124134937 0.7494281504 0.9547540803
0.5123508998 0.5008747982 0.9520754263
0.5125718197 0.7500074439 0.4490435359
0.5122809418 0.5000397044 0.4484829516
0.522358572 0.5002544986 0.7009309028
0.5325245702 0.7494086236 0.95556412
0.5323699263 0.5005890569 0.9541373456
0.522380664 0.4990340769 0.2021130598
0.522413802 0.7499098101 0.2009734812
0.5325282522 0.7486535894 0.4555901295
0.5324104283 0.4990067395 0.4533523948
0.522535308 0.7495453109 0.704392902
0.5424733305 0.4989657333 0.7050418542
0.5525141407 0.7507038978 0.9591724787
0.5623855791 0.5004816597 0.7078705497
0.5524184088 0.4996504712 0.9568804345
0.5424401925 0.5022293036 0.2063501197
0.5425396065 0.7490050709 0.202778581
0.562551269 0.5009164553 0.2105715311
0.562462901 0.7481263673 0.2102106952
0.5524662748 0.4999668045 0.456829122
0.5525030948 0.7502873272 0.4587060208
0.5424806945 0.7494997484 0.7072372459
0.562407671 0.748458322 0.7103687857
0.5825077015 0.4988622416 0.7111079469
0.5723085653 0.7498317031 0.9614000879
0.5725184393 0.497491464 0.9632226772
0.5825555675 0.4999895857 0.2152034854
0.5824046056 0.7493435345 0.2130955412
0.5725663052 0.4993432504 0.4615181473
0.5724558453 0.7480352425 0.4617252597
0.5824892915 0.7489660174 0.7149206565
0.6024530881 0.5002167469 0.7193528624
0.5924822358 0.7503263807 0.9677975605
0.6124681243 0.7511399951 0.9735598883
0.5925116918 0.4986051394 0.9661774811
0.6125454463 0.5000904739 0.9740201381
0.6024604521 0.7486600983 0.2182834772
0.6024862261 0.5003410672 0.2184638952
0.5924527798 0.7488488569 0.4660488466
0.5924932818 0.4986038376 0.4690993824
0.6123944844 0.7506973889 0.4718249819
0.6124791703 0.4999837277 0.4759000339
0.6024678161 0.7476186719 0.7180319454
0.6225126166 0.5016239744 0.7268245581
0.6323398709 0.7516216549 0.9792393712
0.6323803729 0.4974524105 0.9780519266
0.6225383906 0.7493890969 0.2268266345
0.6223800646 0.5016161637 0.2259070554
0.6323766909 0.751302718 0.4799631194
0.6323987829 0.5008481117 0.4774832933
0.6225089346 0.7492914631 0.7234325168
0.6424175011 0.5009398874 0.7306961796
0.6525356333 0.749454186 0.9837590245
0.6624880756 0.5003033155 0.7369841128
0.6523625794 0.4986383349 0.9813841354
0.6424285471 0.7491027046 0.2296691375
0.6423880451 0.5000071598 0.2300511448
0.6624402096 0.7503003451 0.2375927985
0.6625396236 0.5014846836 0.2351774074
0.6524362194 0.7487772588 0.4864627674
0.6522631654 0.4996563293 0.4825322339
0.6423438612 0.7499358458 0.730905133
0.6625138496 0.749226374 0.7347997671
0.6824481902 0.5000286392 0.7384467867
0.6725252039 0.7505737195 0.9896134023
0.6724441999 0.4998489932 0.9879196829
0.6824445082 0.74852992 0.2435346238
0.6825071021 0.4993386942 0.2392589029
0.6724368359 0.7502873272 0.4911425877
0.6724073799 0.4990978643 0.4892583249
0.6824518722 0.7497926496 0.7405041035
0.7024193507 0.5012282324 0.7421435133
0.6925258204 0.7499358458 0.9890426925
0.7124417509 0.7499293369 0.9901472921
0.6925000464 0.5005988202 0.9921815963
0.7125264369 0.4997070988 0.9914175816
0.7024524887 0.7506778621 0.244251693
0.7025077187 0.4987633061 0.2417378085
0.6924816364 0.748224001 0.4922278568
0.6924448164 0.5015432639 0.492957813
0.7124454329 0.5003163333 0.4911011652
0.7124564789 0.7531382322 0.4915052646
0.7023788487 0.7494867306 0.7421858563
0.7222947793 0.5004953285 0.7405004215
0.7323760915 0.7522595286 0.9942066956
0.7423064418 0.500881958 0.7459350514
0.7323098155 0.5018771712 0.9922920563
0.7223500092 0.7510488703 0.2438632422
0.7224052392 0.4996686962 0.2422440833
0.7424205837 0.7510423614 0.2444431569
0.7423101238 0.5026992473 0.2493006336
0.7324276395 0.503186765 0.4944195665
0.7323687275 0.751764851 0.4978235742
0.7223242352 0.7505932462 0.742964599
0.7424758137 0.7515760925 0.7455788181
0.75236198 0.503078717 0.497071526
0.752446666 0.7506713532 0.9967012497
0.7624653842 0.5020483557 0.7510051635
0.752457712 0.5017183537 0.9989472688
0.7625169322 0.7500530063 0.2509750225
0.7624248823 0.5019585327 0.2488928523
0.752450348 0.7530275806 0.4992089262
0.7625353422 0.7506843711 0.7490316123
0.7724472825 0.5025098378 0.5028955273
0.7725061945 0.7505672106 1.003761482
0.792425807 0.5021401314 0.5070791982
0.792481037 0.7494867306 1.0079313455
0.7824402268 0.5004888196 0.7572664022
0.7723773245 0.5012314868 1.0051882565
0.792510493 0.5020437995 1.0081062404
0.7825543687 0.7492719364 0.2560791931
0.7825249127 0.5019904264 0.2557708257
0.7725614245 0.7507234246 0.5045689957
0.792396351 0.7489269639 0.5099097347
0.7824880928 0.7505802284 0.7555864903
0.8125700215 0.4999694081 0.5181371606
0.8125221555 0.7501115865 1.0125062287
0.8024297973 0.4996302936 0.7634227039
0.8124669255 0.5015790629 1.0159765124
0.8023672033 0.751380825 0.260448805
0.8025918052 0.5004250322 0.2612477987
0.8124301056 0.7502808183 0.5135272983
0.8024261153 0.7507885137 0.7627746721
0.8324969981 0.5016135601 0.522526103
0.8323791741 0.7503263807 1.0169062171
0.8225666478 0.4999179877 0.7664585117
0.8424420763 0.5009535561 0.7728449384
0.832589048 0.501524388 1.0207815207
0.8225813758 0.7495453109 0.2686071934
0.8225482378 0.5000475151 0.2676461918
0.8425193983 0.7496364357 0.2703257663
0.8425783103 0.5014293578 0.272375719
0.832515408 0.7518299402 0.5156775855
0.8224230498 0.7498317031 0.7674167519
0.8425635823 0.7497145427 0.7714549839
0.8525123426 0.5020717878 0.525066682
0.8624942408 0.7500790419 0.7735942251
0.8626378388 0.50283268 0.7760399927
0.8524792046 0.7530275806 1.0257798338
0.8524792046 0.5008435554 1.0237823495
0.8625421068 0.7501441311 0.2766744524
0.8626083828 0.5015959861 0.2773280071
0.8524644766 0.7518624848 0.5208425091
0.8725276871 0.5006040274 0.5246901977
0.8825243133 0.7498577388 0.7755548893
0.8926866295 0.5012803037 0.5247564736
0.8725902811 0.7521684038 1.0244451093
0.8925651236 0.7512897002 1.0265438485
0.8827525973 0.5000019527 0.7771372283
0.8724982311 0.5032557595 1.0272342232
0.8926387636 0.4998880467 1.0284216678
0.8825869073 0.7510358525 0.2705871882
0.8826384553 0.5010915451 0.2786636521
0.8725681891 0.7528974023 0.5273486007
0.8925614416 0.7515826014 0.5262062606
0.9125878321 0.4992065632 0.5365397897
0.9024770639 0.7504109966 0.7801767181
0.9224887264 0.7472411548 0.7878730157
0.9124552802 0.7497535961 1.0338065908
0.9025212479 0.499975917 0.7783596518