POSCAR file written by Ovito 3.7.11
1
271.6479588506 0.0 0.0
0.0 15.3667291039 0.0
0.0 0.0 10.865918354
Sr Ti O 
800 800 2400 
Direct
0.0124952178 0.2514077346 0.5038768963
0.0224031148 0.2510953714 0.753709438
0.0025221997 0.2511864773 0.7568550534
0.0124401833 0.2491723857 1.0058473532
0.0224088207 7.5712611789e-04 0.2557193166
0.002514285 1.0009784417 0.2570427206
0.0124804928 5.7556503347e-04 0.5079050878
0.0224818196 1.0317872461e-05 0.7567041228
0.0024695212 0.0012889895 0.754833135
0.0123695036 0.9981476506 1.0089303875
0.0224225517 0.2529558845 0.2561343759
0.0023780793 0.2508161969 0.2556254451
0.0323513581 0.2496598024 0.5066074525
0.0422855391 0.2520051291 0.7550926621
0.0324021592 0.252016192 1.009077637
0.0424243217 1.0008157525 0.2583477185
0.0323922198 9.8515122175e-04 0.509473294
0.0423580595 1.0011801762 0.7610857128
0.0322839915 0.0027230617 1.0039515171
0.0424552441 0.2538142324 0.2578866438
0.072522468 0.2498433158 0.5068218844
0.052502439 0.2522394015 0.5074118023
0.062364836 0.2505955904 0.7586947506
0.0725714284 0.2524639125 1.0109918792
0.0524542149 0.2512424424 1.008875169
0.0624962561 0.9997354966 0.2584287057
0.0723641749 1.0015380923 0.5054414212
0.0524255012 0.0022357752 0.5098570627
0.0624171095 1.0019155311 0.760654088
0.0723873667 0.0012082306 1.0072738318
0.0523169048 1.0003797456 1.0078996417
0.0623998077 0.2503391923 0.2577881707
0.0924725535 0.2486335593 0.5006364891
0.1023883283 0.2491444032 0.7525388052
0.0824739508 0.251700575 0.75669584
0.0923853082 0.2495550306 1.0009697167
0.1023967952 0.9989610963 0.2498762762
0.082408793 0.9999437387 0.2559300673
0.0923805226 -8.2610166443e-05 0.5035989631
0.1023349504 0.0010051294 0.7490094211
0.082408793 1.00031467 0.7552555567
0.0925340301 0.9961042749 1.0042000004
0.1024637936 0.2489081786 0.2540747248
0.0824113698 0.2488196757 0.2534443133
0.1123917166 0.2503313832 0.4981903084
0.1222931346 0.2502376743 0.7513746146
0.1123055757 0.249318806 0.9993223639
0.1223553475 8.7680025202e-04 0.244537565
0.1123799366 0.9983168473 0.498355964
0.122413511 0.9994036108 0.7500926245
0.1124730719 -0.0010167062 1.0022581489
0.1222916621 0.2498888687 0.2492541475
0.1524472357 0.2490591541 0.4991336249
0.1323116159 0.2484650134 0.5008693273
0.142418815 0.2518086006 0.7485014106
0.1523371667 0.2491827979 0.9961196894
0.1322935779 0.2477999401 0.9974633402
0.1423415091 -2.4503900755e-04 0.2469819051
0.1524266207 0.9991693384 0.4982989048
0.1323359121 -4.9525491063e-04 0.4992164527
0.1424081394 0.0015565806 0.745492001
0.1523007225 0.9989090358 0.9935796372
0.1324316242 -0.001786356 0.9968375303
0.142323471 0.2481572055 0.246650594
0.1726616338 0.2494906057 0.4971742875
0.1625087874 0.2510446124 0.7464169113
0.1724878795 0.2499493891 0.9984204613
0.1624285365 -0.0025040949 0.2439752564
0.1724926651 -2.8720803361e-04 0.493271258
0.1624020316 0.9994556713 0.7456631784
0.172483462 -0.0010334306 0.9974817464
0.1624819144 0.2491483078 0.2474531032
0.1924928154 0.249663707 0.4980881541
0.2026979353 0.2497352902 0.7470408806
0.1824452523 0.2540270298 0.74534015
0.1926805584 0.2487057933 0.9979419008
0.2025374335 1.786685984e-04 0.2528737219
0.1825711506 -1.0317407421e-04 0.2476288822
0.1925403033 4.104680904e-04 0.5006245251
0.2025981739 1.0003667305 0.748812475
0.1825424369 1.0004903742 0.7469681762
0.1926319661 5.1556527726e-04 0.999534035
0.2025989101 0.2512879954 0.2520610892
0.1826609727 0.2484572043 0.2449277759
0.2126405832 0.249019458 0.4940949344
0.2226178347 0.2495576336 0.7532879366
0.2125831559 0.2498550294 1.0011997938
0.2225147601 0.9992409216 0.2502655668
0.2126133421 0.999924216 0.5010285407
0.2225445781 1.0016096755 0.7541235769
0.2124870757 0.9986422256 1.0037030337
0.2226785751 0.2484012392 0.2496977363
0.2526007583 0.2503522074 0.5014758107
0.2325575376 0.2483465757 0.5021338315
0.2425565083 0.2487409341 0.7513120336
0.25248075 0.2498342052 1.0003439067
0.2325660044 0.250556545 0.9985861169
0.2425163829 0.9982257414 0.2518705853
0.2526140108 -0.0010491789 0.5014932966
0.232642206 -0.0011097643 0.5013754971
0.242549514 1.001798395 0.7515227844
0.2524888488 1.7443868067e-04 1.0018992285
0.2326171736 0.0015095309 0.9976750112
0.2425358934 0.2491307373 0.2517905185
0.2725677775 0.2519817019 0.499405116
0.2626950731 0.2499350725 0.7506392879
0.2726991976 0.2499135975 0.9997917214
0.2625216869 1.0005229121 0.246123257
0.2726340397 -0.0014482228 0.4966046164
0.2626100365 0.9980174993 0.7501791335
0.2725832387 -5.2518971307e-04 1.000058611
0.262599361 0.249965658 0.2509107033
0.2926172563 0.2491554661 0.4969635368
0.3025687391 0.2501752016 0.7467040476
0.2826657735 0.2495237943 0.7474117651
0.2927946918 0.251548298 0.9993591763
0.3026898518 6.8508736504e-04 0.2462557815
0.2826392686 1.0003407002 0.2477282755
0.2925800758 -2.6339034297e-04 0.4970187553
0.3025378168 0.0014414617 0.7450069982
0.2825822094 0.9989741114 0.744478741
0.2926463381 -1.694861692e-04 0.9948496633
0.3026581932 0.2486224964 0.2468309745
0.2826484717 0.2498394112 0.2485123786
0.332677561 0.2509769337 0.4968218093
0.3125423094 0.2514116391 0.4978801644
0.3226274211 0.2496194555 0.7470758524
0.3325498221 0.2488710855 0.9966626716
0.3125537212 0.2504563285 0.9977854483
0.3226900021 -0.0016444259 0.2451458891
0.3326241831 -0.0012475295 0.4947336287
0.3126450158 0.0010965607 0.4941059781
0.3225155115 -5.4386642677e-04 0.7466838008
0.332531416 -0.0010626496 0.9966718747
0.3127583979 0.9989480812 0.9951257559
0.3225350221 0.2490188072 0.2460625167
0.3526151303 0.2506300805 0.4932924251
0.3426121101 0.2504706451 0.7451975021
0.3526026141 0.2490669632 0.9967178901
0.3425892865 7.2113927929e-04 0.2455931592
0.3526512064 -0.0015058799 0.4946747289
0.3426360382 0.9988960206 0.7443443759
0.3525691148 -0.0026048841 0.9955859103
0.3425307549 0.2486426699 0.246948774
0.3726270605 0.2484858376 0.4912143679
0.3824117834 0.2468862779 0.7419258045
0.3625147077 0.2484572043 0.7418595422
0.3726307417 0.2476235851 0.9933679662
0.3825074955 0.9985185818 0.2413827465
0.3624963015 0.9988504677 0.2449038479
0.3725313484 0.0010010948 0.4932611346
0.3824301896 -7.8373530031e-04 0.7430909154
0.3626545946 0.9984339835 0.7469635747
0.3726086543 -7.8308454373e-04 0.9923280173
0.3825737577 0.2479997224 0.2396875378
0.3626435509 0.2493077431 0.2459511593
0.3924836426 0.248679763 0.490010604
0.4025923142 0.2471088366 0.7394225646
0.392520455 0.2483628446 0.988315471
0.4024818771 0.99734722 0.2419919909
0.3925241362 0.9995077318 0.4917417048
0.4024892396 -5.6722858782e-04 0.741492339
0.3926161671 1.0017853798 0.9899168083
0.4024745147 0.249078026 0.2398946073
0.4325244368 0.2489394149 0.4833899027
0.4125206052 0.2479684861 0.487327904
0.4224562588 0.2511161956 0.7385777211
0.4324176809 0.2483960332 0.9859502775
0.4124285744 0.2471752138 0.9888768594
0.4225041148 0.9995728075 0.2373407504
0.4325244368 0.9973992805 0.4879325468
0.4126384048 -0.0012514991 0.4912263319
0.4224452151 0.9981606657 0.7362861523
0.4325833365 1.0008222601 0.9875976302
0.4124874741 -0.0013037549 0.9901652916
0.4225482896 0.2481689191 0.2371530074
0.4524840935 0.2469975573 0.4839844222
0.4425778898 0.2496044881 0.7364886202
0.4524288749 0.2481097003 0.9857109972
0.4425558024 0.9972235762 0.232821114
0.4526423866 2.9378743651e-04 0.4884819712
0.4425116276 5.8473859009e-05 0.7356198487
0.4524988184 0.9995402696 0.9857386064
0.4424784965 0.2519817019 0.235095197
0.4724952874 0.2496370259 0.490410018
0.4825156094 0.2481539517 0.7369533762
0.462419747 0.2504244414 0.7374724303
0.4725063311 0.248032911 0.9839440043
0.4824383034 8.0144052955e-05 0.2362833156
0.4624970529 -6.4232589657e-04 0.2349092946
0.4725468247 0.9984014456 0.4883715341
0.4825524217 0.9993450427 0.7384175874
0.4624602406 -4.3362826298e-04 0.7367923221
0.4726057245 -3.6458299037e-04 0.9880301753
0.4825156094 0.2497008001 0.2424834358
0.4624528781 0.2492029713 0.2345402508
0.5124882255 0.0012984905 0.4871272766
0.5123225699 2.168029337e-04 0.9894106384
0.492484394 0.2497190213 0.4878810095
0.5025857031 0.2518632642 0.7402186317
0.4925727437 0.249938977 0.9881958309
0.5125765752 0.2525530662 0.4859879344
0.5124661381 0.251623135 0.9876252394
0.5024568599 6.2131322069e-04 0.2385003395
0.4925543375 -0.0014830383 0.4887304545
0.5023464228 0.002838571 0.7373003326
0.4924107693 -7.3330166575e-04 0.9910027726
0.5025820219 0.2504895171 0.2393562266
0.5223944292 1.0001259506 0.2365354802
0.53238162 0.0029585705 0.4829104218
0.5224754163 1.0005814802 0.7367113349
0.532444201 0.9976530756 0.9845237989
0.522438604 0.2514331141 0.2350721893
0.5324110699 0.2515704237 0.4851228441
0.5224349228 0.2492673962 0.7389403228
0.5324073886 0.2511396229 0.9838151611
0.5424718854 7.2139747083e-05 0.231986394
0.5624646732 0.0031162489 0.2323609596
0.5524038577 0.0028748182 0.4834313166
0.5423835357 0.9996769285 0.7332914675
0.5623542361 1.0012387443 0.7341648406
0.5524664387 9.5365460352e-04 0.9820297621
0.5424166669 0.2505116428 0.231873196
0.5624241796 0.2542300658 0.2344482199
0.5524001764 0.2515541548 0.4828699282
0.5424718854 0.2524964503 0.7349213344
0.562586154 0.2516140244 0.7343304961
0.5524001764 0.2518287741 0.9842385031
0.582457461 0.0017490744 0.2377824986
0.5724113704 0.0022245171 0.4834211932
0.5824611422 1.0005294196 0.7360615969
0.5724886764 0.0023949503 0.9836403024
0.5824316924 0.2517812689 0.2353252742
0.5724481828 0.2511376706 0.4834708899
0.5823433427 0.2529897238 0.7353014219
0.572326702 0.2511695577 0.98485511
0.6022514621 1.0016291982 0.244099498
0.5923158086 1.0000348446 0.4896102697
0.6124153522 0.0017875992 0.4913827844
0.6023729429 0.0010438495 0.7391363486
0.5924998703 0.0011320921 0.9875332085
0.6123527712 3.0764855156e-04 0.994398712
0.6024465676 0.2493929922 0.2374327813
0.5924888266 0.2514031793 0.4883678529
0.6124263959 0.2518138067 0.4927623273
0.6024428863 0.2517663015 0.7403548374
0.5924593768 0.2505181503 0.9855085292
0.6122938715 0.2514057823 0.9914261147
0.6224246304 0.0012108987 0.2431690659
0.6322388032 6.330919147e-04 0.4969110792
0.6223252371 0.001084717 0.7459401913
0.632282978 0.9992539367 0.9931654982
0.6223252371 0.2504029664 0.2449084495
0.6323860526 0.2509879966 0.4964012282
0.6223951806 0.2507400583 0.7449416563
0.6323713277 0.2519101187 0.99796951
0.6422701688 1.0005033894 0.2453695241
0.6624838308 0.0017062546 0.2447510767
0.6523162594 -5.0039588757e-04 0.4976344419
0.6423732434 1.0011476384 0.7454441449
0.66236235 0.9998591404 0.7484738014
0.6524377402 0.998739839 0.9950889436
0.6423327498 0.2508148953 0.248072471
0.662487512 0.2508227044 0.2483310778
0.652434059 0.2499760701 0.4979123752
0.6423253874 0.2489940784 0.7451533273
0.6623439438 0.252013589 0.747301328
0.6524598276 0.2488945127 0.9973252939
0.6824618936 0.9994166259 0.2491326667
0.6724342092 0.9996508983 0.500156088
0.682546562 0.0025875091 0.7489348761
0.6724783841 5.7868866503e-04 0.9972700754
0.6824324438 0.249965658 0.2481120443
0.6724342092 0.2499747686 0.4983219126
0.6824618936 0.2515105541 0.7475037959
0.6724231655 0.2501595835 0.9988253972
0.7026019308 7.4411098639e-04 0.2509015002
0.6925300716 1.0004903742 0.4975525344
0.7125081345 0.9973407124 0.4997355068
0.7025393498 1.0005033894 0.751098522
0.6924564469 1.0017398269 0.9970399982
0.7125559905 1.9695485816e-04 0.9996168628
0.7025172624 0.2498914718 0.2506677418
0.6925006217 0.2501719478 0.502054685
0.7125339031 0.2504075217 0.5011859135
0.7026276995 0.2513185809 0.75121172
0.692566884 0.249249175 0.99859532
0.7125486281 0.2496519933 0.9999389708
0.7225910374 -3.700493456e-04 0.2486992013
0.7425617378 0.9991823535 0.2501698547
0.7325598221 -2.6007148443e-04 0.4997410287
0.7225321377 0.999130293 0.7506586144
0.7425359692 7.7300457832e-04 0.7469350451
0.7325966344 0.9991888611 1.001632339
0.7225726312 0.2510895146 0.249383911
0.7425396504 0.2495270481 0.2483099107
0.7325819095 0.2484591565 0.4994502111
0.7225615875 0.2497444008 0.7494640536
0.7424476195 0.2492615394 0.7465945309
0.7325782282 0.2507817068 0.9994143948
0.7625582069 -0.0010051878 0.2518365339
0.7526188721 -0.0010176823 0.5022258624
0.7625655693 -9.2488440141e-04 0.7507221157
0.7524937101 1.0003992683 1.0021661181
0.7623446952 0.2488717362 0.2487130059
0.7525820597 0.2470457133 0.4980743495
0.7624293636 0.2493793263 0.74990028
0.7525599723 0.249174338 0.9972884816
0.7824663263 0.0015394006 0.2502416388
0.7724460043 1.0008157525 0.5003935276
0.7925529104 0.9988179298 0.499777841
0.7825509947 -7.3544916244e-04 0.7466184589
0.77258221 1.0019545765 0.9999849863
0.7925271418 0.0012675796 0.9966350623
0.7825436322 0.2519042618 0.2504615926
0.7724975416 0.2495303019 0.499092211
0.7925124168 0.2495784579 0.5029308189
0.7824957761 0.2472695735 0.7479556675
0.7725674851 0.2513198824 1.0014942927
0.7924792857 0.2500060049 0.9978498699
0.8024296642 0.9977702118 0.2499729086
0.812604598 -0.0012903493 0.4993121648
0.8025180138 -9.3412725587e-05 0.7481700995
0.8125493795 0.9984730289 1.0004267345
0.802473839 0.2498023181 0.2499683071
0.8126414103 0.2502155485 0.4986817533
0.8024370267 0.2497867 0.7501699305
0.8125751481 0.2514363679 0.9975001526
0.8225586577 1.0014665091 0.2474807125
0.8426029828 0.9985576272 0.2533596449
0.8325716172 0.0013377311 0.501303713
0.822610195 -5.1620927234e-04 0.7508159872
0.8426582013 0.0018138897 0.7497705164
0.8326341982 1.5498105908e-04 0.9980891502
0.8225549765 0.2503151143 0.2505002456
0.8426508389 0.2492940772 0.2470610517
0.8326857354 0.2515144587 0.497619717
0.8227390382 0.2485424534 0.7511472984
0.8425404018 0.2482834523 0.74757558
0.8325789796 0.2502168501 1.0008500765
0.8627098889 -0.0013344055 0.2494842247
0.8525901736 0.9999307236 0.5018706232
0.8625736832 0.997991469 0.7456162426
0.8525128677 2.4094600263e-04 0.997334497
0.8627172514 0.2472311789 0.2522580353
0.8526601171 0.2502435311 0.4965033824
0.8626399454 0.2495049224 0.7492275343
0.8527705541 0.250214247 0.9996628782
0.8825259774 0.9972170687 0.2497225846
0.8725571928 -1.1820655109e-04 0.4972212233
0.8925426181 0.001643782 0.5007818979
0.8826842705 0.9962995019 0.7482869787
0.8725314241 -0.0016162482 0.9991383022
0.8826585019 0.2490890889 0.2496397569
0.8925978366 -3.9705574346e-04 1.0040067356
0.872686036 0.249294728 0.4986983189
0.8926051991 0.2505500374 0.5021467158
0.8825959209 0.2464593816 0.7492643466
0.8726823548 0.2485170739 0.9967178901
0.8926051991 0.2493357256 1.0030220052
0.9023862408 8.1003262743e-04 0.2555343346
0.9226183089 0.0029412604 0.2607911383
0.9123844753 7.5634521e-04 0.5037609374
0.9024561842 1.0000999203 0.753122281
0.9224158409 1.0007311542 0.7580928687
0.9125979869 1.0002495943 1.0073566595
0.9025592588 0.2496604532 0.2517012485
0.9225520466 0.2512827893 0.2564877744
0.9124065627 0.2515658684 0.5084545122
0.9025850275 0.2493884369 0.7558813667
0.9225041906 0.2502188023 0.7596665967
0.9125501309 0.2516075169 1.0058657593
0.9424564848 0.9999892917 0.2583431169
0.93251715 0.9992994897 0.511058986
0.9425448344 0.99932552 0.7597199746
0.9324177567 1.0007116315 1.0060130087
0.9425264283 0.2497587174 0.2644760546
0.9325208313 0.2492420167 0.5101653662
0.9425448344 0.2502051364 0.7601626431
0.9324030317 0.2521808334 1.0091236524
0.9625118536 0.0010700099 0.2598791123
0.9524620818 1.0010890703 0.5094364816
0.9725211318 1.0015511075 0.5098515409
0.9623977353 0.9999177085 0.7586128431
0.9524988941 0.998486044 1.0119674065
0.9624419101 0.2494756383 0.2613635703
0.9725432192 0.0015992702 1.0070161453
0.9524952129 0.2500964601 0.5091116126
0.9725321755 0.2496760713 0.509336168
0.9625633909 0.249767828 0.7600577279
0.9524363131 0.2490650109 1.0074762997
0.9725432192 0.2497320364 1.0087739351
0.9825709036 0.0021140187 0.2565503554
0.9924697448 1.0002105489 0.5059052569
0.9826150785 1.0000608749 0.7577597169
0.9825598599 0.2504973261 0.2597106958
0.9926243567 0.0016144979 1.0078996417
0.9924476574 0.2514428754 0.5072277406
0.9824310167 0.2513934179 0.759005815
0.992410845 0.2531921091 1.0064731631
0.012424943 0.7485759965 1.0051571216
0.0223248885 0.5024325281 0.7541014895
0.0024643307 0.5017765654 0.7554985183
0.012385701 0.4997793935 1.0058841655
0.0222259737 0.7490900942 0.2559024581
0.0024839885 0.7510683942 0.2579823559
0.0124864196 0.749018511 0.504376624
0.022367959 0.7510879169 0.7572240972
0.0222562703 0.499852929 0.2566267411
0.0024305738 0.5016581278 0.2545146324
0.0023404571 0.7497929113 0.7582640461
0.0123755776 0.4998164866 0.5034618371
0.032392588 0.7511529925 1.0089856061
0.0423260327 0.501681555 0.7596178203
0.032282519 0.5011193013 1.0067124434
0.042231425 0.7519599307 0.2616534676
0.0323789674 0.7499751231 0.5077081418
0.0422332656 0.7506909554 0.7594429617
0.0424464091 0.5007041186 0.2573823146
0.0322828871 0.5013965236 0.5060902389
0.0724764525 0.7513221892 1.0097310562
0.0625577327 0.5015572605 0.7596132188
0.052365129 0.7497018054 1.0124643732
0.0725309348 0.5009091069 1.006252289
0.0523816945 0.5006435983 1.0093169172
0.0623703578 0.7503785922 0.2593572972
0.0724915456 0.7499686156 0.5089542398
0.0524509017 0.7506193721 0.5113691301
0.0625717214 0.4999700652 0.2581931066
0.0724551014 0.4999004342 0.5059577145
0.062353056 0.7506649251 0.758254843
0.0523625521 0.5036006361 0.5088263169
0.0924305874 0.7496952978 1.0015219019
0.1025307921 0.4986932808 0.747650125
0.0826090521 0.4970292962 0.7541787955
0.0925020033 0.5003292828 0.9987977879
0.1024012126 0.7478471491 0.2490019829
0.0824640115 0.7482376031 0.255204864
0.0924000331 0.7511920379 0.5024568599
0.1024137288 0.7496106995 0.7490342694
0.1024637936 0.4995177894 0.2485142192
0.0824570171 0.4980054311 0.2547539127
0.0824651159 0.7494349952 0.7551147495
0.092527772 0.5000911059 0.4996259901
0.1123714698 0.7497018054 0.9988990219
0.1223056508 0.4987531504 0.7503300642
0.1123596898 0.4990388325 1.000905295
0.1224639439 0.7496887902 0.2454321051
0.1123250862 0.7495195935 0.4957524105
0.1223034421 0.4998997835 0.2467923215
0.1223520344 0.7499360777 0.7494870613
0.1125102523 0.5007750511 0.4969745805
0.1524693231 0.7482441107 0.9949508973
0.1423069055 0.5003286321 0.7494392053
0.1324216849 0.7485499662 0.9953006146
0.1523625672 0.49968178 0.9963129543
0.1323800869 0.4996824308 0.9960000493
0.142356234 0.7507885689 0.2466321878
0.1525072398 0.7492267531 0.497506519
0.1321827727 0.7497603735 0.4966469506
0.1423146361 0.4994214774 0.2491271449
0.1424206556 0.7485434587 0.7460607518
0.1523246505 0.5003078079 0.5001478052
0.1322979954 0.4987180095 0.4983136298
0.1725276369 0.7475738314 0.9980431347
0.162483755 0.4994182236 0.7480072048
0.172465424 0.4984329782 0.9969387642
0.1624498877 0.749962108 0.2466018176
0.1725243237 0.7506909554 0.4989026274
0.1625028974 0.4987004391 0.2501606516
0.1624601951 0.7502549485 0.7456005974
0.1725585592 0.49980217 0.5009171833
0.1926798221 0.7506844478 1.0004175314
0.2026048001 0.5004978288 0.746103086
0.1825869799 0.5003006495 0.7472820015
0.1926319661 0.4988442563 0.997546168
0.2025849214 0.749467533 0.251881629
0.1826396215 0.7494089649 0.247199098
0.1925189522 0.7504046225 0.5000373681
0.2025996464 0.5002290663 0.2497989703
0.2026622274 0.750352562 0.7489385573
0.182506729 0.4989132365 0.2503953304
0.1825192452 0.7496106995 0.7471697239
0.1925163753 0.5007880662 0.5014067876
0.2124874438 0.7497538659 1.0015403081
0.2225062933 0.4993069442 0.7506475707
0.212538613 0.4996681141 1.0000862202
0.2226270378 0.7471963926 0.2481442551
0.2126788681 0.7511985455 0.4982538097
0.2226432352 0.4999368766 0.2474080081
0.2225073976 0.7499100475 0.754296595
0.2126262264 0.499901085 0.5000981085
0.252525293 0.7525781494 0.9998653461
0.2426021557 0.4981323286 0.7491695548
0.2326267448 0.7492332606 0.9990462713
0.2525668909 0.4999082433 0.9999941894
0.2325531201 0.5011375225 0.9974633402
0.2424887736 0.7473200363 0.2542284164
0.2525440673 0.7500532139 0.5008720882
0.2324250131 0.7504631906 0.4997907254
0.2425535634 0.4969687759 0.2490654842
0.242424352 0.7478601643 0.7468163253
0.2526195326 0.5011889323 0.4987747045
0.2325980312 0.49790131 0.4961739119
0.2725398001 0.7512180682 1.0004911561
0.2626045147 0.4995158371 0.7510571081
0.2726638577 0.5011694096 1.0000862202
0.2625721198 0.7484263225 0.2511711507
0.2726605446 0.7515174162 0.5002610032
0.2625080663 0.4996603051 0.2477871753
0.262688815 0.7489859731 0.7501616477
0.2726712202 0.5019711417 0.4987875888
0.2926687936 0.7506454024 0.9958343937
0.3026975824 0.5008681093 0.749161272
0.2826506804 0.5000462037 0.7486597038
0.2926478106 0.5009227728 0.9939661669
0.3026195402 0.7500206761 0.2512613409
0.2826698228 0.7489469278 0.2471144296
0.2926076851 0.749857987 0.4972018968
0.3025514373 0.5000449022 0.2500106413
0.302547388 0.7514132952 0.7481664183
0.2826407411 0.5006767868 0.2484893709
0.2826576747 0.7484718755 0.7478111791
0.292580444 0.5014101895 0.495920827
0.3326628361 0.7493373817 0.9959448307
0.3225887681 0.4990778779 0.7467242944
0.3126486971 0.7492918287 0.9949693034
0.3325247897 0.4995945787 0.9982916181
0.3124543279 0.5016587785 0.999331567
0.3225607907 0.7499946458 0.2472331494
0.3325034386 0.7486671024 0.4984765244
0.3125533531 0.7499816307 0.4980522621
0.3225405439 0.4995581363 0.2467711544
0.3225629994 0.7493569044 0.7489072668
0.3326164525 0.4997286345 0.4974807503
0.3124642672 0.5007880662 0.4978203443
0.352566538 0.7492853212 0.9987885849
0.3426437688 0.4994416509 0.7450833839
0.3525451868 0.4988683343 0.9943618997
0.3425267055 0.7487647159 0.246647833
0.35253672 0.7502028879 0.4943489396
0.3424762726 0.4990765764 0.2415465615
0.3426544443 0.7478406416 0.7441492705
0.3525253081 0.4985598757 0.4944354486
0.3724724486 0.7480944366 0.9917298166
0.382577439 0.4981590096 0.7425930283
0.362488939 0.4991188756 0.7446674043
0.3725792044 0.4988540177 0.9899996361
0.3825479891 0.7494545179 0.2397344735
0.3625625638 0.7481725274 0.2464103934
0.3724761299 0.7483677544 0.4950189244
0.3826547449 0.4990511969 0.239679255
0.3825222204 0.7493438893 0.7424117275
0.362691407 0.4985149735 0.2445191588
0.3625110265 0.7479252399 0.7445937796
0.3726233793 0.4978798351 0.4918309748
0.3925094113 0.7476258919 0.9881866278
0.4024708334 0.497652721 0.7382188007
0.3925020488 0.5009325342 0.9897603558
0.4025186895 0.7492072304 0.24037961
0.3924615552 0.747983808 0.4906253703
0.4024561085 0.4999114971 0.241864068
0.402526052 0.7478276264 0.7376215203
0.3923879305 0.5004984795 0.4887746293
0.4325575679 0.7503655771 0.9840912537
0.4225482896 0.4998828638 0.7377163121
0.4125058803 0.7479773005 0.9895486848
0.4324876244 0.5003494563 0.9878461135
0.4124911554 0.4975668212 0.9900272453
0.4226660892 0.7487451932 0.2362842359
0.4325317992 0.7472940061 0.485178983
0.4126236798 0.7478015962 0.4885482334
0.4225593334 0.4991344938 0.2383622931
0.4226255956 0.7488297916 0.7365539621
0.4324324059 0.5003266798 0.4850197695
0.4127157107 0.4984967523 0.4899489433
0.4524583248 0.7496887902 0.9836218963
0.4424600903 0.4985052121 0.7343415398
0.4524804122 0.5001321036 0.9871374758
0.4425705273 0.7506388948 0.2386991262
0.4525098621 0.7482506182 0.4849590292
0.4424380029 0.4992295042 0.2365179944
0.4424858589 0.7495846692 0.7340065475
0.4525503557 0.5005778718 0.4867830812
0.4723333131 0.7478861945 0.9859594805
0.4825156094 0.5011687588 0.7404358246
0.4624271094 0.4989698523 0.7346452417
0.4724989687 0.4981466453 0.9899720268
0.4824751158 0.7500532139 0.2386834809
0.4625964463 0.750007661 0.2369845909
0.4725136936 0.7486801176 0.4864609731
0.4823941286 0.499403907 0.238019018
0.4824493471 0.7474827255 0.7389025901
0.462467603 0.4977939352 0.2367738402
0.4624565593 0.7503916073 0.7388464513
0.472487925 0.5000878521 0.4864490091
0.4924144505 0.4986047779 0.9915457548
0.5025452095 0.7500532139 0.2414416463
0.4925028002 0.7490315261 0.4861232198
0.5024679036 0.5001164854 0.237467753
0.5024347725 0.7504892208 0.7389007495
0.4924696691 0.7496302222 0.9884535173
0.492484394 0.4986425218 0.48999864
0.5024642224 0.5014635515 0.7387581017
0.5123262512 0.7508991975 0.9841096599
0.5124514132 0.4995783097 0.9885823606
0.5125287191 0.7513677422 0.4872220684
0.5124771818 0.5010659393 0.4910754013
0.5224606914 0.4989457743 0.7365907745
0.5323227202 0.7504957284 0.9825727443
0.5324662884 0.5014928356 0.9866681183
0.5224017916 0.5034216781 0.2347417984
0.5223097608 0.7521291274 0.2339337673
0.5322969516 0.7494740406 0.4853805306
0.5324110699 0.5008466343 0.4848209828
0.5223797042 0.7519729458 0.736660718
0.5423430422 0.5010887157 0.7330788762
0.5525547883 0.7507365083 0.9821770115
0.5623579174 0.5034548667 0.734273437
0.5523560016 0.5029876234 0.9845606112
0.5423982607 0.4990069455 0.235506575
0.5424571604 0.749617207 0.2315059928
0.5624867606 0.5013223374 0.2340211967
0.5625162105 0.7524284754 0.2345604976
0.55244067 0.5033064942 0.4831993988
0.5522823769 0.7519273929 0.4847482785
0.5423761733 0.7514653557 0.735546224
0.5624057734 0.7537039583 0.7344133239
0.5824169674 0.5019620311 0.7342237403
0.5724481828 0.7527733764 0.9857846219
0.572451864 0.502849663 0.9835666777
0.5824869109 0.5000956612 0.2361139788
0.5824869109 0.7499425853 0.2346433254
0.5723082958 0.5028067131 0.4834018667
0.5724849951 0.7525781494 0.4870536519
0.5824905921 0.750606357 0.7380255359
0.6024097552 0.499826248 0.7364113143
0.5925219578 0.7483091863 0.9874503808
0.6124926582 0.749766881 0.9926041099
0.5923010837 0.5025626794 0.9867969615
0.6121981593 0.500719086 0.9928065778
0.6025459609 0.7519078702 0.2411867208
0.6023398118 0.5000006508 0.2404642784
0.5925808575 0.7504241452 0.4905729127
0.5924409706 0.5021084513 0.4868833948
0.6123895836 0.7517777189 0.4921622859
0.6123674962 0.5004854644 0.4924531035
0.6026343106 0.7501898728 0.7410110175
0.622354687 0.5000553143 0.7454183763
0.6323050654 0.75041113 0.9958804091
0.6323234716 0.5003455517 0.9982271965
0.6223473245 0.7502744712 0.2481387332
0.6223068309 0.5006995633 0.2447483157
0.6323566027 0.7499751231 0.4979473469
0.6323897339 0.4995229954 0.4943296131
0.6223510057 0.752135635 0.7461877544
0.6423143437 0.5024364326 0.7475700582
0.6523641155 0.7509122126 0.9947208201
0.6625059182 0.5011759171 0.7486716678
0.6523825217 0.5011004294 0.9984572737
0.6424505494 0.7498449718 0.2470923422
0.6425168116 0.5022281905 0.2462373753
0.6624286122 0.7495846692 0.245664023
0.6624138873 0.5008726646 0.2476693758
0.6524782338 0.7522657863 0.4985381851
0.6524082903 0.5003793911 0.4972838043
0.6423732434 0.7504762057 0.74897629
0.6624617434 0.7504501754 0.7483642846
0.6823551378 0.4992900246 0.7483136677
0.6724599779 0.7501052745 1.0003162974
0.6724710216 0.5015897983 0.9990278651
0.6825686495 0.7507820613 0.2487746666
0.682498706 0.4999329721 0.2514288371
0.6724489342 0.7495456238 0.4949351763
0.6724342092 0.5002297171 0.4984351105
0.6824066751 0.7510098261 0.745053934
0.7026240183 0.5003045541 0.7519728153
0.6924490844 0.7504696981 0.998282415
0.7125081345 0.7513352044 0.9995800504
0.6924785343 0.5000279825 0.9988806157
0.7125596718 0.5008804736 0.9992395362
0.7024510002 0.7498840172 0.2475653809
0.7024141879 0.5016015119 0.2487258902
0.6925411153 0.7509707807 0.4974503802
0.6924932593 0.5015858938 0.4983762108
0.7125928029 0.4996141014 0.4982381645
0.7124345098 0.7478081037 0.5003640777
0.7026166558 0.7490575564 0.7480164079
0.7225763125 0.4994032562 0.7484664389
0.7325340534 0.7497798962 0.9996260658
0.7424365758 0.4994774425 0.7476317189
0.7325377346 0.4990635613 0.9996996905
0.7225137315 0.7481920501 0.2488795818
0.7225873562 0.5007184353 0.2501523688
0.7425985502 0.7523568922 0.2500520552
0.7426464062 0.4985585742 0.2506769448
0.7325487784 0.5004308009 0.4997235428
0.7325340534 0.7503655771 0.4995588076
0.7224916441 0.7515369389 0.7527155045
0.7425543753 0.7519143777 0.7512034372
0.7525636536 0.5000839476 0.5014178313
0.7525010726 0.7501052745 0.9987425694
0.7625950192 0.4992490269 0.7526888156
0.7524716227 0.5013047669 0.9994420041
0.762466176 0.7510749018 0.2492845177
0.7626097442 0.4999876356 0.248471885
0.7525268412 0.7491942152 0.4948247392
0.7625471632 0.7516280448 0.7541585487
0.7724864979 0.4997364436 0.5008472398
0.7725233103 0.7495065784 0.9987057571
0.7924608795 0.499353148 0.4981093212
0.7924424734 0.7511725152 0.9982548058
0.7825362697 0.5017583443 0.7533588004
0.7725380352 0.4996446869 1.001006529
0.7926228539 0.5005082409 1.0030588176
0.7825730821 0.7496367297 0.250045613
0.782602532 0.5000898044 0.2524154081
0.7725269915 0.7490900942 0.4992247355
0.7924866482 0.7495521314 0.5025903047
0.7824847324 0.7501833652 0.749223853
0.8125788294 0.5003826449 0.4993020414
0.8125898731 0.7493764271 1.0015495112
0.8024812015 0.5008869812 0.7482694928
0.8125383358 0.4996401316 0.9986413355
0.8025879573 0.7479057172 0.2482031549
0.8026247697 0.5019028122 0.2513993872
0.8125125671 0.7505477889 0.4977393571
0.8025879573 0.7490120034 0.752448615
0.8325458485 0.5001314528 0.4953419528
0.8326562856 0.7511855304 0.9982087903
0.8226470073 0.4995568348 0.749062799
0.8426029828 0.4997722352 0.7468651016
0.8325973858 0.4983256033 0.9956043165
0.8225807451 0.7511985455 0.2487120856
0.8226286012 0.4992255997 0.2444814262
0.8425219956 0.7507104781 0.2493507799
0.8426434764 0.5002603026 0.2470720954
0.8326047483 0.7489599429 0.5012972708
0.8225071204 0.7497473583 0.7501156322
0.8426545201 0.750502236 0.7477476778
0.8525533613 0.4995835158 0.4976602106
0.8625479146 0.7500336912 0.749825735
0.8625037397 0.498783736 0.7480237704
0.8526012173 0.7479447626 0.9990738806
0.8525791299 0.5009852455 0.9986873509
0.8626878015 0.7495195935 0.2524402565
0.8625920894 0.5001828626 0.2485768002
0.8526380297 0.7500662291 0.4973896398
0.872560874 0.4995952294 0.502489991
0.8826180083 0.7505087435 0.7533054224
0.8925904742 0.4995015205 0.4996075839
0.8725940051 0.7509447504 0.99659825
0.8926456927 0.7492853212 1.003003599
0.8826695456 0.4987349292 0.7498607067
0.8725571928 0.4986112855 0.9970123889
0.8924984433 0.5006605179 1.0037030337
0.8823824093 0.7494154725 0.2493802298
0.8825922397 0.4982000073 0.2491207027
0.8726970797 0.7505152511 0.4983927763
0.8924837184 0.7495976843 0.5027393947
0.9126421617 0.5000624726 0.5067970361
0.9026328835 0.7496887902 0.7510791955
0.9224452908 0.7508601521 0.7584011721
0.9124507375 0.748224588 1.005203137
0.9024709092 0.4999121479 0.7573290124
0.9225483654 0.4993238639 0.7570225496