POSCAR file written by Ovito 3.7.11
1
271.5889758051 0.0 0.0
0.0 15.363392519 0.0
0.0 0.0 10.8635590322
Sr Ti O 
800 800 2400 
Direct
0.0125717874 0.251403865 0.5355736125
0.022650768 0.2492161972 0.7800312522
0.0025646802 0.2507490618 0.7869184979
0.0124860697 0.2481864767 1.033231883
0.0225062481 -0.0022353813 0.2849955108
0.0025101493 1.000156459 0.2869175328
0.0126262447 9.0535078603e-04 0.5335291628
0.0225189511 -1.8828787348e-04 0.778043874
0.0025427721 1.855227932e-04 0.787088792
0.0125340098 1.0000067524 1.0330293711
0.02269996 0.2482300869 0.2810465287
0.002649367 0.2487247693 0.2856739256
0.0326511371 0.2480790785 0.5312702345
0.0427030915 0.2501437267 0.78017209
0.0325020147 0.2504997679 1.030359896
0.0426386559 0.9985357232 0.2801076099
0.0326308859 0.0023250242 0.530677427
0.0426905726 0.999844028 0.7762718949
0.0326662334 -1.3647640026e-04 1.0298628214
0.0425738521 0.250415802 0.2761383766
0.0725861159 0.251761208 0.5249675119
0.052706443 0.2516987218 0.5258291079
0.0626567733 0.2507458073 0.7772872159
0.0726111537 0.2514878309 1.0249012798
0.0525989276 0.2518360613 1.0267422971
0.0626626645 1.0025387453 0.2785381426
0.0727322927 1.0002540937 0.529935497
0.052572417 7.2954326197e-04 0.531158853
0.062545944 1.0031115355 0.7792027944
0.0727488618 -3.4979583281e-06 1.0274050633
0.0526331705 1.0010481891 1.0289883382
0.0626184801 0.2512046903 0.2782481824
0.0926653551 0.2490541236 0.5215192865
0.10260243 0.2512600166 0.7702223121
0.0826524302 0.2519948803 0.7768352462
0.0927205856 0.2509287096 1.0211271943
0.1026576605 1.0025843082 0.2670879356
0.0826281288 1.0013150572 0.2717705631
0.0925821411 0.0011860831 0.5203299893
0.1026926398 0.0032188372 0.7674709117
0.082583208 0.9997203574 0.7728163054
0.0926922339 0.9996162137 1.0203263518
0.1025913839 0.2509697161 0.2703170799
0.0826137689 0.2500168016 0.2744971097
0.1126521752 0.253208154 0.5185598512
0.1224253995 0.2534431282 0.766439942
0.1126680079 0.2500708261 1.0203631722
0.122663259 0.0025958628 0.2643724351
0.1126109364 1.0010351711 0.5164537274
0.1225498523 1.0015884344 0.7648115623
0.112572275 7.5245486821e-04 1.013634254
0.1225380698 0.2522923407 0.2673051756
0.1524862663 0.2506162786 0.5114102605
0.1325701412 0.250243965 0.5136314479
0.1426132587 0.2486024005 0.7605127869
0.1525448106 0.2515366482 1.0133304861
0.1326172713 0.2494453133 1.0155305018
0.1425053751 0.0022384548 0.259361186
0.1524759566 0.9997724292 0.5106987074
0.1324258055 0.0025973599 0.5136397325
0.1425134756 0.0020640141 0.7612160555
0.1526155057 0.9989718248 1.0136434591
0.1324269101 -9.0421047888e-04 1.010872728
0.1425506641 0.2498156742 0.2620564353
0.1725577731 0.2498872729 0.5150959772
0.1625216515 0.2510068173 0.7660349182
0.1724730864 0.2506846229 1.0143522507
0.1626284305 -0.0021616801 0.2602034514
0.1727046863 -0.0014290295 0.5143098628
0.1625636267 0.999850537 0.7604759665
0.172584652 -0.0033415432 1.0105781653
0.1626162798 0.2476410243 0.2621650554
0.1923943662 0.2500740806 0.5090961018
0.2024095003 0.2509124371 0.7572182864
0.1824499272 0.2526210441 0.7622958121
0.1924043077 0.2507425528 1.0088568141
0.2023435919 -0.0014302011 0.256112711
0.1825117854 -0.0013524839 0.2587674579
0.1924116718 -0.0012663701 0.507417094
0.2025199613 1.0008529197 0.752327624
0.1824768061 0.9974552327 0.7612583989
0.1924510696 -0.0023617922 1.0081296123
0.2024061865 0.2500376303 0.2550163852
0.1824668646 0.2512775909 0.2629695799
0.2123782407 0.2496672694 0.5028449276
0.2223852743 0.2497076251 0.7558780259
0.212456668 0.2499419484 1.0024960994
0.2225395515 1.0010937519 0.2535481739
0.2124809695 0.9992647288 0.5015635796
0.2225999369 1.0011328058 0.7552861388
0.2124434127 0.9988611721 1.0038032216
0.2224128895 0.2503813044 0.2527206367
0.2525462923 0.2484097347 0.4937751559
0.2324339148 0.2463190506 0.5017863427
0.2424807144 0.2492624109 0.7469150332
0.252424417 0.2457449587 0.9975897883
0.2325145514 0.2507406001 1.000111982
0.2424483125 0.9972859992 0.2476872954
0.2524958485 -0.0027687531 0.4947094722
0.2324674214 -0.0017264247 0.5025789006
0.2425569325 0.9990824774 0.7438478984
0.2523625588 -0.003640032 0.9953437472
0.2325429031 9.6575411159e-04 0.9983538105
0.2424357936 0.2473487711 0.249347893
0.2723018807 0.2483576629 0.491654304
0.2623279854 0.2468143839 0.7450620493
0.2723666845 0.2471209568 0.9904466412
0.2624958862 0.9987179746 0.2416901816
0.2726122762 -0.0026106435 0.4896807335
0.2624071491 0.9975268314 0.7422406903
0.2724495302 -0.0022196101 0.9892131596
0.2623703288 0.2486024005 0.2448171494
0.2924381914 0.24905152 0.4892370483
0.3025269661 0.2488126405 0.7418568382
0.2823159101 0.2483329287 0.740873735
0.2924739071 0.2491966703 0.9887713155
0.3025369076 -7.5567557702e-04 0.236672489
0.2824101702 0.999219166 0.2405763661
0.2925184597 -0.0018357756 0.491491374
0.3025891925 6.6822867934e-04 0.7371217417
0.2824554592 0.997969442 0.7412400974
0.2925917322 -9.1104490688e-04 0.9901152581
0.3024268148 0.2493314061 0.2397239751
0.2824274757 0.2485216891 0.2407669114
0.3325594811 0.2500278669 0.4889249959
0.3126470381 0.2496562042 0.4870830581
0.3224924304 0.2497603478 0.7400379131
0.3327189132 0.2480855875 0.9861478658
0.3126043265 0.2491712852 0.9912566888
0.3226069417 -6.13714744e-04 0.2364561694
0.3325852554 6.0875844449e-05 0.4890888464
0.3125789205 -4.2580051891e-04 0.4886875046
0.3224578193 -0.0011550665 0.7415779241
0.3325245018 -0.0015394868 0.9891579291
0.3126374648 0.9978978432 0.9877771661
0.3226124647 0.2500382812 0.2384996986
0.3525393054 0.248770983 0.4779994788
0.3425897115 0.2491003374 0.7313952574
0.3525982179 0.2496933054 0.9773109829
0.3425330082 1.5200155111e-04 0.2361975065
0.3524594052 -3.0265063534e-04 0.4818812637
0.3425974438 0.9998570459 0.7338622206
0.3526361429 2.8400364619e-04 0.9818122701
0.3425830839 0.2487983207 0.2335050187
0.3725110291 0.2490723488 0.4678481094
0.3824562045 0.2452405128 0.7161958187
0.3625805819 0.249089923 0.7220631408
0.3724226603 0.2472042718 0.9700021442
0.3824083381 1.000768303 0.2165915929
0.362492213 1.0005079438 0.2218835971
0.3725331213 0.0016763394 0.4707817705
0.3823236513 -9.7880337876e-04 0.7160568219
0.362492213 1.0021221706 0.7237706843
0.3723563837 -0.0016132336 0.97115278
0.3824856608 0.2500805896 0.2145094023
0.3625511256 0.2481721569 0.218893785
0.3923498314 0.2478141631 0.4648840716
0.4024827906 0.2500818914 0.7127043294
0.3925339332 0.252443349 0.9651970891
0.4025527492 0.9979108612 0.2165216342
0.3924382003 0.9983599807 0.4650359555
0.4025122469 0.0010314297 0.7163569077
0.3925597074 1.0009700813 0.9663845452
0.4024938367 0.247872093 0.2148297393
0.43245087 0.2491380894 0.4635520956
0.412538427 0.2531964379 0.4653719412
0.4223915516 0.2476254027 0.7144385677
0.4325097826 0.2512528567 0.9635125583
0.412534745 0.2499224214 0.9683452287
0.4225020126 1.0002801296 0.2138899
0.4324766443 0.9992582199 0.4634112578
0.4125531552 -0.001420698 0.4621915838
0.422542515 0.9997073394 0.719100944
0.4325061005 0.9997659202 0.9578882505
0.4124942426 -0.001122782 0.9646079636
0.4225020126 0.2490990356 0.2127144105
0.4526431477 0.2499146106 0.4582481248
0.4426169675 0.2511116119 0.7080548402
0.4525547788 0.2508076426 0.9569585367
0.442569101 0.9991345493 0.2088961406
0.4526578758 0.0023992917 0.4575540613
0.4424475939 9.253984415e-04 0.7092395349
0.4525989632 0.9993363276 0.9628958175
0.442462322 0.2491387403 0.2096168989
0.472592411 0.2499738423 0.4574242696
0.4824676277 0.2486596795 0.7036704576
0.4625220464 0.2494999887 0.7060748262
0.4725813649 0.2512216136 0.9538840379
0.4824565816 -4.6153481388e-04 0.2079056733
0.4626251434 -4.8099666123e-04 0.2031788614
0.4725703188 0.9989262619 0.4572880343
0.4825744067 0.999212657 0.7045118025
0.4625036363 0.0022104662 0.7061595129
0.4725445445 -5.0748820595e-04 0.9506990779
0.4824602637 0.2505394726 0.2038572763
0.4626472356 0.2500923058 0.2075834953
0.5124430712 -0.0011839013 0.4554442555
0.512420979 -3.2360954787e-04 0.9575108419
0.4925416743 0.2515704949 0.4522390444
0.5026488593 0.2515841638 0.7037505418
0.4925195821 0.2495546641 0.954537599
0.5126198089 0.2493795726 0.4567219215
0.512527758 0.2506338528 0.9559367721
0.5024168911 -0.0023914471 0.2060241536
0.4925269462 -7.9718102971e-05 0.4519748584
0.5024831677 -0.0016645894 0.7055206799
0.4925784947 1.4451622521e-04 0.9520614307
0.5025383982 0.2505153894 0.2054534383
0.5225281639 1.0003191834 0.2052748596
0.5324512471 0.0023417523 0.4590314776
0.5225613023 0.9989848427 0.7090977765
0.532440201 0.9983599807 0.9583208895
0.5224361131 0.2496601096 0.2061336942
0.5325248878 0.2500311214 0.4573828467
0.5225207999 0.248764474 0.7074712378
0.5325874824 0.2498299939 0.9634573278
0.5425694782 0.0016691795 0.2141909063
0.5625776541 -2.9093447305e-04 0.215697779
0.5525183356 -0.0015161196 0.4630541004
0.5425142476 0.9995966868 0.7134720336
0.5624561469 0.9983079089 0.7119881737
0.5525514739 4.601366192e-04 0.9634665328
0.5425989344 0.2460046669 0.2098912104
0.5625445157 0.2488360728 0.2111661149
0.5524299668 0.2498801131 0.4633707554
0.5425768422 0.2497375664 0.7119780481
0.5624929673 0.2498397574 0.7133855058
0.5525809302 0.2503435524 0.9644514771
0.5824348665 -9.191160409e-04 0.2204043397
0.572474963 -0.0023533045 0.4664673465
0.582479051 0.9998179921 0.7205875654
0.5725486037 -0.0026868246 0.9663753402
0.5825563737 0.2498163251 0.219697389
0.5725007372 0.2485321035 0.4646521034
0.582589512 0.2527206315 0.7151455183
0.5726332905 0.2487019878 0.9661083927
0.6025719136 0.9981647114 0.2262017031
0.592494185 1.0000653333 0.4679953908
0.6124176741 0.0023331604 0.4752094171
0.6025277292 8.7319642954e-04 0.7284560733
0.5924242263 -2.6669923736e-05 0.9672222081
0.6125354992 -2.1940079332e-04 0.971787931
0.602292079 0.250422311 0.2212309564
0.5924058162 0.251977957 0.4704816847
0.6124655406 0.2518419193 0.4743082391
0.6024724987 0.2519297906 0.7184354162
0.592391088 0.2496848437 0.9702782968
0.6123734897 0.2515262339 0.9746415078
0.6224585824 0.0011146145 0.2315526199
0.6324442602 3.0496255872e-04 0.4809819268
0.6224990848 0.0025752945 0.7269409161
0.6322969788 1.0014517458 0.9808641462
0.6224769926 0.2494303426 0.2256383518
0.6323853476 0.2518770678 0.483293324
0.6223518034 0.2509072299 0.7280280368
0.6323485273 0.2531027086 0.9860097895
0.6424520302 1.0026754339 0.2377393585
0.6624602061 0.0015014431 0.2408543597
0.6523162008 0.0012155036 0.4875469944
0.6423747074 1.0027600506 0.739284937
0.6625375288 1.0005665246 0.7430783532
0.6523714313 1.0016730511 0.9853746386
0.6423084308 0.2504743828 0.2332500378
0.6623386989 0.2505336145 0.2417822324
0.6523272469 0.2497603478 0.4906564726
0.6422642464 0.2503494104 0.7363779707
0.6622282379 0.2507659851 0.7387795778
0.6524082517 0.2526041208 0.9896365936
0.682365285 0.99951207 0.2425545392
0.6722875564 0.9997398843 0.4939049476
0.6824168335 3.0413822508e-05 0.7407365792
0.6722617821 2.9207478021e-04 0.9896642089
0.6822842802 0.2489350093 0.2448576518
0.6723059665 0.2509215497 0.4925076155
0.682262188 0.2506637941 0.7437392784
0.6723317408 0.2491589182 0.9904466412
0.7024802399 6.5909591951e-06 0.2431878491
0.6923325526 1.0005730336 0.4940347394
0.7122965441 1.0018748294 0.4935100494
0.7025060141 1.0003907822 0.7414858732
0.6922920502 0.9992842558 0.98872529
0.7123260004 0.0034081183 0.9932910129
0.7023771429 0.2499002909 0.2451319634
0.6924135574 0.2502784626 0.4950878013
0.7124659177 0.2498436628 0.4922397475
0.7024286914 0.2544149188 0.7444176932
0.6923325526 0.2487540597 0.9912382786
0.7124622356 0.2516700823 0.9932541926
0.7225362822 0.002354575 0.2442501161
0.7423898127 1.0006771773 0.2458186628
0.7323967708 0.0015489586 0.4935698825
0.7224479134 1.0016665421 0.7410458701
0.7425002737 0.0019765986 0.7471460809
0.7324704115 1.0012369495 0.9947638268
0.722300632 0.2511187718 0.2444922099
0.7424082229 0.2509078808 0.2446367297
0.732411499 0.2498378047 0.4953565898
0.7224736877 0.2511259316 0.7434134183
0.7423382642 0.249606085 0.7428997745
0.7324704115 0.2525338238 0.9930608858
0.7623611682 6.076951742e-04 0.2514438912
0.752541182 3.8606443765e-04 0.5000834017
0.762335394 -0.0011156872 0.7513592489
0.7524601773 1.0001174051 1.0000935718
0.7623795784 0.2502413614 0.2520413013
0.7524822695 0.2486707447 0.4955646247
0.7624237628 0.2508740342 0.7532674633
0.7524601773 0.2502888769 0.9978475307
0.7824871692 -2.3170276372e-04 0.2541511071
0.7724757172 1.0009635724 0.5072725742
0.7925354416 0.9983013999 0.5087048856
0.7823472519 1.0748013443e-04 0.7573655678
0.7723247538 1.0028837212 1.0049170371
0.7924581189 0.0010636492 1.0080467665
0.7825534459 0.2510777652 0.2572550622
0.7724978094 0.252041745 0.5069503962
0.7925391236 0.2495865581 0.5081820367
0.7825239896 0.2504626667 0.7568371959
0.7724867633 0.2517599062 1.0042358607
0.7925391236 0.252105533 1.011084445
0.8024474787 1.0008333928 0.2560648446
0.8126319863 0.0013115111 0.5075155885
0.8026168523 -6.5094610415e-04 0.7608717853
0.8126209402 1.0000002435 1.0062057492
0.8025579397 0.2516603188 0.2570755631
0.8125509816 0.2521829898 0.5073775122
0.8026463086 0.2501665081 0.7583652402
0.8124257924 0.249988813 1.0071538731
0.8224077881 0.999538106 0.2595609364
0.8425374712 1.0003777643 0.2640926005
0.8325591575 7.3787475515e-04 0.5130414019
0.8226287102 0.0016516703 0.7577199637
0.8425448353 -2.769401681e-04 0.7648539057
0.8324523785 -5.6021093624e-04 1.0088107887
0.8226103 0.2504594122 0.2587472068
0.842415964 0.250212071 0.262238696
0.8324781527 0.2515691931 0.5102228044
0.8225329773 0.2500747315 0.7612059299
0.8424785586 0.2490469637 0.7620049314
0.8324192402 0.2504268673 1.0101915516
0.8625566932 -0.0022866395 0.2718764216
0.8525526052 1.0021872604 0.5166875366
0.8625530112 0.9978587894 0.7717393103
0.8526078358 -7.6940952281e-04 1.0181999768
0.8625751034 0.2469439126 0.2700050275
0.8524605544 0.2506039115 0.5152543046
0.8624793705 0.2495663803 0.7677074825
0.8523905957 0.2506468708 1.0156133476
0.8825170026 0.9999546806 0.2782988104
0.872442956 -3.0466841884e-04 0.5246121955
0.8925579109 0.001283197 0.5266483606
0.8826495559 0.9994014174 0.7768969202
0.8725313249 -4.8288426515e-04 1.0229590065
0.8824433619 0.2501502357 0.275652348
0.8924658601 -2.9119483221e-04 1.0280218041
0.8725055506 0.2515516189 0.5242780509
0.8923959014 0.2510562856 0.5299603507
0.8823513111 0.2502608883 0.7731808269
0.8725570991 0.2502979895 1.0231983388
0.8923627631 0.2511116119 1.0276628057
0.9023999894 0.0025279091 0.2770772954
0.9225738568 4.6182895376e-04 0.2780208168
0.912474036 0.0021099675 0.5258650078
0.9025472707 0.9999351537 0.7780309869
0.9224781239 1.0005730336 0.7777437882
0.9123783031 1.0010546981 1.026199197
0.9023889433 0.2517390775 0.2795111203
0.9226401334 0.2480009708 0.281298748
0.9125255844 0.2525123442 0.5263473543
0.9024257636 0.250486099 0.7783504034
0.9224928521 0.2509137389 0.7783126625
0.912474036 0.2523014533 1.0290159534
0.9425599405 1.0009700813 0.2816347337
0.9325263963 0.9980605677 0.529512063
0.9424163412 0.9995446149 0.7857356443
0.9324711658 1.0005144528 1.0304703571
0.9425857147 0.248649916 0.2811091233
0.9325558526 0.2484422796 0.534830762
0.9425415303 0.2481174815 0.7835982232
0.932500622 0.2495911144 1.0300193078
0.9625644344 -3.0199973743e-04 0.2888791367
0.952519844 0.9996813035 0.5355321896
0.9725574762 0.9988351362 0.5387585724
0.9624907937 0.9986789207 0.7885072958
0.9525493003 0.9998570459 1.0349256189
0.9626233469 0.2495533623 0.2882246551
0.9725942966 0.0012285216 1.0392704197
0.9525345722 0.2510582383 0.535581897
0.9724838355 0.2493261989 0.5416977565
0.9624723835 0.2496217066 0.7862999161
0.9526118949 0.2495390425 1.0396754435
0.9725648403 0.2505472834 1.0377791957
0.9825210618 0.0011543843 0.2892344531
0.9925030575 1.0007292491 0.5376171417
0.9824069187 0.9974812686 0.7890549984
0.9826241587 0.2536423029 0.2896689331
0.9924883294 0.0015239642 1.0388101654
0.992554606 0.2510165808 0.5358285934
0.9825173797 0.2507464582 0.7901927471
0.9924809653 0.2502680482 1.0399055707
0.0126147568 0.7502832623 1.0367942515
0.0224874329 0.4989090951 0.7860053533
0.0024911868 0.5018094962 0.7873299652
0.0125758377 0.4993146045 1.0331674474
0.0224498025 0.749456622 0.2842572628
0.0024295496 0.7511359386 0.2875315121
0.0124737717 0.7484802751 0.5364361291
0.0224664821 0.7494826579 0.7846071007
0.0224727784 0.498801697 0.2830606016
0.0024563548 0.4998053815 0.2881565374
0.002453851 0.7512921541 0.7867620114
0.0125701305 0.4992950776 0.5328194506
0.0323878716 0.7495217118 1.031952376
0.0425027888 0.5030891615 0.7812315955
0.0325248433 0.4995860289 1.0343917239
0.0424891653 0.7514288426 0.2814027655
0.0324813953 0.7504785317 0.5346126014
0.0423989554 0.7497365081 0.7844745474
0.042439826 0.5017769513 0.2809701265
0.0326463504 0.5023601558 0.5312398578
0.07257912 0.7508625615 1.027800882
0.0624583116 0.5023985588 0.7793150965
0.0525646847 0.7518519263 1.0317866844
0.0725758062 0.5011716162 1.0296511044
0.0524829435 0.4994506422 1.0335632661
0.0626063294 0.7506347472 0.2800965638
0.0725253623 0.7507258729 0.5293205972
0.05251645 0.7495282208 0.53052002
0.0625750321 0.5024337073 0.2778035767
0.0726023169 0.5017626315 0.5272163145
0.0625455758 0.7496193465 0.7835927001
0.0525731534 0.501345406 0.5316108227
0.0926277983 0.7514809145 1.0234652863
0.1026734933 0.4998847911 0.7691591246
0.0826097186 0.5022892079 0.7751912177
0.0927095395 0.5006424362 1.020989118
0.1024761362 0.7500554481 0.2705333994
0.0826358611 0.7492548436 0.2774390553
0.0926042333 0.7496193465 0.5231771225
0.1024216421 0.7504915497 0.7710461673
0.1025976433 0.5001646772 0.2692170721
0.0826734178 0.499917336 0.2762589632
0.0826167145 0.7516045851 0.777245793
0.0925224921 0.5023686175 0.5220494995
0.1124411946 0.751949561 1.0201974806
0.1224327636 0.5021759517 0.7700989639
0.1124953205 0.5022859534 1.0168192139
0.1225071407 0.7514418606 0.2666276813
0.1125332455 0.7527111115 0.5214999558
0.1225472749 0.5007029697 0.2699838558
0.1223668552 0.7519170161 0.7684678226
0.1125376639 0.5043759866 0.519654336
0.1524196214 0.7496974542 1.0152819644
0.1424280524 0.5019897949 0.7664749214
0.1324523161 0.7512921541 1.0150702475
0.152500258 0.499917336 1.0147480694
0.1325296388 0.501370791 1.0139012015
0.1424133243 0.7501400648 0.2664168848
0.1524512869 0.7509146333 0.5149606624
0.1324983415 0.7509211423 0.515349117
0.1423846044 0.5001939676 0.2673815778
0.1424755506 0.7511554655 0.7634869503
0.15233383 0.4985406869 0.5157338896
0.1323930354 0.5022065439 0.5161214238
0.1726207359 0.7498276338 1.0132016149
0.1623821024 0.4999817749 0.764939513
0.1723243322 0.4985309234 1.0166351122
0.1625360114 0.7471198985 0.2661269246
0.1725662418 0.7506607831 0.5139821617
0.1624369647 0.498125414 0.259887717
0.1626435268 0.7492483347 0.7640355735
0.1725043836 0.5004738537 0.5148474398
0.1925177144 0.7499773403 1.0099706296
0.2024120777 0.500191364 0.7563557698
0.1823932239 0.5007706631 0.7639205099
0.1923858976 0.4986233509 1.0106333958
0.2025667232 0.7465796532 0.2593501399
0.1825449237 0.7475169462 0.2601601875
0.192368592 0.7496909452 0.5099659825
0.2023796758 0.4969232056 0.2562323771
0.2024857184 0.7489293947 0.7563042214
0.1825062624 0.4999993491 0.2612150904
0.1824974255 0.7470027369 0.7621439282
0.1924289774 0.5009997792 0.5088908284
0.2125196308 0.7487731792 1.0071354629
0.222422831 0.4998678677 0.7528127321
0.212451145 0.5003736154 1.0051287541
0.2225774765 0.7486364906 0.2536218146
0.212456668 0.7480702094 0.50469515
0.2225726898 0.4972766432 0.251526737
0.2224585468 0.7485779098 0.7546887287
0.2124194795 0.4978728656 0.5037516286
0.2524292036 0.7490530653 0.992020711
0.2424648816 0.4977374789 0.7438525009
0.2324659485 0.7521318124 0.9984642715
0.2524122663 0.4993100482 0.9912843041
0.2324950366 0.5003781717 0.9962734609
0.242286303 0.7485779098 0.2450620047
0.2523706593 0.7497885799 0.4922572372
0.2326213304 0.7498666877 0.5013122807
0.242463777 0.4983245888 0.2476569186
0.2425911754 0.750693328 0.7447214611
0.2524443 0.4988192712 0.4925913818
0.2324718398 0.4982380194 0.5001984652
0.2724373795 0.7495868016 0.989995592
0.2623655421 0.4984710408 0.7434861385
0.2723504835 0.4977713256 0.9898759259
0.262412304 0.7488577959 0.2399614663
0.2723066673 0.7492743706 0.4913155568
0.2623567053 0.4978865345 0.2414895107
0.2624992 0.7481157723 0.7418227794
0.2724160237 0.4988693903 0.4899016556
0.2925766359 0.7497299991 0.989783875
0.302619017 0.4990705178 0.7409970831
0.2824941206 0.4964135525 0.7425729939
0.2925383427 0.4981507991 0.9917997889
0.3025704141 0.7489814665 0.2429834962
0.2825191584 0.7482394429 0.2404981229
0.2925022588 0.7471198985 0.4888495142
0.3026094437 0.4992592782 0.2424063373
0.3025155518 0.7495152028 0.742364959
0.2824687145 0.4972688324 0.2418144502
0.2825106897 0.7498471607 0.7410477111
0.2924532877 0.4980655314 0.4888071708
0.3326029291 0.7476861797 0.9868934778
0.3225638619 0.4979438135 0.7398400037
0.3125752385 0.7495998195 0.9890474681
0.332566477 0.4981189051 0.9884307273
0.3124537313 0.4988960772 0.9897746699
0.3226073099 0.7493654963 0.2394607096
0.332584519 0.7481483172 0.4903011563
0.3126429879 0.7479139939 0.488241058
0.3225465563 0.4969381763 0.2415272515
0.3225399286 0.7481548262 0.7382898672
0.332626126 0.499993491 0.4897746254
0.312460359 0.4992905213 0.488671856
0.3526365111 0.7500945019 0.9777804423
0.3426291093 0.4998821875 0.7311513226
0.3525761257 0.49942005 0.9772649574
0.3426187996 0.7499838493 0.2349861171
0.3525142675 0.7492613526 0.4798045962
0.342643101 0.4993569129 0.236464454
0.3426482559 0.748200389 0.7315885643
0.3525599248 0.499024304 0.4804259396
0.3725294393 0.749456622 0.9690172
0.3823641537 0.4979652931 0.7158782432
0.3625106232 0.4993894578 0.7237154538
0.3724557986 0.4978930435 0.9699653239
0.3826439883 0.7503613701 0.2170371191
0.3625143052 0.7499643223 0.2257736666
0.372496301 0.7507909627 0.4664563004
0.3823751998 0.4984528157 0.2164111732
0.3825187991 0.7505175856 0.7182761682
0.3624738029 0.4983909804 0.2235718099
0.3626063561 0.7511229206 0.7264281928
0.372496301 0.4974758179 0.4656536168
0.3925854816 0.7496584003 0.9649301416
0.4025822055 0.499968106 0.7168917232
0.3924897487 0.4987691521 0.9620029241
0.4025048828 0.7489944845 0.2163651477
0.3925265691 0.7500359211 0.4682209154
0.4024864726 0.4989904573 0.2199173906
0.4025932516 0.7501205378 0.7163633513
0.3923682416 0.4986285581 0.4667803194
0.4325392389 0.7537069853 0.9590480913
0.4225241048 0.5000312431 0.7153581558
0.4126010216 0.749749526 0.9673786946
0.4324324599 0.4999765677 0.9602171373
0.4124684684 0.4977153484 0.965298345
0.4225609251 0.7508365255 0.2091814983
0.432550285 0.7485974367 0.4635134342
0.4126709803 0.7505306035 0.4629786187
0.4225056946 0.5005838554 0.2145904071
0.4225351509 0.7489293947 0.7108338558
0.4324398239 0.4997676294 0.4622983628
0.412531063 0.4987984425 0.4595847033
0.4524516819 0.7509016153 0.9568388706
0.4424770502 0.5010525019 0.7118399718
0.45246641 0.5016409136 0.96262887
0.4424917783 0.7492222987 0.209253298
0.4525989632 0.7530170335 0.4561788214
0.4423444969 0.4996166211 0.2143924977
0.4427421567 0.7505566394 0.7093638035
0.4525510968 0.4997546115 0.4593647018
0.4724046272 0.7519821059 0.9546204448
0.4825596786 0.5009190678 0.7071895621
0.4624152674 0.5004120184 0.7065516496
0.4724046272 0.4997949672 0.9549702381
0.482600181 0.7500033762 0.2040294114
0.4624962722 0.7511684835 0.2052039804
0.4725408625 0.7496063285 0.4534918566
0.4824308074 0.4998457372 0.2067246607
0.4823350745 0.7493199334 0.7010755437
0.4624115854 0.5007361655 0.2052638135
0.4625146824 0.748219916 0.7055105544
0.4725040422 0.4998301156 0.4587544045
0.4924275313 0.4984248271 0.9524756596
0.5026046748 0.7491702269 0.20127617
0.4925343103 0.749144191 0.4524010539
0.5025494443 0.4991642471 0.2084837527
0.5025383982 0.7484867841 0.7021599029
0.4926263611 0.747907485 0.9543811125
0.4926779096 0.5008728541 0.4525998837
0.5025678545 0.498329796 0.7046765735
0.512524076 0.7500033762 0.9527518122
0.5125719424 0.4995098739 0.9560840535
0.5125130299 0.7475690181 0.4557121235
0.512627173 0.5008305457 0.4576258609
0.522638625 0.5007758703 0.7095626334
0.5326022106 0.7489944845 0.9607418273
0.5326095746 0.4974393676 0.9590665015
0.5227049016 0.5002688208 0.2063021472
0.5224545233 0.7494175681 0.2080152138
0.5326316668 0.7523596266 0.4582490453
0.5325543441 0.5017749986 0.4608540848
0.5225281639 0.7491767359 0.7055915591
0.5426394368 0.5020587901 0.7132152117
0.5524925613 0.7512335733 0.9649117314
0.5626549768 0.4989689777 0.7128792261
0.5526840271 0.4982269541 0.9627577412
0.5427719901 0.5008155751 0.2120636108
0.542654165 0.7479270119 0.2128405201
0.5626697049 0.500287046 0.2120185059
0.5625555618 0.7477642874 0.2092689466
0.55256252 0.4987841227 0.4612259703
0.5526361607 0.7496258554 0.4607160085
0.5426762572 0.7485909278 0.7081211169
0.5626954792 0.7459743182 0.7096620483
0.5826263323 0.5000260359 0.7191727437
0.5725706959 0.7491116461 0.9652523196
0.5725964701 0.4983252397 0.966789569
0.5825821479 0.5015204975 0.2158662321
0.5825747839 0.748213407 0.2179290919
0.572478645 0.4994272098 0.4629178651
0.5726296085 0.7502702444 0.4630734311
0.5826373784 0.7486950714 0.7149411654
0.6025976879 0.5000371012 0.7210561043
0.5925751898 0.7479465388 0.9697167865
0.612517089 0.7505371125 0.9736105381
0.5925567796 0.5001620736 0.9696247357
0.612517089 0.4998691695 0.9754699656
0.6025829597 0.7520081418 0.2216332187
0.6024909089 0.4993738362 0.218627758
0.5925715077 0.7495086938 0.4689232635
0.5925199592 0.4988277329 0.4689886197
0.6124692226 0.7507649268 0.4751551071
0.612509725 0.4987496251 0.4739547638
0.6025203652 0.7491507 0.719902707
0.6224401722 0.5006053351 0.7271876124
0.632532629 0.7501986456 0.9825118567
0.6324663524 0.501861568 0.9820239871
0.6225506333 0.7507519088 0.2274370257
0.6224475363 0.500344325 0.225278433
0.6324442602 0.7507974717 0.4805087853
0.6324442602 0.5004354507 0.4823608487
0.6225138129 0.7507714358 0.7271866919
0.6424888505 0.500350834 0.7370029961
0.6523972056 0.7518519263 0.9894248766
0.6624012935 0.5019461847 0.7411682977
0.6523935235 0.5017483118 0.9889462121
0.6424115278 0.7521318124 0.2350036068
0.6424152098 0.5029713489 0.2376491486
0.662456524 0.7484607482 0.2390354346
0.6624344318 0.5007947463 0.2418485091
0.6524524361 0.7508625615 0.4907973105
0.65244139 0.5010557564 0.4887114379
0.6425293529 0.7520927585 0.73720919
0.662342381 0.7499968672 0.7395077001
0.6822769162 0.5000846167 0.7405708876
0.6725416167 0.7494761489 0.9898483106
0.6723206947 0.5009796013 0.9886332392
0.6824315616 0.7501921366 0.2408957826
0.6824205155 0.5011507875 0.2408525187
0.6724495659 0.7517282557 0.4904926221
0.6723096486 0.5009932702 0.4898583916
0.6823358287 0.7498797056 0.7416681339
0.7023587328 0.5009132098 0.7431225376
0.6923509628 0.7504720227 0.9891947495
0.7124622356 0.7520276687 0.993935369
0.6923693729 0.4996758528 0.9918734296
0.7122781339 0.5018823967 0.9930332705
0.7023550507 0.7491116461 0.2433618253
0.7022409076 0.5006359273 0.2405874122
0.6923914651 0.7493199334 0.4912768955
0.6923509628 0.5010180043 0.4903959687
0.7124290973 0.500382728 0.4927110479
0.7124843278 0.7481873711 0.4929015932
0.7024029172 0.7512856451 0.7408000943
0.7224258212 0.5016565352 0.7438865597
0.732418863 0.7504915497 0.9947454166
0.7423603564 0.4995437206 0.746900305
0.7324630475 0.5020418667 0.9944232386
0.7223779548 0.7517412736 0.2416220639
0.7224110931 0.5005695357 0.2429181401
0.7424303151 0.7510903757 0.2469333988
0.7424524073 0.4996791073 0.2460690412
0.7324262271 0.4993471494 0.4917509574
0.732415181 0.7514483696 0.4932771608
0.7226062409 0.7509471782 0.7423235361
0.7423714025 0.7515980761 0.7447776121
0.7524086288 0.5005858081 0.5005666687
0.7523865366 0.7506282382 0.9966784847
0.7624826754 0.5011553438 0.7505989088
0.7524969976 0.4988387981 1.0003789295
0.7623648503 0.7523661356 0.2530262455
0.7623280299 0.5000006509 0.2516832234
0.7523497162 0.7494826579 0.4971957661
0.7623574862 0.7504329688 0.7516970756
0.7723284358 0.5002525484 0.5039173202
0.7722768874 0.7508820884 1.0024868943
0.7924249806 0.4997572151 0.5102633068
0.792469165 0.7522880279 1.0100902957
0.7824172106 0.5012132737 0.7549271404
0.7724094406 0.5022091475 1.0018425382
0.7924470728 0.5011130354 1.005009088
0.7822367909 0.7499838493 0.255421409
0.7824871692 0.5004387052 0.2572679494
0.7722989796 0.7502116636 0.5035270245
0.7924986213 0.7481092633 0.5058264551
0.7823362058 0.7515850581 0.7565150178
0.8124478846 0.5024603941 0.5069144963
0.8125067972 0.7502637354 1.0082492784
0.8025248014 0.499457802 0.7623114608
0.8126393504 0.5001093508 1.0117656214
0.8025579397 0.7508560525 0.256114552
0.8024217045 0.502728564 0.2603820301
0.8124736589 0.7489359037 0.5075892292
0.8024916631 0.7495607656 0.75653711
0.832397148 0.5003527867 0.5094606232
0.8324671066 0.7498471607 1.0109831891
0.8224740648 0.5028632999 0.7593916074
0.8423901898 0.499712954 0.7638192539
0.8323750557 0.501147533 1.0092802481
0.822396742 0.750374388 0.2573876155
0.822496157 0.5016545825 0.2576766552
0.8424822407 0.7515590222 0.2628904162
0.8423644156 0.5021212763 0.260477763
0.8324155581 0.7483826404 0.5112316819
0.8224814288 0.7493524783 0.7576905074
0.8424491024 0.7520862495 0.7656160868
0.8524973747 0.5008129715 0.5113283353
0.8624425501 0.7509276512 0.7693809672
0.8625677393 0.5004621375 0.7658692267
0.8524347801 0.751305172 1.0143614558
0.8524863286 0.4994141919 1.0165062409
0.8624241399 0.7510252859 0.2695705474
0.8625751034 0.5013193701 0.2668246701
0.8524752825 0.7497820709 0.5198494838
0.8725092326 0.4981787877 0.519287053
0.8825206847 0.7520862495 0.7737625883
0.892351717 0.5004263381 0.5281009233
0.8724503201 0.7492418257 1.0198016619
0.8925468648 0.751611094 1.029181645
0.8823881314 0.5006515488 0.7764891349
0.8724208638 0.4993074446 1.0200778145
0.8923590811 0.5008975882 1.0255916613
0.8825317308 0.7503027893 0.2762709298
0.882450726 0.5007433254 0.2739503275
0.8724245459 0.7501661007 0.5202204488
0.8925395008 0.7512075373 0.5275173208
0.9125697689 0.5005187656 0.5287397563
0.9024404917 0.7507714358 0.7777842906
0.9225885849 0.7502897713 0.7751654435
0.9125955431 0.7527892193 1.0268895785
0.9024957223 0.5001080491 0.7794955162
0.9224818059 0.5010577091 0.7784581029