POSCAR file written by Ovito 3.7.11
1
271.6023495178 0.0 0.0
0.0 15.3641490504 0.0
0.0 0.0 10.8640939807
Sr Ti O 
800 800 2400 
Direct
0.022456712 0.5011429204 0.7661856611
0.0125071294 0.2481865096 0.5148991751
0.0224817486 0.2486915815 0.7646797832
0.002626287 0.2508928098 0.7658800673
0.0125385724 0.2495364053 0.0152101988
0.0223690102 -0.0043105723 0.2681919941
0.0024741897 -0.0012365459 0.2626185888
0.0025540859 0.5000071595 0.2633080158
0.0125418125 0.5010570061 0.5144315798
0.0126822383 -0.0036475352 0.5138065852
0.0225296863 -0.0028195557 0.7640354588
0.0025227533 -4.5947710912e-04 0.7611608519
0.0224156593 0.2465970951 0.2655419803
0.0025918617 0.2501723013 0.2621049702
0.0325062568 0.498961869 0.0204646637
0.0425661845 0.5009222769 0.2641180235
0.0325018386 0.5013062878 0.5207321512
0.0323906466 0.24926174 0.5132920462
0.0424715609 0.2490013936 0.7710770032
0.0324734883 0.2485685678 0.0193273392
0.0525495297 0.5013127964 0.0199993695
0.0423979238 -9.184677097e-04 0.7662841507
0.0425919575 0.2482314193 0.2677520127
0.0524574834 0.2498650926 0.5158601388
0.0524957746 0.2526260656 0.0166108678
0.0623977508 0.2500408264 0.2640186135
0.0625314021 0.5005330591 0.7623141924
0.0724370602 0.5011214419 0.0148128348
0.0625336112 0.5004061403 0.2643582644
0.0724035553 0.4986338326 0.5160727659
0.0724458966 0.2509949957 0.5128677126
0.062437883 0.2514603648 0.7638762187
0.0725195337 0.2486870254 0.0115419684
0.0924670783 0.2482177511 0.5106816122
0.1024283324 0.2479059864 0.7589443762
0.0824903605 0.2488699187 0.761121272
0.0924766512 0.2505211654 0.0113513404
0.1025063877 -7.0426775699e-04 0.259374876
0.09254182 -0.0012656396 0.5098366269
0.1026514527 0.2474887814 0.2595773779
0.0825102425 0.2504508719 0.264105137
0.1025439426 0.4995209627 0.7589609446
0.0825518475 0.4980630232 0.7604079129
0.1024651509 0.4968615248 0.2573958799
0.0824723194 0.5002401695 0.2606994227
0.1225872154 0.2473586082 0.257004683
0.1124241958 0.4999824266 0.0079757253
0.1125486425 0.2468776183 0.5083951813
0.122532724 0.4982498217 0.2567810104
0.1125939293 0.496720287 0.5080923489
0.1225610743 0.249528595 0.7554917183
0.1127157986 0.2501508227 0.009073746
0.1226159339 1.3442020739e-05 0.255172961
0.1523700948 0.2491973042 0.4960204725
0.1325363194 0.2491973042 0.5047657945
0.1423024352 0.24719459 0.7481501029
0.1523759857 0.2493593698 -0.0010076469
0.1324880871 0.2482177511 0.0040412049
0.1424839505 -0.0019281559 0.2493731216
0.1423668676 0.2499471017 0.2494854181
0.1424313 0.4980656267 0.751333065
0.1522861485 0.5013739778 -0.0015340323
0.1325363194 0.4983136066 0.0016268296
0.1522721575 0.4989377869 0.4969510609
0.1324063499 0.4994441606 0.5036244199
0.1824419996 0.2508908572 0.2405504807
0.1722937074 0.4996400712 0.4934938007
0.1824714544 0.4987893895 0.7392464612
0.1723872265 0.2502146076 0.4935536308
0.1623442353 0.2496171127 0.7495114681
0.1724417179 0.2509657068 -0.0055506673
0.1824813954 0.4987301607 0.2411800776
0.162397254 -0.0012759232 0.7433627732
0.1623180941 0.2499399422 0.2457980421
0.1822571705 0.250741158 0.741083706
0.1823841945 2.6467624057e-04 0.2378047386
0.1923329302 3.8599763584e-04 -0.0115544077
0.2024889543 0.2498084673 0.2399135201
0.2025058908 0.4975169468 0.734633099
0.1922364656 0.4993628023 -0.011938609
0.2025703232 0.499146064 0.2366219432
0.1922692341 0.4987581479 0.4877777235
0.1925718825 0.250853107 0.4932213435
0.2022934479 0.2497004235 0.7402285956
0.1924761543 0.2497843852 -0.0102325671
0.2023807078 -0.0014445626 0.2390758985
0.2124100761 0.2516862153 0.4847125806
0.222490254 0.2505699803 0.7363598882
0.212358162 0.2504053113 -0.0183871726
0.2224228761 0.0016777711 0.736804472
0.222490254 0.2496503069 0.236627466
0.2325814775 0.2500349686 0.4850402655
0.2324846447 0.2525134658 0.9895020283
0.232457399 0.0021010292 0.4876709497
0.2224033623 0.5026301489 0.7349027948
0.2123206071 0.4981827825 -0.0189240788
0.2123960851 0.4975123907 0.48274463
0.2425176949 0.5005948914 0.7410275577
0.2625164173 0.2496464017 0.7413441971
0.2626920417 -3.5390666753e-04 0.2421198706
0.2626287138 -0.0024439801 0.7391295624
0.252628064 0.2487820518 0.4953282841
0.2425699772 0.2513653384 0.7378924597
0.2525422768 0.2501469175 0.9904961287
0.2624869625 0.2513074113 0.2415353764
0.24248014 4.595454774e-04 0.2401528405
0.2625432949 0.4991076629 0.2429197533
0.2523655478 -0.0015936759 0.4892513852
0.2424028211 0.0017901105 0.739238177
0.2524715852 -0.0022832097 0.9916559124
0.2425235859 0.251901001 0.2396972112
0.2726680232 0.24841236 0.4923386192
0.2725873906 0.2471835253 0.9901279433
0.2725321628 -0.0021233636 0.4900613929
0.2725100717 -0.0024445529 0.9956599279
0.2824661711 0.247422393 0.7416461091
0.2725895997 0.4993100822 0.4934615844
0.2825018851 0.2510099656 0.2428967417
0.3124725389 -0.0029325656 0.4994031752
0.2925485581 0.5001711777 0.495429535
0.2925846403 0.2479001286 0.5009652014
0.3025499444 0.2471984952 0.7494313878
0.2925927404 0.2480179353 0.995080036
0.2924988531 -0.0032299006 0.496120803
0.3025679854 -7.8725315344e-04 0.7511977569
0.312546176 0.4997214294 0.500298786
0.3025352169 0.2482685187 0.2482326675
0.3124301976 0.2478005461 0.4998137018
0.3125410214 0.2494400772 1.0011090707
0.3224323202 3.4785689677e-04 0.2490767324
0.332450643 -0.0016069536 0.4959008122
0.3225494032 -0.0019218295 0.7453344056
0.3324292882 -2.4391061106e-06 0.9959636808
0.3225685488 0.2509923923 0.2486643648
0.3225766489 0.5005050719 0.7450914033
0.3225387258 0.5004204593 0.2467903015
0.3326240583 0.2478395981 0.4950981682
0.322634454 0.2490150618 0.747105377
0.3324708932 0.2466185737 0.9950984453
0.3625431662 0.2526761822 0.2398012235
0.3524699838 0.5022845391 0.4906394439
0.352494284 0.2515020202 0.4923376987
0.3425028388 0.2501963833 0.7437880272
0.3625100295 0.4994975316 0.7364298434
0.3527093043 0.2510307933 0.9896124839
0.3624879384 0.500514184 0.2389010104
0.3425764759 -0.0027218217 0.2435631571
0.342507257 0.248325144 0.244194595
0.362421665 0.2516621332 0.7393734851
0.3426147671 0.5014852759 0.7422462511
0.3426188172 0.4974010926 0.2435429069
0.3824325376 0.2503233022 0.2355937857
0.3925171337 0.2473878972 0.4838482655
0.3923404047 0.2496952166 0.9815216113
0.3924103599 -4.9944027259e-04 0.9851022136
0.3825908572 0.5018575711 0.7313562496
0.3923772233 0.5004165541 0.982257982
0.3725762163 0.2501234863 0.4859055011
0.3824619924 0.2513015535 0.7354283793
0.3724620789 0.2517109482 0.9876887155
0.3924508603 0.4998509517 0.4807868045
0.3726203986 7.5990229354e-05 0.4882968648
0.4124875058 0.4993621515 0.9749771171
0.4023808186 0.2473976601 0.7310258033
0.4024949561 -0.0021363744 0.7303336149
0.4024250008 0.2488230564 0.2314176436
0.4121782302 0.2490404456 0.4813795829
0.412358641 0.2486922323 0.977766121
0.4124470055 -0.0018417079 0.4789201049
0.4125390518 -0.0023590747 0.9786313565
0.44249461 -0.00298511 0.7285488365
0.4423289266 0.2510887204 0.2258764545
0.4225279197 0.4970730563 0.7253953292
0.4324468324 0.4970040645 0.9789719279
0.4322627398 0.496467751 0.4779333683
0.4424136093 0.496807503 0.7282266743
0.4424062455 0.4990939947 0.2281177826
0.4324100139 0.2466810568 0.4775578192
0.4222517807 0.2492682486 0.727632055
0.4323805591 0.2486655468 0.9780698739
0.4225095105 -0.0013386667 0.2269239417
0.4323547861 -0.0025022717 0.9768088391
0.4222812355 0.2481415998 0.2268852823
0.4422074255 0.2474243456 0.727395496
0.4724980324 0.248669452 0.4867164292
0.4623324355 0.2517753839 0.7349175222
0.4723875768 0.2511095481 0.9865289318
0.472405986 6.6899410937e-04 0.9872468931
0.4623177081 0.250387087 0.2349816776
0.4523104309 0.4986533585 0.9826261673
0.4523030672 0.4980220187 0.4846481482
0.4625128463 0.4971413972 0.7322205647
0.4723397127 0.4974980717 0.9862804067
0.4622293436 0.497802026 0.2330450228
0.4524098409 0.2472486119 0.4806855536
0.4522772942 0.2485002269 0.9785669241
0.4524650687 0.0012881628 0.4790213559
0.4825089914 0.2504385054 0.7381345415
0.4825053096 -0.0022383911 0.7393357461
0.4924868138 0.5026106229 0.9902568082
0.4924720864 0.5002421221 0.4909349126
0.4823874903 0.2494596032 0.2417977085
0.4924720864 0.2489961867 0.4903587026
0.4925751783 0.2477445716 0.9923830785
0.4823727628 0.4980129065 0.2408956544
0.5025456369 0.2502712329 0.7416286203
0.5124792771 0.2478760465 0.4972161543
0.5124682315 0.2488243581 0.9932299047
0.5025161821 0.0010833353 0.742752506
0.5025640462 0.2502647242 0.2419910058
0.5224313265 0.25229868 0.2474907741
0.5224165991 0.2506597998 0.7530119901
0.512431413 0.5015737936 0.4992724694
0.5223981898 0.4999244996 0.7505884102
0.5425342454 0.4980506568 0.7532301399
0.5524752492 0.4999153874 1.005444453
0.5425342454 0.4990048261 0.2540776096
0.5524163395 0.5011722094 0.5042061528
0.5324165126 5.7552977266e-04 0.499130718
0.5324386037 0.2491797309 0.4984348478
0.5324901496 0.2502712329 1.0011458893
0.5325527411 0.4997826108 1.0040085302
0.5525231133 -0.0010973256 1.0040085302
0.5423354253 0.2514063429 0.2531847602
0.5526004322 0.2493229213 0.5063241389
0.5423980168 0.2502940132 0.7520427422
0.5524200214 0.2474315052 1.0057574105
0.5723683024 0.2486089215 0.5083500786
0.5723903936 0.2493990726 1.0084267541
0.5623794345 0.4977811983 0.7567389461
0.5624751627 0.4979764581 0.2593150459
0.5725082129 0.5016629623 1.0084727773
0.5725818499 0.4988811616 0.5062615474
0.5623389341 0.2490371912 0.253138737
0.5625009357 0.2510360003 0.753768611
0.6025521356 0.4993758196 0.7632963268
0.5924601758 0.5003228295 1.0179075263
0.5924380846 0.5008702076 0.5128483829
0.5825633542 0.2484833044 0.7603324349
0.6025005896 0.2485815851 0.2624768374
0.5925632677 0.250527674 0.5121092508
0.602467453 0.2488992077 0.7643171206
0.5925669495 0.2513737997 1.0113170089
0.5825596723 0.5005460765 0.7626842187
0.5823645341 0.4986045436 0.2640710799
0.5823387611 0.2492786625 0.2588345641
0.6125373217 0.5011806707 1.0146859047
0.6125704583 0.4987308116 0.5148614361
0.6224562344 0.5003391011 0.7629198573
0.6126809139 -0.0012414273 0.5157211489
0.6225814174 0.5008630481 0.2635629841
0.6123642746 0.2497010744 0.5107939087
0.6123826838 0.2526885487 1.0112985997
0.6225188259 -0.0011358569 0.7617766418
0.6225630081 0.2502530086 0.2616069996
0.6225077803 0.2507405072 0.760316787
0.6426254266 -0.0010401145 0.255699466
0.6525406575 -7.7033064122e-04 0.5036658408
0.6324856027 0.5026099721 0.5060866593
0.6425002436 0.2493164127 0.2547412637
0.6524559749 0.2507144725 0.5038563767
0.6425517896 0.2516543228 0.7560955422
0.6325555579 0.0010434372 0.5063333435
0.6525075208 0.2520578597 1.0012011171
0.642441334 0.4992521551 0.75700496
0.6524449293 0.502731684 0.5048293064
0.6324377386 0.2493437491 0.5074912864
0.6325076938 0.249906748 1.0080217503
0.6825808984 0.5007673708 0.7524468256
0.6625516166 0.0015376397 0.2532942953
0.6825698528 0.49916559 0.2510999108
0.6625479347 0.0013909996 0.7518264334
0.6725625756 0.499670011 0.5023072369
0.6624853432 0.2514805417 0.2537333563
0.6625221617 0.2504326476 0.75309115
0.6725699393 0.0028104729 1.0001886074
0.6625479347 0.4974668301 0.7560624056
0.6624522065 0.4993758196 0.2541236328
0.6825109432 0.2514037395 0.2510907062
0.6724963022 0.252721092 0.5001128524
0.682566171 0.2512345144 0.7517592395
0.6725110297 0.2503525911 1.0029684066
0.7025328613 0.2509318617 0.2436588853
0.6925366296 0.2493352878 0.49609503
0.7025070883 0.2520923556 0.7442528612
0.6925697663 0.250799736 0.9974916499
0.6924961292 0.5016720744 0.9984949549
0.6925292659 0.5014442713 0.4966868879
0.7325583747 0.5021413487 0.9889865688
0.7325141925 0.5016759796 0.4880557034
0.7125143655 0.2524861294 0.4964337605
0.7126505941 0.2497433807 0.9948591248
0.7226210527 0.0013775267 0.2420397903
0.7325399655 0.0014704052 0.4921867428
0.7326283299 6.6307123009e-04 0.9935796808
0.7125990481 0.5020664991 0.9951260592
0.7225952798 0.2490521611 0.2439966954
0.7324773739 0.2512488334 0.4933925497
0.7224259145 0.2504918764 0.7449137538
0.7324405554 0.252240753 0.992521148
0.7126064118 0.5008584921 0.4963877373
0.7125290929 6.3339174713e-04 0.495153396
0.7124701833 0.0020589181 0.9961109549
0.7526171114 0.4993875352 -0.0141809681
0.7425361971 0.0018648299 0.237054561
0.7424662419 0.0012697433 0.7388423778
0.7425656519 0.2519517685 0.242613239
0.742587743 0.2514343302 0.7430415315
0.7625212967 0.0012868611 0.2341863973
0.7526134295 0.0028762755 0.4869354995
0.7626170249 7.6603820827e-04 0.734821794
0.7524919283 0.0027056835 -0.0145175908
0.7624992055 0.2514154551 0.2348951541
0.7526428843 0.2500577489 0.4891538161
0.7626538434 0.251891238 0.7373696365
0.752650248 0.2496997727 -0.0086731734
0.7826315793 -0.0018394169 0.2335393116
0.7826205337 -0.0019106346 0.731057099
0.7726058928 0.0015004102 -0.0186236396
0.7826573522 0.250993694 0.2338835649
0.7725285739 0.2489721046 0.4839642439
0.7826757615 0.2497603032 0.7320889384
0.7726353476 0.2501208829 -0.0153193604
0.7926020379 -2.8465454061e-04 0.4827952555
0.7926130835 -0.0022784714 -0.0161225106
0.8126129105 0.5001575095 -0.0133749644
0.7925652194 0.2518652034 0.4854830084
0.7925652194 0.2476788342 -0.017865546
0.802561451 -0.0013117859 0.235385761
0.8126718201 -2.5790395399e-04 0.4865130069
0.8026240425 -0.0035821297 0.7333472118
0.8125540008 -6.9118535332e-04 -0.0118025093
0.8026571792 0.2510125691 0.2364240436
0.8126092286 0.2501150251 0.4883852292
0.8025651329 0.2478975251 0.7341737878
0.8124840456 0.2504996868 -0.0126329421
0.8327084656 0.0019327153 0.4936530408
0.8225318232 0.0014232175 0.7382799747
0.8325648734 0.0024847146 -0.0107545711
0.8227232796 0.2514265198 0.2388062027
0.8326937382 0.252715885 0.4905032153
0.8225723236 0.2522557229 0.7382035763
0.8325906463 0.2514232655 -0.0064549488
0.8224839591 0.0016616947 0.2399705888
0.8425684687 0.0027807935 0.7409290681
0.8426016054 0.2514968133 0.2417240714
0.842586878 0.2508446457 0.7419001569
0.8625020223 0.0023011704 0.2442673116
0.8425390139 0.5024361909 0.7434097168
0.8524063807 0.0033159354 0.4932489574
0.8624836131 5.4129422872e-04 0.7424745261
0.8525131544 0.0018447833 -0.0083971192
0.8626272054 0.2519973291 0.2461202042
0.8425206046 0.0028002543 0.2427016035
0.8526567467 0.2505966658 0.4924739273
0.8626198416 0.2519524194 0.746729828
0.8525867915 0.250217211 -0.0072838537
0.8725019358 6.0703168002e-04 0.4983391196
0.8926306277 0.0021589562 0.5045817018
0.8725608455 0.0027464277 -0.0012294233
0.8825681227 0.2530380636 0.2471980668
0.892571718 0.0016097556 -0.0012336022
0.8725424362 0.2507144725 0.4966546717
0.8925938092 0.2526950573 0.4990580014
0.8826528053 0.250639623 0.751623011
0.8725645273 0.250489273 -0.0033581052
0.8924943991 0.2518639016 -0.002007583
0.9025274493 -7.2782910092e-04 0.2499318428
0.9125384083 0.001077803 0.5006872215
0.9025421767 0.0035051421 0.7519304457
0.9025384949 0.2527360619 0.251233378
0.9125347265 0.2505921098 0.5009053713
0.9025127219 0.2517988151 0.7492666249
0.9026526323 0.5028338699 0.7543982079
0.9125457721 0.2493339861 0.0023291431
0.9225677767 3.3848442846e-04 0.2524078892
0.9225861859 8.1244494369e-04 0.7553904673
0.9226266863 0.2524093272 0.2510502058
0.9225751404 0.2528258814 0.7527579422
0.9425050122 0.0018024119 0.2538447324
0.9326265998 3.9699726878e-04 0.5031687906
0.9425271033 8.7212934255e-04 0.7539839994
0.9324682801 6.7055618742e-04 0.0045576768
0.9426191496 0.2500076322 0.2501435494
0.9324940531 0.2518326601 0.5026588539
0.9424755573 0.2519712945 0.7510265507
0.9325529627 0.2514148042 0.0030248293
0.9525159712 7.1819956797e-04 0.5031328925
0.9525675171 0.0023365124 0.0042058757
0.9624680206 0.250343479 0.2544338289
0.9524828345 0.2495761082 0.5039327752
0.9723869333 0.2507815117 0.5062560246
0.9625011573 0.2525713928 0.7544331855
0.9526264268 0.253002266 0.0048089633
0.9725526167 0.2523396846 0.0051121639
0.9626631588 0.0019569275 0.254481693
0.9824899387 0.4996622006 0.7610973399
0.9824347109 0.4995209627 0.2569255231
0.9824163016 9.9306021831e-04 0.2576609733
0.9925818985 -9.7790953791e-05 0.5131972385
0.9825120298 0.2519042553 0.2597697548
0.99254508 0.0018891072 0.0128501309
0.9925487619 0.2523045378 0.5131834315
0.9826040762 0.2539180343 0.7589655469
0.9925082615 0.2515267531 0.0099005062
0.012421784 0.7486372651 0.0128705651
0.0024895062 0.499752671 0.7636571484
0.0124252818 0.5000442589 0.0151957475
0.022460762 0.7484550226 0.2682030397
0.0025189242 0.7487674382 0.2656045718
0.0124278223 0.7460338017 0.5154376462
0.0224646648 0.7496330898 0.764858353
0.0225742367 0.4986533585 0.2671435864
0.0024987476 0.7484029534 0.7643005523
0.0124933593 0.9983419501 0.0141360181
0.0523993101 1.0000537273 0.5182303319
0.0525167612 1.0019737816 0.0195150217
0.032486743 0.7495940379 0.0174204153
0.0423979238 0.4994396045 0.7646549306
0.0424958611 0.7531607828 0.2656459926
0.0325110433 0.7483769187 0.5163341775
0.042509484 0.7510454687 0.7673923886
0.0524004146 0.7494052868 0.0149288132
0.0524696335 0.7500691699 0.5167069651
0.0524493833 0.4987698635 0.516672908
0.0423762009 1.0013880023 0.2667855262
0.0323895421 0.9989993247 0.5161123458
0.0325474936 0.998686909 0.0204232428
0.0724127599 1.0004117036 0.5116048369
0.0624117419 1.0004963161 0.7646650557
0.0725000199 1.0019412383 0.011143776
0.0725239519 0.7501863258 0.0106178232
0.0625372931 0.7499845574 0.2597660729
0.0724112872 0.751592196 0.5105159288
0.0623863371 0.7525164256 0.7623482496
0.0625266157 1.001088604 0.2631607416
0.0826420529 0.9978212575 0.2615913517
0.1025752383 0.9982573376 0.758775011
0.0824539102 0.9976259977 0.7620675083
0.0925086833 0.9984005281 0.0087846285
0.0923916004 0.7474396719 0.0087542532
0.0924884331 0.4975618565 0.010675076
0.1025262697 0.7473160074 0.2560685718
0.0823128952 0.7491189058 0.2626075432
0.0924317326 0.7485982131 0.5080131891
0.1024953421 0.7481295897 0.7576317955
0.0824016279 0.7468799273 0.7602532751
0.0924298916 0.4995522043 0.5102370284
0.1124735327 1.0010820954 0.0099504873
0.1124908374 0.747856226 0.0055860184
0.1225971564 0.4989677268 0.7551216921
0.1225364059 0.7506093886 0.2545019432
0.1123487178 0.7456497908 0.5064852199
0.1225135784 0.7504792154 0.7558092781
0.11257147 0.9983810021 0.5062063196
0.1224583506 1.000079762 0.7574495438
0.1524529365 0.9996111386 0.49476404
0.1324925053 0.9987910476 0.5044298254
0.1423186353 0.9968905193 0.7499394836
0.1524190634 0.9991099718 -0.0057604593
0.1324943462 0.9991034632 0.0032550371
0.1523306989 0.749210027 -0.0035021025
0.1324534777 0.7500236093 6.5861260981e-04
0.1424136271 0.7502058518 0.2496722722
0.1524636138 0.7496916678 0.4987422825
0.1324612095 0.7496330898 0.5011437713
0.1424493411 0.4987496867 0.2500119231
0.1424121544 0.7502904643 0.7493467052
0.1724940002 0.7484745486 -0.0078419333
0.1623302442 0.4995548078 0.7466626342
0.1724048994 0.5003573254 -0.0061844523
0.1622790665 0.748676317 0.2446621903
0.1823341213 0.9979709566 0.7398530465
0.1724251495 0.7489692067 0.4943710022
0.1624016722 0.5002160875 0.2468841888
0.1623232487 0.7487023517 0.746439882
0.1823341213 0.7520803454 0.2387721456
0.1823922945 0.7495745119 0.7381419052
0.1622772255 0.9981011298 0.2415390583
0.1724490816 0.9991945844 0.4888141652
0.1724277268 0.9985957878 -0.0130360499
0.1923432394 0.9995330347 0.4877519505
0.2024392493 0.9999430801 0.7374211824
0.1923656987 0.751878577 -0.0141816217
0.2023464666 0.7507005098 0.2356674228
0.1924606905 0.7484550226 0.4875982331
0.2021966151 0.7503295163 0.7344775407
0.2323738209 0.7521519407 0.9892627078
0.2324824356 0.5006729953 0.9849273256
0.2325446589 0.7499129621 0.4879010655
0.2324342033 0.500596844 0.4885941744
0.2224155124 1.0018761517 0.2341873178
0.2124380582 1.0004507555 0.487687518
0.2123261299 1.0000862706 -0.0145570418
0.2123861441 0.749190501 -0.0161834913
0.2325833184 1.0028719765 0.9847248237
0.2224836267 0.7514555142 0.2355017394
0.2123585302 0.7499780487 0.4828762563
0.2223963667 0.5008858284 0.2315796452
0.2224659538 0.7513383584 0.7358738836
0.25259235 0.7493141656 0.9896677117
0.2524023664 0.5014690042 0.993349565
0.2424794036 0.7512537458 0.2372441764
0.2526114956 0.7456888427 0.4936668478
0.2425121721 0.5014006633 0.2363476452
0.2425221131 0.7495680032 0.7389206172
0.2523780661 0.5003905195 0.4898865049
0.2625830589 0.502658787 0.7439279376
0.2623540476 0.7500366267 0.2424687262
0.262620982 0.7514099536 0.7421919438
0.282593195 0.4996888861 0.7434216828
0.2825946678 0.748943172 0.2461873981
0.2825806767 0.4985752546 0.2432179834
0.2825449628 0.7467237195 0.7462300164
0.2724588939 0.7465154424 0.9922542136
0.2724500575 0.4968992751 0.9924291016
0.272556463 0.7478041568 0.4913574053
0.2826837686 0.9999951494 0.2451215015
0.2825346536 0.9959142205 0.7443936921
0.3124629661 0.997678067 0.9994522368
0.2924484117 0.747075187 0.9973903989
0.3025017121 0.4975566496 0.7486278233
0.2925268352 0.4987171434 0.9967092561
0.3025179122 0.7485591612 0.2515444946
0.2925883221 0.7485851958 0.4981283335
0.3026313133 0.4973470708 0.2467028575
0.3024733618 0.749782789 0.7522461646
0.3025322715 0.9996306645 0.2492138814
0.3125579579 0.7494833907 1.0023609008
0.3125472805 0.4994721478 0.9992313256
0.3125653216 0.7486893343 0.5007737451
0.2923202832 0.9964153872 0.9966080051
0.3324889343 0.7517939645 0.9963870939
0.3325761942 0.4989195627 0.9968841441
0.322457725 0.749991066 0.2518031448
0.3325691987 0.7496786504 0.4964926702
0.3225803307 0.7483183408 0.750266248
0.3326052808 0.4985101681 0.4944455597
0.3524548882 1.0015832621 0.494702369
0.342477434 0.9986283311 0.745349133
0.3627935322 0.7485070919 0.2429694583
0.3526975223 0.9991555325 0.9912877271
0.3625615754 0.7519696982 0.7397297044
0.3624584835 0.9995981212 0.2401841363
0.3525572437 0.7485136006 0.9878636036
0.3626315306 1.0006199806 0.7406722589
0.3524891294 0.4990302099 0.9914810244
0.3425252981 0.7498999448 0.2443160961
0.3525428845 0.7491644664 0.4891114748
0.3425956215 0.7525424602 0.7440163021
0.3923956325 0.9990969545 0.486962193
0.3726240804 0.7511626246 0.985267897
0.3724768063 0.5016584062 0.9872929163
0.3825503569 0.7476544576 0.2352532143
0.3724289422 0.7502449037 0.4852519721
0.3824951291 0.49901524 0.234507639
0.3825356294 0.7493402002 0.7337835114
0.3823994009 0.9988691515 0.2350939741
0.3825319476 1.0007631711 0.7340274342
0.3725467615 1.0019998162 0.9895112329
0.3725136248 0.5015347417 0.4880363736
0.3925171337 0.7485070919 0.9791652252
0.392483997 0.7514555142 0.4812286269
0.4124285962 0.747381094 0.9785024916
0.4123660047 0.7472704468 0.4776240926
0.4123991414 0.4997500675 0.4797098625
0.4024655012 0.9996371732 0.2300065734
0.4023550456 0.4984945473 0.7303759562
0.4025060016 0.7493011482 0.2288302213
0.4024065916 0.5008422204 0.2279585425
0.4024029097 0.7479082953 0.7283914373
0.4323805591 0.7479929079 0.9772506615
0.4224101004 0.7471728169 0.2286047077
0.432358468 0.7484420053 0.4756966424
0.4223843274 0.4985902246 0.2235522846
0.4224395552 0.7510910293 0.7270567655
0.4424982919 0.7491189058 0.2289692112
0.4424688371 0.7494052868 0.7290670574
0.4323253313 0.9982833722 0.4770009389
0.4224726919 0.9994354048 0.7235258682
0.4424246548 0.9970467271 0.2287851185
0.452332522 0.9993573009 0.9794137503
0.4623545266 0.9991425151 0.2335503571
0.4724243953 1.0008868356 0.4863114254
0.4624207999 0.9999365715 0.7336610898
0.4523877498 0.7482207109 0.9800028468
0.4525018872 0.7515661614 0.4827243798
0.4723470764 0.7486112304 0.9880569009
0.4624355274 0.7492165357 0.2328618506
0.4725017142 0.7493271829 0.4848819459
0.4623618903 0.7511430986 0.7327286604
0.4724980324 0.4992703794 0.4848681389
0.4823801266 0.9992010931 0.2362666444
0.4925236323 1.0004898075 0.4922355273
0.4924352678 1.0001578659 0.9936533178
0.4825310825 0.5001080437 0.7370723268
0.4924684045 0.7505312847 0.4913040184
0.4823580354 0.7490798538 0.2350589965
0.492431586 0.7501733085 0.9928064916
0.482369081 0.7488976114 0.7392584272
0.5125124138 1.0004442468 0.4963297481
0.5124240493 0.9977236276 0.9987250707
0.5025235458 1.0022666712 0.246527049
0.5225233728 0.7475698451 0.7509170156
0.5224313265 1.0009258876 0.2483182706
0.5226411921 1.0038027147 0.7485376179
0.5025566825 0.7497958063 0.2445268822
0.5024756817 0.4996635024 0.2455522784
0.5024756817 0.750316499 0.7428463932
0.5024609543 0.4988388553 0.7482946156
0.5124903226 0.7481881676 0.9955126537
0.5123540941 0.5000657375 0.9955034491
0.5125124138 0.747895278 0.4965184431
0.5223871442 0.5013843917 0.249099744
0.5225049635 0.7485786871 0.2488650258
0.5324717404 0.7493597262 0.5023725898
0.5324901496 0.501591367 0.5051137296
0.5324496492 0.9998324329 1.000022924
0.5425158361 0.997925396 0.2503340853
0.5523905666 0.9979774653 0.5051017636
0.5524494762 0.7486698084 1.0085740282
0.542467972 0.9996111386 0.7499882681
0.542442199 0.7508241743 0.2576674166
0.5524200214 0.7485461438 0.5069132354
0.5425526546 0.7504401635 0.756740787
0.5324791041 0.7498999448 0.9990104144
0.5624383442 0.9990383766 0.2564800189
0.562493572 0.9980816038 0.7534501307
0.5625966638 0.7483964447 0.2564165069
0.5626113913 0.7503490423 0.7596752241
0.5725487133 0.9991815671 0.5068248709
0.5725523951 0.9970076751 1.0092091479
0.5726149866 0.7499585228 1.0146122676
0.5724824399 0.7489171374 0.5138369605
0.6024343163 0.9986804004 0.2669484482
0.5924896306 0.7494833907 1.0176958197
0.5924344028 0.9999821321 0.511614962
0.6025631811 1.0014335629 0.7622018959
0.592603768 0.9998063983 1.0108935958
0.6025226808 0.7516833173 0.2631708667
0.6025153171 0.5007309224 0.2632426629
0.5925485402 0.7531087135 0.5134577296
0.6023349062 0.7528613845 0.764657692
0.5825338993 1.0015246842 0.263014388
0.582342443 0.9983549675 0.760956509
0.5825265356 0.7498023149 0.2633310274
0.5825081264 0.7490538192 0.762311431
0.612452639 0.7511430986 1.0134708931
0.6125667765 0.7508632263 0.5132791597
0.6126809139 1.0009323962 1.01543148
0.6224194159 0.9986673831 0.2615775447
0.6225298715 0.7494117954 0.2619880714
0.6226440089 0.7513513757 0.7638007407
0.6425701988 1.0018045565 0.7543715144
0.6526069309 0.9996501905 1.0042846692
0.6325297849 0.9978147488 1.0113078043
0.6325297849 0.7491970097 1.010184839
0.6325481942 0.5006053052 1.0097706306
0.6324819209 0.7504792154 0.5074544678
0.6524817478 0.7502188691 1.0055549086
0.6523933834 0.5016902986 1.0049474028
0.6424634251 0.750563828 0.2583264683
0.6424376521 0.4998307749 0.2578754413
0.6525811579 0.7517484039 0.5056982238
0.6424744706 0.7497111937 0.7569957554
0.6724594837 0.7525554775 1.0050486537
0.6725478482 0.500033845 1.0016889626
0.6824557154 1.0027352947 0.2530761455
0.672603076 1.0015572275 0.5030279597
0.6825845802 1.0041346562 0.7515291237
0.6824336242 0.7523537091 0.253931256
0.6723895285 0.7504141289 0.5079211427
0.6824299424 0.7501928345 0.7556693677
0.6624706158 0.7512212025 0.2578413841
0.6624448428 0.750316499 0.756063326
0.7026101802 1.0016092967 0.2451564791
0.702613862 0.4998607147 0.7481988874
0.6925071748 0.7504531808 1.0003634954
0.6925071748 1.0005288594 0.4955004107
0.7025733616 1.000079762 0.7447186156
0.6926581308 1.0031062882 0.9973996036
0.7024849972 0.7512732718 0.2460852266
0.7026249076 0.5008318066 0.2461496591
0.6925108566 0.7503750769 0.4986870547
0.7023229956 0.7491058885 0.7473539021
0.7225584612 0.5022832374 0.7409318295
0.7326062388 0.751058486 0.9883146306
0.7224295964 0.7517288779 0.2427715587
0.7226578713 0.5010120964 0.2436101008
0.7326099207 0.752926471 0.4891335659
0.7225179608 0.7532974646 0.744157133
0.7224811423 1.0010625694 0.7458701152
0.7124628195 0.7511365899 0.9940215032
0.7124812288 0.7482727802 0.4953338068
0.7426503345 0.5002538377 0.7385993755
0.7425546064 0.7523081485 0.2377872498
0.7424772874 0.5025038809 0.2370573224
0.7424110141 0.7482988148 0.7372380102
0.7525287469 0.501877748 0.4856772262
0.7524698372 0.7514229709 -0.0132702525
0.7626170249 0.5018940196 0.7350298187
0.7624550233 0.7489496807 0.2306453749
0.7626501615 0.5010277172 0.2352209981
0.7525839747 0.7513513757 0.4852749837
0.7625212967 0.7501928345 0.7356667793
0.7824511684 0.7499129621 0.2316854985
0.7824474866 0.4982739038 0.2292306228
0.7724181183 0.7524838823 0.4802326856
0.7824695777 0.7486437737 0.730768994
0.7724843916 1.0020974461 0.4805594501
0.7726132565 0.5001633673 0.4801829806
0.7725653924 0.7509933995 -0.0175896831
0.78261317 0.499262569 0.7317143099
0.7725690743 0.5002401695 -0.0184903565
0.7924105816 0.7477390702 0.4820966239
0.8126092286 0.4992749354 0.4865323366
0.8126423653 0.7485396352 -0.0122233636
0.8025688147 0.5005460765 0.7348438851
0.8025761784 0.749515934 0.2359831417
0.8026792703 0.5003573254 0.2351768158
0.7926020379 0.4992905562 0.482706891
0.7925173553 0.7481295897 -0.0164649138
0.8126460471 0.7500756786 0.484892071
0.7925983561 0.4980851527 -0.0170812008
0.8026498155 0.7504661981 0.7347822141
0.8326090556 0.5007205085 0.491577396
0.8326164193 0.7514424969 -0.0098910844
0.822561278 0.5012919687 0.7400150481
0.8325906463 0.5003046052 -0.0107870266
0.8226054603 0.7496981764 0.240179534
0.8225760054 0.5006749479 0.2394413224
0.8326201012 0.7486047218 0.4903522594
0.8225060502 0.750830683 0.7413754928
0.8624872949 0.7487348949 0.7449091515
0.8624872949 0.4982231362 0.7480046697
0.8524763359 0.7514294796 -0.0043305655
0.852597837 0.5015959231 -0.0065481734
0.8624026123 0.7533885858 0.2412914537
0.8625462046 0.5023886777 0.2477982089
0.8524395173 0.7511040467 0.4943663999
0.8425390139 0.7505703367 0.2419265733
0.8425095591 0.5024902128 0.2426804328
0.8426457876 0.7538962612 0.7437493677
0.8526088826 0.5016050352 0.4945164354
0.872597664 0.5006567236 0.4996369729
0.8824908038 0.7520673281 0.7528518295
0.8927594926 0.5015256296 0.5033860199
0.8725461181 0.7490603279 -0.0014797065
0.8927116285 0.7511430986 8.6103169823e-04
0.8825460316 0.5017814198 0.7486333461
0.8725571636 0.5012678867 0.0013380802
0.892623264 0.5013381802 0.0015337707
0.8825754864 0.7518199991 0.2501085718
0.8825423497 0.5007159524 0.2501849702
0.8724319806 0.7515140921 0.5014806609
0.8925569906 0.7516182307 0.5019068354
0.8824576671 1.0030412016 0.2491181533
0.882534986 1.0017004179 0.7495289569
0.9126194091 0.7507395618 0.5025530006
0.9125310446 1.000079762 -0.0012075439
0.9126083636 0.50115008 0.5038416493
0.9025053582 0.7516898259 0.7555322187
0.9125347265 0.7507070185 0.0020594473
0.9126415002 0.5039260228 0.0053752323
0.9025164037 0.750316499 0.2523802753