POSCAR file written by Ovito 3.7.11
1
271.6052319912 0.0 0.0
0.0 15.3643121077 0.0
0.0 0.0 10.8642092796
Sr Ti O 
800 800 2400 
Direct
0.0224803363 0.4985596492 0.7698968663
0.0123953686 0.252780341 0.5191395465
0.0224445123 0.2515456616 0.7698342754
0.0023948985 0.2494733267 0.7713751147
0.0123405096 0.249522792 0.0222880168
0.0223484906 0.0015094756 0.267388137
0.002453918 0.0025673166 0.2679164773
0.0023421749 0.5003566707 0.2699681683
0.0123617537 0.5010329131 0.5186691948
0.0124207363 0.0022034865 0.5180570931
0.0223322906 -9.3039935863e-04 0.7654648824
0.0024377548 7.1666429267e-04 0.7726094429
0.0225781622 0.2524028428 0.267615489
0.0024819734 0.251197452 0.2715016439
0.0326422908 0.4986820106 0.0132578152
0.0425559437 0.4977148342 0.2641555041
0.0324714546 0.5006619235 0.517297719
0.0324350047 0.2493542195 0.5189959558
0.0425518937 0.2494030339 0.7626317264
0.0324909682 0.2489890876 0.0173854971
0.0525550147 0.500867595 0.0118052474
0.0425555755 6.3394012051e-04 0.7671327442
0.0424988756 0.2489012217 0.2638618794
0.0526183419 0.2480525016 0.5142878359
0.0525634829 0.2478539896 0.0140120348
0.0624756631 0.2529554221 0.2570210686
0.0624940722 0.4998587636 0.7626722263
0.0724828341 0.4999941423 0.0070440174
0.0626107857 0.5013967433 0.2619905973
0.0724971932 0.5001620639 0.5062734468
0.0725859249 0.2512397579 0.5094039093
0.062568813 0.2477505031 0.7562078811
0.0726072794 0.249850174 0.0113492547
0.0923760444 0.2511902926 0.5054910613
0.102628056 0.2519283666 0.7545501442
0.0825187232 0.2527881513 0.7572130163
0.0925387806 0.2525095837 0.0033736168
0.1024111972 0.0024588184 0.251345552
0.0924390034 7.9040661137e-04 0.5049387892
0.102532697 0.2527230654 0.2546582644
0.0826740958 0.2506188384 0.2555860815
0.1023762199 0.5016590395 0.7496883086
0.0824027461 0.4999342632 0.7533287024
0.1024793107 0.500092422 0.2494797927
0.0824940551 0.5026008324 0.259956395
0.1224542573 0.2529521678 0.2504490303
0.1123399455 0.5003696879 7.8133424523e-04
0.112509309 0.251705122 0.5005841234
0.1225658163 0.5009749867 0.2468555796
0.1123955409 0.4993270118 0.5007396801
0.1225216345 0.2498657946 0.7530764981
0.112472859 0.2517962423 4.4265336148e-04
0.1224899709 -3.1429627939e-04 0.2474161358
0.1524919703 0.2522856882 0.4936319377
0.1325122374 0.2502537066 0.4989705683
0.1425109402 0.2517324581 0.7465955846
0.1524912339 0.249790295 -0.0043956739
0.1324857283 0.2528792716 4.8828105556e-05
0.1423592494 -0.0016789522 0.2451950814
0.1423956994 0.2513328307 0.2492616452
0.1425061538 0.5019271933 0.7470779023
0.1524349022 0.5013134334 -0.0050174955
0.1325070828 0.5016486257 -0.0036521223
0.1524779794 0.5042390443 0.4961769918
0.1324916192 0.5031573168 0.4989006139
0.1825237924 0.2492813233 0.2348151267
0.172475385 0.4997839148 0.4868334678
0.1823941925 0.498874014 0.7364733569
0.1725490213 0.2510802974 0.4837573121
0.1624829413 0.2499712338 0.7407037615
0.1724864305 0.2530309217 -0.0142915713
0.1824523652 0.500863039 0.235245899
0.1624196141 0.0010033677 0.7380823098
0.1623187324 0.2514603991 0.2412555402
0.1823765198 0.2507750446 0.7370155041
0.1825797559 -8.402238394e-05 0.2330340491
0.1924378135 0.0024217846 -0.0119871146
0.2025885752 0.2501027073 0.2406388363
0.202482539 0.5022155239 0.741506397
0.1924584316 0.5003527655 -0.0135043166
0.2025440253 0.4994435156 0.2381223163
0.192546427 0.5005265449 0.4864192637
0.1924764725 0.250929949 0.4860216278
0.2024125845 0.2524223686 0.740990943
0.1925946587 0.2513302273 -0.0120427284
0.202492848 0.0010295322 0.2386893157
0.2125287372 0.2517858285 0.4927676319
0.2224306083 0.2495013136 0.742951509
0.2124978099 0.2514525888 -0.0085141393
0.2225134491 -0.0015910212 0.7424029187
0.222484731 0.2508368762 0.2399530984
0.232506261 0.2492500821 0.4959772534
0.2325217247 0.2506897821 0.9958111447
0.2325787928 -0.0023850301 0.4925485639
0.2225660991 0.4998138543 0.7420697145
0.2125574553 0.4996322647 -0.0113123853
0.21243301 0.5007471861 0.4881607618
0.2425664502 0.5016993927 0.7477433902
0.2626006739 0.2496178174 0.7496680586
0.2625760058 7.5408868213e-04 0.24565899
0.2625973603 2.5748330556e-04 0.7492556954
0.2526104393 0.2487736533 0.4993718861
0.2425682911 0.2479802563 0.7461592897
0.2526074938 0.2498352043 0.9972286431
0.2626669466 0.2509110741 0.2508282571
0.2425513547 -0.0031832565 0.2476655787
0.2626316012 0.5003124123 0.2530336638
0.2525415894 -0.0012906498 0.4966795594
0.2425535638 -0.0035590559 0.7422611689
0.2525478485 -0.0011352247 0.99590319
0.2426110001 0.2478598474 0.2468795114
0.2727289766 0.2490034065 0.4997354652
0.272717563 0.2493730944 1.0032023867
0.2723401771 8.1103883999e-04 0.500721271
0.2725500405 -3.6532362084e-04 1.0008000029
0.2825520569 0.2519225089 0.7494996156
0.2724955496 0.5004686184 0.5009237708
0.2825955023 0.252305214 0.2528661413
0.3126424198 -0.0018474661 0.500989123
0.2926637914 0.50101534 0.5051063117
0.2925997279 0.2496692352 0.5005859643
0.3027077806 0.2516250664 0.7529062142
0.2926439096 0.2498579843 1.0021714787
0.2925514961 1.9929651569e-04 0.505506709
0.3026654397 -2.5793189458e-04 0.7485266962
0.3125639972 0.4991799177 0.5010618388
0.3026061625 0.2498000579 0.2491290999
0.3125754108 0.247833813 0.5011566455
0.3126700334 0.2507691869 1.0010301163
0.3225048955 -0.0024983055 0.2502769055
0.3325591937 2.1513406438e-06 0.4996931244
0.3226709454 7.6515328423e-04 0.7486003325
0.3326527118 -4.4765727764e-04 0.9991247775
0.3225976772 0.2508277642 0.2512746771
0.3225888409 0.5029236584 0.7550039278
0.3225881045 0.4984073482 0.2542072421
0.3324940256 0.2491667721 0.5016058268
0.3227199135 0.2514154898 0.753731861
0.3324365893 0.2491986642 1.0013798887
0.3626403521 0.24913488 0.2430154474
0.3526626356 0.4984366368 0.4962671963
0.3525448176 0.2496132614 0.4947199138
0.3426580419 0.2471653809 0.7480673899
0.3625225341 0.4988707597 0.7488580595
0.3525422403 0.2500467334 0.9957375084
0.3625556704 0.4977623469 0.2463502506
0.3426709283 -4.8163211467e-04 0.2509387116
0.3426665101 0.2499399926 0.2498930763
0.3626145794 0.248590762 0.7433362586
0.3425472193 0.4970854536 0.7504983077
0.3425516375 0.4981593709 0.2538050039
0.3825147852 0.2498150276 0.2414000514
0.3923967745 0.2494863439 0.4896822716
0.3924888198 0.2492279529 0.990573764
0.3924888198 -0.0012439181 0.9907946728
0.3825221488 0.4985889378 0.7395909331
0.3924593653 0.4998034406 0.9861463824
0.3726475231 0.2486161455 0.4936070855
0.3824926943 0.2490157729 0.740029069
0.3725959777 0.2485556156 0.9921937622
0.3925698198 0.4989840092 0.4888161248
0.3725665232 2.1602359063e-04 0.4945229368
0.4125767981 0.500964573 0.9898281966
0.4024886272 0.2497154462 0.7380464121
0.4026653543 -0.0012474978 0.7364908456
0.4023818546 0.2505081924 0.2396999737
0.4124626619 0.2501111685 0.4877456373
0.4124921164 0.2502986158 0.9848393384
0.4125583891 6.0250363337e-04 0.4874630581
0.4124847528 -6.2215256133e-04 0.9849129746
0.4425099476 -0.0017009513 0.7324933158
0.4426498565 0.2508433848 0.2379824074
0.4224919238 0.4994669465 0.7328228382
0.4326316401 0.4980838713 0.9815441147
0.4325506402 0.5002668522 0.4854316171
0.4425025839 0.50042436 0.7314219079
0.4424584022 0.4992124607 0.2326207655
0.4325616856 0.2502647712 0.4820397457
0.4226318327 0.2506370625 0.7377969692
0.4324733221 0.2506617951 0.982013546
0.4225213783 -3.4651379727e-04 0.2333295147
0.4327531399 -2.2584454849e-04 0.9846920658
0.4225508328 0.2498130751 0.23725709
0.4425541293 0.2524601184 0.7337893144
0.4725977332 0.2524379892 0.4885491932
0.4625132441 0.2495338566 0.7365331864
0.4727155513 0.2524497047 0.9894784243
0.4725866878 0.0012781603 0.9857505874
0.4625647895 0.2519199055 0.2383864865
0.4524398005 0.5021354682 0.9849589973
0.4524177096 0.5000937237 0.483946005
0.462377017 0.5016180353 0.7355777556
0.4723878698 0.5015653158 0.9867814954
0.4623843806 0.5010420252 0.2362271025
0.4525613003 0.2514695111 0.4880383415
0.4524987095 0.2524230194 0.9858518373
0.4525428913 0.0025897713 0.4858761961
0.482590177 0.2514200458 0.7417181013
0.4825459952 -0.0011997899 0.7399351828
0.4924353481 0.5004419332 0.9917795581
0.4925531662 0.5003859594 0.4893757605
0.4825938588 0.2488419935 0.2370748402
0.4926120752 0.2502712798 0.4912857016
0.4926194388 0.2506286013 0.9924238756
0.482490768 0.4984366368 0.2391449402
0.50250511 0.2513185118 0.7432359292
0.5124607356 0.247999782 0.4922245643
0.5125049173 0.2482503627 0.9932983065
0.5024093828 6.5327063123e-04 0.7412238177
0.5024167464 0.2506435711 0.2444145368
0.5225489065 0.2506279505 0.2471206702
0.5225304974 0.2481664019 0.7448227911
0.5122766449 0.4997630873 0.4930382452
0.5225525883 0.4975143697 0.7431107475
0.5423828396 0.4959047955 0.7452682906
0.5524341923 0.4983181805 0.9948078503
0.5423902032 0.4974225986 0.2449916612
0.552283238 0.4994994895 0.4949445045
0.5324345776 -7.6970228462e-04 0.4968305138
0.5324014413 0.2476964818 0.4946757321
0.5324898048 0.2481592425 0.9929393296
0.5323425322 0.4982823832 0.9958111447
0.5525262377 -8.9629434981e-04 0.9952864862
0.542452794 0.2480909023 0.2430264928
0.5521911926 0.247279932 0.491328963
0.5424159759 0.2481319064 0.7444969505
0.552242738 0.2497805321 0.9949367138
0.5724227616 0.2523663947 0.4987505799
0.5724595798 0.2474061987 0.9972010295
0.5624339997 0.499520317 0.7477903333
0.5625186814 0.499261926 0.2466125799
0.5724190798 0.499953789 0.9959308036
0.5725626706 0.49864361 0.4978448536
0.5624339997 0.2483395304 0.2460741145
0.5624524088 0.2494941542 0.7452922224
0.6024258655 0.502154994 0.7522839876
0.5925622853 0.5041954368 0.9971365978
0.5925254672 0.5029191024 0.5006605211
0.5825735234 0.251276206 0.749055957
0.6023743201 0.253122042 0.2501701328
0.5923045583 0.2510894095 0.4995955563
0.6025105473 0.2523878731 0.7503795692
0.5924223764 0.2514727654 1.0014075023
0.5825587961 0.499220271 0.7493716725
0.5825146144 0.5008754053 0.2456921263
0.5824483417 0.2503272536 0.2478570331
0.6124772183 0.5002206412 1.0044818171
0.6124919456 0.5026939052 0.5045568009
0.6225064802 0.5006280789 0.7541672355
0.612403582 8.0199190063e-04 0.5034228022
0.6224217985 0.5003150157 0.2528118345
0.6124624911 0.2525043768 0.5030297685
0.6124845819 0.2526749019 1.0037638634
0.6225064802 6.7546492133e-04 0.7536757133
0.622451253 0.2501319959 0.2536089473
0.6224991166 0.251091362 0.7520621583
0.6424140496 -6.2137153059e-04 0.2528504936
0.652572175 -0.00116575 0.4998137038
0.6325099694 0.499215715 0.5007461232
0.6424140496 0.251580808 0.249760531
0.6523954479 0.2493802539 0.4977739787
0.6425392313 0.2501736509 0.7492492522
0.6325504693 8.5705456754e-04 0.5028447573
0.6525464023 0.2484638445 1.0003213671
0.6423919587 0.4977037696 0.7489924457
0.6526200385 0.5025975781 0.4990009433
0.6324400149 0.2493516161 0.4997041698
0.6325320603 0.252259003 1.0017572746
0.6826084152 0.4997578805 0.7455398244
0.6624504825 -0.0033553306 0.2490048387
0.6824574608 0.5016466731 0.2439782418
0.6624026189 -1.4966249663e-05 0.7494462293
0.6724355626 0.4999082289 0.4952832314
0.6625462096 0.2488114031 0.2447293319
0.6625719823 0.2474745389 0.744528246
0.6725128807 -0.0014252474 0.9966671665
0.6625093915 0.4986013041 0.7466498914
0.6625940732 0.4989430051 0.2476711015
0.6826268243 0.2497753252 0.2430715951
0.6726086078 0.2495631452 0.4919337009
0.6825200517 0.2507320879 0.7454017564
0.6724429262 0.2486981537 0.9931786475
0.7026117117 0.2496894119 0.2412813129
0.6925345863 0.2495488263 0.4924500754
0.7026963935 0.2511219524 0.7389558202
0.6926119044 0.2484944348 0.9910247862
0.6926155862 0.5002466755 0.9905553549
0.692560359 0.498601955 0.4900136348
0.7326921338 0.5007777764 0.9867354727
0.7326000884 0.5029562013 0.4893104083
0.7125452465 0.2508492425 0.4910334974
0.7125710192 0.2503663052 0.9887144478
0.7224935084 -4.3572488263e-06 0.23932719
0.7325154067 0.0037752457 0.4892883174
0.7324785885 1.6935700413e-04 0.9869195634
0.7126299282 0.4997331478 0.9914481949
0.7226334174 0.2506045195 0.2416117557
0.7326000884 0.2511994046 0.4873084219
0.722681281 0.2497759761 0.7414843061
0.732607452 0.2497297651 0.9906105821
0.7125378828 0.4987815921 0.4903726117
0.7124532011 0.0012322097 0.4907960204
0.7124642465 0.0013986343 0.9896072878
0.7525702486 0.5011155722 -0.0188479728
0.7425814867 3.9956581369e-04 0.2339232072
0.742496805 2.2656750557e-04 0.7353163468
0.7426219867 0.2500200482 0.2319433116
0.7425630776 0.2528805733 0.7338647916
0.7625037833 -0.0026410975 0.2292288941
0.7524597942 -5.7106013399e-04 0.4825956997
0.7625332379 -1.5496600916e-04 0.7308144085
0.752562885 0.0010681281 -0.0175525265
0.762628965 0.2509019621 0.2281878612
0.7525812941 0.2494538009 0.4820581548
0.762628965 0.250934505 0.726872106
0.7526770212 0.2484631936 -0.0209378626
0.782484989 -0.0029408571 0.2315088576
0.7824592163 -0.0018559924 0.7325108044
0.7724814998 -0.00178335 -0.0191718804
0.7825328526 0.2492246986 0.2301603931
0.7726140451 0.2480147518 0.480489702
0.7825586253 0.2487131234 0.7300430684
0.772518318 0.2482230267 -0.0203818166
0.7925216145 3.7743660949e-04 0.4802632704
0.7924958418 -0.0019907983 -0.0188893932
0.8126500927 0.4980350568 -0.0150553728
0.7925584327 0.2474797457 0.4784748291
0.7924774327 0.2475702151 -0.0215985642
0.8025030128 9.5162437254e-04 0.2305902449
0.8126280019 3.0864081879e-04 0.4827908358
0.8024146493 -0.0021237037 0.7344225864
0.812547002 -8.4019030858e-04 -0.0171199962
0.8026171491 0.2500220008 0.2318715163
0.8126280019 0.2492220951 0.4823499386
0.8025692855 0.2483694699 0.7357434373
0.8126390473 0.2503955938 -0.0183727427
0.8325392531 -0.0014845407 0.4870792289
0.8224694912 7.5246153476e-04 0.7354102331
0.8325392531 -4.2780607975e-04 -0.0107949247
0.8226241274 0.2504170722 0.2345573997
0.8326312984 0.250565468 0.4892966015
0.8225983547 0.2482360438 0.7358446872
0.8324251168 0.2498156785 -0.0131054472
0.822454764 -0.0010353829 0.2378507825
0.8424543787 0.0010159943 0.7446976094
0.8424470151 0.2487411104 0.2388540769
0.842487515 0.2512501716 0.7368074816
0.8625276297 -2.135433144e-04 0.245697649
0.8425096059 0.4989143673 0.740585023
0.8525094133 -0.0013170747 0.4932720404
0.8624355844 -0.0028608275 0.7472665953
0.8524725951 -3.4918231895e-04 -0.0042122827
0.8626086296 0.2507828549 0.2483089758
0.8425169695 -8.4669889805e-04 0.241319972
0.8525057315 0.2501625863 0.4896620216
0.862542357 0.2495950373 0.7450980067
0.8525130951 0.249342504 -0.0063425896
0.8725348007 2.1673953547e-04 0.5008878731
0.8925123246 -0.0014850614 0.505784686
0.8724538008 -9.938265509e-05 -0.0018396849
0.8826340171 0.2490639364 0.2546867984
0.8924607792 2.9171848617e-04 0.008989488
0.8726047552 0.2487515241 0.4984008076
0.8925601882 0.248036881 0.5023256215
0.882556699 0.249227302 0.7524791237
0.8724979826 0.2476964818 -9.5746694258e-04
0.8925565063 0.2498950833 0.0065281031
0.9024495411 4.436289644e-04 0.2589310097
0.9124125303 0.0017051889 0.5125444968
0.9024016775 0.0018859975 0.7568181418
0.9026962226 0.2533225065 0.2599821677
0.9126297574 0.2501749526 0.5113635549
0.90258945 0.2521503095 0.7612464438
0.9025857682 0.4987822429 0.7581288676
0.9126481664 0.2487170286 0.0107059498
0.922346065 3.920809358e-04 0.2604166218
0.9225338376 0.0012368308 0.7660042682
0.9224786103 0.2503415725 0.2653318437
0.9224933376 0.2494277666 0.7637335093
0.942500316 0.0017780851 0.2647501171
0.932334827 6.9264759753e-04 0.5121017587
0.9424855887 -6.3126458659e-04 0.7658928933
0.9324342359 -6.1967929733e-04 0.0139032372
0.9423272707 0.2504014516 0.2674765005
0.932452645 0.2516550059 0.5135882912
0.9424524524 0.248871933 0.7663264269
0.9324968268 0.2505068907 0.0137965566
0.952408078 3.0955202132e-04 0.5195813642
0.9524706688 0.0010708617 0.0172804733
0.9624262944 0.252005168 0.2728795628
0.9524522597 0.2507288336 0.5204097724
0.9723671928 0.2494622621 0.5228498948
0.9623526581 0.2498762084 0.7735160896
0.9524007143 0.2504092619 0.0170939894
0.9722898747 0.2491498498 0.0231097057
0.9624042035 -0.0010107154 0.2725951427
0.9822344548 0.5017156642 0.7735814418
0.9823522729 0.5032510404 0.2723815975
0.9824774545 3.0063525374e-04 0.2717740981
0.992436762 -2.3729966596e-04 0.5203766361
0.9824958636 0.2487886231 0.2711739624
0.9923631257 4.8769211511e-04 0.0193653006
0.9923704893 0.2533713209 0.525184165
0.9824774545 0.251091362 0.7731009651
0.9923925802 0.2524900579 0.0254222532
0.0123672764 0.7495458289 0.0191073895
0.0024768189 0.5014553206 0.770011923
0.0123395523 0.5008174788 0.0198753239
0.0223863028 0.7515765088 0.2700270773
0.0024497207 0.751446337 0.2712347123
0.0123627846 0.7527871064 0.5175269119
0.0222262543 0.7504440142 0.770060707
0.0223954337 0.5014722429 0.2677526366
0.0023300618 0.7504179799 0.7696078438
0.012441649 0.9999312658 0.0204994835
0.0525001557 0.9983626957 0.5119314748
0.0525104648 0.9992999326 0.0141392415
0.0323587911 0.7517392235 0.0180924054
0.0425371665 0.4997617856 0.7650359511
0.0423479212 0.7500600074 0.2654091618
0.0322811048 0.7521818076 0.5181601839
0.0423994666 0.7504765572 0.767980482
0.0524640739 0.7495067773 0.0142114971
0.052474383 0.751700172 0.5133351664
0.0526109783 0.5007302637 0.5115319979
0.042434812 0.9976402423 0.2655444685
0.0325450909 1.0016169905 0.5164564244
0.0324379501 1.0020660831 0.0171415769
0.0725262795 0.999690448 0.5086657056
0.0625294176 0.9987271767 0.7580579927
0.072531434 1.0014998359 0.0067252643
0.0723823206 0.7500079387 0.0078723335
0.062374045 0.7503919455 0.2580685448
0.0723926296 0.7483807914 0.5105148968
0.0623607905 0.7511404333 0.7590410371
0.0625662357 0.9995277332 0.2620200519
0.0824226279 1.0009661315 0.2575070681
0.1023791654 1.0013566469 0.7537613155
0.0825470732 1.0011288463 0.7567730395
0.0924106535 1.0030749145 0.0064502328
0.0923193445 0.7516481033 0.0039104253
0.0924496807 0.4997266392 0.0048867504
0.1022425701 0.7527090034 0.2526120961
0.0823655598 0.7510362959 0.2539421515
0.0922118355 0.7507694437 0.5033427227
0.1024130381 0.7515830174 0.7554613932
0.0823235871 0.7535876629 0.7553049161
0.0924437898 0.5017755432 0.5029045868
0.1124573954 1.0003933756 0.001145751
0.112286191 0.7500274645 -1.9685015149e-04
0.1225105891 0.5006345875 0.7461243124
0.1223714165 0.7487127294 0.247629681
0.1123911228 0.7498712583 0.5008878731
0.1223353347 0.7491357877 0.7477986174
0.1123929637 1.0007448395 0.5018000425
0.1225201618 0.9998726885 0.7517353973
0.1523240796 1.0028406053 0.4933594835
0.1324868328 1.0000939805 0.4982710236
0.142390913 1.0026453476 0.7470162319
0.1523966113 1.0010897947 -0.0040283853
0.1324772601 1.0015974647 -0.0049014171
0.1524242249 0.748862427 -0.0070818059
0.1324842556 0.7509647014 -0.0053830536
0.142356304 0.7498256982 0.2456543877
0.1524094977 0.7505481517 0.489802851
0.1323896329 0.7504440142 0.4976506379
0.1424811175 0.4992026978 0.2482178509
0.1424085857 0.7496499663 0.7445632232
0.1724816441 0.7525462886 -0.0167361302
0.1624796277 0.497904885 0.741932567
0.1723932806 0.4997917251 -0.0133044493
0.1623533414 0.7523380138 0.2390271222
0.1823739425 1.0014672929 0.7344492796
0.1723840761 0.751192502 0.480796213
0.1624310277 0.4983826155 0.2426748796
0.1623533414 0.7513161652 0.7386898091
0.1824100243 0.7518303438 0.2315834143
0.1823835152 0.7515960346 0.7306284769
0.1624542232 1.001656042 0.242409789
0.1724496123 1.0004063928 0.4863575933
0.1724547669 1.0004129014 -0.0151774894
0.1925438497 1.0029056912 0.4874658194
0.2025234071 1.0012264751 0.7402232847
0.192371909 0.7503919455 -0.0148843802
0.2024924799 0.7502682823 0.2384960205
0.1924433362 0.7506718149 0.4856819804
0.2025668525 0.7508084952 0.7399683191
0.2325003701 0.7479251901 0.9908130819
0.2325648019 0.4988941906 0.9954429633
0.2325423428 0.7473654514 0.4932223359
0.2325555973 0.4984164602 0.4948202433
0.2225852445 0.9996188535 0.2423251072
0.2124179146 1.002782028 0.4937736876
0.2123645283 1.0006992793 -0.0058056431
0.2125011236 0.7489210043 -0.0096957835
0.2325180428 0.9990526062 0.9945041006
0.2224828901 0.7513487082 0.2448305818
0.2125346281 0.7503984541 0.491089645
0.2225664672 0.5006365401 0.242923402
0.2225550536 0.7483287226 0.7393994788
0.2526155938 0.7488103583 0.9956914857
0.2527039574 0.498592843 0.9995481861
0.24270415 0.7484784202 0.2424254367
0.2526494665 0.7479447159 0.4923258142
0.2425826501 0.4994597871 0.2478321808
0.2425760229 0.7478666128 0.7474884246
0.2526516756 0.4984008396 0.4994335565
0.2627166511 0.500682751 0.7549275302
0.262734692 0.7497606123 0.2455522174
0.2626960329 0.7496760007 0.7508922618
0.2825741478 0.500110646 0.7537254178
0.2825358569 0.7483287226 0.2489891909
0.2825550024 0.4994213864 0.2542219694
0.2825240751 0.750320351 0.7490771274
0.2725610859 0.7493115197 1.0006435258
0.2725143269 0.4999622502 0.9983792101
0.2725658723 0.750430997 0.5015469178
0.2825520569 0.9997815682 0.2508844048
0.2825774614 1.0021246604 0.7508342732
0.3125754108 0.998928943 0.9986829598
0.2925971506 0.7495197945 1.0008460256
0.3026411397 0.4984516066 0.7532016798
0.2925338234 0.4997285918 1.0017388655
0.3026488715 0.7504895743 0.2502805873
0.2926159279 0.749988413 0.5017374517
0.3027379715 0.4993510936 0.2559054789
0.3026105807 0.748829884 0.7491001387
0.3026242034 0.9983952387 0.2504729621
0.3125720972 0.7508670725 1.0000636401
0.3124627473 0.5000104137 1.0039755677
0.3125897699 0.747625795 0.5029377231
0.2924226326 1.0005040217 1.0014903431
0.3325463074 0.7490641933 1.0020702288
0.3326968936 0.4982107888 1.0023555694
0.3224890637 0.748244111 0.2540130264
0.3325580892 0.7489665644 0.5031659956
0.3226017272 0.7518238352 0.7541792014
0.3326718573 0.4995997217 0.501681304
0.3526884083 0.9965272735 0.4994970678
0.3425251284 0.9968787373 0.7503178988
0.3624562614 0.7491488049 0.248433237
0.3525919448 1.000530056 1.0004318215
0.3624857159 0.7503073338 0.746123392
0.3626366703 0.9975751564 0.2445664116
0.3524906949 0.7499233271 1.0009012528
0.3624746705 1.0001916094 0.7450032
0.3524814904 0.4968335712 0.999253641
0.3426230647 0.7483742828 0.2505410756
0.3525282494 0.7482245852 0.5019031333
0.342540592 0.7483157055 0.7506142848
0.3926103197 0.9986620908 0.4933604039
0.3725039324 0.7483872999 0.9957927356
0.3724928869 0.4981378926 0.992258194
0.382459558 0.7506653063 0.2422542323
0.3725333869 0.7478145441 0.497541104
0.3825736942 0.5001145512 0.2403599389
0.3824411489 0.7469619189 0.7435958265
0.3824301035 0.9997880768 0.2423094595
0.3824853307 0.9970609778 0.7435608493
0.3724229325 0.9991567436 0.9941911464
0.372551796 0.5008604355 0.4916391558
0.392485138 0.7506002204 0.9903068324
0.3924556835 0.7494547086 0.4886301932
0.4125142073 0.7495783718 0.9847196794
0.4125804799 0.7520581444 0.4850183334
0.4124957982 0.5004666659 0.4865241954
0.402532809 1.0020335402 0.2378894416
0.4024959908 0.5002941882 0.7366712545
0.4025364908 0.7482245852 0.2405219387
0.4025843544 0.5003703387 0.2361589889
0.4025254454 0.7496304405 0.7416950899
0.432513822 0.7500079387 0.9819951369
0.4224956056 0.7485500147 0.2337667301
0.4324659584 0.7505611688 0.4861044686
0.4226391963 0.4991239439 0.2333718556
0.4224035602 0.7500339731 0.7340728141
0.4425246748 0.7508735811 0.2352551035
0.4424105386 0.7534835255 0.736501891
0.4326390037 1.0018512997 0.4860216278
0.4225692419 1.0006927708 0.7353660513
0.4426093566 1.0006016505 0.2374135671
0.452528164 1.0024565985 0.9886868342
0.4625390168 0.9997360081 0.2361801593
0.4726271877 1.0009791487 0.4854592307
0.4625868804 1.0012329837 0.7361604027
0.4524876641 0.7521427561 0.9869563815
0.4525208004 0.75097121 0.4862241276
0.472443097 0.750828021 0.9875086537
0.4624469715 0.7514658628 0.2373518967
0.4723363244 0.7520516358 0.486791127
0.4624506533 0.7525072371 0.737056004
0.4723584153 0.5019616889 0.4887636589
0.4825459952 1.0014542757 0.2412583016
0.4924648026 1.000673245 0.4855485147
0.4923838027 1.0009791487 0.987066836
0.4824244953 0.4990516985 0.7381099234
0.4923433028 0.7497736295 0.4905576229
0.4825018134 0.7499688872 0.2378498621
0.4924390299 0.752461677 0.9881437666
0.4825680861 0.74995587 0.7402840346
0.5124644174 0.9989810117 0.4921859052
0.5125969627 1.0001785922 0.996142508
0.5025014282 0.9981153693 0.2382843162
0.5222911795 0.7496044062 0.7439060194
0.5224274066 1.0025607359 0.2411266767
0.5225268156 0.9991892866 0.7429018045
0.5022768375 0.7502487565 0.2391449402
0.5025161554 0.4979146479 0.2405707228
0.5022289739 0.7497280694 0.7410958747
0.5025382463 0.5022051101 0.7438756444
0.5124202356 0.7499428528 0.9950747818
0.512353963 0.5011045076 0.9966947801
0.5121404177 0.7498712583 0.4922365302
0.5223758612 0.4995867046 0.2430439815
0.5224089975 0.7506457805 0.2457289445
0.5323830322 0.7474500631 0.4935178015
0.5324824412 0.4999342632 0.4962395827
0.5324934866 0.9992153209 0.9987934142
0.5423533851 0.9987532111 0.2434038788
0.5525741013 0.9979396374 0.4952795496
0.5523311015 0.7491683307 0.9948262594
0.5423902032 0.9987662283 0.7423090325
0.5422613397 0.7464021802 0.245985751
0.5523163743 0.7448140843 0.4933125404
0.5424122941 0.7509061241 0.7451642794
0.5324529867 0.7484133343 0.9959308036
0.5624781815 0.9984407988 0.2452797631
0.562349318 0.9987141596 0.7460856534
0.5623861361 0.7490251417 0.2456875241
0.5624008634 0.7487452724 0.7399020464
0.5725479433 0.9999312658 0.4968645706
0.5725773978 0.9978224828 0.9959584172
0.5723601708 0.7492399252 0.9981490967
0.5723859435 0.7501120762 0.4962681167
0.6025215927 1.0032636636 0.2514136656
0.5924223764 0.7515374573 0.9993640954
0.592588058 0.9988313142 0.497541104
0.6024663655 1.0015909561 0.7552570525
0.592547558 1.0017731966 0.9994929589
0.6024111383 0.7505221173 0.2511366091
0.6024111383 0.5029731237 0.2511798704
0.5924591945 0.7517196978 0.4988113299
0.6024516382 0.751446337 0.750740387
0.5825182962 0.9981609295 0.246659523
0.5824667508 0.9992543725 0.7438056899
0.5824299326 0.7509581928 0.2455512969
0.5823783872 0.7510167701 0.7433813608
0.6125140365 0.7524877113 1.0033312502
0.6125140365 0.7522273677 0.5047777098
0.6124993092 1.0011939321 1.0007355712
0.6225027984 1.0008554855 0.251643779
0.6226022074 0.7517782751 0.2525154485
0.6225580256 0.751303148 0.7508996254
0.6424766404 1.0003738499 0.750373126
0.6525500841 0.9985709706 0.9978729606
0.6325357421 0.999547259 0.9994561407
0.6324547422 0.7516415947 0.9996770496
0.6324915603 0.5004647133 1.0021162515
0.6324363331 0.7496564749 0.5022354171
0.6522702662 0.7483938085 1.0022082969
0.6525500841 0.4997090661 0.9970813706
0.6425134586 0.7499753958 0.2514808587
0.6423404133 0.4993927486 0.2504499507
0.6523402207 0.748497946 0.5022124057
0.6424766404 0.748465403 0.7497278881
0.6725239261 0.7498777669 0.9976704608
0.6725018352 0.4996010235 0.9953969406
0.6825384607 1.0005691076 0.2478248172
0.6725018352 1.0004975131 0.494864425
0.6825016426 1.0010507432 0.7443579621
0.6825715971 0.750099059 0.2440003327
0.6725349715 0.7486606607 0.49787799
0.6824316881 0.7496694921 0.7425750435
0.662538846 0.7479447159 0.2485335664
0.6625351642 0.7495588461 0.7491839
0.7024754846 0.9981153693 0.2449474794
0.7024718028 0.5005916308 0.7425023277
0.6925345863 0.7489470386 0.9938966013
0.6926339953 0.9986035135 0.4935629037
0.7024938937 1.0004584615 0.7413287494
0.6925677226 0.9994821731 0.9920741033
0.7025785754 0.7475607091 0.2376179078
0.7025969845 0.4974317106 0.2410898586
0.6925456317 0.7496239319 0.4942495621
0.7024202574 0.7507108664 0.7424397369
0.7225855538 0.5007986039 0.7383022982
0.7325117249 0.7508605639 0.9876927444
0.7224382812 0.7500339731 0.2410935404
0.722423554 0.5021836318 0.2396042465
0.7324417704 0.7508410382 0.4883448526
0.7225487356 0.7496760007 0.7385342524
0.7225450538 0.9999312658 0.743507463
0.7125157919 0.7492138908 0.9892391063
0.7125121101 0.7497410866 0.4887360453
0.7425778049 0.5017325865 0.7313501125
0.7424820777 0.7528001236 0.2340382639
0.7426661684 0.5014956739 0.2322737545
0.7425004868 0.7506522891 0.7332839854
0.7526181122 0.5002206412 0.4828018813
0.7525260669 0.7526569346 -0.0197091492
0.7624743288 0.4980662981 0.72901124
0.762511147 0.7497736295 0.2279421001
0.7625442833 0.4980226905 0.2279006797
0.7523972034 0.7528977525 0.4823306091
0.7625037833 0.7506132375 0.7281570591
0.7824997163 0.7464282145 0.2273438053
0.7824702618 0.4981619743 0.2308820287
0.772418909 0.7487647981 0.4790749649
0.782525489 0.747515149 0.7277198437
0.7724962271 0.9979851975 0.4815371781
0.7725698634 0.4983292451 0.4814129169
0.7723342273 0.7473979943 -0.0236328586
0.782525489 0.4977695064 0.7335039738
0.7725109543 0.4982758746 -0.0199811432
0.7924406146 0.7467861869 0.4801040319
0.8126390473 0.4968700193 0.4842313456
0.8124770475 0.7491878565 -0.016993756
0.8025803309 0.4968459375 0.7320257254
0.8024919674 0.7477169152 0.2299643365
0.8025876945 0.4971153931 0.2356573417
0.7925363418 0.4964684394 0.4787859424
0.7924958418 0.7495848804 -0.0193289098
0.8125249111 0.7486476435 0.4828515858
0.7924847964 0.4981860561 -0.0210163773
0.8025471946 0.7481399735 0.7303817954
0.8324950713 0.5008324486 0.487107763
0.8324140714 0.7505416431 -0.0122510546
0.8226204456 0.4999179918 0.7352896537
0.8325723894 0.4999980474 -0.0116502102
0.8224032186 0.7485630319 0.2332660034
0.8225762638 0.4982576506 0.2345021725
0.8325650258 0.7491292791 0.4852079469
0.8224326731 0.7502943167 0.7344658478
0.8624834479 0.7513682339 0.7451707225
0.862542357 0.4987405879 0.7456622447
0.8524873224 0.7478926471 -0.0073624062
0.8525646405 0.4990959569 -0.0046603319
0.8624760843 0.7486411349 0.2458062626
0.8625386752 0.5007087854 0.2417719147
0.8524431406 0.749194365 0.4930584952
0.8424801514 0.7486606607 0.2366155339
0.8424838332 0.4989612291 0.2373813512
0.8424911968 0.7495067773 0.7407543864
0.852476277 0.4987021873 0.4938445625
0.8726452551 0.4973985168 0.496877457
0.8824720172 0.7489991074 0.7511647161
0.8925712336 0.4973659738 0.504536551
0.8724427554 0.7476713551 -0.0021324259
0.8923613702 0.7500014301 0.0055383394
0.8824499264 0.4994851706 0.7533535546
0.8725053462 0.4975944253 -0.0012522974
0.8926927335 0.500046211 0.0045017247
0.8825014718 0.7489795816 0.2519493696
0.8825051536 0.4995769417 0.2496243039
0.8725016644 0.74787963 0.4955575266
0.8925491427 0.7492464338 0.5041260287
0.8824977899 0.9988443313 0.253435902
0.8824094264 0.9996513964 0.754742519
0.9124162121 0.7498582412 0.5131547575
0.9124456666 1.0006667364 0.0124422013
0.9125598029 0.5016629446 0.5113792026
0.9023464503 0.750574186 0.759586866
0.9125745301 0.7526243917 0.0141651983