POSCAR file written by Ovito 3.7.11
1
271.5912479433 0.0 0.0
0.0 15.3635210505 0.0
0.0 0.0 10.8636499177
Sr Ti O 
800 800 2400 
Direct
0.022577329 0.4990138979 0.8100832652
0.0124960763 0.2491466971 0.5611899356
0.0223708422 0.2504562927 0.8083784975
0.002364822 0.249837294 0.8154912083
0.0126027071 0.2484932011 0.0611215386
0.0225600604 -0.0016499131 0.3125258107
0.0025535246 0.0015352942 0.3107980304
0.0025856685 0.4986650196 0.3096676553
0.012649579 0.5006137916 0.5627768792
0.0123648496 -0.0015329477 0.5617394747
0.0224940788 0.0024946446 0.8118533886
0.002588025 0.0016137919 0.8127389105
0.0225023634 0.2488199491 0.3140142607
0.0026149036 0.2508240469 0.308456276
0.0325110806 0.5012855126 0.0578111411
0.0425798881 0.4994883985 0.3077217163
0.0326090219 0.4989390453 0.5601902716
0.0324046707 0.2498268797 0.5599012343
0.0425353358 0.2502506107 0.8096055253
0.032315198 0.248505568 0.0572137359
0.0525242439 0.5007094728 0.054994132
0.0425478547 -5.3161477164e-04 0.8083011754
0.0425345994 0.2469447279 0.3093648105
0.0524896331 0.2488531446 0.5556310304
0.0525533317 0.2504035704 0.0552158807
0.0626011518 0.2492274077 0.3013619753
0.0625934196 0.5011878787 0.8027468727
0.0727332898 0.4992410594 0.0465924438
0.0626387083 0.5022240995 0.3017329371
0.0725941101 0.5003104757 0.5498263515
0.0725134742 0.2500071769 0.550391539
0.0626029928 0.2491082944 0.8061683747
0.0724884366 0.2523191469 0.0497149671
0.0925461521 0.2475578686 0.5395296279
0.102419077 0.2497917315 0.7845964351
0.0825686583 0.2477238462 0.7967801856
0.0925288467 0.2488681151 0.0406200495
0.1026377881 -3.4656604547e-04 0.284009612
0.0924345874 -0.0012490935 0.5371225179
0.1024562653 0.2483415431 0.2818510373
0.0825406751 0.249407705 0.2934383031
0.1024897715 0.4988160266 0.7826155171
0.0827008422 0.4986585106 0.7933347506
0.1025350602 0.4982920582 0.2826178146
0.0826246247 0.4991141354 0.2939804782
0.1225371775 0.2501783616 0.2781230084
0.112508872 0.4995359137 0.0291682814
0.1123973073 0.248947524 0.5305657897
0.1225460143 0.4997930162 0.2757398315
0.1125132904 0.4988329498 0.5266950832
0.1224491776 0.249988301 0.7760431404
0.1124937758 0.2491200105 0.0279209106
0.1225195038 -0.0016206229 0.2795230904
0.152359567 0.2514879573 0.5210303204
0.1324064204 0.2501262902 0.5242621993
0.1423110105 0.2519045284 0.7737317625
0.1523731904 0.2495808424 0.0212562996
0.1324178346 0.2488511919 0.0279121658
0.1422436299 0.0026513144 0.2796887805
0.1423647678 0.2500071769 0.2781782385
0.142591211 0.5002922507 0.7753665722
0.1523625126 0.4988336007 0.0236626732
0.1325010479 0.4990288685 0.0255161019
0.1523731904 0.4987541918 0.5253898129
0.1324929475 0.4990750818 0.5246552532
0.1822703247 0.2482250334 0.2637364992
0.1722847305 0.5001698829 0.5200131669
0.1823892534 0.4992273907 0.7642054982
0.1723200777 0.2499674725 0.5184427923
0.1621404419 0.2505467668 0.7682777944
0.1724331152 0.2474927793 0.0159196954
0.1824091362 0.5002616588 0.2637512272
0.1622236551 0.0010249295 0.7732484995
0.1624033369 0.2507075372 0.270367788
0.1823899898 0.2492176444 0.762049685
0.1824860901 -8.5790716149e-04 0.2630240315
0.1924867806 0.0013906659 0.0071304763
0.2023567599 0.2501367045 0.2550847108
0.2023829021 0.5007107746 0.756715382
0.1923674836 0.5018316114 0.0124963524
0.2023733289 0.4987639552 0.2548453806
0.1923730066 0.4991727157 0.5114663156
0.1923811071 0.2499531528 0.5094881591
0.2022175801 0.2512529851 0.7550649238
0.1923188812 0.2502102554 0.0082193368
0.2024296636 0.0011736584 0.2538843776
0.2123121617 0.2497168789 0.5030667445
0.2223334714 0.250866355 0.747437653
0.2123324127 0.2488726714 0.0017585248
0.2223069609 -9.4102612854e-04 0.7519195721
0.2222484171 0.2516663018 0.2472567708
0.2322395343 0.249595162 0.4980389684
0.2321831997 0.2510694334 1.0002366682
0.2323754002 0.0011247113 0.4941655004
0.2224144754 0.4983753724 0.7491516258
0.2123736511 0.5005252702 0.004438103
0.2122768144 0.4988453168 0.5013444873
0.2423690949 0.4992195799 0.7445500416
0.2623564842 0.2519025758 0.7395830185
0.2624639987 -0.0027712446 0.2401633905
0.2625148103 -0.0014006864 0.7388733122
0.2524180196 0.249800844 0.4929872592
0.2424062831 0.2481684057 0.7470464401
0.2524677266 0.2520112748 0.9905437932
0.2624871953 0.2490471105 0.2409237243
0.2423182832 -0.0015452496 0.2478403684
0.2625019233 0.4986897535 0.236711512
0.2525012329 3.7260503281e-04 0.4938516096
0.2423072372 -0.0036912551 0.7481703718
0.2524154422 0.0011164449 0.9903873081
0.2423580489 0.2497650449 0.2467965203
0.2723858943 0.2518791436 0.48938718
0.2725504798 0.2526074923 0.9887488164
0.2724993 0.0023122646 0.4873031659
0.2724249235 -0.0013264846 0.990286053
0.2824554382 0.2500286564 0.7333631936
0.27251771 0.5002922507 0.4852605743
0.2824193545 0.2523582005 0.2336048213
0.3124505137 6.3966620886e-04 0.4745588303
0.2924193086 0.4992579826 0.4835429195
0.2925249821 0.2507888988 0.4816135495
0.3025297228 0.2518615695 0.7307489709
0.292576162 0.2511547003 0.9813940139
0.2925242457 -2.5155349066e-05 0.4812941357
0.3024719153 -1.1107315369e-04 0.7251845427
0.3124188485 0.4994363271 0.4748460266
0.3025455554 0.2487678777 0.2277393893
0.3125768065 0.2505096659 0.4743912991
0.3124847564 0.2470957349 0.9745270768
0.3223296981 -3.0167221002e-05 0.2207748792
0.3324828235 -2.716483234e-04 0.4636766682
0.3223797733 -0.0020677796 0.7165226288
0.3325656686 -0.0013710708 0.9618978039
0.3224979656 0.2485576394 0.2186273505
0.3224497314 0.4967331707 0.7190586089
0.322469246 0.4996576306 0.2201866791
0.3324824553 0.2491558096 0.463975831
0.3225693965 0.2469512368 0.7191773536
0.3324658862 0.2494109594 0.9648434069
0.3624491794 0.2514033412 0.2113194935
0.3524440705 0.5004230801 0.4632615222
0.3524414931 0.2505402578 0.4634447019
0.3425070787 0.2519116882 0.7134831347
0.3625596395 0.5003677542 0.709876612
0.3525644721 0.2507166497 0.9626894347
0.3623976313 0.5005363354 0.2099994951
0.3424964009 2.5726688902e-04 0.2115431752
0.3424396981 0.2490243293 0.2149959742
0.3624270874 0.2517593794 0.7094154411
0.3424061918 0.499031472 0.7170721679
0.3425063423 0.4988648436 0.2136170638
0.3824976899 0.2514638742 0.2034418464
0.3924943302 0.251761983 0.4541319939
0.3926600204 0.2526465458 0.9531438399
0.3926232003 4.8573014223e-04 0.9514961432
0.3824093218 0.5017170543 0.7048746099
0.3925016942 0.5036144058 0.9524902842
0.3725305057 0.2532251892 0.4579971773
0.382512418 0.2521388497 0.7045616396
0.3724531836 0.2503013803 0.9589337908
0.3925274682 0.5014833839 0.4522449669
0.3726483298 0.0015574897 0.4543980186
0.4126422548 0.5014046259 0.9484861051
0.4025903845 0.2509646397 0.7019529399
0.4025462005 0.0020481324 0.6981356225
0.4025498825 0.2490731462 0.1997635246
0.4125833428 0.2502161134 0.4463362714
0.4124507906 0.2512184878 0.9477404994
0.4125538867 2.1235530933e-04 0.4458023808
0.4126569829 -0.0021628099 0.9471789938
0.4424223014 -5.2002888587e-04 0.6884666806
0.4424186194 0.2506196667 0.1820273124
0.4224989789 0.4985205214 0.6930572188
0.4325361212 0.5003475766 0.9371087135
0.4324772092 0.5005480515 0.4385644819
0.4425364435 0.4994578066 0.6870380631
0.4425474895 0.4996797609 0.1876902342
0.4324072511 0.2491226141 0.4382165326
0.422521071 0.2487652741 0.689817976
0.4323741131 0.2510818004 0.9399898814
0.4223553808 6.3654192505e-04 0.1915139952
0.4324624812 4.1842786194e-04 0.9368141532
0.4224805689 0.2510564156 0.1910344142
0.4424149374 0.2527916949 0.6876004892
0.4726147323 0.2480824879 0.4305588852
0.4624892219 0.2491642712 0.6845462671
0.4725153182 0.2513955305 0.931779013
0.4723680381 8.2697531439e-05 0.9348166661
0.462511314 0.2497084173 0.1843322468
0.4524299876 0.4996999386 0.9340986754
0.4525551757 0.4979757245 0.435225825
0.462603364 0.4994584575 0.6882917854
0.4724932262 0.4989696372 0.932782359
0.462548134 0.5018322623 0.1846682296
0.4525036277 0.2501373554 0.4348493401
0.4523931676 0.2477622488 0.9323129035
0.4526214518 4.49457688e-05 0.4360837319
0.4826371466 0.2496934467 0.6827052652
0.4824604104 0.0014240567 0.682539575
0.4924644147 0.4999655027 0.9286401048
0.4925122807 0.4984352545 0.4300378817
0.4824972304 0.2501412608 0.1818735888
0.4925012347 0.2512601449 0.4308184665
0.4925196447 0.2490126132 0.9321748284
0.4825082765 0.4973619329 0.179159952
0.502534695 0.2498568208 0.6799336368
0.5125755193 0.2491623185 0.4305027346
0.5124356031 0.2493055148 0.9351572515
0.502516285 4.6613827921e-04 0.6795322984
0.5024463269 0.2487216643 0.1810755145
0.5225058835 0.2484912484 0.18601032
0.5224580174 0.2477921899 0.6844063509
0.5123914191 0.49800892 0.4306813118
0.5224175154 0.4961974863 0.6853517054
0.54256544 0.4969102135 0.6916019068
0.5527019964 0.4988693998 0.9424476189
0.5426280341 0.4969922259 0.1901120722
0.5526946324 0.4998678688 0.4424674059
0.5324914777 -0.0014325801 0.4351558669
0.5325908918 0.2497871753 0.4394233093
0.5325282977 0.247949055 0.9407907172
0.5325467077 0.4991655559 0.9368325632
0.5526504484 -0.0012688156 0.9437271152
0.5426169881 0.2493269943 0.1887920739
0.5525694443 0.2485745626 0.4406273245
0.5424255239 0.247415974 0.6874228325
0.5526099463 0.2496426771 0.9432116347
0.5724375366 0.2500566447 0.4481579427
0.5725185407 0.2476769819 0.9497103714
0.5626470886 0.5014130875 0.6965330303
0.5626213146 0.4984983911 0.2005367454
0.5726032268 0.5005233175 0.9505940523
0.5726400468 0.4993692852 0.4506221238
0.5623525283 0.2499453421 0.1922577599
0.5624482604 0.2492658104 0.6940780543
0.6026446956 0.4994272146 0.7103607955
0.5926406913 0.5016330892 0.954230031
0.5926591014 0.5011839734 0.4581904825
0.5826845531 0.248596693 0.7019962034
0.6024495494 0.2494994808 0.2096745583
0.5924713192 0.2480089371 0.4572368435
0.6025968296 0.2493211363 0.7043480834
0.5924897292 0.248402727 0.9553254271
0.5826514151 0.5002017767 0.7049114299
0.5826145951 0.49978846 0.2066378257
0.5824452229 0.2500052242 0.202538835
0.6125087837 0.5021629156 0.9570099439
0.6126486999 0.5008767521 0.4574365923
0.6226048381 0.5010336172 0.710824728
0.6125713778 -0.001733683 0.4613652903
0.622586428 0.4994278655 0.2090292871
0.6125051017 0.2478357997 0.457171488
0.6125529678 0.2501725036 0.9624224894
0.6225717 0.0015922473 0.7141109164
0.6224207379 0.249692145 0.2110332177
0.6226122021 0.2498255779 0.7114571121
0.6425023865 0.0016053954 0.2182195685
0.6525211187 0.0013992577 0.4724223476
0.6325241562 0.4999420706 0.4626650376
0.6425134325 0.2499505493 0.219163082
0.6523149265 0.2489963409 0.4719740637
0.6424839764 0.250624223 0.7196790266
0.6325683403 0.0011787353 0.4653777539
0.6524806167 0.2479516585 0.9697588819
0.6425612985 0.5015693017 0.7180304094
0.6525174367 0.501180068 0.4666416017
0.6325094282 0.2486715456 0.4671138187
0.6325941143 0.2475136079 0.966905329
0.6824852654 0.4991961478 0.7296931563
0.662561943 8.9514158014e-06 0.2246069246
0.6825294495 0.4995619494 0.2304649926
0.6623815248 0.001788166 0.7212714932
0.6724370771 0.499655027 0.4777308766
0.6624551649 0.2513310922 0.2249383049
0.6623447048 0.2495665227 0.7237614483
0.6724591692 2.5251537407e-04 0.9751254024
0.662503031 0.5005662764 0.7250575136
0.6623778428 0.4999609465 0.2243860044
0.6823858513 0.2497689503 0.2304355366
0.6724738972 0.2492430292 0.4781202485
0.6825441775 0.2495326763 0.7307793475
0.6724297131 0.2509770067 0.9768099192
0.7023754498 0.2484014252 0.2356602999
0.6924119476 0.2498425011 0.4848739639
0.70254114 0.2488329669 0.7365232733
0.6925886838 0.2518505044 0.9848735074
0.6924892697 0.4988303463 0.9803722578
0.6926365499 0.4986506999 0.4883994825
0.7325678808 0.5008572254 0.996158849
0.7324684667 0.5009848003 0.4962421505
0.7126187843 0.2505103168 0.4925389752
0.7125893283 0.2501738054 0.9913538341
0.7224718264 1.4785186661e-04 0.2380637279
0.7324132366 2.0701799116e-04 0.4900646687
0.7322770025 -2.3916878968e-04 0.9890709917
0.7125893283 0.4981859627 0.994244207
0.7224018684 0.2496908432 0.2414833889
0.7323285505 0.2483376378 0.4918808171
0.7224202784 0.249050365 0.7416762376
0.7323948266 0.2502571196 0.9926517404
0.7124494122 0.4987795766 0.4921063398
0.7124567762 -0.001191815 0.4884178925
0.7124162741 -6.8281708994e-04 0.9894668071
0.7523733791 0.5023087156 0.0026350258
0.7423067808 0.001727698 0.2434965244
0.7423583288 -4.8820024461e-04 0.7401031015
0.7423325548 0.2472122447 0.2492883164
0.7423693748 0.2501692491 0.7451842667
0.7623147893 5.637721481e-04 0.2531323283
0.7523439231 -8.0485942605e-04 0.4973237391
0.7623552913 0.0012553454 0.7520732958
0.752310785 8.2562618448e-04 -0.0024382139
0.7624804794 0.249358888 0.2557824505
0.7524433372 0.2509789594 0.4996995521
0.7624252494 0.2482198262 0.7553429151
0.7523476051 0.25276631 -1.5437741581e-04
0.7824627139 0.0023841882 0.2638441978
0.7823706638 -0.0018452134 0.7617100202
0.7724071616 -7.4719035416e-04 0.0075922916
0.782499534 0.2485797697 0.2617040331
0.7724034796 0.2505871221 0.5110944333
0.782532672 0.2499869992 0.7620027395
0.7724182076 0.2516441714 0.0087585663
0.7925182662 4.702389017e-04 0.512801042
0.7923820321 9.9550911635e-04 0.0125380511
0.8123053545 0.4998821885 0.0167583638
0.7925072202 0.2499752832 0.5141201199
0.7925145842 0.2501314974 0.0132576067
0.8024228564 8.8648462942e-04 0.2634465414
0.8124710447 0.0021804588 0.5182817046
0.8024559944 0.0011816644 0.7663217299
0.8126809189 6.3042353594e-04 0.0243266305
0.8026069566 0.2507491943 0.2687596728
0.8126330529 0.2490126132 0.5193660547
0.8026474586 0.2506795488 0.7672367078
0.8126072788 0.250018893 0.019314687
0.8325195552 -0.0011851108 0.5242649608
0.822552371 0.0010824033 0.7708818916
0.8325453293 0.0012062681 0.0270384263
0.822489777 0.2492723193 0.2716399203
0.8325121912 0.2501555804 0.522065884
0.822552371 0.2512347601 0.775719124
0.8326042413 0.2499739814 0.0225145324
0.8226886052 7.9900468289e-04 0.272820923
0.8425530155 2.4789403761e-04 0.7823264798
0.8425861536 0.2509535745 0.2769907923
0.8426082456 0.2512262985 0.7775527619
0.8627119862 8.7476856515e-04 0.2804969804
0.8424941035 0.5014482357 0.7778491632
0.8525901578 2.1385236199e-04 0.5290248711
0.8625941621 6.65376461e-04 0.7820632165
0.8526048858 5.4287850016e-04 0.0336942004
0.86249843 0.2520802694 0.2828184838
0.8425677435 0.0011615518 0.2778256866
0.8524796977 0.2520900328 0.5316989264
0.8626199361 0.2479197648 0.7841730047
0.8524171036 0.2518941142 0.0279533122
0.8726239404 0.0021483698 0.5379040232
0.892797639 0.001171901 0.5439443504
0.8726754884 0.0020508011 0.0387804284
0.8827015847 0.2498717913 0.2916727823
0.8926798149 8.372771595e-04 0.045675901
0.8724950702 0.2519390257 0.5375726429
0.8925104427 0.25084813 0.5455846831
0.8826058526 0.251362335 0.7903983526
0.8725613463 0.2498320868 0.0370310164
0.8924404847 0.2525502138 0.0484964079
0.9025917691 4.3014392621e-04 0.3008474152
0.9126399574 -0.0011224299 0.5588491017
0.9025770411 4.5129793114e-04 0.8008754943
0.902484991 0.249764394 0.3023653213
0.9125884093 0.249050365 0.5553585621
0.9025733591 0.2498906672 0.8044157409
0.9023966229 0.4987626534 0.8009758289
0.9124521752 0.2503501972 0.0589004619
0.9226108236 -3.1753624178e-04 0.3088520914
0.9225997776 -2.9000349075e-04 0.8092529734
0.9225114095 0.2510049951 0.311868573
0.9224893175 0.2513851162 0.8118460246
0.94254151 4.0248099669e-04 0.3113310005
0.9325890538 7.1152473636e-04 0.5612534502
0.9425856941 6.9224057532e-05 0.8130988263
0.9325043677 1.729112263e-04 0.0607428445
0.9424200039 0.2521694417 0.3116467323
0.9324012716 0.2508565916 0.5619723614
0.9425856941 0.2490549212 0.8100841857
0.9324638657 0.251301802 0.0627148337
0.9525860163 -0.0014017929 0.5602142046
0.9526596564 0.0025657872 0.0595131473
0.9626820707 0.2510258236 0.3120453092
0.9524166441 0.2513890216 0.5612957932
0.9724356987 0.2500423251 0.563967087
0.9624795605 0.251961807 0.8122648525
0.9523430041 0.2512328074 0.063832598
0.9724430627 0.2506457024 0.0636803471
0.9626121126 8.6342529211e-05 0.3117258954
0.9823550168 0.4992911781 0.8125695383
0.9825869831 0.5009066932 0.3124853087
0.9824176109 7.8754897561e-04 0.3145812893
0.9926535814 0.0010775216 0.5649271694
0.982513343 0.2492287095 0.3148187786
0.9923958411 5.0668887942e-04 0.0633143559
0.9925504853 0.2508676567 0.5630364605
0.982509661 0.2514977206 0.8124010866
0.9924547532 0.2509802611 0.0632456866
0.0126899338 0.7491811602 0.0653546463
0.0025544083 0.4981345422 0.8128530526
0.0124707441 0.4995795235 0.0623633864
0.0225551265 0.7492397405 0.3122238864
0.0026032317 0.7494870796 0.3107004573
0.0125673967 0.7502095703 0.566433109
0.0224442245 0.7505610522 0.8120991623
0.0225135566 0.4987841329 0.3119983637
0.0025011297 0.7490184371 0.8155666894
0.0125353264 0.9974055085 0.0625400306
0.052618135 0.9997291945 0.5551532904
0.052599725 1.0007901493 0.0581984879
0.0324282355 0.7489989103 0.0610309613
0.042506248 0.5008650361 0.8077534774
0.0424771602 0.7502030614 0.3092230533
0.032497089 0.7492397405 0.5605087649
0.042655001 0.7491551245 0.8073475364
0.0526450136 0.74954566 0.0513525382
0.0526148212 0.7505870879 0.5525086912
0.0525187209 0.5011058663 0.5568019076
0.0424882062 0.9995729804 0.3094992036
0.0325501098 0.9974836156 0.5628210633
0.0324790471 0.9986161684 0.0611685762
0.0726548631 1.0023132376 0.5484557256
0.0626007836 1.0000286051 0.8019883799
0.0725432984 1.0014670774 0.050075067
0.0726776915 0.7519539621 0.0440954929
0.0626633777 0.7505740701 0.3019833134
0.0727859425 0.7515178641 0.5465815856
0.0625823736 0.7505219987 0.8009500549
0.0625381896 0.999520909 0.3011272475
0.0825903821 0.9996510875 0.2915282637
0.1024625247 0.9969433748 0.7828106633
0.0826327252 1.0001652925 0.7919586017
0.0925638257 0.9995144 0.0379341198
0.0926481436 0.7496432938 0.0365814437
0.0925030727 0.4992325978 0.0384271401
0.1026447839 0.7469485991 0.2826168941
0.082518583 0.7506391593 0.2916598953
0.0927022691 0.7508279181 0.5381102155
0.1024901397 0.7475929826 0.7824617934
0.0825388341 0.7470852865 0.7919549197
0.0924717756 0.4983408751 0.5403240202
0.1125953991 0.999950498 0.0288137044
0.112549374 0.7487710979 0.03329277
0.1224786336 0.5025768832 0.7766000434
0.1225979305 0.7489924014 0.2814662679
0.1125265456 0.7493959547 0.5309873791
0.1227175956 0.7503332398 0.781031335
0.1124543783 0.9999830426 0.530312652
0.1223928429 1.0013238811 0.7799120058
0.1522240693 1.0012587918 0.5277260443
0.1324796922 0.9996445785 0.5315516462
0.142378023 1.0023457822 0.7787558566
0.1523378432 0.9991824449 0.0269944264
0.1324826379 1.000035114 0.0274583588
0.1524608221 0.7512444893 0.0288332191
0.1325905206 0.7488036426 0.0296480465
0.1424365669 0.7515113552 0.2802051816
0.1524413075 0.7524291136 0.5260783476
0.1325131985 0.7508083913 0.5310600987
0.1424417217 0.5027096653 0.2760693708
0.142539663 0.750059865 0.7788451452
0.1724949729 0.7492657762 0.0180703538
0.1623801403 0.5009008352 0.7750554428
0.1724128642 0.4987366177 0.0183745794
0.1624294791 0.7503918202 0.2744603352
0.1824286509 1.0009398545 0.7639100174
0.1724445294 0.7511208197 0.5193301552
0.1623168098 0.4999466268 0.2705141476
0.1622218141 0.7498776151 0.7753085806
0.1823789438 0.7493243565 0.2671285452
0.1823763664 0.7490444728 0.7640315235
0.1624773452 0.9997226856 0.2746840169
0.1721823707 1.0003865959 0.5198106567
0.1722574836 0.997099589 0.0180088644
0.1923715338 0.9986617309 0.5051019721
0.2022934294 0.9998203195 0.755188271
0.1924083539 0.7505285076 0.0130884186
0.2024443916 0.7459006622 0.2560190193
0.1924168225 0.7475734558 0.5107409609
0.2024981488 0.7511012929 0.7577086026
0.2322907142 0.7484521606 0.9995831125
0.2323779777 0.4994011789 0.998091901
0.2324913834 0.7472805542 0.5026930211
0.2323974923 0.5005617202 0.4965422338
0.222354827 0.9993646948 0.2505079801
0.212400898 0.9983753382 0.4985673359
0.2124148896 1.0008682564 -0.0020630729
0.2125113581 0.7501054275 0.0035641795
0.2323930739 1.0019682646 0.9937563415
0.2225010025 0.7498320527 0.2455740951
0.2125084125 0.7479835181 0.5032186272
0.2224431951 0.4996953823 0.2496960983
0.2224442997 0.7514853195 0.7499027546
0.2525376847 0.7504113469 0.9930475558
0.2523480615 0.5006281112 0.9956617785
0.242492442 0.7493113387 0.245954262
0.2523940866 0.7495196243 0.4944379687
0.242429848 0.4993894629 0.2472337583
0.2425395717 0.7496237671 0.7477294518
0.252391141 0.4982660225 0.497720475
0.2624768857 0.5010010726 0.7374732303
0.2625081827 0.7496823474 0.2444179459
0.2625855048 0.7503006952 0.7394182488
0.2825585343 0.5001184624 0.7340195108
0.282620392 0.750320222 0.236711512
0.2826947684 0.5014274072 0.2336250723
0.2824985176 0.7486669551 0.7358844457
0.2726318521 0.7495066064 0.9916207793
0.2724341285 0.4991811773 0.9892919119
0.2726484211 0.7502290971 0.48495865
0.2825103 0.9997552302 0.2350334388
0.2823928441 1.0003475424 0.7335113943
0.3125385136 0.998570606 0.9734592957
0.2925919946 0.7504308737 0.9823605398
0.3025083671 0.500702313 0.7241747532
0.2925614339 0.5004556247 0.9825722551
0.3025039487 0.7488231693 0.2266320267
0.2925282959 0.7509060252 0.4841670192
0.3025554968 0.4992026567 0.2262886798
0.3026107268 0.7493113387 0.727391904
0.3023787606 0.9984924989 0.2254464214
0.3123695096 0.7477882503 0.9711580434
0.3124479363 0.4976841246 0.9728149451
0.3125351998 0.7503592755 0.473742346
0.2925463377 1.0019031754 0.9837504963
0.3325152251 0.7494935886 0.961087763
0.3322917275 0.5004888202 0.96301161
0.3224408946 0.7498190348 0.2171278544
0.3323145559 0.7482048215 0.4636803502
0.3225498819 0.7468835098 0.7189987764
0.3323186061 0.4989078025 0.46551767
0.3524411249 1.0009984348 0.4602312331
0.3423980914 0.999429784 0.7125515878
0.3625596395 0.7490835263 0.2081612547
0.3525390662 1.0000871854 0.9608484328
0.3624859994 0.7495782046 0.7077889159
0.3623718573 1.0009723991 0.2107404984
0.3525733089 0.749200687 0.9591823261
0.3624418154 1.0011221044 0.7082565304
0.3524079869 0.5008585272 0.9614375534
0.3424433801 0.7497669634 0.2120420867
0.3523895769 0.7522989351 0.4601566725
0.3424883005 0.7483284911 0.7126077383
0.3925790163 0.9994362929 0.4504582746
0.3724642297 0.7521947923 0.9569455088
0.3722727655 0.5015022598 0.9590534559
0.382560284 0.7520646138 0.2060422616
0.3724089996 0.7532166934 0.4534784382
0.3824130038 0.502862625 0.2075343936
0.382538192 0.7498385616 0.7050817226
0.382530828 1.0025735946 0.2006195905
0.3826523341 1.0018966664 0.6998385492
0.3725084137 1.0014345328 0.9548283566
0.3723979536 0.5031288401 0.4572202745
0.3925495602 0.7515699355 0.9516986534
0.3924648742 0.7474237506 0.4508053035
0.4124692007 0.748074643 0.9465622581
0.4124765647 0.7494870796 0.4455464816
0.4124728827 0.5004959801 0.4457361048
0.4026087946 1.0007055332 0.1980513929
0.4026529786 0.5011084699 0.6984090113
0.4024578324 0.7492202137 0.1971014359
0.4027229367 0.5011703046 0.1975690504
0.4025277905 0.7518172747 0.7001929421
0.4323814771 0.7497214009 0.9383145697
0.4224584769 0.7513486321 0.1939726532
0.4325103472 0.7494350083 0.4380002148
0.4225063429 0.4994395816 0.1926185963
0.422543163 0.7499296865 0.6906151298
0.4425769455 0.7495912224 0.1812292381
0.4425401255 0.7518107657 0.686403838
0.4325471672 0.9972883478 0.4371331029
0.422565255 0.9990392485 0.6926273448
0.4424591214 0.998219124 0.1873054648
0.4524962637 0.9995990161 0.9322392635
0.462588636 1.0016232916 0.186032412
0.4724490421 0.9983558115 0.4322213099
0.462592318 0.9994167662 0.6859730435
0.4526067238 0.7501119364 0.933712065
0.4526214518 0.752474676 0.4365715974
0.4726220963 0.7508279181 0.9359028572
0.462596 0.7507628289 0.1853926639
0.4725447742 0.7496367849 0.433731852
0.4626843681 0.7514853195 0.6848224173
0.4724416781 0.4993458531 0.4333434006
0.4825045944 1.0026451928 0.1795079014
0.4924680967 1.0001327479 0.4291173807
0.4924938707 0.9984534453 0.9315304777
0.4825487785 0.4982126493 0.6788060232
0.4925859208 0.7503527666 0.4327883385
0.4825487785 0.7492462494 0.1809632133
0.4926043308 0.7464929743 0.9324233637
0.4825708705 0.749369919 0.6831866872
0.5126381133 0.9988830344 0.4326180458
0.5124761052 0.9992214984 0.9335371698
0.5024684189 1.00133039 0.181153757
0.5224690634 0.7474758219 0.6856563912
0.5225574315 0.9994037483 0.1848900704
0.5224101514 0.9990067039 0.6828709553
0.502545741 0.747300081 0.1808407867
0.502519967 0.4988843703 0.1782974426
0.5024978749 0.750144481 0.6801720466
0.5024721009 0.501343442 0.6773985772
0.5126528414 0.748595357 0.9339513952
0.5124871512 0.4992924799 0.9329388442
0.5124613772 0.7483480178 0.4325803053
0.5226089796 0.4984111715 0.1832405327
0.5224064694 0.7487971336 0.1878715729
0.5324399296 0.7510166769 0.4372638141
0.5324951597 0.4991981005 0.4380959469
0.5325687998 0.9993646948 0.937670219
0.5424954819 0.9985055167 0.1894953366
0.5526541304 0.9994818554 0.4412762777
0.5525399882 0.7484716874 0.9467003333
0.542569122 1.0004256495 0.6923806506
0.542502846 0.7503267309 0.1892375963
0.5524663482 0.7511208197 0.4406954416
0.5426280341 0.7482894375 0.6894755496
0.5325577538 0.7494284993 0.9402936467
0.5625992226 0.9986226774 0.1984720618
0.5625403105 1.0000090783 0.6962568801
0.5625587205 0.7502811684 0.196752566
0.5625734485 0.750489454 0.6945705223
0.5726805489 1.0016167827 0.4507703244
0.5725811348 0.9989220879 0.95323589
0.5726253188 0.7492527584 0.9526375644
0.572750507 0.7495912224 0.4503100739
0.6026078756 1.0003931049 0.2106640968
0.5926701474 0.7496107492 0.9597438317
0.5925707333 1.0006013904 0.4531995264
0.6025931475 0.9991173556 0.7156711655
0.5925412772 0.9993386591 0.9563011581
0.6026115576 0.7495977314 0.2109218371
0.6026373316 0.5006176969 0.2092548098
0.5926480554 0.749109562 0.45958228
0.6025195075 0.7504373826 0.7093611315
0.5823789468 0.9973404192 0.2071385782
0.5825998671 0.9994883643 0.7073875775
0.5827176912 0.7499557222 0.2046431001
0.5827508292 0.7504113469 0.703474528
0.61281439 0.7511468554 0.9625237445
0.6127333859 0.7505024719 0.461105709
0.6125787418 1.0015321667 0.9594400663
0.622579064 1.0027883891 0.2142982345
0.6227005702 0.749194178 0.2128337175
0.6226011561 0.7508995163 0.7127955205
0.6426496666 1.0008292028 0.7204982724
0.6526021228 1.0002824531 0.9706057428
0.6326272523 1.000464703 0.9668040739
0.6326567084 0.7506456682 0.9665923587
0.6326198883 0.4995931922 0.9621371341
0.6327671685 0.7505545433 0.4666692167
0.6525653028 0.7506326504 0.9706333578
0.6524253866 0.4998431349 0.9694367066
0.6426975327 0.7502160792 0.2174003227
0.6425392065 0.5005337318 0.2194272658
0.6525689848 0.7500924096 0.4707553204
0.6425576165 0.750749811 0.7139912512
0.6724297131 0.7516220069 0.9770768644
0.6724076211 0.5017417882 0.9766074089
0.6825184035 1.0001652925 0.229414701
0.6724370771 0.9987268202 0.4764246857
0.6825589055 0.9997617392 0.7312460414
0.6825257675 0.7504178559 0.2305202226
0.6724996712 0.7508995163 0.4774547263
0.6824963115 0.7496693295 0.7291611068
0.6624625289 0.7519865067 0.2212701087
0.662517759 0.7510231859 0.7221036261
0.702544822 1.0000416229 0.2352479155
0.702548504 0.4987398722 0.7399254448
0.6926402319 0.7481462412 0.9826182801
0.6924929517 0.9996771232 0.4821704526
0.702544822 0.9998919177 0.7374990043
0.6924782237 1.0000806765 0.9830048905
0.7024306799 0.7492592673 0.2355977059
0.70257796 0.4987795766 0.2407902517
0.6925150437 0.7506066147 0.4845389015
0.702496956 0.7502811684 0.7388097977
0.7224939185 0.500429589 0.7451097061
0.7323506426 0.751094784 0.9941153369
0.7224570984 0.7485497945 0.2430427175
0.7224386884 0.499673252 0.2440847246
0.7322917305 0.7491551245 0.4924174691
0.7223834583 0.7482373661 0.7390979145
0.7224276424 1.000900801 0.7395342319
0.7124383661 0.7480225716 0.9920073897
0.7125561903 0.7474172416 0.4898152129
0.7423804208 0.5017398355 0.7481924638
0.7423546468 0.7503397488 0.2442752682
0.7424393329 0.5021564067 0.248942208
0.7423546468 0.7486213927 0.7449099574
0.7524101991 0.5004543229 0.5056662392
0.7523402411 0.7514983373 5.5690104526e-05
0.7625099355 0.5036449978 0.7582655056
0.7624510234 0.7500663739 0.2562896466
0.7624804794 0.5020060506 0.2559711532
0.752303421 0.7501054275 0.4994105148
0.7623994754 0.7492332316 0.7534319552
0.7824332579 0.7511468554 0.2625683835
0.7823964379 0.4999069224 0.2604714824
0.7723666596 0.7509320609 0.5099981166
0.782484806 0.7504178559 0.7618039113
0.7723482496 0.997789535 0.5081506712
0.7725765338 0.4987073276 0.5095894142
0.7724329356 0.750059865 0.0073388777
0.7824185299 0.498741174 0.7606707746
0.7724145256 0.4993445513 0.0089550932
0.7925550863 0.749884124 0.5149218762
0.8124894547 0.5005226666 0.5188919968
0.8126035968 0.7490444728 0.0201866775
0.8026180026 0.5000930776 0.7667746163
0.8023970824 0.7512770339 0.2651743217
0.8023934004 0.4998333715 0.2650288825
0.7924851282 0.4978904575 0.5136479029
0.7924409442 0.750840936 0.0131978662
0.8126035968 0.7516805872 0.518179529
0.7924519902 0.4986220607 0.0125094235
0.8025259525 0.7497864902 0.7668685074
0.8325453293 0.5014807803 0.5289530721
0.8325784673 0.749024946 0.029209796
0.822548689 0.5010681145 0.7700331897
0.8324054131 0.5006860407 0.0245602537
0.8224198189 0.7479705002 0.272817241
0.822526597 0.4983148394 0.2709504651
0.8326300154 0.7496498028 0.5256512352
0.822489777 0.7498515794 0.7713375395
0.8624726559 0.7490835263 0.7812863137
0.8624616099 0.5012015475 0.7825041365
0.8525680658 0.749630276 0.0280310945
0.8526048858 0.5014788277 0.0297232514
0.8625794341 0.7508930074 0.2821511206
0.8624505639 0.4983577983 0.2797182366
0.8526122498 0.7529433186 0.5293636155
0.8425603795 0.7521622477 0.2796132995
0.8424977855 0.5014937982 0.2789118778
0.8424204634 0.7522078101 0.7758664042
0.8525422918 0.5012698912 0.5309201826
0.8724435222 0.5033293149 0.5393759042
0.8825064385 0.7489273121 0.7897917424
0.8923521166 0.500950303 0.5473032584
0.8726055303 0.7514007035 0.0389445537
0.8924920327 0.7514462659 0.0448124711
0.8824990745 0.5002401793 0.7954638693
0.8725760743 0.5006131407 0.0356524741
0.8923778906 0.5019513756 0.0477988523
0.8824401624 0.7500924096 0.2910265907
0.8826021706 0.49822046 0.2910127832
0.8726644424 0.753424979 0.5356552394
0.8924846687 0.7513095785 0.5472590743
0.8825322125 1.0016883809 0.29332232
0.8827052667 1.0010765419 0.7921390198
0.9125000412 0.7497409277 0.5546175589
0.9127504175 0.9985771149 0.057250556
0.9124669032 0.4992683969 0.5597152931
0.902540221 0.7508669717 0.7993124837
0.9124779492 0.7496498028 0.0513087224
0.912282803 0.4994226584 0.0564579126
0.902565995 0.7503527666 0.300628336
0.9023782129 0.4982757859 0.3020569535