POSCAR file written by Ovito 3.7.11
1
271.5963550498 0.0 0.0
0.0 15.3638099521 0.0
0.0 0.0 10.863854202
Sr Ti O 
800 800 2400 
Direct
0.0224265473 0.4994226692 0.7884617172
0.0123931652 0.2495829477 0.5371816513
0.0223488953 0.2484282862 0.7928248097
0.0024403439 0.2502247156 0.7901830216
0.012323908 0.248646982 0.0377479421
0.0223656481 9.4826583354e-04 0.2905196518
0.0024509847 9.6792241618e-04 0.2921608741
0.0024606313 0.5006814716 0.2898826771
0.0124439391 0.5020880237 0.5399265335
0.0124891901 0.0017628424 0.5409519523
0.0224595006 -6.620769185e-04 0.7902041928
0.0024553293 0.0014088938 0.7887249756
0.0222582829 0.249559516 0.2935213489
0.0024225601 0.2507284969 0.2908841633
0.0324977796 0.4982914394 0.0396176285
0.0424471032 0.4982985991 0.2905251747
0.0323685437 0.4986487727 0.5380211324
0.0324322412 0.247886103 0.5382199569
0.0424423166 0.2498270278 0.7870156375
0.0323630208 0.2519710272 0.0390842082
0.0525024664 0.5004810005 0.0354620131
0.0424842907 9.9180972025e-04 0.7858429413
0.0424603581 0.2491208228 0.2857230116
0.0525146168 0.2481171655 0.5379447323
0.0525090939 0.2494260856 0.0356574318
0.0625994355 0.2508508624 0.2861731281
0.0624771952 0.4995788805 0.7864366532
0.0724776976 0.49965243 0.036887382
0.0625500975 0.50045106 0.286260574
0.0724173139 0.500152306 0.5372101863
0.0724821159 0.2499064352 0.5331711041
0.0623976654 0.2519423885 0.7861448599
0.0724084773 0.2487706492 0.0342012267
0.09248938 0.2485831957 0.5326086886
0.1024799412 0.2496486866 0.7793811462
0.0824899822 0.2507747094 0.7845395365
0.0926009427 0.2494749016 0.0327608539
0.1025881901 -5.0606092979e-04 0.2798457236
0.0925718554 0.0022132515 0.5322377337
0.1025208107 0.2491982775 0.281397659
0.0824682588 0.2511561252 0.2875695017
0.1025734623 0.499988935 0.7802427189
0.0824295985 0.5000097632 0.7867468562
0.1025543163 0.5004517109 0.2794195396
0.0825455794 0.5025657698 0.284741776
0.1226963392 0.2521506702 0.2727294646
0.112591638 0.5026835791 0.0287133032
0.1125338317 0.2511509182 0.5286616548
0.122538016 0.5016799218 0.2756096579
0.1125393546 0.501880393 0.5285613221
0.1225630531 0.2530254532 0.7741739703
0.1125647599 0.2505722857 0.0274392618
0.1225612122 0.0040174915 0.2756888195
0.1525041766 0.2491618282 0.5176499091
0.1325355728 0.2517165331 0.5210170382
0.1427916015 0.250961512 0.766004678
0.152638199 0.249385731 0.0171278201
0.1324494156 0.2521012033 0.0190653461
0.1425839404 0.0018646401 0.2674523319
0.142653529 0.2511535217 0.2676327467
0.142495574 0.5019402739 0.7706052552
0.1526370945 0.4993784094 0.0161324091
0.1327447067 0.500228459 0.0208318462
0.1525306865 0.5010713488 0.5128882472
0.1326541311 0.5016961939 0.5192202542
0.1825159932 0.2493518852 0.2580118518
0.1725850794 0.4987106063 0.510569549
0.1825447123 0.5031717393 0.7540549595
0.1725442099 0.2496538937 0.5142395172
0.1626177144 0.2482219572 0.7654533083
0.1726568771 0.2500424692 0.0133012775
0.1824780693 0.4984144558 0.2582051533
0.1625661673 -0.0010363981 0.7647703095
0.1625952546 0.251613694 0.2611746335
0.182551708 0.247826222 0.7594048104
0.1825520762 -1.6031335698e-04 0.2608441799
0.1924947722 -2.78773557e-04 0.0079343057
0.2024753922 0.2508026973 0.2566099552
0.2023815028 0.5022539982 0.7549653178
0.19254006 0.4991701277 0.0062538707
0.2024926973 0.5029699664 0.257296636
0.1925036089 0.4996563352 0.5063693821
0.1924675259 0.2506276105 0.507813621
0.2023785573 0.2505807471 0.7585745341
0.1924726806 0.2513598507 0.0088750399
0.2024834924 -0.0013702997 0.2571171417
0.2124865722 0.2516657644 0.5047511719
0.2225404626 0.2501459591 0.7524671252
0.2124906223 0.2528868157 0.0061849265
0.2224752924 0.0010497381 0.7527460317
0.222493702 0.25309705 0.257098732
0.2325350739 0.2514067141 0.5016058793
0.2324356617 0.2508358921 1.0013042276
0.2325030411 6.3799123271e-04 0.4986695365
0.2225732318 0.4994252728 0.7502312705
0.2124777355 0.5022748264 0.0033964134
0.2125171322 0.5016076741 0.5060600996
0.2425926463 0.4990809571 0.743622198
0.2625317946 0.247081615 0.740889282
0.2625435768 1.0648244515e-04 0.2422347623
0.262420232 -0.0032802166 0.7412676008
0.2525474927 0.2500639482 0.4949378959
0.2426445616 0.2501941242 0.7472378577
0.2525887304 0.2476452773 0.9928633926
0.2625049165 0.2492711761 0.23741511
0.2425495677 -0.001455565 0.2473738224
0.2627795888 0.5018680262 0.236147604
0.2525960943 -1.1587226738e-05 0.4898881227
0.2424685651 -0.0010339248 0.7466064059
0.2525239283 -1.0720153104e-04 0.992053367
0.2425260033 0.2504147726 0.2491448329
0.2725293515 0.2495608178 0.4910092717
0.2725492339 0.2507369583 0.9877915278
0.2724612357 -8.5642975216e-04 0.4892364203
0.2724833273 0.0014568636 0.9896877241
0.2825703551 0.2520732154 0.7368455974
0.2726125632 0.4988388297 0.4846606961
0.282642521 0.2467815593 0.2348405172
0.3126451328 -2.6523524843e-04 0.4813883768
0.2925428748 0.4993627883 0.4817013412
0.2925760122 0.2490628944 0.4823189857
0.302611493 0.2464880123 0.7314064596
0.2925855853 0.249239283 0.9822870357
0.2925587071 0.0021933997 0.4827525335
0.3024748932 -0.0025494538 0.7316154094
0.3125291519 0.4984906088 0.4825491066
0.3025393271 0.249092184 0.2319953023
0.3125339384 0.2482069869 0.4801926685
0.3124820231 0.2496252549 0.982664434
0.3226614675 -0.0029228638 0.227598152
0.3326037954 -7.183129695e-04 0.480223965
0.3226253846 -0.0015112803 0.7311717363
0.332679275 -0.0010829361 0.9762302533
0.3224611703 0.2466481288 0.2314908773
0.3226209663 0.4994552133 0.7339911777
0.3227082281 0.499168826 0.2303209426
0.3325463572 0.2494098136 0.4780635899
0.3225616871 0.2506692668 0.7273370015
0.3325504073 0.2486352661 0.9797557057
0.3624554478 0.251722391 0.2195604889
0.3526309419 0.5000143194 0.4722268032
0.3526129004 0.2496057285 0.4731684579
0.3424264603 0.2506321666 0.7231221069
0.3626874097 0.499798878 0.7188050387
0.3525440482 0.2497801644 0.9726127527
0.3627352749 0.499217642 0.218964936
0.3426300713 7.3301974482e-04 0.2254027985
0.3424268285 0.2513383717 0.2265515621
0.3624223104 0.2498179155 0.7220764375
0.3426897186 0.4994552133 0.7218150202
0.3427482614 0.4981235123 0.2261796867
0.3824409885 0.2519026848 0.2154799849
0.3925405349 0.2495504037 0.4632870661
0.3926068098 0.2508541168 0.9634631453
0.3925626265 5.9293629208e-05 0.9647886418
0.3825588104 0.5012405777 0.7147052046
0.3926252194 0.4970827549 0.9628280116
0.372459264 0.2492985131 0.4639203589
0.3825551285 0.2473569374 0.7168342832
0.3725918136 0.2497072658 0.966353464
0.3924926698 0.4976639909 0.4600736577
0.3726433607 -1.5393473083e-04 0.4667572894
0.4125371214 0.500113904 0.9548566234
0.4024854401 0.2489633098 0.7101791865
0.4025553969 -0.0015104342 0.7115451843
0.4025443511 0.2489743747 0.2076825681
0.4125702588 0.2509706243 0.4568657723
0.4125334395 0.2500964922 0.9603795252
0.4125923504 -2.7955461327e-04 0.460281687
0.4125187117 0.0024338348 0.9632054099
0.4424712492 5.83823969e-05 0.7066528137
0.4424712492 0.2488311811 0.2058848635
0.4225777569 0.5005024795 0.7064926496
0.4325484356 0.4997240268 0.9565963374
0.432526344 0.4993237355 0.4564119738
0.4426222085 0.5013492747 0.7039263412
0.4425632976 0.4975038744 0.2016276267
0.4326110285 0.2500073216 0.4560603491
0.4224415253 0.2503405723 0.7087496755
0.432471115 0.2495211141 0.958925161
0.4225814388 -0.0018205786 0.2094204412
0.4324674331 4.7305818499e-04 0.9587686788
0.4224783447 0.2489717712 0.2087043049
0.4423534273 0.2484744987 0.7086705139
0.472350148 0.2514607372 0.4487397428
0.4623721054 0.2509166013 0.7031420892
0.4725011073 0.2484191739 0.9496927102
0.4722507357 -0.0016996451 0.9521043773
0.4623536957 0.2493310571 0.204229834
0.4525707956 0.4995847384 0.9525830288
0.4524750653 0.4998457414 0.4538567113
0.462559884 0.5001015373 0.7004910963
0.4723391022 0.4994988222 0.9515889065
0.4625267466 0.4982933921 0.2024928814
0.4525818414 0.248277282 0.4558753319
0.4525818414 0.2509582576 0.9543779719
0.4524198363 -8.8194425678e-04 0.4540895936
0.4823871015 0.2499604582 0.7017227034
0.4821772313 0.0013408117 0.7031825904
0.4923577803 0.4979262956 0.947225814
0.492317279 0.5011312298 0.4505733462
0.4823466002 0.251423637 0.1982623386
0.4923577803 0.2511977815 0.4468766839
0.492372508 0.2530749201 0.9508433147
0.4824570583 0.5007836598 0.2007853842
0.5024352351 0.2521467649 0.700589588
0.5122586364 0.2530488849 0.4497522748
0.5124243235 0.2510994986 0.9500056746
0.5023947338 0.0023305402 0.6993441737
0.5023689603 0.252684392 0.2012069657
0.5224428674 0.2520452276 0.2047222927
0.522240361 0.2514809144 0.7038324519
0.5123359571 0.5028970679 0.453705752
0.5223066358 0.4992326122 0.7031190771
0.5423842248 0.4990282358 0.7083465036
0.5525021809 0.4997578726 0.9617694555
0.5424394538 0.5028013885 0.2103795851
0.5525463641 0.5004777461 0.4604621018
0.5324650932 0.003726483 0.456320846
0.5324061822 0.2507506268 0.4537729473
0.53230677 0.2514366546 0.9541570558
0.5323030881 0.5031313847 0.9597075721
0.552498499 3.8655620377e-04 0.9595326802
0.5424394538 0.2493987486 0.2048999461
0.55244327 0.250336667 0.4609453557
0.542428408 0.2511131671 0.7066785873
0.5525905474 0.2496102847 0.9600297414
0.5725834519 0.250429092 0.4615501135
0.5725134951 0.2490785155 0.9572130615
0.5625133609 0.5009580957 0.7099122463
0.5625317706 0.501043361 0.2115467584
0.5725871338 0.4978260601 0.9638497485
0.57257977 0.5009366166 0.4653323808
0.5624802235 0.2489991082 0.2118136986
0.5624875874 0.2501615802 0.7119888574
0.6025138978 0.5004523618 0.7165949575
0.5925358552 0.5003833684 0.9677249846
0.5925579468 0.4994818993 0.4670242297
0.5825614945 0.2500730605 0.7112441861
0.6026169919 0.2507460707 0.2158343711
0.5925653106 0.2511750007 0.4622984667
0.6025728087 0.2503666075 0.7158107054
0.5925174455 0.2513995544 0.9619167328
0.5825504487 0.500809695 0.7093912526
0.5825283571 0.499809943 0.213650984
0.5825467668 0.2506393263 0.2115495198
0.6124845765 0.5004927163 0.976644471
0.6123778004 0.5010394557 0.474849261
0.6224037081 0.5022566017 0.7210878381
0.612565579 -1.9669756128e-04 0.4684813553
0.6223263875 0.5020632903 0.2244731101
0.6124735307 0.251189971 0.4684058756
0.612565579 0.2520172397 0.968148407
0.6225104842 0.0022332987 0.7227603569
0.6225841229 0.249929216 0.219836634
0.622580441 0.2504753045 0.7247393967
0.6425586178 9.5243146694e-04 0.2248090866
0.6525440243 -6.1859811981e-04 0.4799027162
0.6324480256 0.500331298 0.4745795593
0.6425402081 0.249130586 0.224027596
0.6526250268 0.2509894999 0.4737888639
0.6426101649 0.2500580903 0.7241337184
0.6325805752 -0.0010724569 0.4730119757
0.6525403423 0.2507519286 0.9742972377
0.642433432 0.5003670964 0.7242174825
0.6524114746 0.4997845586 0.4757181976
0.6326284403 0.249586853 0.4701971368
0.6326026668 0.2502572596 0.9710571353
0.6824597424 0.502461629 0.7299382882
0.6625110211 0.0031331406 0.2291638947
0.6823897856 0.5014638296 0.232293539
0.6624079269 -0.0021531654 0.7299134352
0.6726437049 0.5011494545 0.4819498718
0.6626030694 0.2489255587 0.2291031427
0.6625220669 0.2502709281 0.729330769
0.6724485624 8.9137890232e-04 0.9824066985
0.6623895172 0.49991864 0.7266494002
0.662400563 0.5020795623 0.2241730324
0.6825849282 0.2507642953 0.231535981
0.6725921578 0.2517106752 0.4811481306
0.6825517907 0.2515206181 0.7340040645
0.6725037914 0.2499734759 0.9811824553
0.7024342372 0.2510038192 0.2399307917
0.6924561946 0.2512589643 0.4855038591
0.7024195095 0.2521487175 0.7416376352
0.6923936018 0.2507773129 0.987331286
0.6924893321 0.4989846269 0.9896140854
0.6926108359 0.5014495102 0.4881364423
0.7325230063 0.5010283907 0.9999142973
0.7326003269 0.4989507811 0.4984808374
0.7123607328 0.2493304062 0.4923310862
0.7126037404 0.2492900516 0.9961679289
0.7225155082 1.7442031069e-05 0.2485925427
0.7325340521 0.0010662704 0.5005620509
0.7325082786 0.0014959165 0.999647357
0.7125080101 0.499576277 0.9936458037
0.7224786889 0.2502481473 0.2479012595
0.7325009147 0.2500047181 0.5005105038
0.7225007805 0.251412572 0.7475793571
0.732482505 0.2485636693 0.9980365106
0.7126037404 0.5015152492 0.4960479991
0.7124490992 8.480953677e-04 0.4953051689
0.7125337837 5.8396817446e-04 0.9960114467
0.7524680457 0.4985251054 0.0044045271
0.7426409624 -0.0027814471 0.2529942955
0.7425783695 -3.6776291248e-05 0.7546100111
0.7425562779 0.2521819124 0.2523168195
0.7424715934 0.2497957856 0.7526254484
0.7625896837 -1.7254990512e-04 0.2583966139
0.7524975012 4.0393470564e-04 0.5061346588
0.7624939534 -0.0013863113 0.7549745226
0.7526005953 -8.4608075666e-04 0.0040719563
0.7624534521 0.2500808711 0.2581278327
0.7524827734 0.2482545012 0.5061125672
0.7625786379 0.251195178 0.7583692663
0.7525453663 0.2496213497 0.0028858211
0.7824389928 6.1636798e-05 0.2612123734
0.7824574025 3.2802804259e-05 0.760439434
0.7725198612 9.7417086629e-04 0.0091163907
0.7823616722 0.2501095098 0.2604502129
0.7723873115 0.2486209468 0.5078495198
0.7824021735 0.248233673 0.7576871879
0.7724830418 0.2494026539 0.0077993628
0.792553267 -0.0019536966 0.5127197987
0.7925054018 -6.7372767443e-04 0.0109932569
0.812465169 0.4976913279 0.0111848095
0.792498038 0.2467841628 0.5145147418
0.7925201296 0.2474799537 0.0141252024
0.8024834444 -0.0031591333 0.2651004962
0.812520398 -7.9604209717e-05 0.5142008569
0.8024429432 -0.0026303192 0.7632570344
0.8125498535 1.3992365904e-05 0.0161776969
0.8024171696 0.2467301397 0.2627311714
0.8124320316 0.2485910063 0.5146850313
0.8025754928 0.2469000195 0.7644426173
0.8124762148 0.249108456 0.015313915
0.8324212542 -2.7695109239e-04 0.5178827914
0.8224505754 -3.8395580054e-04 0.7669481737
0.8324543916 -0.0019285531 0.0244371965
0.8224248019 0.2467184239 0.2654742126
0.832428618 0.247108952 0.5194117148
0.8224653032 0.2485857992 0.7646727382
0.8324065264 0.2492125969 0.0177191387
0.8224505754 -0.0014631152 0.2643429382
0.8423403858 -0.0015273571 0.7724232104
0.8423109303 0.2499409318 0.2725739029
0.8425318464 0.250542996 0.7755556162
0.862410611 -2.1765590436e-04 0.2745685909
0.8424766174 0.5018387366 0.7704671827
0.8524031129 -0.0020040683 0.5228377548
0.8624768858 -0.0018437565 0.776327902
0.85245466 -0.002740741 0.0251830644
0.8624621581 0.2473406654 0.2724091363
0.8423440677 -0.0011151546 0.2723594302
0.85245466 0.2477995359 0.5248085103
0.8623922013 0.2496564972 0.7762699115
0.8524693877 0.2489685168 0.0252377411
0.8724696561 -0.001146462 0.5282842565
0.8923852401 -0.002577702 0.5359518852
0.8725138394 -0.0018710349 0.0242172009
0.8825213374 0.2499936531 0.2785054994
0.8924846523 -0.0027450954 0.0333502395
0.8726132516 0.2505351855 0.5296106734
0.8925619729 0.2498075014 0.5335936061
0.8824955639 0.2477923762 0.7817246975
0.8726058877 0.2520035713 0.0280662032
0.8925914284 0.249586853 0.0322336929
0.902514242 -0.0019779354 0.2854128086
0.9125180581 -0.0024218553 0.537761556
0.9024406033 -4.3954097132e-04 0.7869208276
0.9024884684 0.246690436 0.2851513912
0.9125475136 0.2485552079 0.5355358266
0.9025989265 0.2499773811 0.7809459684
0.9026762471 0.4999244979 0.7848672286
0.9126174703 0.2483579911 0.035246804
0.9226433781 0.0012337419 0.289130642
0.9224850549 -7.1141363917e-04 0.786898736
0.92253292 0.2487081647 0.2813746469
0.9225108284 0.2496473849 0.7837175446
0.9425700078 2.0880081572e-04 0.2892834423
0.932492553 -0.0010152445 0.5365078573
0.942503733 2.6711968342e-04 0.789487136
0.9325146446 -8.0540074292e-04 0.0376096855
0.942558962 0.2477995359 0.2847878002
0.932547782 0.2484907707 0.5341431348
0.9424411401 0.2490798173 0.782764844
0.9325993291 0.2498016435 0.0346636776
0.9525296407 5.621636871e-04 0.5412382227
0.9525112311 -6.1762179948e-04 0.0375886985
0.9625076833 0.2495354335 0.2875354439
0.9523418621 0.2497306975 0.5360135576
0.972367904 0.2495211141 0.5415392208
0.9626255052 0.2497599871 0.7881818902
0.9525185949 0.249901879 0.0362926575
0.9724157692 0.2503841813 0.041877784
0.962415635 -0.0012269759 0.2858905396
0.9825263614 0.5017202764 0.7925744381
0.9823717202 0.4992768721 0.291045248
0.9823643563 0.0010529925 0.2912367085
0.9923129434 0.0014141008 0.5410955477
0.982434313 0.2516208537 0.2906347123
0.9923608086 6.7626298964e-04 0.0383712016
0.9924270834 0.2506731721 0.5405635082
0.9823128092 0.2498810509 0.7898313969
0.9923718544 0.2488246723 0.0415372051
0.0123419495 0.7514610642 0.0401805963
0.0024730026 0.5018192102 0.7902069542
0.0125391171 0.5000292896 0.043487894
0.0223274664 0.7501593037 0.2885728289
0.0024018676 0.7521770324 0.2925925809
0.0124526285 0.7506474639 0.5434068821
0.0223541973 0.750445691 0.789321449
0.0224635507 0.49991864 0.2902112898
0.0023916687 0.7516758546 0.7925081633
0.0123320083 1.000696118 0.039192181
0.0526979771 0.9992511639 0.5360098757
0.0524914206 0.9998760089 0.037955051
0.0323637572 0.7501723213 0.0392344312
0.0423911377 0.5009157885 0.7896067989
0.0424909182 0.749358721 0.2878299986
0.032388058 0.7498924428 0.5408138797
0.0423186036 0.7519231891 0.7866308753
0.0524181501 0.7498664076 0.0389456755
0.0524037905 0.7498598988 0.5383460631
0.0525344992 0.5002004711 0.5360651047
0.042513378 0.9984050196 0.2868745366
0.032351975 1.000364169 0.5398814298
0.0324425506 0.9994529367 0.0418693156
0.0724776976 1.0005268891 0.5355569977
0.0625257968 0.9978582802 0.7842330154
0.0724666518 0.9990558998 0.0348025786
0.0725296129 0.7496060555 0.038592762
0.0625051779 0.7505237966 0.2852554059
0.072387122 0.7529385623 0.5350995173
0.0624731451 0.7487859464 0.7857683821
0.0624455306 1.0000777817 0.2823466776
0.0824649451 1.0043670824 0.2834457351
0.102580458 1.0035664997 0.7843167794
0.082501028 1.0002795546 0.7837175446
0.0924949029 1.0002144666 0.0326190073
0.0923932815 0.755216643 0.0351714164
0.092422737 0.5000787565 0.0343495166
0.102401516 0.752059874 0.2838562708
0.0824130298 0.7518190483 0.2845944986
0.0924127958 0.7510445008 0.5323583171
0.1024563768 0.75327702 0.7818848617
0.0823828379 0.7505042702 0.7839458245
0.092365667 0.4995196504 0.5324006593
0.1126387668 1.0030913572 0.0274621819
0.1125596052 0.7524569109 0.0252613976
0.1226801387 0.5020782605 0.7742807464
0.1226554697 0.753472284 0.2745271691
0.1125275724 0.7497167052 0.5261588598
0.1224242442 0.7528930006 0.7734228556
0.1125868515 1.0019718432 0.529381473
0.1226020817 1.0034233061 0.7720117542
0.1526138983 1.0004227483 0.5165766252
0.1325609782 1.003690167 0.5212775351
0.1425180338 1.000728662 0.7645328247
0.1525763425 0.9997979033 0.0172244708
0.1327307154 1.0027789347 0.0226542197
0.1527379795 0.7494954059 0.0111764331
0.1326220983 0.7526456662 0.0184361034
0.1426240735 0.7521770324 0.268289972
0.1526665499 0.7508947984 0.5156515391
0.1325521415 0.7506084111 0.52105846
0.1426546335 0.5006912348 0.2683065407
0.1425250294 0.7515847314 0.7654772409
0.1725029722 0.7493847563 0.0103760726
0.162552176 0.4977889599 0.7622509457
0.1725582013 0.4990451587 0.011218039
0.1624523955 0.7509338512 0.2640207689
0.1825557581 0.998919215 0.7599460547
0.1725523102 0.7505628494 0.5121187229
0.1626361241 0.5011605194 0.2640852028
0.1624001121 0.7487924553 0.7648927338
0.1824894833 0.7508947984 0.2552172634
0.1823642975 0.7512723089 0.7588138599
0.1626456971 1.0012038045 0.2618880083
0.1724175514 1.0001949402 0.5156128788
0.172481617 1.0001168346 0.0132466008
0.1924527982 0.9994073751 0.5104489656
0.2024253179 0.9995831128 0.7585478401
0.1923655363 0.7509989392 0.0066588835
0.2024591916 0.7513959761 0.2569661824
0.1924785717 0.7516042578 0.5037165483
0.2023575703 0.7507971663 0.7510597057
0.2324386072 0.7505237966 0.998469138
0.2324938363 0.5004081019 0.9979076429
0.2324389754 0.7523137172 0.4975677176
0.2325696841 0.5001705306 0.5009385287
0.2225301532 0.9995635864 0.2525938851
0.2124298704 1.0016594207 0.5072530464
0.2125977666 1.0012298397 0.0058020974
0.2124361297 0.7524504021 -3.979121949e-04
0.2325299192 0.9999541145 0.9955696145
0.2225470901 0.7510965712 0.2532087682
0.2124313432 0.7507255695 0.4988840092
0.2224948066 0.5021837031 0.2504813751
0.2223883987 0.750445691 0.7526926437
0.2524999958 0.74985339 0.9918692703
0.2525246647 0.4998144991 0.9927805491
0.2425123801 0.7484084359 0.2447117837
0.2525073596 0.7505563406 0.4918008877
0.2425595089 0.5009255517 0.2414238162
0.2425348399 0.7493001418 0.7438744105
0.252498523 0.5008461443 0.4912854168
0.2625947557 0.4998359782 0.7394993518
0.2624456373 0.7487468936 0.2396187478
0.2625571999 0.7459546175 0.738864218
0.2827802254 0.5004816514 0.7333836585
0.2825427406 0.7489096137 0.2359662687
0.2827154234 0.4995235557 0.2355695403
0.2824687337 0.7507060431 0.7369578964
0.2725709573 0.7492415626 0.9882701793
0.2725731665 0.4987483573 0.9850668962
0.2725411336 0.7482717511 0.4890210271
0.2824665246 0.9966932046 0.2389145778
0.2825692505 0.9987239509 0.7380937732
0.3126027906 1.0002144666 0.980694599
0.2924968506 0.7488445257 0.9824987469
0.3026413167 0.4999088768 0.7324493676
0.2926728471 0.4985244545 0.9789917043
0.3025341724 0.7505237966 0.2313804193
0.2924935369 0.7511551504 0.4793752791
0.3025187083 0.5006502293 0.2296241365
0.3024921983 0.7488510345 0.7311735773
0.3024712113 0.9976109457 0.2328080894
0.3125302565 0.749228545 0.9831430854
0.3127460178 0.4988603087 0.9823146502
0.3124706091 0.7483889095 0.4814969939
0.2925178377 0.9991925846 0.9834652547
0.3325544574 0.7486818056 0.9777306417
0.3325750763 0.4972246467 0.9780712206
0.3225859879 0.7487273672 0.2303632848
0.3326229414 0.7488119817 0.4816120543
0.3226180207 0.7482131719 0.729136547
0.3324550452 0.4987913154 0.4777312953
0.3526397785 1.0006635739 0.4735053549
0.3426900868 1.0009499612 0.7196739752
0.3625511781 0.7504066382 0.218767032
0.3524980241 1.0008328028 0.9715634013
0.3625622239 0.7508101839 0.7193416806
0.3624628117 1.0012363485 0.2171957664
0.3526084821 0.7498989516 0.9693634454
0.3624775394 1.0007807324 0.7173985397
0.3526997941 0.4988030313 0.9741591652
0.3425744741 0.7486818056 0.2254525046
0.3526081139 0.7488705609 0.4725360857
0.3425737377 0.7480895046 0.7246731219
0.3924668962 0.9994529367 0.462394197
0.3724850375 0.7491569482 0.9648438708
0.3726433607 0.4991877015 0.9672463331
0.3825035814 0.7479658374 0.2155959659
0.372514493 0.7504847438 0.4654833401
0.3825661743 0.501152058 0.2150584034
0.3824962175 0.7494954059 0.7146057923
0.3825661743 0.9988215829 0.2169334286
0.3825661743 0.9988606357 0.7141961771
0.3725365846 0.9992902167 0.9653501368
0.3725181749 0.4977128069 0.4676317489
0.3925515807 0.748174119 0.9615393345
0.3926620388 0.7512853265 0.460595572
0.4125334395 0.7509989392 0.9596339334
0.4126917627 0.749196001 0.4576352966
0.4125518492 0.499565212 0.4541586299
0.4024854401 0.9989777942 0.2108453498
0.4026769007 0.500478397 0.7094842214
0.402717402 0.7502894798 0.2087981942
0.4026400814 0.5024473096 0.2080470796
0.402658491 0.7488184905 0.710575915
0.4324527053 0.7496190731 0.9580046774
0.4224967543 0.7502699534 0.2074147073
0.4324306137 0.750478235 0.4569246832
0.4225298917 0.497984224 0.2068182339
0.422570393 0.7504652174 0.7083188891
0.4424675673 0.7513373969 0.2068136315
0.4425007047 0.7507255695 0.7051091627
0.4324784789 1.002473021 0.4587582866
0.4224967543 1.0005529243 0.7096130891
0.4424933408 0.99954406 0.2033802276
0.4524824292 1.0003967131 0.9538993204
0.4623316041 0.9980014738 0.2013395154
0.4722028706 0.9986133013 0.4504453989
0.4624825634 1.0000973082 0.7022667092
0.4525707956 0.7523722965 0.9529512222
0.452552386 0.7501723213 0.4518132376
0.472405377 0.7519166803 0.9513219662
0.462280057 0.7516172754 0.200236776
0.4725342447 0.7535894425 0.4488244273
0.4624936092 0.7500356365 0.7007166148
0.4724090589 0.4987164642 0.4467063944
0.4822840074 0.9995700952 0.1974099707
0.4924314189 0.9991600406 0.4474206897
0.4922804596 1.0011777693 0.9472718382
0.4822987351 0.4989117283 0.6993202411
0.4923982815 0.7497817932 0.449737547
0.4824055112 0.7490918602 0.1972111463
0.4924166912 0.7524829461 0.9498215779
0.4824423305 0.7504391822 0.7012863942
0.512339639 1.0018221407 0.4515821962
0.512453779 1.0001428698 0.9501437471
0.5024352351 1.0005138715 0.2004770222
0.5224355035 0.7512983441 0.7050456493
0.5223029539 1.002075984 0.2006749262
0.5222734984 1.0015292446 0.7008850633
0.5024720544 0.7524634197 0.1986176452
0.5023210951 0.5007856124 0.2018706344
0.5024867822 0.7530427031 0.6987872811
0.5023174132 0.5010036573 0.6972500734
0.5124022319 0.7518190483 0.9512391227
0.5123838222 0.5023952392 0.9552616362
0.5123212293 0.7507450959 0.4487489476
0.5223765925 0.5010817629 0.2038745273
0.5223324093 0.7508687632 0.206395732
0.5323104519 0.7530296855 0.4527760635
0.5323583171 0.5013661976 0.4582326905
0.5323730448 1.00204344 0.9557679022
0.5425057287 1.0033452004 0.2053988482
0.5524138145 1.0004422747 0.4578939525
0.5524874532 0.751565205 0.9591276674
0.5424136803 1.0001884314 0.706554322
0.5424431358 0.748174119 0.2064813369
0.5524064506 0.7502569357 0.4597459656
0.542542548 0.7493457034 0.7073192439
0.5323914545 0.7540385498 0.9545712734
0.5625464984 1.0000257113 0.2085367769
0.5624470861 1.0012819102 0.7085609763
0.5625133609 0.7477835909 0.2119646579
0.5624691777 0.7504652174 0.7109321422
0.5725908158 1.0012428573 0.4614055976
0.5725355868 1.0010996637 0.9588791368
0.572355172 0.7481155398 0.9596891624
0.5724619481 0.7499770573 0.4610742235
0.6024255313 1.0016529119 0.2152673532
0.5924106694 0.7505628494 0.9598456447
0.5924622165 0.9999345881 0.4625055755
0.6024881242 1.0006180123 0.7161135445
0.5924916719 1.0027398818 0.965110811
0.6023666204 0.7508362191 0.2200409814
0.6024181675 0.5018120505 0.2158187229
0.5924069875 0.7506474639 0.4628203809
0.6024954881 0.7484539975 0.7185997708
0.5825173113 1.0023168097 0.2089362668
0.5825651764 1.00079375 0.7128495096
0.5823737158 0.7495474763 0.21280598
0.5825541306 0.749951022 0.7119382308
0.6124146197 0.75094036 0.9687743359
0.6124661668 0.7507255695 0.4715253946
0.6126097623 1.0006765915 0.9709466773
0.6224037081 1.0012233309 0.224503486
0.622525212 0.7494173003 0.2232654355
0.6225546674 0.7504977614 0.722330491
0.6425770275 1.000696118 0.7239910435
0.6523636095 0.9995700952 0.9778963287
0.63253271 1.000826294 0.9735792605
0.6323596591 0.7496320907 0.9731466332
0.6324627533 0.4999941421 0.9762854824
0.6323596591 0.7506344463 0.4769093034
0.6524630217 0.749163457 0.9773624482
0.6525072049 0.4998079903 0.9733031154
0.642319292 0.7510835536 0.2274094529
0.6424113404 0.4995450347 0.2260038743
0.6524777494 0.7498989516 0.4766092258
0.6425070707 0.7511811857 0.7259397073
0.6724964275 0.750282971 0.983953111
0.6724816998 0.499869824 0.9798293444
0.6824413327 0.9994724631 0.233675185
0.6724264708 1.0021345632 0.4839988684
0.6825517907 0.9999410969 0.7353166741
0.6824707882 0.7494563531 0.2330869959
0.6724375166 0.7498273548 0.4822600748
0.6825296991 0.7522616468 0.7348186925
0.6624189727 0.7511616593 0.2282977196
0.6623637437 0.7497036876 0.7288972213
0.7024600108 0.9994464279 0.23842396
0.7024305553 0.5024564219 0.7371935403
0.6925077417 0.750907816 0.9856191864
0.6924451488 1.0009304348 0.485033492
0.7025152398 1.0000907993 0.7415658375
0.6925151056 1.0015552798 0.9884266615
0.7025115579 0.7502764622 0.2430668795
0.702504194 0.5004328353 0.2388298933
0.6925924262 0.7514610642 0.4849524894
0.7024968301 0.7513048529 0.7413651721
0.7225449637 0.498983976 0.7470279874
0.732596645 0.7479072582 1.0020222048
0.7224860527 0.7516172754 0.2493049971
0.7225228721 0.4991532048 0.24607502
0.7325487798 0.7503090062 0.5026405029
0.7226001927 0.7513634321 0.7489020921
0.7224381876 0.9969405391 0.7462722703
0.7126037404 0.7493652298 0.9933880683
0.7124932824 0.749228545 0.4927701569
0.7425194586 0.5001568621 0.7551448121
0.7426446443 0.7494107915 0.2518123945
0.742497367 0.5008012336 0.2530163871
0.7426998734 0.7521640148 0.7515052198
0.7526042773 0.5003592859 0.5028282816
0.7524606818 0.7496125643 0.0038373251
0.7625712741 0.5005421832 0.7554688223
0.7626007295 0.7509533776 0.2575948727
0.7624387244 0.5008376828 0.2590473959
0.7525122289 0.7497687756 0.5058557523
0.7625013173 0.7494758795 0.7577847592
0.7824316289 0.7520078035 0.2603646079
0.7824316289 0.4994324324 0.2604023478
0.7724094031 0.7494042827 0.5082315205
0.782486858 0.7491569482 0.7615808337
0.7725603625 1.0015878239 0.5095192771
0.7723284006 0.4998444396 0.5109266966
0.7725677263 0.7480699782 0.0086675629
0.7824721302 0.4989969936 0.763926226
0.7723873115 0.5001991693 0.007236395
0.7925348573 0.7481611014 0.5131423007
0.8125461715 0.499472787 0.5124593019
0.8125167161 0.7487924553 0.0163520365
0.802564447 0.4978000249 0.7642585206
0.8024944902 0.7491374218 0.263455592
0.8024613528 0.4987646293 0.2629750995
0.7925348573 0.5012106372 0.5129351919
0.7923544425 0.7473409924 0.0132538726
0.8124762148 0.7495800203 0.5154665219
0.7923802161 0.4997539673 0.0112430761
0.8026012663 0.7481871366 0.7641535854
0.8324985748 0.4989969936 0.5208292596
0.8323586613 0.7485971912 0.0191142237
0.8224505754 0.4988733263 0.7640302406
0.8324028445 0.4987900137 0.0183828074
0.8225794431 0.7501658125 0.2693503692
0.8224873948 0.4996771634 0.2631490709
0.8325169845 0.7509468688 0.5201913644
0.8224837129 0.749261089 0.7663443365
0.8625137051 0.7466315329 0.7777776637
0.8624216568 0.4976861208 0.7763453912
0.8524914793 0.7487403848 0.0243614407
0.8524288864 0.4982315584 0.0245682734
0.8624952955 0.7492090186 0.2802341677
0.8624732039 0.4989950409 0.2781998988
0.8524988432 0.7485190856 0.5242506972
0.8424766174 0.7453558077 0.2754126744
0.8424103426 0.4997793516 0.2738248401
0.8424839813 0.7462279872 0.7739779073
0.8524877974 0.4997741446 0.5253976198
0.8726537529 0.5000071597 0.5302108288
0.8825139736 0.7508101839 0.7818738159
0.8926650671 0.4993230846 0.5359923865
0.8724991116 0.7488315081 0.0268278766
0.8924367871 0.7505368142 0.0358496287
0.8827091161 0.496293888 0.7825927136
0.872532249 0.4987815522 0.0301559772
0.8926282477 0.4989976445 0.0338569658
0.8825139736 0.7486752968 0.2817133849
0.8827422535 0.4975364184 0.2838084056
0.8725690684 0.7488119817 0.5274926406
0.8925361994 0.7486167176 0.5326528718
0.8825250194 0.9982422995 0.2808177543
0.8823593323 0.9980144914 0.7800236438
0.9126137884 0.750413147 0.5377992958
0.9125916968 0.9985351956 0.0387543069
0.9125843329 0.4980616787 0.5355809303
0.9025841987 0.7479918726 0.7894438733
0.9124886026 0.7501332685 0.0395664496
0.9126285161 0.4997285829 0.0356119599
0.902514242 0.7470480963 0.2886170121
0.9027277942 0.4975806782 0.2856088716