POSCAR file written by Ovito 3.7.11
1
271.6025691199 0.0 0.0
0.0 15.364161473 0.0
0.0 0.0 10.8641027648
Sr Ti O 
800 800 2400 
Direct
0.0125429798 0.2514918073 0.496639947
0.0224248451 0.250062507 0.7455219816
0.0026113727 0.2504048622 0.7465298881
0.0125336279 0.2491473904 0.9973623829
0.0224760964 0.0011714103 0.2455138247
0.002438068 0.9990900423 0.2493024486
0.012456309 0.0016714701 0.4981274145
0.022434602 0.0010996849 0.7451114553
0.0024477881 9.7816835124e-04 0.7466265367
0.0124197851 0.9998906067 0.9961197584
0.0225262432 0.2499095537 0.2494156655
0.0024338707 0.2490770969 0.2474090571
0.0324514071 0.24866575 0.4970090525
0.0423924029 0.2488284664 0.7455017314
0.0325342487 0.250482966 0.9994058098
0.0424678808 1.0000598317 0.2482650873
0.0325533943 7.8440574303e-04 0.4996710303
0.0424259077 0.9986409453 0.7487003389
0.0324587708 0.0015122034 0.9938462158
0.0426074229 0.2514911564 0.2479466072
0.0724705425 0.248221209 0.4963684105
0.0524766227 0.2514774883 0.4970918941
0.0624768963 0.248095592 0.7473748727
0.0725725298 0.2513421083 0.9959632798
0.0524836182 0.2503417283 0.998246027
0.062502301 1.0002550913 0.2472958402
0.072437774 0.9999622019 0.4982415519
0.052610642 0.0022770352 0.5009854508
0.062442655 0.9985693501 0.7493925267
0.0724278331 4.0325900682e-04 0.996966584
0.052541055 0.9999622019 0.9973992014
0.0624997237 0.2505213671 0.247287556
0.0925141674 0.2493992753 0.4954203341
0.1025254865 0.248874027 0.7446070418
0.0824045428 0.2505226688 0.7445831098
0.0924604123 0.2515601482 0.9954110022
0.1025527322 0.9994610356 0.2491349244
0.082577958 0.9990444818 0.2472001121
0.0924416349 0.0012447628 0.49489475
0.1024260765 0.0011731676 0.7486810091
0.0824494614 0.9982959866 0.7465602634
0.0925288948 0.9978208549 0.9952545236
0.1025626732 0.2498665966 0.2462814905
0.0824074883 0.2490230751 0.2434142495
0.1125371738 0.2514084965 0.498643794
0.1224921607 0.2512776726 0.7461037139
0.1125040372 0.251725468 0.9956779364
0.122488847 0.002147513 0.248752012
0.1124642732 0.9989078 0.4970550756
0.1224877424 0.9998320288 0.7487031002
0.1125603695 8.4630303574e-04 0.9974912476
0.1224487148 0.2513980827 0.24872808
0.1525364273 0.2476152534 0.4972014292
0.1325303573 0.2491747267 0.4995182335
0.1425788631 0.2506066305 0.7498453943
0.1524778859 0.2502694822 0.9983104593
0.1324843342 0.2504699487 0.9990928525
0.1425052261 0.0020302922 0.2504705156
0.1525610957 0.9985302982 0.4969860409
0.1324272655 0.0016648313 0.4998339521
0.1424459484 0.0015078426 0.7476804663
0.152513968 0.9999556932 0.9980527298
0.1324964843 0.0014370284 0.9999304735
0.1425600857 0.2490432519 0.2479180729
0.1725524382 0.2487087072 0.4958603152
0.1625525328 0.2483155845 0.7472984744
0.1724589192 0.2514403889 0.9990652386
0.1624858913 -1.0630345864e-04 0.2452294017
0.1724905832 -6.2146336593e-04 0.4932241104
0.16254296 0.9978208549 0.7480974359
0.1725170925 5.8244223168e-04 0.9970862441
0.1625216053 0.2490191699 0.2475259559
0.1924635165 0.2484646327 0.496677686
0.2025992821 0.2482882482 0.7446042804
0.1824459382 0.2508005883 0.7480514127
0.192593854 0.2480728117 0.9980251159
0.2025046586 4.2955396608e-04 0.2484906006
0.182598735 2.1620031149e-04 0.2444258379
0.1924624119 9.1950120332e-05 0.4987201924
0.2025009767 0.9986669799 0.7454382195
0.1825398254 0.9981918482 0.7475654085
0.1925014395 -6.0102619463e-04 0.998761486
0.2024983995 0.2524433724 0.2476005133
0.1826079396 0.2479680224 0.246354207
0.2124861548 0.249033489 0.4957323709
0.2225552789 0.2498692 0.7500175208
0.2125826192 0.2501542791 0.9992585358
0.2224076368 0.9986409453 0.2477210939
0.2124670091 0.9991225856 0.4960434873
0.2225203014 0.9998059942 0.749114547
0.2125262869 0.9988752568 0.9960829399
0.2225446016 0.2508539593 0.2482061777
0.25258445 0.251851085 0.4985388613
0.232558498 0.2501139254 0.4974527155
0.2424067112 0.2494253099 0.7475681699
0.2523742163 0.2495821684 0.9988075091
0.2325121067 0.2509236019 0.9962394185
0.2425410987 0.998946852 0.2491155947
0.2524732581 0.0010014693 0.4985020428
0.2323968648 0.0011717357 0.4985986914
0.2425698172 0.9995521567 0.7500340891
0.2525144948 7.96251492e-04 0.9974912476
0.2325765391 0.0020208546 0.9971414719
0.2425204804 0.2512509871 0.2466073342
0.2724863236 0.2519311414 0.4966583563
0.2624974637 0.2482205582 0.7462850451
0.2725006828 0.2489091737 0.9989455785
0.2624845772 0.99924625 0.2453702325
0.2725802108 6.6523230143e-04 0.4956173131
0.2625261822 0.9979770626 0.7488485333
0.2725441286 0.0017385743 0.9983380732
0.2624786863 0.2495463708 0.2478886181
0.2925645578 0.2489130789 0.495545517
0.3024381757 0.2494122926 0.7482152551
0.2825723843 0.2510719992 0.7490814104
0.2925796534 0.2512861339 1.0004735464
0.3026193228 4.7862921183e-04 0.2486332723
0.2826139892 0.9995586654 0.2506868243
0.292467357 7.7646518603e-04 0.498460622
0.3024153483 0.0012805604 0.7492691847
0.2824302649 0.9992853019 0.7490537965
0.2924353249 0.0019819979 0.9981171622
0.3025081309 0.2484034513 0.2475296377
0.2824980109 0.2501985379 0.2505818916
0.3325450338 0.2519337449 0.4997308603
0.3125257092 0.2497071346 0.4956007448
0.322590047 0.2486546853 0.7481296521
0.3324736059 0.2499726876 0.9956503225
0.3124226174 0.2503248058 0.9945641767
0.3225981471 8.0093772237e-04 0.2451750944
0.3324824424 9.7751748591e-04 0.4981596307
0.3124848407 4.7166495282e-04 0.4942356988
0.3224950552 0.0011578072 0.7464010233
0.3324691877 0.0012994355 0.9989271693
0.312604869 0.9984456857 0.9957791873
0.3224799597 0.2494969051 0.2459851015
0.3525275399 0.2490998772 0.4982673248
0.342566294 0.2496055996 0.7481094019
0.3525094989 0.2485381804 0.9973807921
0.3425751304 4.6802010698e-04 0.2455929844
0.352545581 -3.8389752113e-04 0.4970504733
0.342576235 0.9984326684 0.7468548114
0.3525562584 -6.7496449591e-04 0.9976845448
0.3426082671 0.2485420856 0.2456813489
0.3724695457 0.2512067283 0.4949103978
0.3824142234 0.2496433498 0.7479630483
0.3625322318 0.2520268186 0.7466449459
0.3724769094 0.2512190947 0.9984853472
0.3824768148 0.9988817654 0.247213919
0.3624659584 0.9985172808 0.244915524
0.3724437728 0.0010537338 0.4957130412
0.3824952241 0.0011594994 0.7483174264
0.362624278 0.9996953471 0.7478056492
0.3724953187 6.1108030612e-04 0.9945273582
0.3824399963 0.2498327516 0.2493705629
0.3626390054 0.2512958968 0.2487667394
0.3924178106 0.2510069126 0.4977997298
0.4026054904 0.2490002948 0.7466624347
0.3924840839 0.251556243 0.9977213633
0.4024839893 0.9986865058 0.2472314078
0.3924914476 0.9981983568 0.496787221
0.4025539445 0.0014861687 0.7468676979
0.3925282661 0.9997994855 0.9980527298
0.4024324434 0.250101559 0.247239692
0.4325536607 0.2505994709 0.498166074
0.4124618036 0.2498431654 0.4972087929
0.4224322542 0.2508565627 0.7506811743
0.432546297 0.2486631466 0.9986234166
0.4124544399 0.2474245499 0.9989547831
0.4225206187 0.9986799972 0.247486376
0.4324652963 0.9982309001 0.4995808249
0.4124581218 -8.0984797377e-05 0.4969814386
0.4225353461 0.998139779 0.7501537493
0.4325352515 0.9998580634 0.9965431712
0.4124102577 -4.59983678e-04 0.9973992014
0.4224764365 0.2477356635 0.2479171524
0.4523804246 0.249511875 0.4938012404
0.4425277932 0.2486247455 0.7483082218
0.4524577434 0.2504419615 0.9982644362
0.4425241113 0.9991681462 0.2471734187
0.4524651071 0.0020659596 0.4961879999
0.4425535661 0.0019551172 0.7490096143
0.4524614253 0.9993308625 0.9950152033
0.4424541562 0.2504133235 0.2470896566
0.4723839172 0.2493712881 0.5006172658
0.4824353686 0.2490152647 0.7461920783
0.4624686944 0.2499798471 0.7471898598
0.472538555 0.2482303211 0.9948034969
0.4824942782 1.0412130197e-04 0.2474044548
0.462453967 0.0013379016 0.2463551275
0.4724317813 0.9985498241 0.4992052762
0.4825310967 0.9986474539 0.7486745659
0.4624907855 0.0012638331 0.7473251678
0.472612192 -6.850529085e-04 0.9966076036
0.4824390504 0.250289659 0.2502137066
0.4624061029 0.2491148471 0.2454659606
0.5124387666 0.001477317 0.4943093358
0.5124350848 0.0018483102 1.0006944574
0.4924279103 0.2498568336 0.4952445257
0.5025640441 0.2518452272 0.7466974123
0.4925273202 0.2504627892 0.9956963456
0.5124350848 0.2501757576 0.4938214906
0.5124093118 0.2505500052 0.9955582762
0.5025161801 6.6028572494e-04 0.2485200554
0.4925494113 -6.4528503695e-04 0.4972520546
0.5023836335 0.0018250743 0.7467517196
0.4925273202 9.9964690707e-04 0.9990836479
0.5024388612 0.2509281579 0.2459151463
0.5224865361 0.9989208173 0.2463689344
0.5324128045 0.0020261917 0.4951267065
0.5225454457 1.0002681086 0.7465528997
0.5324459411 0.9984326684 0.9973255644
0.5224165809 0.2502870556 0.2451962651
0.532475396 0.2487419013 0.496946461
0.5224938998 0.2496264273 0.7483680519
0.5324348956 0.2511182106 0.99546623
0.5424937106 0.0012942286 0.2481334612
0.5625156125 0.0023007267 0.2491597769
0.5524162972 0.0011326187 0.4994712899
0.5424900288 0.9990054298 0.7472128713
0.5624751122 0.9984782289 0.7477660693
0.5524052516 2.911799973e-04 0.9977950003
0.5424716195 0.2484607275 0.2453186866
0.562478794 0.2511579134 0.249748873
0.5525009797 0.2493927666 0.4987386017
0.5426004843 0.2511318788 0.7492222411
0.562578204 0.2485583573 0.7485908038
0.5525709349 0.2511090985 0.9991664895
0.5825411963 0.0012243256 0.2483810656
0.5725744275 5.5966194519e-04 0.5006402774
0.5825890604 0.9990379731 0.7464985924
0.5724934268 0.0020492323 0.9991848988
0.5826074696 0.250773252 0.2471632936
0.5725523364 0.2493751933 0.4985370204
0.5824381045 0.2522852121 0.7478691612
0.5724750176 0.2498073678 0.999893655
0.6024084605 0.9992267241 0.2501603197
0.5924122369 0.9999101326 0.4985176907
0.6124930485 0.0013492918 0.4957378937
0.602371642 -2.944035385e-04 0.7443594374
0.5925484654 0.0015092094 0.9955858901
0.6125114577 -1.4704762819e-04 0.9976845448
0.6026072804 0.2481854114 0.2459160668
0.592533738 0.2511806937 0.4978218209
0.612577731 0.2501770593 0.4959183043
0.602518916 0.2504426124 0.7488853518
0.5925889658 0.2496797982 0.9961105538
0.61245623 0.251217793 0.995245319
0.6225813183 5.7437150161e-04 0.2452008674
0.6324229041 3.5457428027e-04 0.4988711483
0.6224193169 5.3603553378e-04 0.7467719698
0.6324854956 1.0003657384 0.996128963
0.6224782265 0.2507999375 0.2485817264
0.6324302678 0.2492743091 0.496836926
0.6225260905 0.2513141211 0.7484315638
0.6324707682 0.2517905545 0.998540575
0.642411764 1.0006456105 0.2478361517
0.6625220303 0.0013117368 0.2467730175
0.652470579 0.0010888805 0.4987036241
0.6426069021 1.0003852643 0.7485208487
0.6625441214 0.99924625 0.7487454415
0.6524853064 0.9997669423 0.9971046534
0.6424780373 0.2513369014 0.2495252006
0.6625956673 0.2500058818 0.2499946365
0.6524926701 0.2488766304 0.4968571762
0.6424338551 0.2491675672 0.7476105112
0.6625183485 0.2491382783 0.7462482266
0.6525626253 0.248898109 0.9976385217
0.6823598397 0.9992332327 0.2470776906
0.6725366631 0.9993373712 0.4994685285
0.6825439322 0.0010398704 0.7465022742
0.6724519806 3.207292832e-04 0.995539867
0.6824960682 0.2494168486 0.2484952029
0.6724593443 0.2515438765 0.4980114362
0.6826028418 0.2506430789 0.748119527
0.6724446169 0.2503853362 0.9970218117
0.7025989708 2.5056600082e-04 0.2487869896
0.6925070191 0.9992527587 0.4989153305
0.7125436485 0.9985953847 0.4972584979
0.7024443331 0.9984456857 0.7472671786
0.6924665188 0.9988817654 0.9982552316
0.7126025581 4.7329211614e-04 0.9977121587
0.7024480149 0.2489059194 0.2475811836
0.6924039273 0.2497279623 0.5001542731
0.71240742 0.250333267 0.496184318
0.7024590605 0.2512841813 0.7456766193
0.692484928 0.2485590081 0.9965431712
0.7124442385 0.2484626801 0.9965155573
0.7225730087 0.0013748057 0.2478205039
0.742436591 0.9995912086 0.2499522952
0.7325140045 0.001086993 0.495853872
0.722565645 0.9985042635 0.7452311154
0.7425949106 5.9415780759e-04 0.7485521444
0.7326097326 0.9995000875 0.9976477263
0.7224294165 0.2514280225 0.2490889013
0.7425028643 0.2511963144 0.2509206218
0.7325434593 0.2502961677 0.4992917997
0.7224993717 0.2496648283 0.7466265367
0.7425433647 0.2504549788 0.7498693263
0.7324882315 0.2510804604 0.9986786444
0.762458493 9.7938081352e-05 0.248654443
0.7526058616 1.7649752647e-04 0.4980510161
0.7625579029 1.9485192872e-04 0.7482023686
0.7523996779 0.9989078 0.9963222602
0.7625026752 0.2506313633 0.2500876032
0.7525543157 0.2516681918 0.4993175726
0.76253213 0.2514241173 0.7499604521
0.752373905 0.2513056598 0.9973715875
0.7824435764 8.8034329241e-04 0.2473022834
0.7724326254 0.9997929769 0.4988877166
0.7925944376 0.9998190115 0.5003144336
0.7825208952 9.57861353e-04 0.7470140514
0.7724620802 0.9986344366 0.9966352174
0.7924250725 9.3657805677e-04 0.9973992014
0.7825650774 0.25154648 0.2499799091
0.7724804895 0.2509776237 0.4964245588
0.7924582092 0.2489456221 0.4999416463
0.7825319408 0.2477174393 0.7484959962
0.7725025806 0.2498158291 1.000114566
0.7924287544 0.2483676537 0.9973807921
0.8025170242 0.9982764607 0.2500139662
0.812605294 -2.4955891739e-04 0.4965837988
0.8025980249 0.0016203121 0.7486460316
0.8124543381 0.9982829693 0.9960921445
0.8024286598 0.2499453513 0.2475296377
0.8126016122 0.2506079322 0.4994869377
0.802447069 0.2495541812 0.7473969638
0.8124469744 0.2501549299 0.9973992014
0.8225057895 0.9997734509 0.2467196306
0.8424466907 0.9986149106 0.2466165388
0.8325351497 0.0015024404 0.4976542968
0.8225352443 -5.6902780232e-05 0.7474890101
0.8426123739 0.0017972824 0.7440474005
0.8325314678 9.5464793105e-05 0.9944261073
0.8225057895 0.2492970894 0.2498602489
0.8426086921 0.2499381918 0.2472534989
0.8324762401 0.2510192791 0.4962146933
0.8226236087 0.2484711413 0.7490418305
0.8424687818 0.2489631955 0.7490243417
0.8324836038 0.250101559 0.9992585358
0.8625164566 3.2040385054e-04 0.2503646624
0.8525680971 0.9994675442 0.4996931214
0.8625459114 0.9980486578 0.7495186301
0.8524907783 0.0012322662 0.9951808866
0.8625716844 0.2486214912 0.2504861635
0.8524870964 0.2498639931 0.4964319225
0.8625201385 0.2516161226 0.748438007
0.8525938701 0.2516206786 1.0001421799
0.8824831308 0.9981332703 0.250105092
0.872494271 9.7706188018e-04 0.4971351559
0.8925787643 0.0022672071 0.4958216558
0.8826304048 0.9982439174 0.7482925739
0.8724611343 -1.7477449117e-04 0.999424219
0.8825567678 0.2496361902 0.24888732
0.8925971736 2.7555922942e-04 0.9980711391
0.8725384532 0.2507862693 0.4989042849
0.8925971736 0.2502467019 0.4959597252
0.8824279031 0.2475729472 0.7471953825
0.8725163621 0.2509958479 0.9999857012
0.8924462177 0.2489625446 0.9952361143
0.9024682142 4.1002800624e-04 0.2458313843
0.9226337083 0.0014414543 0.2486516816
0.9124497104 0.0012085747 0.4943111767
0.9024608505 1.0006976797 0.744613485
0.9224532976 0.9997278904 0.7458680755
0.9126227573 0.999077025 0.9965155573
0.9025897153 0.249187744 0.2444994749
0.9224643432 0.2496361902 0.2453757553
0.912556484 0.2518374168 0.4987837043
0.9024903053 0.2503918449 0.7487040207
0.9224901161 0.2503182971 0.7470628359
0.9125859388 0.2511689781 0.9953557745
0.9424825633 0.9982504261 0.2445767938
0.9325857497 0.9996172433 0.4998229066
0.9426224736 0.9982178828 0.748573315
0.9324826579 0.9980616751 0.9962026
0.9424236537 0.2504081165 0.2455690524
0.9325489312 0.2488733761 0.4975650119
0.9426298373 0.2513694446 0.7450359773
0.9325747041 0.2493315853 0.9965707851
0.9623940097 0.0014241413 0.2485633172
0.9524935142 1.0002681086 0.4968682217
0.9724417791 1.0007627662 0.5010305535
0.9624529193 0.9994284923 0.7505164115
0.9524566957 0.9975019309 1.0007588898
0.9623682367 0.2495606899 0.244571271
0.9724491428 0.0019905894 0.9982276177
0.952522969 0.2507940797 0.4967126635
0.9725154161 0.2503117885 0.4983032229
0.9626038751 0.2489814197 0.7464792627
0.9525413783 0.2496166643 0.9952637282
0.9725853713 0.2503111376 0.9978962512
0.9824453664 0.001664636 0.2495896329
0.99244159 0.998927326 0.497967254
0.9825558219 0.9987125404 0.7470094491
0.982530049 0.2501113219 0.2495960762
0.9925446818 0.0015082331 0.9970770395
0.9925446818 0.2493654303 0.4986686465
0.9824564119 0.2507719502 0.7468851867
0.9924710448 0.2502701331 0.9974912476
0.0124376052 0.7505310821 0.999129671
0.0224101545 0.5025650603 0.747184337
0.0025111527 0.5012353424 0.7479915827
0.0125635613 0.5005675546 0.9991756942
0.0224839756 0.7494050851 0.246390105
0.0025146505 0.7515985013 0.2500599893
0.0124615004 0.7493074553 0.4991914693
0.0225266114 0.7520996676 0.7445462913
0.0224770169 0.4987698645 0.2474716486
0.0024815875 0.4992059443 0.2469101664
0.0023900199 0.7513511725 0.7482520736
0.0124318984 0.500318924 0.4974066923
0.0324996393 0.7513706984 0.9975464754
0.0424211213 0.5006944733 0.7498453943
0.032463189 0.49886424 1.0003630909
0.0425308405 0.7520475984 0.2498372374
0.0324698163 0.7505375908 0.4954589935
0.0425308405 0.7482986141 0.7473877592
0.04258165 0.500367088 0.2464223212
0.0324661345 0.4985759067 0.4962303412
0.0724904245 0.7511559129 0.9959540751
0.0624956737 0.5000566253 0.7479925031
0.0524247086 0.751097335 0.9998752457
0.0725117792 0.5003885666 0.9963682833
0.0524994501 0.4988961324 0.9979054558
0.062472478 0.7518718647 0.2480561423
0.0724690698 0.7490796525 0.4987606928
0.0524254449 0.75025121 0.5000631473
0.062462537 0.501353149 0.2457733951
0.0725003655 0.4984249059 0.4979764587
0.0624224049 0.7493855592 0.7473564635
0.0524589498 0.5014279985 0.4958998951
0.0925454631 0.7512014734 0.9961841908
0.1025531004 0.4989117532 0.744171663
0.0824174293 0.4978853385 0.7461506575
0.0924302212 0.5011663507 0.9949323617
0.1024312311 0.7499778466 0.2480423354
0.0824829662 0.7493269813 0.2497286228
0.0924342712 0.7513446638 0.4990064563
0.1023933081 0.7510517744 0.7482741647
0.1024584768 0.5005597442 0.2454319035
0.0823872381 0.4993849323 0.2468687456
0.0824111701 0.7502772447 0.7484831097
0.0925215311 0.5009372461 0.4955013348
0.1125452739 0.7491317217 0.9972887459
0.1225374474 0.4999440256 0.7471300297
0.1124226683 0.4988896238 0.9964051018
0.1225304519 0.7514683282 0.2479291185
0.1124605913 0.7492618947 0.4980629821
0.1225370792 0.5017534312 0.2479309594
0.1224413511 0.751715657 0.7470296993
0.1125791469 0.5001959105 0.497475727
0.1525382682 0.7493465072 0.9997371763
0.1424260664 0.5013948044 0.7492931168
0.1325877942 0.7507458677 0.9977305679
0.1524719949 0.4989664259 0.9997371763
0.1324523021 0.5003338939 0.9980711391
0.1424345346 0.7520085464 0.249207641
0.1525220681 0.748487365 0.4989383421
0.1323900788 0.7503488398 0.4959698502
0.1425070671 0.5010544018 0.249257346
0.142493076 0.7480643025 0.7478010469
0.1523876805 0.4978827351 0.5002417171
0.1324430975 0.4984444319 0.4970256208
0.1725321881 0.7478039564 0.9984577333
0.1624070997 0.4977974717 0.7456931876
0.1725248244 0.4981958013 0.9956595271
0.1625414873 0.7516961311 0.2470657246
0.1725064151 0.7492749121 0.4986217029
0.1623986315 0.5006925207 0.2465723566
0.1625598965 0.7479601641 0.7479289912
0.1724607602 0.4985420617 0.5003402066
0.1925761811 0.7499908639 0.9980435252
0.2024192397 0.5001763845 0.7483220287
0.1824209016 0.499656994 0.7470398244
0.1924241207 0.4979569337 0.9967088545
0.2024914039 0.7509997052 0.2475167512
0.1825111069 0.7504139264 0.2464757081
0.1924289071 0.7492033169 0.4977334565
0.2024950858 0.5008116291 0.2495859511
0.2025624636 0.7507328504 0.7464893878
0.1824683975 0.4999114823 0.2470611223
0.182485334 0.7481163718 0.7484370866
0.192395034 0.4996120843 0.5000714315
0.2124047859 0.749144739 0.9987430767
0.2224304642 0.4989534086 0.7464332395
0.2124235633 0.5007641159 0.9967732868
0.2225799473 0.7483897352 0.2487943533
0.2125296006 0.7501665976 0.4977178087
0.2224669145 0.5018829534 0.2493245397
0.222533556 0.7484483131 0.7500396119
0.2123804856 0.5009997291 0.4986336689
0.2525840818 0.7514032417 0.9986510305
0.2426051629 0.4997526712 0.7477900014
0.2325121067 0.7496589226 0.9960369168
0.2525619907 0.4985895748 0.9956411179
0.2326424442 0.5011481264 0.9985865981
0.2425528807 0.7492423688 0.2502468432
0.2525947592 0.7512209994 0.4989411034
0.2323931829 0.7506872898 0.4950944903
0.2425871219 0.5000598796 0.2466211411
0.2424626753 0.7490080573 0.7458119273
0.2524835673 0.5022201016 0.4955547216
0.2324060694 0.4994988337 0.4959689298
0.2725242466 0.7508500062 0.9986234166
0.2625346504 0.4997324944 0.7486543157
0.2724502414 0.4987945974 0.9985589842
0.2624930455 0.75058966 0.2493070509
0.2726214475 0.7520215637 0.4987137492
0.2624356086 0.498980094 0.246722392
0.2626079192 0.7508239715 0.748044049
0.2724148957 0.5012353424 0.499149128
0.2924412158 0.7506222033 0.9994978561
0.3025478949 0.4997188262 0.7461202823
0.2824921199 0.4991512716 0.7473095199
0.2924312748 0.5013804854 0.9955582762
0.3025364812 0.7494506457 0.2490391963
0.2825959481 0.7490080573 0.2459501239
0.2925671351 0.7492684034 0.4979801405
0.3024109301 0.4996504853 0.2468429726
0.3024201347 0.7505245735 0.7485042803
0.2825315157 0.4994708465 0.2465309358
0.2825421931 0.75025121 0.748720589
0.2925141165 0.4999134349 0.4960977945
0.3325903206 0.7499973726 0.9979238651
0.3225127281 0.4992983672 0.7455597206
0.3125069318 0.7499192687 0.997408406
0.3325943706 0.500691219 0.9979698882
0.3125179773 0.5014091234 0.997482043
0.3225248782 0.7526203598 0.2484399752
0.3324485693 0.7495612928 0.5011041905
0.3125916143 0.7480577939 0.4991067867
0.3223857043 0.5009756471 0.2468935981
0.3225565421 0.7504334523 0.749532437
0.3325785387 0.5009561212 0.4989447853
0.3125485367 0.4994239842 0.4950365012
0.3525798222 0.7502642274 0.9999028596
0.3425600348 0.4992840481 0.7499346792
0.3525337991 0.5006215764 0.9964235111
0.3425143799 0.7506026773 0.2490530033
0.3525776131 0.7494376284 0.4955685286
0.3424639385 0.4987594507 0.2463937869
0.3425872805 0.7487086592 0.7480468104
0.3524623712 0.4989599172 0.4978190596
0.3725579101 0.7511428955 0.995318956
0.3825246789 0.5004380324 0.7464065461
0.3624180944 0.5009971257 0.746667037
0.3725210916 0.5008825734 0.9960829399
0.38244736 0.7482205102 0.2461507848
0.3625138225 0.7491382303 0.2481877684
0.3725984105 0.7496849572 0.4956679385
0.3824657693 0.4999238488 0.2465880045
0.382520997 0.7495612928 0.7459794515
0.3625948232 0.4993406734 0.2481638364
0.3624954133 0.7497760784 0.7455891754
0.3725689557 0.4986898081 0.4988426139
0.3925135387 0.74865659 0.9971046534
0.4026091722 0.4987646576 0.7465952409
0.3925908576 0.4998483484 0.9969941979
0.4023993068 0.7510517744 0.2493742447
0.3925245843 0.7503813831 0.4983179503
0.4024398071 0.499985681 0.2505202206
0.4024250797 0.7494506457 0.7479566051
0.392432538 0.499599067 0.4972327249
0.4325867974 0.7504529783 0.9951624773
0.4226421197 0.4996530888 0.7482189369
0.4124213033 0.7497695697 0.9962394185
0.432498433 0.4986553122 0.9973255644
0.4126127595 0.4981398269 0.9983472778
0.4225022094 0.7510582831 0.2459114645
0.4323916593 0.7489039188 0.4972244407
0.4124176214 0.7498281476 0.4966049694
0.4225500735 0.4995307261 0.2462299445
0.4224506635 0.7500559505 0.7495361189
0.4324468871 0.5005831753 0.4965911625
0.4127011239 0.4996335628 0.4978512758
0.4525718808 0.751077809 0.997482043
0.4424762473 0.5004191573 0.7461681463
0.4524503797 0.4989098006 0.995318956
0.4424946565 0.7512535427 0.2480855971
0.452516653 0.7505245735 0.4960471691
0.4423547462 0.5010290181 0.2478481178
0.442457838 0.7495417668 0.7453286844
0.4524651071 0.4997207788 0.4960167938
0.472413372 0.7480577939 0.99681931
0.4825310967 0.5013336231 0.7486653613
0.4624613307 0.4990549435 0.7441615379
0.4725348731 0.4989892061 0.9988075091
0.4824537778 0.7515594494 0.2467214716
0.4625239221 0.7503162966 0.2449495811
0.4725716916 0.748337666 0.4967881415
0.4824169593 0.4995196614 0.2461102844
0.4824390504 0.7489885313 0.7487758168
0.4624650125 0.4987574981 0.2491570155
0.4625055129 0.7489624967 0.7448684532
0.4724280994 0.5008077239 0.4973330553
0.4924426377 0.501092152 0.9976017032
0.5025088164 0.751247034 0.2467849835
0.4924941836 0.7490275832 0.4945284059
0.5024167701 0.5011897818 0.2471743391
0.5025456349 0.7509606533 0.7456370394
0.4925641387 0.7501991408 0.9957515734
0.4924978654 0.5012522649 0.4976331261
0.5024278157 0.5008207412 0.747835104
0.5123909026 0.7513381551 0.9943892888
0.512479267 0.5004159029 0.9966628313
0.5125565858 0.7498086216 0.4983759394
0.5124387666 0.5005773175 0.4969326541
0.5225749005 0.4982732543 0.7477725126
0.5324459411 0.7516245359 0.9953373652
0.5325453511 0.5015392965 0.9977213633
0.5225159909 0.5015744432 0.2473446247
0.5224092172 0.7506677639 0.2473639544
0.5324459411 0.749144739 0.496886631
0.5324459411 0.4997455117 0.4947502373
0.5225196727 0.7514553109 0.7474034071
0.5425010743 0.4998073439 0.7450359773
0.5525967078 0.7515985013 0.99681931
0.5625119307 0.5002649022 0.7460880661
0.552445752 0.4994428593 0.9980987529
0.5424679377 0.4978228555 0.2470399516
0.5425452565 0.7485003823 0.2466183798
0.5624530211 0.499956392 0.2450784459
0.5626407954 0.7506677639 0.2483276788
0.5525856623 0.4988141234 0.4955896992
0.5524420701 0.7508304802 0.4988177615
0.5424495284 0.7497044832 0.7478535133
0.5625413855 0.7501796149 0.7470499495
0.5825043778 0.5013036833 0.747307679
0.5724529265 0.7516115186 0.9968653331
0.572537609 0.4995281226 0.9957975965
0.5824859685 0.5015191197 0.2462879337
0.5824712411 0.7499648293 0.2461029207
0.5725228816 0.4987900414 0.4958603152
0.5724381991 0.751077809 0.4993267773
0.5824417863 0.7489169361 0.7498140986
0.602445279 0.4996198946 0.7479262298
0.592485874 0.7479406381 0.9966996498
0.6125703673 0.7502577187 0.9963406694
0.592386464 0.5009873627 0.9972059042
0.6123605019 0.501043988 0.9990376248
0.6025152342 0.7510582831 0.2457844407
0.6024673701 0.4993868849 0.2492048796
0.5924122369 0.7512340167 0.4975788188
0.5925779202 0.4991773062 0.49588977
0.6123862748 0.7514488023 0.4951211838
0.6124635937 0.5002180399 0.4975999895
0.6025262797 0.7480252506 0.7471944621
0.6224819083 0.501189131 0.7489709549
0.6325370415 0.750270736 0.9966904452
0.6325664963 0.5019551994 0.9989455785
0.6223972258 0.7505506081 0.2468024723
0.6224193169 0.501870587 0.2463809004
0.6325296778 0.7484092612 0.498016959
0.6326033148 0.4994747517 0.4949481368
0.6224266806 0.7515334147 0.7449043512
0.6424228095 0.5007940557 0.7467866972
0.6524374424 0.7497565524 0.9951992958
0.6625846218 0.4984659104 0.7469919603
0.6524816246 0.4999492325 0.9989731924
0.6425811291 0.7507003071 0.2464131166
0.6425259014 0.5018523627 0.2463799799
0.6624447115 0.7485589602 0.24534538
0.6624373478 0.4998079947 0.24862867
0.6525368523 0.7503293139 0.4978567985
0.6525994438 0.4994376524 0.4972842708
0.6425222195 0.7515399234 0.7492940372
0.6625404396 0.7489494794 0.7458100864
0.6825328867 0.4996342137 0.7469220052
0.6725366631 0.7482465448 1.0000041105
0.6724777535 0.5003059067 0.9964327157
0.6825770689 0.7509997052 0.2500572279
0.6826102055 0.5017052672 0.2475397628
0.6724814354 0.7490471092 0.4958465083
0.6725072083 0.4995007863 0.4971793381
0.6825034319 0.7503097879 0.7474678395
0.7026321075 0.4993419752 0.7496051536
0.6925364739 0.7498541822 0.9974176106
0.7126393766 0.7514227676 0.9963866926
0.6924702006 0.4980688826 1.0002250215
0.7124847389 0.5001939579 0.9980803437
0.7025179701 0.7511494042 0.2502790594
0.7024296057 0.501590064 0.2463321159
0.6925953836 0.7504725043 0.497340419
0.6924407458 0.5011403161 0.4979276741
0.7125473303 0.4998782882 0.4977270133
0.7125141937 0.7488127977 0.4969418587
0.7025511068 0.7495352582 0.7472055076
0.7225877361 0.4996114334 0.7454860835
0.732477186 0.7480122333 0.9960461214
0.7424292273 0.5004289203 0.7490878536
0.7324735041 0.498419699 0.9972427227
0.7224551895 0.7482595621 0.2461434211
0.7225619631 0.5012001957 0.2497387479
0.7424844551 0.7513641898 0.2455948254
0.742436591 0.5000045561 0.2506951085
0.7325029589 0.4998021369 0.4973376576
0.7325950052 0.7511168609 0.4975383185
0.7225582813 0.75092811 0.7475322718
0.7425617739 0.749782587 0.7465013538
0.7525506338 0.5018022461 0.5005979361
0.752421769 0.749782587 0.9991204664
0.7625284481 0.5009938714 0.7505007637
0.7524291327 0.4993810271 0.9975832939
0.762506357 0.7490926698 0.2465705157
0.76243272 0.501990997 0.2459869424
0.7525359064 0.7512600513 0.4977896048
0.7625652666 0.7494701717 0.7501206126
0.7725467628 0.5006827577 0.4969980069
0.7725725357 0.7479080949 0.9998016087
0.7924839821 0.5012932694 0.4955887787
0.7924508455 0.7507653937 0.9978594327
0.7823773031 0.5008708578 0.7492894349
0.7725320354 0.498216629 0.9977121587
0.7925171188 0.5006970768 1.0008693453
0.7824398945 0.7482790881 0.2471752596
0.7824656675 0.498081249 0.2461728759
0.7725614902 0.750121037 0.4991040253
0.7925023914 0.7503488398 0.4994123803
0.7824141216 0.7505961687 0.7496346084
0.8124212015 0.5013642137 0.4971029397
0.812531657 0.7498997428 0.9990376248
0.802399205 0.499077073 0.7455910163
0.812384383 0.4994187773 0.9974452245
0.8024581146 0.7478885689 0.2455828594
0.8025722519 0.5004582092 0.2488072398
0.8124764292 0.750739359 0.4969078016
0.8025612064 0.7507003071 0.749926395
0.8324062849 0.5002583935 0.4968258804
0.832601423 0.7512925946 0.996128963
0.8225057895 0.5002186908 0.7499402019
0.8424319633 0.5003475621 0.7477789558
0.8325388315 0.4993139879 0.9995346746
0.8225205169 0.7508239715 0.247695321
0.822516835 0.4984646087 0.2465235721
0.8425313732 0.7506937985 0.2486792955
0.8423693718 0.5015288827 0.2463937869
0.8325241041 0.7478430083 0.4994169826
0.8224358343 0.7502381927 0.7481094019
0.8426381469 0.7508500062 0.7482327439
0.8524760509 0.4994662904 0.4979479243
0.8624906837 0.7491056871 0.7450350569
0.8624244104 0.4985075658 0.7490215803
0.8525570516 0.7501080197 0.9976845448
0.8524355505 0.5027798458 0.9986050074
0.862531184 0.7489104275 0.2462446719
0.8623912737 0.501377231 0.2490916627
0.8525644153 0.749802113 0.4958142921
0.8725053165 0.4982875733 0.4990690477
0.8825862226 0.7503878918 0.7482870512
0.8925529914 0.4986995711 0.4966960952
0.8724169521 0.7517937609 0.9956595271
0.8925898099 0.7496719399 0.9980711391
0.8824463123 0.4981430812 0.7454216512
0.8724574525 0.4986221181 0.9956042994
0.8924756725 0.4997839127 0.9992309219
0.8824205394 0.7480382679 0.2456390076
0.8824720853 0.4977968209 0.2460826705
0.8725200439 0.7504855216 0.4964558545
0.8924903999 0.7495938361 0.4980685049
0.9125454385 0.5009352935 0.4982700862
0.9025749879 0.7507849196 0.7445600982
0.9224385702 0.7523469964 0.748819999
0.9124718015 0.7506937985 0.9947482692
0.9025160783 0.5013895975 0.7489387387
0.9225011617 0.5001718284 0.7448859419
0.9124644378 0.5023092702 0.9951164542