POSCAR file written by Ovito 3.7.11
1
271.5907989081 0.0 0.0
0.0 15.3634956493 0.0
0.0 0.0 10.8636319563
Sr Ti O 
800 800 2400 
Direct
0.0122548718 0.2517121046 0.5456344656
0.0224229998 0.2496227364 0.7946800897
0.0024370134 0.2511920407 0.7993718907
0.0123703028 0.2511555907 1.045342116
0.022538394 0.0014307828 0.2942075017
0.002428103 1.0009471917 0.2939838196
0.0125458611 -0.0016116238 0.5443430007
0.022445681 -1.2081725465e-04 0.7955738976
0.002506493 -6.4384785124e-05 0.798551723
0.012545677 1.0007779594 1.0465019491
0.0223245428 0.2515838786 0.2940178782
0.0023229816 0.2513671311 0.2998768764
0.0323431444 0.2499182421 0.5400985638
0.0423637342 0.2502482451 0.794433395
0.0323784917 0.2520167228 1.0439337473
0.0422981945 1.0012986742 0.2942286732
0.0323041151 4.1135329994e-04 0.5415686062
0.0424149142 0.9996388957 0.791830214
0.0324245168 7.7897796876e-04 1.0447069693
0.0423250731 0.2522250088 0.2900275
0.0723625414 0.2507325099 0.5450030009
0.0524204078 0.2518390289 0.5463579806
0.0624218512 0.2509329851 0.7950759057
0.0724328678 0.250205937 1.0440257975
0.0522716546 0.2525777931 1.0433630357
0.0623916587 1.000511093 0.2947837362
0.0725705749 0.9998341637 0.5404594008
0.0523165751 0.0026578472 0.5427302803
0.062298872 1.0006282539 0.7944002569
0.0724074619 -0.0010564767 1.0426174287
0.0523500814 1.000914647 1.0418994368
0.0623485792 0.250450673 0.2947340291
0.0924931939 0.2511035192 0.5384425799
0.1023558255 0.2477455594 0.7853793328
0.0824895413 0.2495758721 0.7909437702
0.0924626332 0.249398829 1.035980606
0.102386018 1.000009905 0.2828917649
0.0823017588 0.9989554575 0.2911228979
0.092449378 -6.8468632441e-04 0.5402108651
0.1025388214 1.5776517852e-04 0.7851915502
0.0824195831 0.9984607784 0.7920143145
0.0924110851 0.9996714404 1.0365697275
0.1023584029 0.2496839204 0.2841565353
0.0824247379 0.2479199989 0.291701894
0.1125108087 0.2511588451 0.528026174
0.1222939089 0.2517576672 0.7763123835
0.1124699384 0.2501401968 1.0269504768
0.1225045199 5.3066208498e-04 0.2769241474
0.1124437961 0.9984282337 0.5334856741
0.1225001015 0.9997365297 0.7784037651
0.1123359133 -0.0013971544 1.0295278837
0.1224098922 0.2516828144 0.2742537697
0.1522279127 0.2479740231 0.517977969
0.1323951348 0.2486340291 0.523739394
0.1423236744 0.248427045 0.7701302889
0.1523376366 0.2480026624 1.0176073768
0.1323774611 0.2508347002 1.0263705602
0.1424658 -0.0012287682 0.2711921785
0.1523836617 0.9986235018 0.5165226546
0.1323903482 -0.0017382877 0.5245660052
0.1425007791 -0.0021344085 0.7689382382
0.1524322643 0.9980572244 1.0151956603
0.1324153858 -0.0010788674 1.0253303924
0.1423671221 0.2497919687 0.2714434757
0.1724163728 0.2489555705 0.5131480926
0.16240867 0.2487199471 0.7671671915
0.1724193184 0.2513990249 1.013952982
0.16233908 9.7196790202e-04 0.2630549367
0.1725507661 3.3643545401e-04 0.5111726943
0.1624134566 0.9994110829 0.7643384874
0.1725238875 0.0014995171 1.0126550735
0.1623276658 0.2503146362 0.2679455663
0.1924498202 0.2500783619 0.5072025672
0.20250318 0.2491703654 0.7585328783
0.1825967618 0.2498655197 0.758218987
0.1924814855 0.2501310843 1.0083931471
0.2024674645 5.760293644e-04 0.2547685736
0.1823412304 0.0012507456 0.2613197896
0.192570222 8.0504115867e-05 0.508255622
0.2025889708 1.001318201 0.7571576477
0.1825264355 0.9987276447 0.7643983201
0.1924660211 -9.0807298577e-04 1.0083287119
0.2025064938 0.2501779486 0.2549407075
0.1824023517 0.2520922265 0.2593084917
0.2125219288 0.2510149977 0.4988149487
0.2224114391 0.2490004822 0.7533394034
0.212456389 0.2492204842 0.9993630179
0.2225484099 0.9989619664 0.2501881533
0.2124372426 1.0002702624 0.5056855791
0.2224026023 0.9996519136 0.7537692781
0.2124817949 0.9987862251 1.0072977491
0.2224361086 0.2515663045 0.251565225
0.2524617944 0.2484927852 0.4944766206
0.2325572173 0.2514296169 0.5006191335
0.2425674975 0.2492367565 0.7442788977
0.252563786 0.248714089 0.9964726401
0.2324942549 0.2484745602 0.9970249416
0.2425943761 0.9991962881 0.2511482374
0.2525740957 -6.8253837574e-04 0.496666496
0.2325064055 -1.8792437815e-04 0.5027187997
0.2425045351 0.9981288227 0.7487028325
0.2525987651 8.303334687e-04 0.9997496289
0.2325572173 -0.0036331559 1.0011948178
0.2423848698 0.2486841479 0.2497960192
0.2725898695 0.2474116511 0.4913027281
0.2625420328 0.2465381519 0.7442724542
0.272700698 0.2490479974 0.9870190798
0.2626245098 1.0002312088 0.2454696576
0.2726745557 -0.0013528285 0.4901115979
0.2625302503 0.9991702523 0.7450493582
0.27261638 3.2550044261e-04 0.9913638515
0.2627323927 0.2474233671 0.2422101584
0.2925964383 0.250083569 0.4806939372
0.3025327101 0.2483984057 0.7277669244
0.2826237146 0.2499865859 0.7363570534
0.2926001203 0.2510859451 0.9843864428
0.3025647436 0.001315119 0.229909484
0.2826277648 1.0008430487 0.2363309092
0.292654614 7.9297217977e-04 0.4818307577
0.3026475888 2.8345272022e-04 0.727984163
0.2825975723 1.0008821023 0.7357117812
0.2926133755 -2.3546311954e-06 0.9799404159
0.3025411787 0.2496162275 0.2287358433
0.2825519154 0.2486210112 0.2346482307
0.3326290905 0.2480560357 0.470342887
0.3125470405 0.2489015464 0.4762571153
0.3226335383 0.2501291316 0.7225854161
0.3325421951 0.2489809554 0.9674676075
0.3125080112 0.2499052242 0.9760098703
0.3224229274 -0.0016956542 0.2233573474
0.3326368227 -9.3781882034e-04 0.4716214649
0.3125647142 -2.6414401115e-04 0.4784138526
0.3224420738 0.0016158318 0.7252696013
0.3324751825 0.001639329 0.9730182373
0.312573551 1.0000945212 0.978108616
0.3225182914 0.2488423151 0.2205037898
0.3525259354 0.249728832 0.4690864011
0.3425973958 0.247717571 0.7155601412
0.3526375003 0.2509844057 0.9675596577
0.3424018811 -5.6704241405e-05 0.2191911533
0.3524935337 -6.8208275026e-04 0.4686804595
0.3425086594 1.0008365398 0.7196066701
0.3523753412 0.0022838438 0.9675596577
0.3426025506 0.2489503634 0.2184243747
0.3724677008 0.2494066397 0.4635293277
0.3825195877 0.2500926815 0.7114188007
0.3625667763 0.2485923719 0.7112494282
0.372556069 0.2502534522 0.9694006626
0.3824459475 1.0004655305 0.2139516532
0.3623532197 1.0003548786 0.2152808588
0.3724345627 -4.0122218972e-04 0.4626226328
0.3822949851 -5.1031194626e-04 0.7112890098
0.3623200816 1.0002442267 0.7166518572
0.3723167384 -0.0016804883 0.9640065182
0.3825416798 0.2496930329 0.2093942455
0.3625704583 0.247583487 0.2129740796
0.3923616001 0.2483176949 0.4650978639
0.4023545748 0.2486112478 0.7094599714
0.3925457006 0.2487837346 0.9619998228
0.402395077 0.9981158048 0.2080328224
0.3923100519 1.0007714504 0.4614830507
0.402402441 -0.0015493333 0.7086536112
0.392339508 0.9981288227 0.958722834
0.4024318971 0.2495049247 0.2094577602
0.4325360097 0.2508802627 0.4491114976
0.412509558 0.2508060608 0.4575736767
0.4224804408 0.2500881253 0.7070059118
0.4325801938 0.2499182421 0.9502726214
0.412509558 0.2522399793 0.9600115375
0.4225062148 1.0003418607 0.2039605195
0.4325875578 1.0008039951 0.4497945104
0.4125500602 -0.0029583876 0.4554868977
0.422561445 1.0004915662 0.7050931077
0.4326759261 0.9990661094 0.9503738767
0.412502194 -6.8787570273e-04 0.9566977286
0.422572491 0.2495472327 0.2049739927
0.4526839677 0.2503979506 0.4463453877
0.4426873109 0.2494925577 0.6963023092
0.4526434655 0.2493168164 0.9438291041
0.4426541728 1.0014288529 0.1960653698
0.4526361015 -0.0010706011 0.4488270623
0.4424811183 -0.0012268156 0.694742978
0.4526913317 0.9992353417 0.950116136
0.4425989426 0.2502931567 0.1975722324
0.4725152728 0.2504370042 0.4432359303
0.4825745237 0.2505294311 0.6956386269
0.4626033022 0.2487075801 0.6973019748
0.4726551891 0.2520421077 0.9424115304
0.4824419714 -0.0022549475 0.1921210168
0.4625959382 2.6516261187e-04 0.1956106416
0.4725668209 0.9996584225 0.4467439652
0.4825745237 1.0003223339 0.6937792119
0.4625443901 8.0123852767e-04 0.6966419746
0.472592595 -3.7215076199e-06 0.9464065111
0.4825782057 0.2495387711 0.1956373362
0.4626438043 0.2504754069 0.1968459559
0.5124761258 -0.0024295366 0.4482830454
0.5123803935 -8.9564091924e-04 0.9428717816
0.4924864943 0.2480501776 0.4393109078
0.5025015611 0.2507416224 0.6924813034
0.4926043186 0.2475509423 0.9420801495
0.5125313559 0.248353494 0.4428493193
0.5124761258 0.2502300201 0.9414542078
0.5023542807 -0.0020107387 0.1924956613
0.4923686699 -3.3684881906e-04 0.4413489003
0.502464741 -0.0018083238 0.6934984587
0.4925380424 -0.0012214782 0.9456056739
0.5024279209 0.2501193682 0.1942344904
0.5223991424 1.0006217449 0.1921072092
0.532333205 0.0021022445 0.4495625438
0.5224065064 1.0002702624 0.6950881664
0.5322669288 1.0005826913 0.9494625792
0.5225574688 0.2492920825 0.1974921486
0.5324105272 0.2512057095 0.4469860574
0.5224838286 0.2490213108 0.6964946942
0.5324289372 0.2527750138 0.9472717834
0.5422930417 -0.0014338648 0.2022594309
0.5624004975 -1.7516686486e-04 0.2085897264
0.5523817487 -0.0010249735 0.4531432984
0.5423261798 0.9997625655 0.6972752803
0.5623599954 0.9990726183 0.7089629001
0.5523670206 0.0017543419 0.957599821
0.5424440041 0.2475971557 0.2015801001
0.5623857695 0.2493740951 0.2059773404
0.5524332968 0.2489347419 0.452990495
0.5424513681 0.2488898303 0.7028627302
0.5625514599 0.2508399073 0.7068659955
0.5524332968 0.2492289458 0.9524265972
0.5824564052 7.7379826897e-05 0.2112978446
0.5724818405 0.0010377081 0.4609243057
0.5824932253 0.9988708413 0.7140495967
0.5724450204 0.0019094499 0.9611345505
0.5825558195 0.2499195439 0.2102898944
0.5724302924 0.2491768743 0.45899033
0.5823238529 0.2489236767 0.711353445
0.5724008363 0.2490486483 0.9590265999
0.6024902209 0.9979205367 0.2176428681
0.5924677901 1.0015525227 0.4636204574
0.6125163337 -9.8572458455e-04 0.4687605432
0.602512313 -0.0014218233 0.7183244102
0.5925046102 0.0018337509 0.9648625855
0.6125421078 -0.0011298975 0.9710943872
0.6026522293 0.25202193 0.2176391861
0.5925082922 0.2501642798 0.4645428009
0.6124206015 0.2492003065 0.4673171953
0.6025528151 0.2495309604 0.7171056649
0.5924935641 0.2506980125 0.9655713724
0.6125236978 0.2499507867 0.9685261853
0.6225719027 -0.0025050728 0.215187888
0.6325685595 -0.0038239263 0.4694895812
0.6224798524 -0.0018160695 0.7182553725
0.632388141 0.997393313 0.9693454325
0.6225093085 0.2488227882 0.2201724089
0.6323770949 0.2492426146 0.468305815
0.6224467143 0.2484823709 0.7192624022
0.6324580992 0.2475978066 0.972134555
0.6422817015 0.9996454046 0.2207329949
0.6623376092 -0.0014322375 0.2232459666
0.6523814545 -6.9815982059e-04 0.4720209629
0.6424032078 0.998395689 0.7192936992
0.6623817933 1.0002442267 0.7230281777
0.6523519984 0.9987666983 0.9701830897
0.642484212 0.249515339 0.2198732456
0.6624075674 0.2471161454 0.226927056
0.6523004503 0.2475789307 0.4763178685
0.6425099861 0.248237635 0.7243067557
0.6623965214 0.2495185934 0.7269163802
0.6523593625 0.2483847369 0.9729261871
0.6824561111 0.9998667084 0.2247951723
0.6723121739 0.9995933331 0.4776884966
0.6824782031 2.453754484e-04 0.7289856697
0.6724336802 -1.7197748653e-04 0.9771144733
0.6825407973 0.24966179 0.2308272249
0.6724299982 0.2484433173 0.4795930162
0.6825223873 0.2475170958 0.73169747
0.6724557723 0.2478308265 0.9764240965
0.7026372071 0.0016069796 0.2361431267
0.6925300901 1.0000229229 0.4795451501
0.7125013116 1.0035833105 0.4917316822
0.7025635669 1.0003288428 0.7369866771
0.6926589604 0.999912271 0.983732886
0.7124203073 6.3947906765e-07 0.990802345
0.702578295 0.2515187893 0.240573505
0.6925521821 0.2492549816 0.4832096704
0.7125786338 0.2494945104 0.4897489199
0.7025635669 0.2522002748 0.7376890205
0.692515362 0.2498967626 0.9843404177
0.7126007258 0.2489757482 0.9905077842
0.7226415667 7.9527775564e-05 0.245215599
0.742539148 0.9982199478 0.2491424625
0.7325609013 -2.7859384764e-04 0.4966066633
0.7225973826 0.9988708413 0.7418174741
0.7426164702 -5.6570298613e-04 0.7485638366
0.7325682653 0.9991572345 0.997163017
0.7225568805 0.2505326856 0.2462787793
0.7426017422 0.2522920508 0.2473428802
0.7326087674 0.2512109166 0.4980095091
0.7225789725 0.2495771739 0.7458594004
0.742550194 0.2514309186 0.7475052588
0.7326161314 0.250505348 0.9964358201
0.7625619176 0.0015653224 0.2517419614
0.7526573111 0.0021273039 0.5000944471
0.7624809134 0.0014951561 0.7538346338
0.7527383153 1.0012400938 1.0006701314
0.7625803277 0.2513781963 0.250828823
0.7526425831 0.2525380885 0.4991113505
0.7626061018 0.2539407641 0.7512931265
0.7525836709 0.2511002647 1.0027044418
0.782496319 0.0017059155 0.2592808766
0.7725953945 0.9993264668 0.5065103493
0.7925960721 1.0015395048 0.5150157921
0.7824005868 0.0019039173 0.7585153888
0.7726285326 1.0007063611 1.0061471211
0.7925040218 2.2357051496e-04 1.0145144885
0.7825846873 0.2528869675 0.2576377797
0.7724591601 0.2512037568 0.5057012277
0.7924082896 0.2533230661 0.5095295974
0.7825846873 0.2535118253 0.7597378161
0.7725033443 0.2514250606 1.005014903
0.7924266996 0.2529540095 1.0124065378
0.8024712225 1.0024898094 0.2660005446
0.8123353269 0.0022128964 0.5197674258
0.8023975823 0.0022117248 0.7669683629
0.8124715613 1.0023596307 1.0207647002
0.8026700511 0.2534467359 0.2677283278
0.8124752433 0.2538991069 0.5180856678
0.8024969966 0.2527789192 0.7677581541
0.8124494693 0.2522634115 1.0196600973
0.8226560006 1.0018519337 0.2717748566
0.8424210295 1.0026395149 0.2740291671
0.8324759209 0.0014106051 0.5219480962
0.8226154985 0.0033786467 0.7705574021
0.8425093978 2.9666585899e-04 0.7727730515
0.832527469 0.0018336208 1.0198810178
0.822431398 0.2511933425 0.271363392
0.8424615316 0.2517817503 0.2732402965
0.8323912347 0.2504942828 0.5188386388
0.8224056239 0.252627261 0.7717862728
0.8424468036 0.2519444736 0.7757425924
0.8323728246 0.2540279838 1.0220902238
0.8625063933 7.8568217217e-04 0.281085739
0.8525134186 1.0017022282 0.5261152108
0.8625800335 0.9991116719 0.7825322186
0.8526422889 0.0021008776 1.0263705602
0.8625211214 0.2489445053 0.2784687505
0.8522777699 0.2503257014 0.5270651694
0.8626131716 0.2512356506 0.7820572394
0.8523293181 0.2518644137 1.0249161663
0.8826175312 0.9976406525 0.2829994637
0.8725693263 0.0016936136 0.5325568871
0.8925552758 0.0013708355 0.5349354655
0.8824702508 0.9992223238 0.7831194992
0.8726098284 0.0022882699 1.0332467136
0.8825696651 0.2498193062 0.2879766205
0.8924374515 0.0031136029 1.035253409
0.8724367739 0.2508145225 0.5319291044
0.8923895854 0.2512493193 0.5383477681
0.8824002926 0.2491905431 0.7838890393
0.8724073178 0.2518911004 1.0347655427
0.8924521795 0.2487375212 1.0341764211
0.9026403008 0.0013409594 0.2827960326
0.9225526102 0.0012803613 0.2892487549
0.9125117693 0.0012975448 0.5336532055
0.9025703426 1.0018454248 0.7866744797
0.922504744 1.0012270759 0.7854888725
0.9126001375 1.0014613976 1.0380333265
0.9024893384 0.2508926297 0.2855290044
0.9225747022 0.2497255776 0.2888695079
0.9125154513 0.2483710681 0.5383744627
0.9025482506 0.2517238207 0.7857917179
0.9225415641 0.2503243996 0.7892555686
0.9125375433 0.2505684847 1.0368550833
0.9423949613 1.0019170231 0.2908789648
0.9325419029 1.0002572445 0.5398399026
0.9426011539 0.9998797263 0.7883184971
0.9323946225 1.0005631645 1.0374257948
0.9425569697 0.2482760377 0.2941283385
0.9325308569 0.2505893133 0.5412722044
0.9427079321 0.2493552192 0.7926200051
0.9325971331 0.2466338333 1.0418626167
0.9625797394 -0.0022783471 0.296552942
0.9524910323 1.0000880122 0.5456445911
0.9726942205 0.9978489385 0.5491848436
0.9625024172 1.0000749943 0.7947343993
0.9525425805 0.9981874031 1.04496471
0.9626754716 0.2481771019 0.2967158709
0.9725653501 -0.0011128441 1.0475052968
0.9526751328 0.2511992005 0.5447314527
0.9726316263 0.250071202 0.5494140487
0.9626276055 0.2503797256 0.7985047774
0.9527635011 0.2505222713 1.0461061331
0.9726794924 0.2513599712 1.0484165943
0.982617237 -0.001017358 0.2999781316
0.9923782452 1.0019951303 0.5504827521
0.9826466931 1.0007519236 0.8004010125
0.9825509609 0.2514087883 0.3000591359
0.9924518854 -4.1723417069e-04 1.0527153408
0.9924482034 0.250970086 0.5489574795
0.9825730529 0.2504265899 0.7991132295
0.9924960695 0.2492361056 1.0453513211
0.0126943933 0.7512709404 1.0458760075
0.0224207538 0.4994962084 0.793698834
0.0023824829 0.5008708956 0.7964244418
0.0123376434 0.5000169232 1.046428309
0.0226007672 0.751108217 0.2930347815
0.0024420946 0.7499366087 0.3010459145
0.0126269389 0.7490058309 0.5456804907
0.022536958 0.7515573336 0.7953943996
0.0222251286 0.501534807 0.2950138618
0.0022931573 0.5015009605 0.296193946
0.0024288394 0.7487845271 0.7970816806
0.0122296132 0.4990496954 0.5461048424
0.0326218725 0.7487910361 1.0433078056
0.0423788305 0.5008403036 0.7889840204
0.0324491863 0.5012282361 1.0430224498
0.0424215418 0.7519934322 0.2899962029
0.0325416047 0.7480815621 0.5417628322
0.042432956 0.7509780383 0.791432557
0.0423913493 0.5010179975 0.2915518521
0.0324182574 0.5008975822 0.5447259297
0.0724759473 0.7485502054 1.0445044588
0.0623169139 0.501002376 0.7929302145
0.0524181986 0.7510366188 1.0433446257
0.0724976712 0.5004152701 1.0401873022
0.0524502321 0.499724672 1.0407396037
0.0624082277 0.7505679754 0.290206998
0.0723702736 0.7506786273 0.540553292
0.0523688596 0.7520389948 0.5415060121
0.062502119 0.5009750385 0.2955284227
0.0724144577 0.5008455107 0.5393041702
0.0623975499 0.7493703313 0.7916000884
0.0523703324 0.5014495399 0.5464813279
0.0925727253 0.7503857252 1.0380149164
0.1026485453 0.4991857322 0.7826969886
0.0824519848 0.5000318938 0.7930866999
0.0924931939 0.499559996 1.0373061295
0.1024854323 0.7483158838 0.2852850713
0.0824600852 0.7480294906 0.2898756171
0.092544742 0.7470140967 0.5374981443
0.1025841101 0.7483809731 0.7838605037
0.1023642941 0.4995346111 0.2824508442
0.0825650225 0.4990210561 0.2930918527
0.08242842 0.748901688 0.7914979126
0.0925049763 0.5004745014 0.5384416593
0.1124666246 0.7496827602 1.0287730717
0.1224456077 0.5002050315 0.7772153964
0.1124301727 0.5010746252 1.0298040344
0.122477273 0.7500342427 0.2772555283
0.112696382 0.7475022669 0.5310573886
0.1225435492 0.4983102804 0.2730055684
0.1224073148 0.7522993522 0.7761365675
0.1124706748 0.4997272756 0.5294980574
0.1523947078 0.7466235606 1.018445034
0.1423166786 0.5002349726 0.7700676947
0.1324190678 0.7489797952 1.0256617733
0.1524690844 0.4985016431 1.0174693014
0.132476139 0.5009216652 1.0216759977
0.1424974652 0.7490123399 0.2710117601
0.1524186408 0.7478797851 0.5203878445
0.1325066997 0.7455235505 0.5255334533
0.1424282435 0.4993347868 0.2698583705
0.1424554903 0.7498454836 0.770916398
0.1524517789 0.4976209841 0.5175333663
0.1323907164 0.499248218 0.5210607318
0.1726115193 0.7502946001 1.0192366661
0.1625121344 0.4981410481 0.7652755589
0.1725154188 0.4995118298 1.0151956603
0.16256626 0.7505549575 0.2677706709
0.1725529753 0.7486478395 0.5167168807
0.1624440173 0.4999778696 0.2636053972
0.1625861428 0.7493052419 0.7670953923
0.1725566574 0.4978038852 0.5155147044
0.1925691174 0.7505028861 1.0123236926
0.202593021 0.4995079245 0.755029446
0.1826604606 0.4985283297 0.7637438428
0.1924428244 0.4992742537 1.0094609299
0.2025528871 0.7510236009 0.2620920912
0.1825006614 0.7484004999 0.2637894977
0.1925160964 0.7499496265 0.5130348708
0.2024122343 0.4995398183 0.255855687
0.2025731381 0.7489797952 0.7611148878
0.1825271719 0.500672373 0.2673279092
0.1826148037 0.7495525815 0.7661463542
0.1926427576 0.4982159008 0.5104491794
0.2123985815 0.7485892591 1.0054475392
0.2225060667 0.4991160866 0.7498875192
0.2124781129 0.5004374005 1.0072149039
0.2226500333 0.7503857252 0.2539180293
0.2125616945 0.7487650003 0.506396207
0.2225771295 0.4999225437 0.2479504118
0.2225277906 0.7483679553 0.7547394877
0.2125436527 0.5001640252 0.5068095126
0.2525995015 0.7498259568 1.0001086249
0.2424636648 0.4984398082 0.7505337119
0.2324390247 0.7501253678 1.0038366599
0.2526948656 0.4993829529 0.9984609255
0.2325520624 0.5010472877 0.9999061143
0.2424736062 0.7484590804 0.2533463972
0.252543535 0.7503271448 0.5009836525
0.2324537528 0.7506525916 0.5079131951
0.2425674975 0.4985068502 0.251590999
0.2425697067 0.7485176608 0.7541034205
0.252686397 0.5006652132 0.4960331903
0.2325807821 0.5030442291 0.5018001382
0.272645836 0.7502685644 0.993434982
0.2626712713 0.4969642326 0.7448358017
0.2726053339 0.5009405412 0.9910969058
0.2626705349 0.7485567144 0.2502875675
0.2726009155 0.7506005201 0.4911720167
0.2627699492 0.497138672 0.2430597822
0.2626160412 0.7485371876 0.7479461795
0.2727146896 0.4986702245 0.4904448198
0.2925990157 0.7513034851 0.983705271
0.3025831536 0.4995053209 0.7292526154
0.2827614217 0.4988244863 0.7413728714
0.2926347312 0.5010245064 0.9804927173
0.3024708523 0.748999322 0.2296499023
0.2825390283 0.7512449047 0.2364128339
0.2925253755 0.7505940111 0.4801775353
0.3026004591 0.5000091125 0.2336172679
0.3026155553 0.7498129389 0.7291605652
0.2827382251 0.4988817649 0.2393639648
0.2824959488 0.7510496366 0.7379614892
0.2925231663 0.5006020765 0.4827208836
0.3324298938 0.7491295007 0.9663261844
0.3225514295 0.4999505321 0.7206431559
0.312427007 0.7503206359 0.976249201
0.3324107473 0.4993679824 0.9724843459
0.3126589736 0.501075927 0.9718860193
0.3223982579 0.749799921 0.2208241246
0.3324891741 0.7497218138 0.4710516738
0.3125510907 0.7486087859 0.4767615506
0.322588986 0.4973716919 0.2182909018
0.3224325006 0.7507567345 0.7255696851
0.3325355674 0.5006118399 0.4676366097
0.3125849652 0.4993725386 0.4727407959
0.3524316759 0.749598144 0.9638960579
0.3425602075 0.4994688709 0.7194860843
0.3524902199 0.5016526187 0.9672282768
0.3424151363 0.7489472505 0.2205378484
0.3524441948 0.7481791961 0.4654964415
0.3425403246 0.5000891724 0.2177174288
0.342392676 0.7489277237 0.7179405606
0.3524622366 0.5004510692 0.4672527602
0.3724713828 0.7483158838 0.962073463
0.3824164914 0.499590588 0.7122150353
0.3624931361 0.5005949167 0.7146267517
0.3724750648 0.5009327304 0.9629479404
0.3825416798 0.7486283127 0.2108707315
0.36246368 0.7495200368 0.2152771768
0.3724824288 0.7484655893 0.4596742634
0.3824680396 0.4991271518 0.2119237863
0.3825564078 0.7500342427 0.7118035707
0.3625446842 0.4999173365 0.2143842894
0.362467362 0.7498324657 0.712276709
0.3725008389 0.5013584148 0.460100456
0.3926524789 0.7485567144 0.9582533778
0.4026601817 0.5007290008 0.7113331939
0.3924426043 0.498728154 0.9599931274
0.4026270436 0.7491685543 0.2079122366
0.3926782529 0.7507176809 0.4579280702
0.4024466251 0.4986005789 0.2125883891
0.4025423574 0.7492922241 0.7104771266
0.3924426043 0.4992273894 0.4618807078
0.4325875578 0.7495200368 0.9503002365
0.4225430349 0.5017893063 0.7064499283
0.4126200183 0.7482312676 0.9593948008
0.4325507377 0.4990015293 0.9511747138
0.4124138258 0.499932958 0.9580876873
0.4225945831 0.7489928131 0.204536754
0.4326059679 0.7502164929 0.4492090708
0.4126494744 0.7484786072 0.4553699938
0.4225319889 0.5006567516 0.2051139091
0.422565127 0.7481726872 0.7035853247
0.4324255494 0.5001236698 0.4534019596
0.4124285538 0.4994135449 0.4577955178
0.4525587793 0.7495916351 0.943387263
0.4425363485 0.5010219029 0.6953799657
0.4526508296 0.4981827052 0.9469864276
0.4425731686 0.7508999311 0.1991775887
0.4525661433 0.750008207 0.4451367679
0.4426504908 0.5000169232 0.1972390105
0.4427057209 0.750411761 0.698119381
0.4525919174 0.5002115404 0.4461484001
0.4725594569 0.7497348317 0.9416751284
0.4824456534 0.5008689429 0.6938611366
0.462503888 0.5001093501 0.6952805514
0.4725263188 0.4998502945 0.9458818246
0.4824824735 0.7497738853 0.1956640307
0.4626364403 0.7504247788 0.1967861233
0.4726404611 0.7483614463 0.4471001997
0.4824603814 0.4997272756 0.19295131
0.4823646491 0.7508804043 0.6958135224
0.4625407081 0.499370586 0.1920400125
0.4625959382 0.7475478294 0.6955741917
0.472585231 0.4993289288 0.4474186936
0.4924644022 0.496992221 0.9458910297
0.5024279209 0.7510561456 0.1929632765
0.4923502599 0.7485111518 0.4395088159
0.5025199711 0.4988088648 0.1924514771
0.5024463309 0.7499170819 0.6925623076
0.4925306784 0.747886294 0.9414818229
0.4924459922 0.4992143715 0.4454874794
0.5024242389 0.4975845341 0.6929084166
0.5123840756 0.752221245 0.9412148771
0.5124908538 0.50064829 0.9454215734
0.5125055819 0.7483874821 0.4379283131
0.5124503517 0.4984586841 0.4440073114
0.5224580545 0.5006203015 0.6935610528
0.532355297 0.7506460826 0.9473178085
0.532325841 0.4993438993 0.9510458435
0.5224506905 0.4999420705 0.1934253687
0.5223991424 0.7499170819 0.1956566667
0.5324068452 0.7503922342 0.4444408681
0.5323773891 0.4988485693 0.4495257237
0.5224801466 0.7493312777 0.6968803847
0.5424476861 0.4992833662 0.697926996
0.5522491963 0.7509585115 0.9524081871
0.5623526314 0.5006528462 0.7048068314
0.5522933804 0.4992755555 0.9526843379
0.5424476861 0.5022234523 0.2014576733
0.5423445898 0.7480490174 0.2006697232
0.5624741377 0.5012737986 0.2056201854
0.5623599954 0.7496371977 0.2044686368
0.5523412466 0.4994949066 0.4534452232
0.5523927947 0.7495265457 0.4536946794
0.542410866 0.7494289117 0.7012288384
0.5624189076 0.7500472606 0.7062676689
0.5823385809 0.4989754936 0.7059206394
0.5722535559 0.7504638324 0.9581889426
0.5724192464 0.4991941938 0.9579864321
0.5824490412 0.5012321415 0.2092442036
0.582371719 0.7495851262 0.2109360871
0.5723235141 0.5008826116 0.4562131741
0.5724376564 0.7500537695 0.4588200371
0.582371719 0.7500863142 0.7106685911
0.602515995 0.4990496954 0.7133306843
0.5923757398 0.7493703313 0.961677647
0.6125126517 0.7487519824 0.9636567273
0.5923941499 0.4992820644 0.9615579816
0.6125457898 0.4986988638 0.9664642598
0.6023613506 0.7495655994 0.213311904
0.6024276267 0.5004224299 0.2145306493
0.5923867858 0.7493638224 0.4596705814
0.5923867858 0.4988049595 0.4622562728
0.6124316475 0.7490644113 0.464185646
0.6124426936 0.4989826534 0.4674166096
0.6024349907 0.7457188186 0.7127811443
0.6225719027 0.4988459658 0.7171010624
0.6323439569 0.7488756522 0.9669521261
0.6324765092 0.4967429287 0.9690784868
0.6225387646 0.7483223927 0.2181997721
0.6225093085 0.4994942557 0.2165382652
0.632406551 0.7496371977 0.4650895794
0.6324470531 0.4997878087 0.4681714216
0.6224982625 0.7482117408 0.7140311867
0.6424289819 0.4993380413 0.7209800598
0.6524550947 0.7486673663 0.9687379009
0.6625032996 0.5007472258 0.7268114429
0.6524182746 0.4977941218 0.9693270224
0.6423958438 0.7500798053 0.2196477225
0.6424252999 0.498587561 0.222469983
0.6625180277 0.7494158938 0.2242778499
0.6624149314 0.5007237936 0.2211223674
0.6523814545 0.7495070189 0.4731448965
0.6523556805 0.4992345492 0.4712284103
0.6424142538 0.7509259669 0.7202804779
0.662624806 0.749396367 0.7246657516
0.682422973 0.4997793471 0.7306333691
0.6725441405 0.7505875022 0.9763596613
0.6725367765 0.4987808764 0.9759730502
0.6825997095 0.7486218037 0.2307204466
0.6825555253 0.5010948029 0.2316832922
0.6723121739 0.7507241899 0.4757029728
0.6724741823 0.4979483836 0.4769143541
0.6824561111 0.7490904471 0.7298757956
0.7025525209 0.500825333 0.7388516151
0.692496952 0.750509395 0.9829228439
0.7125933618 0.7496697423 0.9902224284
0.6925705922 0.5008891206 0.984487698
0.7125712697 0.5004334951 0.9937847729
0.7025672489 0.7520455037 0.2384130857
0.7025267468 0.5005142059 0.2387444666
0.69249327 0.7500407516 0.4841274114
0.6926552784 0.5023757614 0.4843004658
0.7125970438 0.5018101349 0.495191851
0.7125123576 0.7514662085 0.4906528533
0.7026556172 0.7513555566 0.7357366348
0.7224206461 0.498924073 0.7441104457
0.732472533 0.7482573034 0.9953496271
0.742539148 0.4984339502 0.7503404064
0.732468851 0.5008572268 0.9986358209
0.7225347884 0.75261829 0.2441404521
0.7226121106 0.4988349006 0.2465742606
0.742553876 0.7496762513 0.2487070648
0.7424875999 0.499455853 0.2523817107
0.7325535373 0.5004100629 0.498934614
0.7325756293 0.7493768402 0.4993865807
0.7225016503 0.751511771 0.744220906
0.7426459263 0.7512383957 0.7482665143
0.752605763 0.5030097317 0.5011999706
0.752613127 0.7498650104 0.9999797545
0.7626134658 0.5011833244 0.7553479398
0.7527125413 0.5004113647 1.0024190861
0.7626392398 0.7522668075 0.2554653939
0.7625545536 0.5013297755 0.2538710836
0.7525137127 0.7512383957 0.5011162049
0.7626355578 0.7520910663 0.7536266002
0.7726395786 0.5032590239 0.508257463
0.7725143903 0.7504182699 1.0101144867
0.7924524737 0.5040147113 0.512930854
0.7924230176 0.7511602885 1.0139069568
0.7825478672 0.5025378339 0.7618632563
0.7726506247 0.5026445804 1.0088257832
0.7925297959 0.5023022104 1.0129036092
0.7825699592 0.7511342528 0.2607444756
0.7826215074 0.5021863514 0.2600706678
0.7726211686 0.7520715395 0.509554451
0.7924966578 0.7507502256 0.5150581352
0.7824668629 0.7518241999 0.7628104533
0.8124752433 0.5017072937 0.5212991419
0.8126593438 0.7510431277 1.0194852018
0.8025338167 0.4997259738 0.7696276946
0.8125341555 0.5007472258 1.0190985908
0.8023975823 0.7520780484 0.2653460674
0.8025080426 0.5021596648 0.2665583691
0.8125783396 0.7521040841 0.5209797276
0.8023718083 0.7504963771 0.7677627566
0.8324354188 0.501259479 0.5234844148
0.8325679711 0.7531455138 1.0242718146
0.8225344943 0.504133174 0.7702867743
0.8423694814 0.5010895958 0.7757205004
0.8324685569 0.5023249917 1.0208567505
0.8226302265 0.7516354408 0.272486405
0.8224866281 0.5020412021 0.270788078
0.8424652136 0.7500863142 0.2705036427
0.8425167618 0.5021479487 0.2766728502
0.8326526574 0.7533993623 0.5232091845
0.8224019419 0.7511798153 0.7695347238
0.8425646279 0.7510431277 0.7730344742
0.8525281466 0.5002850914 0.5305768863
0.8625505774 0.7501904572 0.782860838
0.8625432134 0.5007615454 0.783051382
0.8524913265 0.7526378168 1.0288651219
0.8524876445 0.4994389298 1.0303379259
0.8626131716 0.7514987532 0.2886918509
0.8624401172 0.5001920136 0.2851792135
0.8526201968 0.7506200469 0.5279405672
0.872462548 0.4999160347 0.5383873497
0.8824886608 0.7496502155 0.787704522
0.892632598 0.5015888311 0.5374631652
0.8725656443 0.7495721083 1.0341948312
0.8925773679 0.7526443258 1.0357228653
0.8824997069 0.4983239491 0.789377075
0.8724404559 0.5020997825 1.0410617796
0.8925074097 0.500562372 1.0386960882
0.8826396233 0.7487194378 0.2871398838
0.882540209 0.4985283297 0.2912591323
0.8724993681 0.7507892792 0.537389525
0.892610506 0.7511602885 0.5368703616
0.9125338613 0.5004673416 0.5410540453
0.9024819744 0.7514466817 0.7873722206
0.92247897 0.7489732862 0.7888376605
0.9125559534 0.7521952092 1.0394416952
0.9024562003 0.5016220267 0.789565778
0.9225931123 0.5012295379 0.7916571596