POSCAR file written by Ovito 3.7.11
1
271.583323036 0.0 0.0
0.0 15.3630727501 0.0
0.0 0.0 10.8633329214
Sr Ti O 
800 800 2400 
Direct
0.0125752659 0.2505095457 0.5444224661
0.0223487305 0.2518725543 0.7948833532
0.0023802731 0.250331196 0.7967722763
0.0124512524 0.2507445247 1.0447587846
0.0223313141 6.3934964045e-04 0.2930097533
0.002469233 0.9990798472 0.2995464213
0.012323704 0.0023026237 0.549019582
0.0223882027 0.0018737381 0.7922073789
0.002417352 6.2333721871e-04 0.7941947984
0.0122961987 0.9999065047 1.0455228227
0.0225034896 0.2507770703 0.2951739142
0.0024616478 0.2502309556 0.2979695571
0.0324226922 0.2520001329 0.5428649331
0.0424225698 0.2520469985 0.7893528222
0.0324650365 0.2501932027 1.0406716411
0.0425079948 1.0007396714 0.2888738219
0.0324602497 7.2182012149e-04 0.5434586735
0.0424258837 1.0028160789 0.7907888455
0.0323744566 0.0014475213 1.0407544886
0.0423515051 0.2509905693 0.2931809715
0.0725160966 0.2488347505 0.5377007721
0.0524051416 0.2493287923 0.5376344941
0.0623354273 0.2503787125 0.7876277531
0.0724372994 0.2495123493 1.0381862161
0.0524994036 0.2494524655 1.0394381339
0.062484921 1.0013580372 0.2872702625
0.0722557713 1.0000692326 0.5385053134
0.0525075043 -6.0616942409e-04 0.5390732791
0.0624694562 1.0004662886 0.7889643594
0.0723967962 6.5152168461e-04 1.0368422455
0.0524176607 1.0003426154 1.0385084008
0.0624359489 0.2513069122 0.2867731775
0.0924127528 0.2478857216 0.5333466756
0.102565438 0.2521277116 0.7796661081
0.082416189 0.2503754579 0.7867495695
0.0925014917 0.2494745965 1.0350840374
0.102516466 1.0000497052 0.2817875989
0.0825704695 1.0005964708 0.2867262305
0.0924020747 9.8674108269e-04 0.5321085657
0.1024030569 -1.4226483182e-04 0.7804384309
0.0824979319 1.00060298 0.7852840893
0.0925235843 0.9990538107 1.0345041049
0.1025908446 0.2498325978 0.2807317535
0.0823992513 0.2514540182 0.2859916494
0.1124379146 0.2483309451 0.5292217905
0.1225563563 0.2484806547 0.7781711709
0.1124651623 0.2492324574 1.02954246
0.1224252731 -0.0010033556 0.2744491512
0.1124323915 1.0007526896 0.5257661291
0.12232917 0.9999325412 0.7752843957
0.112548378 0.001555833 1.0296989497
0.1225777125 0.2479371436 0.2766593385
0.1526285268 0.2499725437 0.5161981631
0.1325256724 0.2502700103 0.5209572919
0.1426352769 0.2499582237 0.7681042789
0.1525732951 0.2495709314 1.0165814285
0.132519781 0.2476149425 1.0183764577
0.142447121 -0.0013055087 0.2693061624
0.1525000211 0.9993987938 0.5185694428
0.1324697043 6.5998353349e-04 0.5221438522
0.1423915212 -8.6286446901e-05 0.7699784735
0.152515486 0.9998153771 1.017824141
0.1324439295 -2.043617844e-04 1.020834267
0.1425196586 0.2489720928 0.2686719187
0.1725329154 0.2513056104 0.512898071
0.1624914299 0.2506742263 0.7640778902
0.1725181869 0.2488360523 1.0132951443
0.1626166217 -0.0021960792 0.2675949012
0.1724169289 2.1729865459e-04 0.5147731861
0.162554394 0.9990928654 0.7645915448
0.1725122956 -0.0016135851 1.0143261354
0.1626022614 0.2495481495 0.262242032
0.1925860613 0.2505049893 0.5067977332
0.2025653191 0.2496724736 0.7522260948
0.1824138608 0.251734561 0.7613825848
0.1925790653 0.2492181374 1.0067593968
0.2025815204 -0.0011160935 0.2556722251
0.1826841278 -3.7203657459e-04 0.2596240509
0.1924240484 -4.4107384773e-05 0.5084988686
0.2024821034 0.9981295164 0.7534126551
0.182478666 1.0017225477 0.7560057819
0.1926335605 8.8786763304e-04 1.008057341
0.2025027232 0.2488126195 0.2568735139
0.1825629863 0.2481512935 0.2609615778
0.2124551016 0.2470987697 0.5062389728
0.2226718556 0.2496503426 0.7529238548
0.2125747702 0.2480757878 1.0051208574
0.2224829633 0.9992035203 0.2548060084
0.2126038589 0.9981685711 0.504721943
0.2225161023 0.9984159175 0.753492741
0.2126535674 0.9991970112 1.001632057
0.2226574954 0.2476702699 0.2527964962
0.2526309853 0.2495702805 0.5002352905
0.2325281309 0.247074035 0.4993331732
0.2426115925 0.2492825776 0.7514721825
0.2525945324 0.2489838092 0.9967808754
0.2325638474 0.2499458564 1.0038965554
0.2424562074 0.9981685711 0.2497532313
0.2525374597 -1.3809899853e-04 0.4990266375
0.2325929361 -0.0021979213 0.5016575059
0.242516594 0.9995485034 0.7501061192
0.2525094756 -0.0025945347 0.9971674971
0.2324787906 9.9761130395e-04 1.0025157637
0.242701436 0.2496614081 0.2491898683
0.2725239594 0.2506377752 0.4925028569
0.2625627439 0.2521550498 0.7451886597
0.2724285927 0.2490690786 0.9976461716
0.2625019891 0.997647842 0.2463914637
0.2724624681 -5.4908448969e-04 0.4948704544
0.2625642167 0.9980774435 0.7480984481
0.2724282245 -0.0016367575 0.9963114063
0.2624283468 0.2513420614 0.247459276
0.2924600141 0.2494036471 0.4886614944
0.302566673 0.2503637415 0.7307059958
0.282445408 0.2497375647 0.7419244681
0.2925152458 0.2480432422 0.9833227589
0.3025103367 -0.0015002614 0.2302076644
0.28254998 0.9979667886 0.2401622521
0.2923966818 -0.0010718966 0.4880548666
0.3025084956 -4.0119740766e-04 0.730797128
0.2824995351 0.997875661 0.7426176255
0.2925774735 -5.5487760162e-04 0.9875019552
0.3025633591 0.2495058402 0.2299563603
0.2826184673 0.2502511338 0.2397130345
0.3324436916 0.2508265396 0.4686123988
0.3125245746 0.2495110475 0.4726562775
0.3224662749 0.2488835689 0.7217096775
0.3324771988 0.2485535568 0.9724697361
0.3124936448 0.2494114581 0.9745225131
0.322571215 8.3872381837e-04 0.2209848964
0.3324378002 2.9840222158e-04 0.4700732765
0.3125720738 1.0631825192e-04 0.472193252
0.3225104602 -0.001689221 0.7199643568
0.3325033418 -0.0023774948 0.9683181557
0.3124741296 1.0002710151 0.9729115895
0.3225877845 0.2492187883 0.2233745865
0.3524460244 0.2500656241 0.4694058938
0.342500642 0.2525403894 0.7222417426
0.3524007344 0.2479495109 0.9680051763
0.3425080062 -5.4400738036e-04 0.2218483514
0.3522987399 -8.3288188302e-04 0.4711097908
0.3424336276 0.998448463 0.7207900703
0.3525211394 -0.0031233416 0.9707207333
0.3424041707 0.2512170864 0.2216983054
0.3725451967 0.2497095755 0.4650969032
0.3825163538 0.2517104773 0.7142690513
0.3623972982 0.2510452458 0.7219968822
0.3724936471 0.2489519146 0.9616259186
0.3825126717 0.9994508667 0.2156651662
0.3624783046 0.9987999552 0.2214838224
0.3724789187 5.0760516244e-04 0.4690570138
0.382652592 7.0444078571e-04 0.7160567163
0.3624746225 0.9994508667 0.7219370479
0.3725157398 0.0011492737 0.9701039797
0.3824500758 0.2510263694 0.2151377037
0.3623972982 0.252330145 0.2214331934
0.3926053386 0.250161959 0.4583752091
0.4026759128 0.2507523357 0.7091564399
0.3925464248 0.2508441142 0.9595271152
0.402650138 1.0001408328 0.2067636623
0.3926237491 0.9990798472 0.462857259
0.4026427737 2.6455482604e-04 0.7101671794
0.3926789808 1.0015923654 0.9656394198
0.4026906412 0.2493912798 0.2074163165
0.4326998476 0.2482697594 0.451137099
0.4126249773 0.2477958958 0.4531733065
0.4228060148 0.2484084035 0.7017047673
0.4326593444 0.2489818565 0.950846538
0.4126360236 0.2466288116 0.9525311039
0.4227029157 0.9973874774 0.2021021095
0.4327035297 0.9982141349 0.4531871144
0.4126470699 5.7595086496e-04 0.4575743499
0.4227323725 0.9975892599 0.6988207537
0.4325893843 0.999750286 0.9549152709
0.4126875731 -5.9438792679e-04 0.9567287107
0.4225335385 0.2486023751 0.2056636316
0.4525390628 0.2487813758 0.4496347976
0.442612091 0.2491862427 0.7038901003
0.4526458441 0.2490215621 0.9508281275
0.4426157731 0.9976413328 0.2007562979
0.4526826652 1.8872364182e-04 0.4467480224
0.4427593755 1.2675687153e-04 0.7025286397
0.4526237514 0.9994248302 0.9448078756
0.4426857332 0.2481721227 0.201557157
0.4727096681 0.2489375945 0.4481518273
0.4825703619 0.2486642117 0.6957784093
0.4625838622 0.2506052297 0.6971039693
0.4725587015 0.2478792125 0.948066544
0.4827066 3.3459289834e-04 0.1956869512
0.4626317297 -7.3407352452e-04 0.197531689
0.4726581185 0.9997763224 0.4447108944
0.4825224945 0.9982857352 0.6950944571
0.4626832792 -0.0010918796 0.6978910206
0.4725807942 -1.6328927174e-04 0.9452313184
0.482607183 0.2506078333 0.1985792496
0.4625985907 0.2487306047 0.1970290808
0.5123844164 0.0014378227 0.4464718641
0.5124727871 -6.3695753579e-04 0.9490791246
0.4925562475 0.2518992416 0.4487161109
0.5025642258 0.2488477688 0.6994853748
0.4924347379 0.2514201708 0.9485452185
0.5123917807 0.2514234254 0.449448851
0.5124727871 0.2494394473 0.9490791246
0.5025053121 1.1165572583e-04 0.1972049016
0.4926667109 -3.6656891839e-04 0.4480128276
0.5025237226 0.0010650457 0.696231309
0.4924641948 2.171684723e-04 0.9483887288
0.5025568616 0.2497011137 0.1988793417
0.5223923947 0.9990863563 0.2001432263
0.5324445584 -0.0024927582 0.4491054941
0.5223739842 1.0002384695 0.6976967892
0.5323856446 0.9987023185 0.9509017697
0.5223040241 0.2501899482 0.1989548249
0.5323598698 0.2477770194 0.449183739
0.5223518915 0.2503904289 0.701876906
0.5323451414 0.2465982188 0.9491159457
0.5423678481 8.8650071899e-04 0.1989198449
0.5622659771 -1.0978435034e-04 0.2040637543
0.552331641 0.0015696974 0.4558354729
0.5423899408 0.9986307183 0.7020287931
0.5623506657 1.0001668693 0.7050969123
0.5523795085 -7.1350472262e-04 0.951012233
0.5422831595 0.2512372647 0.2025761813
0.562328573 0.2506071824 0.2072110388
0.5522911378 0.249617797 0.4529588235
0.5422868416 0.2505427422 0.7007317694
0.5622586129 0.24943424 0.7058535861
0.5522690451 0.2489206708 0.9555872562
0.5822966621 -8.0599924003e-04 0.2132147212
0.5723070944 -1.9310101627e-04 0.4596344912
0.5823040263 1.0005183615 0.7112865412
0.5724028293 -0.001121496 0.9598585052
0.5822414305 0.250771863 0.2138600111
0.5721966311 0.250389778 0.4590103733
0.5824623571 0.2510048893 0.7138244364
0.5723365513 0.2499243763 0.9594074466
0.602356804 1.0007591987 0.2175117449
0.5924592891 0.9973484227 0.4700208064
0.6124310603 -9.8649698583e-04 0.4700401375
0.6024009894 -6.1762546565e-04 0.7153746052
0.5923966932 -0.0027514694 0.9688796777
0.612486292 -0.0010835479 0.9681432555
0.6022684334 0.2470219621 0.2179812141
0.5923304152 0.2492018646 0.4654421011
0.6124347424 0.248559415 0.4698302571
0.6023936251 0.2491953555 0.7177642954
0.5922788656 0.2487638012 0.9624820095
0.6124126498 0.2481506426 0.9685022613
0.6224353565 -5.5377105215e-04 0.2229658722
0.6324249242 0.0015381282 0.4747872993
0.6224574492 -0.0013061596 0.7201733166
0.6326200761 1.0001147964 0.9762439001
0.6225200451 0.2492617484 0.2210474922
0.6325611623 0.2480321767 0.4732150379
0.6225605483 0.2491999118 0.722486603
0.6325280233 0.2492116283 0.9716780822
0.6425949154 0.9986502456 0.2238633868
0.662478316 5.1834520141e-04 0.2259750776
0.6525623905 -6.7340857714e-04 0.4775553265
0.642513909 0.9994769031 0.7241509173
0.6624599054 0.9986762821 0.7268839643
0.6526028937 0.9997828315 0.9778824396
0.6424881342 0.2480054893 0.2272417238
0.6625372298 0.2509313363 0.2269747708
0.6525771189 0.249470691 0.474179751
0.6425323195 0.249823485 0.7236427859
0.6625961435 0.248617997 0.7276802209
0.6525034767 0.2491465371 0.975875689
0.6823911734 1.0006810893 0.2369726233
0.6726041218 0.9993857755 0.4796688583
0.6823138491 1.9432148031e-04 0.7325461308
0.6725636186 1.4550312137e-04 0.9814817033
0.6824243124 0.2497121792 0.2345737278
0.6724236984 0.2506566517 0.477359254
0.6823690808 0.2522188392 0.7322819394
0.6724421089 0.2515425422 0.9814264717
0.7022267066 2.5609297716e-04 0.2413819514
0.6924617476 1.0003881792 0.4896842008
0.7124850684 0.9990342834 0.4931628754
0.7023850373 1.0015793471 0.7395228111
0.6923034168 1.000550907 0.9859922896
0.7125403001 0.0020438213 0.9925832687
0.7023261236 0.2500897078 0.2385531695
0.6923402379 0.2513531269 0.4879269132
0.7123525124 0.2524049998 0.4965633051
0.7023997658 0.2486980591 0.7409477881
0.6923365558 0.251918769 0.9879161927
0.7123341018 0.2518823179 0.9955933946
0.7223936297 0.0013595832 0.2453485057
0.742534778 1.0029137156 0.2465230992
0.7325083892 0.0015443769 0.4966894174
0.7224304508 1.0017941479 0.747433827
0.7424832285 0.0013026284 0.7475829525
0.732467886 1.0026403328 0.9954645207
0.7224230866 0.2503318469 0.2435488739
0.7424905927 0.249044344 0.2469566678
0.7323721511 0.2498729543 0.4952000034
0.7223678549 0.2510205112 0.743991053
0.7425237317 0.2495409894 0.7475967604
0.7323979259 0.249566375 0.9959339899
0.7624144965 0.0035430005 0.2523205833
0.7524875247 -3.7508747129e-06 0.4989253794
0.762561781 0.0025234779 0.7496661069
0.7523844255 1.001969894 0.9985759047
0.7625323241 0.2515594659 0.2505421236
0.7524175646 0.2501580535 0.4983841091
0.7626059663 0.2501196497 0.7525777364
0.7525280279 0.2520717332 0.9960168374
0.7825040953 0.002247166 0.255884867
0.7724482496 1.0035516088 0.5030189666
0.7923169217 1.0001147964 0.5065574755
0.7825298701 0.0013932353 0.7550226582
0.772330422 1.0031220073 1.0018161625
0.7925194378 0.0016700028 1.0088213791
0.7825298701 0.2512730648 0.2593589389
0.7726470836 0.253675579 0.5033034097
0.7926372654 0.2503858725 0.5131383287
0.7825409164 0.2506566517 0.755494889
0.7725439845 0.2533358032 1.0039425818
0.7926004443 0.2507399683 1.0100180653
0.8025347803 0.9987609005 0.2627860639
0.8126642683 -9.0322097907e-05 0.5169253801
0.8025716014 -0.0012177007 0.7625516551
0.8124912091 0.9996266128 1.0167931499
0.8024095885 0.2494986802 0.2638216577
0.8125758976 0.2483882253 0.52109353
0.8025347803 0.2505355821 0.7656427875
0.8125464407 0.2509137617 1.0196191703
0.8223371744 1.0003491245 0.2706574972
0.8425703756 1.0006159982 0.2754921092
0.8325255762 0.0014991386 0.524520655
0.822455002 -4.5327032387e-04 0.7717891517
0.8424562301 0.0026899811 0.7781490783
0.8324961193 9.8648071811e-04 1.0256394221
0.8225470548 0.250720441 0.2702754782
0.8424672765 0.2507764194 0.2747013758
0.8324961193 0.2522318574 0.526589081
0.8225728296 0.2499731947 0.7701487711
0.842518826 0.251014653 0.7748922509
0.8325439867 0.2499426018 1.0231355865
0.8624206371 0.0017162175 0.2776903296
0.8525636254 1.0013385099 0.5288692284
0.8624427298 1.0031740802 0.7759922816
0.8523721556 9.9526802272e-04 1.0284194161
0.8624537761 0.2537484811 0.2789045058
0.8526188571 0.2520033875 0.5250619254
0.8623690876 0.2519819074 0.7756516863
0.8524973474 0.2513199304 1.0259431963
0.8824329116 1.0032847351 0.285200916
0.8724543902 8.9574366162e-04 0.5311650247
0.8925550353 -4.1310908725e-04 0.5364258411
0.8825286465 1.0016509474 0.7827259425
0.8724396618 7.9140255577e-04 1.0310153045
0.8824476401 0.2512327083 0.2803580192
0.8926323597 -0.001611372 1.0353141693
0.8724065228 0.2503266396 0.528195402
0.8925513532 0.2492454757 0.5317026129
0.8825433749 0.2516232552 0.7830858689
0.8724580723 0.2497596957 1.025768296
0.8925034858 0.2516128406 1.0353233746
0.9025188283 8.9027600542e-04 0.2883288694
0.922704162 -1.7116530032e-04 0.2871404681
0.9127293227 8.366653337e-05 0.5392362125
0.9026550664 0.999411812 0.7866299009
0.9227078441 0.9993076662 0.7895958415
0.9126151773 0.9987804279 1.0359861546
0.9025556494 0.250249832 0.2871809713
0.922671023 0.2495488004 0.2894629597
0.9126851374 0.2522806758 0.5382475656
0.9025777421 0.2493470178 0.7893850406
0.922637884 0.2488978889 0.7879195604
0.9126151773 0.2491855918 1.0400456822
0.942801125 0.9998479227 0.2885000876
0.9326900476 1.0003295971 0.5381251354
0.9426980259 0.9996461401 0.7928572715
0.9328152394 1.0010000359 1.0394473392
0.9426538406 0.2518666961 0.2905335335
0.9327010939 0.2496880954 0.5392122788
0.9425470593 0.2495898078 0.7926032058
0.932539081 0.2526282625 1.0383795269
0.9625924728 0.0020649108 0.292801714
0.9527023221 1.0005704344 0.5418459088
0.9724715772 1.0004988341 0.5449738623
0.9626440224 1.000095269 0.7941036662
0.9527391432 1.0008828719 1.0423746176
0.9624783273 0.2514208217 0.2941364794
0.9725268089 3.0421976548e-05 1.0449797113
0.9525255807 0.2501222534 0.5416213
0.9724936699 0.2499321872 0.5451027362
0.9624856916 0.2496138915 0.7916891217
0.9524482564 0.2496835391 1.0410766734
0.9724163455 0.248912209 1.0461119605
0.9824721913 9.5152677311e-04 0.2970609962
0.9925759044 0.9986958094 0.5472208707
0.9824243238 0.9987934461 0.7962273238
0.9824574628 0.2483472178 0.2969265991
0.992561176 7.8521889697e-04 1.0467655352
0.9925317191 0.250088406 0.5474178636
0.9824206417 0.2499608273 0.7975786586
0.9924728053 0.2522077737 1.0501438723
0.0123435506 0.7494032322 1.0423193859
0.022398844 0.5013389249 0.7919864522
0.0024689384 0.499948578 0.7948014262
0.0125016605 0.5006274786 1.0473178519
0.0223791079 0.7492405043 0.293595209
0.0025357319 0.7498783975 0.2964617326
0.0123782361 0.7515121853 0.5429855222
0.0224341923 0.7497742517 0.7928425431
0.0226381076 0.4991909171 0.2910637576
0.0025949034 0.4989891345 0.2966476792
0.0025727371 0.7509458923 0.7986602788
0.0125835506 0.5013193975 0.5451598089
0.0323612009 0.7527228806 1.0398615767
0.042480379 0.5015400565 0.7925940006
0.0324263743 0.5007609155 1.0428440868
0.0424523949 0.7500997074 0.2914678693
0.0324304246 0.7534453923 0.5403187532
0.0425028399 0.7510109835 0.7882086061
0.0423953222 0.5004445725 0.2903752028
0.0323888168 0.5006873625 0.539880582
0.0724593921 0.7509133467 1.0343660257
0.0624816071 0.5003111357 0.7894927424
0.0524382806 0.7514015303 1.0374129727
0.0724789073 0.5003905469 1.0381401897
0.0523672158 0.5034218415 1.0387109169
0.0625416255 0.7514275668 0.2878207381
0.0725297204 0.7492990863 0.5380468906
0.0525108182 0.7505488363 0.5398373172
0.0624322668 0.5008207993 0.2854301274
0.0725065231 0.4998978069 0.5395556356
0.062442945 0.752124042 0.7877363753
0.0524622143 0.5019377634 0.5356802136
0.092467248 0.7485114835 1.0318345742
0.1023953245 0.5005780094 0.7797268629
0.0825178153 0.4993171939 0.784760309
0.0924816083 0.4997122971 1.0333994715
0.1024693349 0.7513624756 0.2802319069
0.0825034551 0.7503730902 0.2849008239
0.092500387 0.7521696058 0.5321463074
0.102424045 0.7516814223 0.7786056601
0.1026258247 0.4991010913 0.2814792221
0.0824128751 0.500544162 0.2845501028
0.0825682602 0.7497547244 0.7830306372
0.0924620931 0.4986298314 0.5330972126
0.1124670033 0.7503079991 1.0291834542
0.1224359512 0.4988225012 0.7736513794
0.1125277581 0.4989038651 1.0285114689
0.122456571 0.7494553051 0.2752601362
0.1122438674 0.7519352777 0.5270005569
0.1224322691 0.5002063389 0.2757029101
0.1224481022 0.7476132257 0.7785384615
0.1124622166 0.5000533747 0.5294583662
0.1524694596 0.7517139678 1.0179253991
0.1425977194 0.4980238328 0.7687081451
0.1324568169 0.7495529418 1.0206593667
0.1524377934 0.5008364212 1.01911288
0.1324708089 0.4991778988 1.0251239265
0.1423709013 0.7490973038 0.2707799274
0.1524606225 0.7499695251 0.5170680619
0.1323765469 0.7526252439 0.5204666506
0.1424088271 0.4989364107 0.2710284699
0.142405145 0.7481144275 0.7704368963
0.1524381616 0.5018642104 0.5187167272
0.1325429783 0.500316343 0.52660473
0.1723911541 0.7498393428 1.0112055461
0.1623967996 0.5012217608 0.7681272921
0.1723900495 0.5002356299 1.0145378568
0.1624373028 0.7489280668 0.2654206145
0.1725332836 0.7510305108 0.5092444961
0.162468969 0.5000488184 0.2676915566
0.1623684474 0.7498523611 0.7656381849
0.1724706877 0.5019293015 0.51066395
0.1924954813 0.7498198155 1.008121778
0.2025100874 0.4981305823 0.7570653094
0.182388086 0.5009763672 0.759863714
0.192562864 0.5010349492 1.0084807838
0.2024821034 0.7478996267 0.2547065914
0.182511805 0.7517595316 0.2589511451
0.1925286203 0.7497742517 0.5057105899
0.2026639997 0.4977302718 0.255438411
0.2024865219 0.7498783975 0.7549241618
0.1824558369 0.4997546064 0.2573687578
0.1824267482 0.7507441098 0.7564549995
0.19236403 0.5013669141 0.5072349839
0.212619692 0.7491428676 1.0034178809
0.2225680201 0.4990268874 0.7539437997
0.2125990722 0.4977940611 1.0020462945
0.2223691861 0.7473593702 0.255535987
0.2124304315 0.7488694848 0.5037572299
0.2224958507 0.4977055371 0.255869218
0.2225149977 0.7497807608 0.753574668
0.212539422 0.4977231117 0.504805711
0.2524207368 0.74831621 0.9995700747
0.2425976005 0.4988081811 0.7479907463
0.2325380726 0.7473398429 1.0023132475
0.2524424612 0.4996088022 0.9979407405
0.2325159799 0.4970715494 1.00189901
0.2424742497 0.7494032322 0.2509756922
0.2524616082 0.7478735903 0.4986446184
0.232472531 0.7469558051 0.4985930689
0.2425998097 0.4998092829 0.2476148452
0.2423667321 0.7494878507 0.7491441677
0.2524023262 0.4983915978 0.4999112647
0.2325730527 0.4965996386 0.4985405988
0.2723965583 0.747346352 0.9952804151
0.2625152447 0.5020536256 0.7451610439
0.2724617317 0.4986740934 0.9957775001
0.262355441 0.7499499978 0.2466197546
0.2724956071 0.747574171 0.4951070301
0.2624022038 0.5017834974 0.2465369071
0.2623782701 0.7500931983 0.7479253889
0.2724539993 0.5001464551 0.4951668644
0.2924732697 0.747177115 0.9868207646
0.3024992904 0.5001191168 0.7299971894
0.2823412043 0.4999765672 0.7379597549
0.2924902074 0.4979593926 0.9870416913
0.3025519445 0.7503145082 0.2320367532
0.2824741285 0.7467735499 0.2445089844
0.2924357122 0.7475611528 0.4923187514
0.3023943502 0.4998314139 0.2280821657
0.3024665196 0.7492925772 0.7317277816
0.2824292067 0.4993471358 0.238949917
0.2824501948 0.7479647179 0.7448931703
0.2925163504 0.4992156517 0.4863205922
0.3325946582 0.749448796 0.9744488709
0.3225391807 0.4992514518 0.7231457009
0.3125650778 0.7495985056 0.9765844954
0.3326163826 0.4999010615 0.9693031205
0.3124535098 0.498904516 0.9782782666
0.3225888892 0.7499304705 0.2260100576
0.3325011326 0.7489020304 0.4706753016
0.312527152 0.7503145082 0.4754427151
0.3225340257 0.5011846588 0.2232217789
0.3225564866 0.748993158 0.7221303587
0.3325548914 0.4985647402 0.4733936203
0.3125591864 0.4998288103 0.4763457529
0.3525800532 0.749793779 0.9736019853
0.3424752354 0.499125175 0.7186295915
0.3525402864 0.4988491886 0.9702880852
0.3424862817 0.7498393428 0.2209480752
0.3524758495 0.7510174926 0.4753258081
0.3424104303 0.4989064688 0.2214782993
0.342659341 0.749448796 0.7226642649
0.3524692217 0.4999921891 0.473119303
0.3725157398 0.7512388025 0.9714479503
0.3826378635 0.5002167535 0.7158707697
0.3625298542 0.4992267172 0.7196605826
0.372357409 0.5001458042 0.9709968917
0.3824795327 0.7501778168 0.2180815517
0.3624525298 0.7492990863 0.2222579863
0.3725304682 0.7509068376 0.4703208984
0.3825347644 0.500624875 0.2153779615
0.3824574401 0.7498914158 0.7174908986
0.3625114436 0.4999492289 0.2208514198
0.362459894 0.7499890525 0.7247777967
0.3724862829 0.4992462445 0.4705657588
0.3924506899 0.7502429079 0.9646452498
0.4024218471 0.4982536046 0.7071938746
0.3926090207 0.5016116568 0.9636879009
0.4024733966 0.749676615 0.2122251538
0.3923439087 0.7480558455 0.4655194254
0.4025691315 0.5004406671 0.2055540888
0.4025249462 0.7494748324 0.7100686829
0.3925611532 0.5003391249 0.4638210516
0.4325451989 0.7499565069 0.9539211009
0.4225998165 0.4967812429 0.6991862032
0.4124740107 0.7499825434 0.9526139514
0.4326519802 0.4995658421 0.9542432856
0.4126617984 0.4989878327 0.9568575846
0.4225593133 0.7498718884 0.2061699219
0.4325820201 0.7496831241 0.4520447394
0.4124924213 0.7490647582 0.456250631
0.4225298564 0.4981748443 0.2030972001
0.4226034987 0.7506009092 0.7059152615
0.4327440329 0.4983733723 0.4517207136
0.4126397057 0.4991967753 0.4585160499
0.4525685197 0.7497807608 0.9520340189
0.4426010447 0.4976573697 0.702025111
0.4525537913 0.4996934207 0.9492632302
0.4426084089 0.7497807608 0.2028348496
0.4525059238 0.7502884717 0.4507403515
0.4425863162 0.4996348387 0.2000585378
0.4424206212 0.7496505785 0.7018851907
0.4525243344 0.4976365405 0.4498050953
0.4725145162 0.7492470134 0.9478456174
0.4825519514 0.4992215099 0.6947096765
0.4625617696 0.4989572399 0.6997523278
0.472507152 0.4998392249 0.9475510485
0.4825924546 0.7489736306 0.1945298478
0.4624549884 0.7491558858 0.1972693385
0.4725034699 0.7508808012 0.4430051564
0.4825777262 0.5000403565 0.1977139535
0.4826513684 0.7475806801 0.696299428
0.4625728159 0.5001087022 0.201239575
0.4624844452 0.7508742921 0.6982003179
0.4724703309 0.5001627279 0.4471235978
0.4925341549 0.5020757566 0.9480757493
0.5025421332 0.7477694444 0.198941017
0.4926409361 0.7498849066 0.4469661875
0.5024537625 0.5008338176 0.1985166537
0.5025642258 0.7487783572 0.6995378448
0.4924494663 0.7506660004 0.9470907846
0.4925930687 0.5004771181 0.4481720789
0.5025900006 0.5015107655 0.6969806186
0.5125722041 0.7475936983 0.9488397874
0.5124911977 0.4989643999 0.9467501893
0.5124433302 0.7504316723 0.4528649297
0.5125096082 0.5009249452 0.4499818366
0.5224071232 0.4993627577 0.7001674859
0.5324077372 0.7489085395 0.9489042244
0.532466651 0.5001939716 0.9490515088
0.522432898 0.5001236732 0.1999913392
0.5225249507 0.7498067973 0.1989787587
0.5324261478 0.749338141 0.4505516433
0.5324224657 0.5009255961 0.4495547117
0.5224071232 0.7497547244 0.6981947948
0.5423126164 0.499610104 0.7017259394
0.5524678792 0.7487197751 0.9524758722
0.5623690762 0.4998763268 0.7064767834
0.552431058 0.5006502605 0.9543721595
0.542297888 0.4966679843 0.2004184641
0.5424193976 0.751382003 0.2047808454
0.5622402023 0.498434558 0.204286522
0.5624022152 0.7516618949 0.2075442699
0.552331641 0.5011651315 0.4527977312
0.5523279589 0.7494813415 0.4539888941
0.542364166 0.7506399639 0.7013678541
0.5623469835 0.7510565473 0.7067280875
0.5823960791 0.5010382038 0.7139266149
0.5725427495 0.7496505785 0.959122083
0.5723439155 0.5026082022 0.9577504965
0.5823371653 0.4993979069 0.2112365069
0.5825028603 0.750190835 0.2132230059
0.5723770545 0.5006359405 0.459049956
0.5723402334 0.750470727 0.4582306863
0.582458675 0.7498718884 0.713000564
0.6023752146 0.4990880731 0.7157326905
0.5924813817 0.7495985056 0.9654092879
0.6125047025 0.7484919561 0.9697817949
0.5924298322 0.5007693773 0.9640192909
0.6124678814 0.4994545362 0.9678026602
0.6025482738 0.7493251228 0.2190968938
0.6024304463 0.4981702879 0.2159486887
0.592488746 0.7502689444 0.4663340925
0.5924703354 0.5014307034 0.4634003704
0.6125709805 0.7490322126 0.470089846
0.6124641993 0.4998873923 0.4657127363
0.6025850949 0.7527684444 0.7187676707
0.6224758597 0.4976892643 0.7210505796
0.6326532151 0.7476978442 0.973887349
0.632616394 0.5013662631 0.9746790029
0.6225568662 0.7503470538 0.2197016806
0.6225752767 0.4970656912 0.2205356788
0.6326568972 0.7482185733 0.4736927918
0.632616394 0.4984247943 0.473783924
0.6225421377 0.7498718884 0.7247244061
0.6426538292 0.4977276681 0.7253420802
0.6525366157 0.7500150889 0.9764832374
0.6625077729 0.4982112953 0.7253236697
0.652647079 0.5006144604 0.9795578002
0.6426354186 0.7488304301 0.2256989192
0.6425838691 0.4984592926 0.2237667314
0.6626035078 0.7499565069 0.2287780847
0.6625372298 0.4973188957 0.2300649826
0.6526360327 0.7493446501 0.4737296129
0.6527391318 0.5003274085 0.4795381433
0.6426538292 0.7480558455 0.7255832585
0.6624856802 0.7500476345 0.7278808959
0.6825310937 0.50049274 0.7335504267
0.6724826121 0.7486742113 0.9791619733
0.6725378438 0.5009542362 0.9822457414
0.6825016368 0.7509133467 0.2326047188
0.6824206303 0.4999010615 0.2332233135
0.6725893934 0.7480818819 0.4785080727
0.6725599365 0.5010232328 0.480519426
0.6825642327 0.7508287283 0.7342491073
0.7024991828 0.5006932207 0.7420929247
0.6924912045 0.7506725095 0.9890116208
0.712437201 0.7518441501 0.9957775001
0.6924322907 0.5000846185 0.9874835446
0.7124740221 0.500698428 0.9944519401
0.7024476332 0.7493316319 0.2390566982
0.7024623617 0.5014326561 0.2421524332
0.6925096151 0.7504316723 0.4877372845
0.6924065159 0.4978864905 0.4873276496
0.7124777042 0.498904516 0.4927624458
0.7125403001 0.7499434887 0.4950683679
0.7024770901 0.7493055955 0.7426793009
0.7226292848 0.501426147 0.7485301756
0.7326041241 0.7520003689 0.9988888841
0.7425568707 0.5028184466 0.74698553
0.7326041241 0.4995788603 0.9970662391
0.7225593247 0.7487913754 0.2470652901
0.7224746361 0.502808032 0.2457038295
0.7425126854 0.7510760746 0.2496694633
0.7425936918 0.5016357405 0.245192016
0.7325194355 0.4998965051 0.4964675702
0.7325267998 0.7515707673 0.494294204
0.7225777353 0.7495138871 0.7470444438
0.7423801294 0.7494683233 0.7486148642
0.7524617499 0.4990190764 0.4994602061
0.7524433393 0.7530157907 1.0011257667
0.7625175956 0.5017086426 0.7508195283
0.7523881077 0.501565442 0.9979315352
0.7623629469 0.7517204769 0.2495645231
0.7624918208 0.5022762373 0.2502300647
0.7525280279 0.7512778572 0.4993018753
0.7624255428 0.751212766 0.7528419279
0.7724740243 0.499779341 0.5010306265
0.7724114285 0.7542460134 1.0002236494
0.7925673053 0.4992150008 0.5102819309
0.7925341663 0.7520980056 1.0092264114
0.7824414994 0.5014912381 0.7532966686
0.7724740243 0.4997995193 1.0001960336
0.7924531598 0.5000644402 1.0108281297
0.7824230889 0.7527228806 0.2567207062
0.7823862677 0.5010336474 0.2553086166
0.7724372032 0.7532371006 0.502074505
0.7925047094 0.7532175733 0.5083948489
0.7824562279 0.7517074587 0.7530122255
0.8125169838 0.5005708493 0.5166372549
0.8123291962 0.7517595316 1.0203095661
0.8024795487 0.5034381143 0.7623519006
0.8124948912 0.5013662631 1.0186802319
0.8026194689 0.7504381814 0.2661745268
0.8024427275 0.5006821552 0.2641825046
0.8124764806 0.7510109835 0.5188667732
0.802590012 0.7522477152 0.7649652791
0.8325734436 0.5013786305 0.5241791392
0.8325476688 0.7508222191 1.0259524016
0.8224991873 0.4999427198 0.7737093727
0.8425777398 0.5022456445 0.775591852
0.8325366225 0.5005174746 1.025271211
0.8224034524 0.7513169118 0.2727802343
0.8224660483 0.5007726319 0.2735028486
0.8426292894 0.7536992478 0.2824347299
0.8424341375 0.5006476569 0.2747013758
0.8324298413 0.7505944001 0.5272684305
0.8226612002 0.7520459327 0.7750910849
0.8424967334 0.7530613545 0.779465433
0.852482619 0.5024910381 0.5243098542
0.862483233 0.7536081202 0.7762610757
0.8623690876 0.5019559889 0.7736200815
0.8524789369 0.7504446905 1.0273976302
0.8524421158 0.5037622682 1.0236234662
0.8624316835 0.752521098 0.2723503478
0.8624795509 0.502660926 0.2721432291
0.8524936653 0.7530678637 0.5283509712
0.8725022577 0.5023771286 0.5253500506
0.8825396928 0.7510240017 0.7809539265
0.8924040688 0.4994057178 0.5336163903
0.8724249333 0.7524234613 1.0288612694
0.8924961216 0.7482381007 1.034807879
0.8823482231 0.5030710002 0.777178842
0.8725427609 0.4995710494 1.0228410176
0.8924887573 0.5001008913 1.0317425214
0.8824218653 0.7523909157 0.2828489674
0.8823960905 0.5022873028 0.2749977858
0.872480165 0.7515252035 0.5259575989
0.8925182142 0.7498783975 0.5361386364
0.9125341708 0.4998112357 0.5321601153
0.9026918875 0.7487458116 0.7851275995
0.9226305198 0.7509589105 0.785588784
0.912640952 0.7479191541 1.0354982749