POSCAR file written by Ovito 3.7.11
1
271.6540398379 0.0 0.0
0.0 15.3670730965 0.0
0.0 0.0 10.8661615935
Sr Ti O 
800 800 2400 
Direct
0.0225943663 0.499936878 0.7664295036
0.0124080279 0.2513723026 0.5200011786
0.0224458318 0.2518161086 0.7697222946
0.0024263615 0.2514913884 0.7735893455
0.0125319723 0.250316799 0.0228239598
0.0223655091 -5.7203162234e-04 0.2653592817
0.00259032 5.0344969387e-04 0.2718178641
0.0024809161 0.4991963336 0.2698650126
0.0125023758 0.4976547258 0.5209776044
0.0125211129 -9.6494964661e-04 0.5218785665
0.0224200269 -0.0014096017 0.7667442421
0.0026117075 1.95258279e-04 0.7691738029
0.0225494195 0.2522416939 0.2701098093
0.0024015505 0.2497428446 0.2725246455
0.0323898032 0.4976072216 0.0159298971
0.0424283066 0.5004197286 0.2611673691
0.0325186436 0.49942995 0.5155110926
0.0323629308 0.2497421939 0.5172255895
0.0424529703 0.2471021335 0.7674178931
0.0325028146 0.2484537247 0.0194863507
0.0524130652 0.498721292 0.0123993035
0.0423395908 2.4647167501e-04 0.7633354947
0.0423955443 0.2526633747 0.2665657795
0.0524149057 0.2522156642 0.5146064494
0.052524236 0.2502256952 0.0120795034
0.0624990554 0.2503154976 0.2633429304
0.0624375802 0.4995178002 0.7580097871
0.0722754607 0.499591334 0.0112661527
0.0624486236 0.5004067138 0.2580595559
0.0722706752 0.4999746211 0.5112087454
0.0724863908 0.2522397417 0.5105893915
0.0623532818 0.2491311471 0.7613936867
0.0726557238 0.2498612796 0.0100188861
0.0925600845 0.2513749056 0.5046995472
0.1025809184 0.2498228859 0.7530273469
0.0824575291 0.2503259094 0.7603463987
0.0925151745 0.2510599464 0.0048283688
0.1025117127 -3.8045317526e-04 0.2523510084
0.0924761543 0.0031632275 0.5050952711
0.1026118401 0.2501794925 0.2541142806
0.0824895551 0.2475504948 0.2605121239
0.1023961245 0.5015051663 0.7540212581
0.0824151958 0.5004848028 0.7568198545
0.1025499967 0.499861392 0.2519580454
0.0824825609 0.5004730894 0.2556355169
0.1225250356 0.251926084 0.2443334578
0.1123827237 0.500797159 -0.0012828416
0.11256899 0.2521785719 0.5001643671
0.1225603746 0.4997013094 0.246170353
0.1124408859 0.4994911197 0.5006364749
0.1225717862 0.2509102758 0.7484535147
0.1125270249 0.2526750881 -0.0010947439
0.1224035575 3.7128399209e-04 0.249430934
0.1523718216 0.2480105694 0.4941999794
0.1325576491 0.2501248302 0.4947659566
0.1424971295 0.2496328692 0.742380533
0.1524314563 0.2497968562 -0.0080721728
0.1323934697 0.2520809606 -0.0080992762
0.1423241153 -8.0141818007e-04 0.2410323842
0.1424978657 0.2507072443 0.2405860444
0.1423800688 0.5011218792 0.7413636146
0.1524815199 0.4999557495 -0.0066090922
0.1323868436 0.4998724546 -0.0053114491
0.1525238532 0.4989334338 0.49292446
0.1324637797 0.4999329736 0.4957672302
0.1824056102 0.2485786671 0.2422140342
0.1725493238 0.4992672645 0.4925305767
0.1824807057 0.5020914848 0.7445413697
0.1725798774 0.2509115772 0.4899408857
0.1623569483 0.2489938405 0.7402712325
0.1725224514 0.2519208781 -0.0101347991
0.1824869636 0.5021546068 0.239834169
0.1624898379 2.7301766799e-05 0.7409430429
0.1624173192 0.2483834445 0.2425849103
0.1823930943 0.2502888171 0.7440517763
0.1824726072 -0.0010894366 0.2380708968
0.1924433773 -0.001088005 -0.0115808847
0.2023217506 0.2497883965 0.2418551218
0.2024671561 0.4996577097 0.7423161129
0.1924676729 0.4981024363 -0.009972948
0.202371078 0.4990674867 0.2418799696
0.1924849744 0.4995828744 0.4903274068
0.1925192091 0.2516853095 0.4936965818
0.2023604027 0.2483769371 0.7444705075
0.1924639918 0.2499055301 -0.0073244672
0.2025985733 -1.4111026481e-04 0.2390362791
0.2122906802 0.2499985862 0.4963037582
0.222470908 0.2514705646 0.7428747278
0.2123948568 0.2510326153 -0.0029703832
0.2224882094 0.0010086207 0.7424900473
0.2225066151 0.2499758102 0.2453641806
0.2325392287 0.2533726835 0.4980228565
0.2324946867 0.2505783973 1.0005627785
0.2324759129 0.0013765502 0.4956705999
0.2225504209 0.5041959845 0.7445643769
0.2124040597 0.5001360051 -0.0078299879
0.2124824682 0.4999518451 0.4915707161
0.2425994509 0.503316832 0.752542355
0.2623370554 0.2501573673 0.7555112047
0.2624416001 0.0012219339 0.2523841388
0.262543568 0.0022335775 0.7523444931
0.252471198 0.2495918725 0.502556196
0.2424654569 0.2498690885 0.7505269239
0.2524730386 0.249832647 1.0022837174
0.2623723944 0.2496602004 0.2529234277
0.2424842308 5.4880641181e-04 0.249424492
0.2624927681 0.5008583287 0.2564370879
0.2524435894 2.2148318191e-04 0.5008536629
0.2424794453 4.8444802724e-04 0.7538298382
0.2524097228 0.0026691842 1.0009953139
0.2424698743 0.2507124502 0.2495422889
0.2723623066 0.2505901107 0.5027641811
0.2723553124 0.2505360991 1.002237703
0.2724841528 -2.6201812985e-04 0.5049875974
0.2724524949 5.144472338e-04 1.0069127669
0.2825355402 0.2499341627 0.7529086297
0.2725110252 0.5002830728 0.5046029169
0.2824954156 0.2504267744 0.2570748476
0.3123620799 0.0031000405 0.5058996029
0.2924783336 0.5012962781 0.5055305674
0.2926528203 0.2500883886 0.5048016992
0.3024686139 0.2514874839 0.7541270913
0.2925372321 0.2523926661 1.0057624067
0.2923771019 0.0012837544 0.5056833352
0.302440269 0.0021036894 0.7551117996
0.3123974189 0.5029576224 0.5044142578
0.3025341384 0.2525683664 0.2568641016
0.3124334942 0.2533928565 0.5024623266
0.3125310448 0.2529796353 1.003010745
0.3225997336 4.7442660032e-04 0.2511868439
0.3324203128 -8.3955166172e-04 0.4973989011
0.3225971568 0.0017513776 0.7502379534
0.3323496347 -1.3056824428e-04 0.9989246656
0.3224318731 0.2540644223 0.2540213314
0.3224775194 0.500423633 0.7524972609
0.322476415 0.5011843505 0.2527899859
0.3324644866 0.2496771197 0.5009650178
0.3224587455 0.2518115534 0.7504514603
0.3325892777 0.253192428 1.0004155324
0.3625177853 0.2498215844 0.2475360607
0.3524881167 0.5013457345 0.4976970745
0.3525598992 0.2510241556 0.4961003745
0.342480535 0.2495294012 0.7496167589
0.3624809738 0.5016639473 0.7461813232
0.3524943746 0.2520458206 0.9942403988
0.3624699303 0.5017283708 0.2450190725
0.3425883928 -0.0024215055 0.2468844967
0.342589129 0.2497324327 0.2464933742
0.3624809738 0.2508048556 0.7462162941
0.3425596798 0.5016938814 0.7526748765
0.342544587 0.5010411872 0.2487710874
0.3825542994 0.2525631605 0.2434573435
0.3925670347 0.2522124105 0.4920133747
0.3925191797 0.2499204972 0.9892616397
0.3924455567 0.0014379152 0.9892616397
0.3824880387 0.4997709388 0.7421108886
0.3923535279 0.4985807317 0.9918752582
0.3725084337 0.2530798496 0.4921008021
0.3825285313 0.251805046 0.7419470773
0.372563651 0.2508549627 0.9895193204
0.3924492378 0.4983777002 0.4895506836
0.3725967814 0.0021599135 0.4971826334
0.4124526216 0.4985215142 0.9832889695
0.4025024658 0.2527284489 0.7356983206
0.4024987847 -9.2421319693e-04 0.7393794733
0.4024435674 0.251479675 0.2360784729
0.4125740996 0.2516566768 0.4828813552
0.4126145923 0.252821505 0.983012883
0.4124747085 -4.5912788399e-04 0.4826963772
0.4125740996 -0.001185421 0.9834730271
0.4426159867 1.4300369578e-04 0.7262644465
0.4424908275 0.249343289 0.2249659932
0.422564748 0.4992041425 0.7301913162
0.4325774833 0.4995269106 0.9797366572
0.432544353 0.4983607809 0.477701053
0.4424761029 0.5002212523 0.7258015416
0.4425902187 0.4974178557 0.2269372505
0.4325369907 0.2487185767 0.4847845111
0.4225905161 0.2492443762 0.7311925897
0.4325406718 0.2498215844 0.9775739799
0.4225794726 0.0020721935 0.2339001508
0.4326216572 -7.9198242095e-04 0.9784574566
0.4226457334 0.2501137675 0.2291974783
0.4424871464 0.2511874919 0.7254048974
0.4724149178 0.2496602004 0.4745012111
0.4625273416 0.2497994592 0.7253423178
0.4726652362 0.2499920788 0.976948184
0.4725290335 -0.0017075114 0.979672237
0.4626046458 0.2495560816 0.2288597325
0.4523968094 0.5006552972 0.9724939892
0.4525182875 0.5007125625 0.4761061936
0.4626304139 0.4998770098 0.7249548765
0.4725327147 0.5001659392 0.9774727482
0.462486849 0.5000234267 0.2241524585
0.4525293309 0.249302943 0.4766252362
0.4525146063 0.2468821827 0.978733543
0.4526103163 -3.8090869466e-04 0.4756350061
0.4826153919 0.2501144183 0.727702857
0.4825675369 0.0044591802 0.728855978
0.492333635 0.5005713515 0.9776844145
0.4924956057 0.501263741 0.4784814574
0.4824902327 0.2519495107 0.2298932161
0.4926281272 0.2531748579 0.4781372696
0.4925287361 0.2502979275 0.9767273148
0.4825491311 0.5018982144 0.2248288703
0.5024236745 0.2503525899 0.7304775258
0.5124953083 0.2508022526 0.4832237024
0.5124327287 0.2538295044 0.9839423741
0.5025930075 -0.0017479289 0.7330580138
0.502556196 0.2523340993 0.2292195652
0.5225190871 0.249464327 0.2358382777
0.5226552897 0.2509174339 0.7323457108
0.512535801 0.5011036584 0.4814052129
0.5226258405 0.5007867471 0.7371146441
0.5425850504 0.498511753 0.7414059478
0.5524174092 0.5012292517 0.9953723532
0.542504065 0.4995444806 0.2424606714
0.5525241627 0.4986392985 0.4965973301
0.5325796774 -4.2724152561e-04 0.4900218711
0.5325318224 0.2496231081 0.4911160937
0.5325980831 0.2486652158 0.9913506939
0.5324876485 0.499841219 0.9872001942
0.5525646553 -0.0016987914 0.9961085838
0.5424451666 0.2492417733 0.240661508
0.5525793799 0.249915942 0.4984489499
0.5425629635 0.2491923169 0.7413120785
0.5525131192 0.2508074585 0.9952895273
0.5724171118 0.2521024351 0.5030264633
0.5725275464 0.2508425986 1.0062317537
0.5624964053 0.499672026 0.7504744675
0.5624227822 0.5025313864 0.2487572831
0.5724428799 0.5013320689 1.0029003105
0.572372938 0.5024838822 0.5039669978
0.5626031587 0.2481791116 0.2480955959
0.5626399702 0.2489151008 0.7514122412
0.6023448832 0.5011244822 0.7574364475
0.5924425824 0.5040046663 1.0060200874
0.5924941186 0.5013047377 0.5076352664
0.5824224848 0.2516690409 0.7573876723
0.6025510277 0.2508861983 0.2548394676
0.5924352201 0.2508406464 0.5087911484
0.6024185062 0.2504977053 0.7588233218
0.5924720317 0.2504911979 1.0070139986
0.5824077602 0.5009839219 0.7569128036
0.5824408906 0.5030200937 0.257312282
0.5823525429 0.2513306551 0.2583798162
0.6125343138 0.4992522974 1.0090294297
0.6125637631 0.5000188715 0.5071438326
0.6225028753 0.4974497421 0.7521282254
0.6124938212 -0.0012106048 0.506570493
0.6223961219 0.4984753115 0.2526510224
0.6124386039 0.2504209178 0.5103942904
0.6123612997 0.2491207352 1.005348277
0.6225212811 7.753947789e-04 0.7542292433
0.6223593104 0.2502810082 0.2561987333
0.6224071654 0.2493738739 0.755675016
0.6425173025 1.3037930083e-04 0.2540599836
0.6526183855 -0.0033001959 0.4997281505
0.6323941326 0.5001835092 0.5031102095
0.6425062591 0.249726576 0.2516202996
0.6525852551 0.2470377101 0.5016082992
0.6425136214 0.2490472014 0.7534617229
0.6324567122 -8.8985401892e-04 0.5042412437
0.6524895452 0.2476741358 1.000682416
0.6424620852 0.4972968177 0.7496259618
0.652485864 0.4988254107 0.502223972
0.6324419876 0.2507619066 0.5024531237
0.6326297264 0.2484211876 1.0010781399
0.68242836 0.4972193794 0.7445192827
0.6626458454 -0.0017459637 0.24897079
0.6825756061 0.4975317356 0.2456439482
0.6626163962 -8.9447428717e-04 0.7486955505
0.6725371027 0.4964859932 0.4974835676
0.6625022805 0.2468092996 0.2482612478
0.6625574978 0.2451381942 0.7462945186
0.6725775954 -0.0039969128 0.9954827878
0.6627121062 0.4986106658 0.7469801333
0.6625759035 0.4997878581 0.247224083
0.6825645626 0.2476246794 0.244337139
0.6725665519 0.2481439715 0.4947622755
0.6825093454 0.2461715725 0.7433900891
0.6726033635 0.2475283695 0.993053227
0.7026894244 0.2486990544 0.2391973296
0.6925220807 0.2479038477 0.4908961449
0.7025716275 0.2496641048 0.7400080301
0.6925331241 0.2487543675 0.9935317769
0.6924852691 0.4986269344 0.9926114887
0.6925073561 0.4971152607 0.4945496889
0.7324846743 0.4977783668 0.9846694018
0.7326392827 0.4988891834 0.4820917479
0.7125070586 0.2491317979 0.4863701676
0.7125365079 0.2487719375 0.9870989625
0.7224535332 -0.0026152834 0.2358318357
0.7324220947 -3.670478899e-04 0.4821800956
0.7324441816 9.1380760395e-04 0.9808225972
0.7126174932 0.4993798429 0.9866204127
0.7227333008 0.2509746992 0.2346879175
0.7325582974 0.2487869046 0.4833092892
0.7226486343 0.2519527645 0.7329715067
0.7325435727 0.2509571292 0.9789912237
0.7124555225 0.4986926593 0.4858410019
0.7124849717 -1.7339134933e-05 0.4867134351
0.712466566 0.0016354805 0.9853412121
0.7525579999 0.4990128244 -0.0230732961
0.7423906562 -0.0021534583 0.2311788587
0.7424201054 4.7540271333e-04 0.7308299962
0.7424863662 0.2498163784 0.2304085775
0.7425489458 0.2488428684 0.7309836843
0.7625817787 2.3677561909e-04 0.2309607504
0.7524586088 -3.8214510448e-04 0.479562796
0.7625044745 -0.0029728857 0.7297790271
0.7524991015 -0.0021961861 -0.019042618
0.7625486483 0.248369779 0.2280600021
0.7525101449 0.24887931 0.4814070535
0.7625633729 0.2482669617 0.7298572516
0.7524659711 0.2478335675 -0.0194985288
0.7824673655 -0.0017074463 0.2314724306
0.7825409886 -7.3536786628e-04 0.7336009839
0.7725540213 -0.0020077377 -0.0206728165
0.7825152205 0.2479129581 0.2312837716
0.7725797894 0.2493439397 0.4827469931
0.7825962059 0.2476051571 0.7331840933
0.7725245721 0.2477977767 -0.0170990338
0.7924801009 -1.7813748505e-04 0.4865965585
0.7924801009 6.5149350063e-04 -0.0173899829
0.8125755134 0.4997689866 -0.0093743557
0.7924432893 0.2467006257 0.4833829122
0.7926383904 0.2487517645 -0.0124610391
0.8023971262 -0.0022664272 0.2360425817
0.8124613977 0.0018090985 0.489433807
0.8023308655 -7.0790655355e-04 0.7367308839
0.8123877746 -2.9422985923e-04 -0.010755561
0.8025922273 0.2486300758 0.2396179013
0.812590238 0.2487244334 0.4880377298
0.8026106331 0.2509382577 0.7397531103
0.8125092527 0.2487140215 -0.0099679324
0.8325604914 -0.0012647465 0.4940306464
0.8223968288 -2.3898186277e-04 0.7405657247
0.8325199987 -0.0011133188 -0.0091042024
0.822426278 0.2514263142 0.2449104785
0.832648839 0.2509916185 0.4933974881
0.8226066545 0.2505829525 0.742006896
0.832527361 0.2526750881 -0.0043158538
0.8224189157 -9.1158880198e-04 0.2427054681
0.8424443864 -0.0011085684 0.7442119065
0.8425364152 0.2511783815 0.2464666858
0.8425290529 0.2529360356 0.747442118
0.8625766104 -7.9504090839e-04 0.2494861513
0.842580589 0.5014394413 0.7428738075
0.8525197013 -9.555138875e-04 0.4987581667
0.8625140308 -0.0019695131 0.7467638656
0.8524239913 -4.8802082914e-04 -0.0061586296
0.8624183209 0.2517295599 0.2503245339
0.8425364152 3.6659864964e-04 0.2431048731
0.8526411793 0.2515467014 0.4974090243
0.8624256832 0.2502419637 0.7518162477
0.8524939332 0.2515506059 -0.0010877589
0.8725488531 6.234465201e-04 0.4995201653
0.8925964106 0.0022747044 0.5043019827
0.8725083604 2.6195933479e-04 0.0028998129
0.8825726318 0.2474671998 0.2494751079
0.8924896572 -3.6197210224e-04 0.005585766
0.8725046792 0.2494662792 0.5034405929
0.8925227876 0.2484524232 0.5053676764
0.8825358203 0.2495690965 0.7560532544
0.8725856646 0.2508354404 0.0032159319
0.8925117441 0.2479240207 0.0054595024
0.9025392041 0.0016354805 0.2601081174
0.9124562294 -6.8005479562e-04 0.5127612716
0.9025833779 0.0011950583 0.7611516509
0.9026570009 0.2483203226 0.2586098883
0.9126218813 0.2504580101 0.5099727984
0.9025428852 0.2495489235 0.7571189481
0.9025355229 0.499023887 0.7579472075
0.9125077655 0.2511614622 0.0090928922
0.9225683558 0.0016009912 0.2621815267
0.9225830805 8.4482895113e-04 0.7614249765
0.9225793993 0.2509200369 0.2646617033
0.9225315443 0.252173366 0.7655128965
0.9425275657 -4.9433302661e-04 0.2668400254
0.9326620765 2.4503576165e-05 0.5185093915
0.9428110145 0.0025242639 0.7650757597
0.93257741 -0.0015419626 0.0177332017
0.9425202034 0.2494858015 0.2691517893
0.9325626854 0.2499614939 0.511306296
0.9425238846 0.2490511058 0.7673589946
0.9325258739 0.2512473601 0.0120425078
0.9526065618 -0.0018982568 0.5170065609
0.9526544168 -0.0022510241 0.0177972538
0.9625125437 0.2495404638 0.2721510085
0.9526433733 0.2487413526 0.5174473789
0.9725952209 0.2486177117 0.5221702978
0.9625603987 0.2485760642 0.7708882998
0.9524519534 0.2491597798 0.0167410391
0.972403801 0.25136124 0.0219230897
0.9626450652 6.0880482492e-04 0.2726709713
0.982409174 0.5004958654 0.7723046233
0.9824165363 0.5022808507 0.2714000533
0.9826558112 -2.6976195974e-04 0.2686934858
0.992414547 4.6733351244e-04 0.5229599051
0.9825416955 0.2520464713 0.2772981802
0.9923961413 -8.9512502918e-04 0.021419416
0.9924918512 0.2529887457 0.5243780692
0.9825674636 0.2473611288 0.7741663662
0.9925470685 0.2518017923 0.0223339064
0.0124365568 0.750490121 0.0211814295
0.0025232494 0.5015220856 0.7746292712
0.012475577 0.5001262439 0.0202066603
0.0225423516 0.7485118653 0.2680483638
0.0024747318 0.747932705 0.2691085358
0.0124652698 0.7495920971 0.5175568932
0.0224130328 0.7496766935 0.7691664406
0.0224502492 0.4998522816 0.2678955959
0.002427429 0.7513686228 0.7727472819
0.0124295626 1.0006743933 0.0202144827
0.0523622653 1.0014617912 0.5118925195
0.0523504856 1.0011559424 0.0109983488
0.0325116494 0.7507439104 0.0183486905
0.042384869 0.4995405761 0.7611111582
0.0424993529 0.7503534652 0.2653325934
0.0324888262 0.750815492 0.515809266
0.0425122369 0.7496116193 0.7638048417
0.0525006766 0.7505942398 0.0062058561
0.052485952 0.7521690354 0.5082040045
0.0524484042 0.4998770098 0.513628183
0.0424673268 1.0008175566 0.2634588867
0.0323747105 0.9998284287 0.5186649202
0.0325260059 1.0001928443 0.0165989466
0.0725099502 1.0003685446 0.5064526961
0.0623341398 1.0000236513 0.7596184508
0.0725003792 1.0010062718 0.0105803539
0.0724238112 0.7506528065 0.0080842563
0.0624905888 0.7502233168 0.2594924446
0.0725154719 0.7516289196 0.507250586
0.062497583 0.7499174681 0.7583245256
0.0623761049 1.0015268654 0.2576297814
0.0824645233 0.9988913602 0.2590948801
0.1024852084 1.0004075891 0.7548780464
0.0823971582 0.9997112952 0.7564130871
0.0926053627 0.9991451496 0.0041187346
0.0924676876 0.7516549492 0.0051692435
0.0923962732 0.4998418697 0.0080458803
0.1024248375 0.7497938271 0.2526215731
0.082594468 0.7488112067 0.2578248825
0.0924010587 0.7488502512 0.5053308649
0.1024575998 0.7498979458 0.7528764196
0.08244759 0.7511213408 0.7552461617
0.0923554124 0.5023452742 0.5054284154
0.1124710713 0.9989043751 -0.0010548862
0.1124994162 0.7492537112 0.0010652184
0.1223903054 0.5004229823 0.7475433497
0.1224112879 0.7479001679 0.2474173435
0.1124033381 0.7500606313 0.5011242276
0.1223884648 0.7498263642 0.747279227
0.1124559786 1.0007199453 0.4991833399
0.1224341111 1.0026201119 0.7488989342
0.152379552 0.996997701 0.4925756708
0.1324821855 1.001520358 0.4942367909
0.1423196979 1.0003880669 0.7396684438
0.1523228623 0.9985399596 -0.0071470099
0.1324847623 0.9974662352 -0.0087026015
0.152465691 0.7489543699 -0.0078096321
0.1323308901 0.7492081593 -0.0041645492
0.1423855906 0.7503925097 0.2419904042
0.1523843375 0.7476659007 0.4911805139
0.132461571 0.7487266102 0.4911464632
0.1423443617 0.4997078168 0.2434913942
0.1424323412 0.7491756222 0.7429768798
0.1724160661 0.7495270229 -0.0084761968
0.1624250496 0.5014472502 0.7411749555
0.1725316543 0.4983510198 -0.0093531523
0.1622866382 0.7509456404 0.2420161722
0.1824045058 1.0011038831 0.7374523899
0.1723873531 0.7491821296 0.4905979715
0.1625008813 0.4983601301 0.2435972273
0.1623540033 0.7499109607 0.7429400682
0.1823113727 0.7482450611 0.2384270484
0.1823555465 0.7497352603 0.7393537052
0.1624695915 0.9998674733 0.2411234927
0.1723475967 0.9994444909 0.4856035676
0.1723637937 0.9993924316 -0.0077269976
0.1923922093 1.0020084145 0.4885356057
0.2024178287 1.0004466336 0.7374054552
0.1924713541 0.7491495925 -0.0114147911
0.2024980778 0.7517070086 0.2387141783
0.192378589 0.7500346016 0.4899574509
0.2023353708 0.7496311416 0.7409191154
0.232575304 0.7494294116 0.9963478587
0.2326319937 0.501606682 0.9945901083
0.2325289215 0.7509586553 0.4938235815
0.2325134606 0.5030506785 0.4977605743
0.2225191311 0.9985399596 0.241185152
0.2124279872 0.9985855115 0.4926391707
0.2123974336 1.0028804087 -0.0079193544
0.21241768 0.7505551952 -0.00853123
0.232399713 0.9995095651 0.9915715631
0.2226034295 0.7501582426 0.2419471506
0.2124618538 0.7474967078 0.4865339789
0.2224815833 0.5008498691 0.2445929791
0.2225938585 0.7527872403 0.7438594361
0.2524388039 0.751140863 0.9973693785
0.2524178213 0.4999902389 1.0035905266
0.2425490191 0.7510953111 0.2504598162
0.2524980705 0.7528978665 0.5021512692
0.2425214104 0.4998685501 0.2521752334
0.2424566221 0.7515508305 0.7471752344
0.2525072733 0.5023270534 0.5024328774
0.2625284753 0.49810569 0.7551835821
0.2625365739 0.749435919 0.2558278571
0.2625108058 0.7488567586 0.7526408259
0.2825281779 0.499942084 0.7540773957
0.2825447431 0.7495270229 0.2561462768
0.2824729606 0.5016027776 0.2530485868
0.2825616764 0.750288391 0.7584506051
0.2725106571 0.7510107146 1.0032040056
0.2725761816 0.5007984604 1.0067931294
0.2724992455 0.7519282609 0.5074429262
0.2825274417 1.0007980343 0.2536164047
0.282576401 1.0018196993 0.7523214859
0.3123882161 1.003101661 1.0093423277
0.2926171131 0.7523382283 1.0077226205
0.3024623559 0.5029719387 0.757025999
0.2924628728 0.5015207841 1.0040414678
0.3024064024 0.7519087386 0.2598716034
0.2926230029 0.7501907797 0.5078018386
0.3025389239 0.4999518451 0.2580107807
0.3025113153 0.7505942398 0.7591086111
0.3026883787 1.0041623705 0.255083344
0.3124949695 0.7531256262 1.008698126
0.3124861347 0.5013372748 1.0050905963
0.3123893204 0.7532232375 0.5051615318
0.2924790698 1.0014682986 1.0038482073
0.332647808 0.7508935811 1.0011241543
0.3324711127 0.502484533 1.001455458
0.3224005833 0.7507959698 0.2550088007
0.3325664545 0.7519933351 0.5018365307
0.3223667167 0.7537828756 0.7537341282
0.3324512345 0.5026869137 0.5017840742
0.3524910616 0.9996136839 0.4972442927
0.3425537899 1.0015659099 0.7459043164
0.3624736115 0.7523837803 0.2432051845
0.3524468878 0.9981104698 0.9979399572
0.3623558146 0.7504771062 0.7446186739
0.3625509157 1.0008956456 0.2436349591
0.3525448064 0.7506267769 0.9976362621
0.3625693214 1.0015919396 0.7439652693
0.3524564588 0.501425125 0.9961085838
0.3423988134 0.7497287529 0.2475443433
0.3525981832 0.7496571713 0.4968126775
0.342410225 0.7503729875 0.745302448
0.3924455567 1.0014813134 0.4874956801
0.3724568976 0.7505421804 0.9927955463
0.3724274484 0.4994052218 0.9938814864
0.382399691 0.7510497592 0.2425241713
0.3723906368 0.750984685 0.4940011972
0.3824365025 0.4984043806 0.2428895257
0.3825138067 0.748739625 0.742121932
0.3825174879 1.0001277701 0.2399087123
0.3825064444 1.0008175566 0.7409908979
0.3725894191 1.001676536 0.9933109077
0.3725194772 0.5015448615 0.4960856499
0.3924860494 0.7533924304 0.9898138126
0.3926480201 0.7499369903 0.490791232
0.4125667373 0.7490389664 0.9850099084
0.4125483315 0.7506983585 0.4842562657
0.4125667373 0.4993778906 0.4830221593
0.4025944947 1.0013121205 0.2370171669
0.4025245528 0.5021851917 0.7361216532
0.4024398863 0.7514271895 0.2385715336
0.4025171905 0.5000182208 0.2370171669
0.4025208716 0.7510237295 0.7369407096
0.4325517153 0.7521234835 0.9819637545
0.4223365166 0.7503729875 0.23048036
0.4325406718 0.7501712575 0.478952645
0.4225463423 0.5012800095 0.232294248
0.4224764004 0.7493578299 0.7307066775
0.4425165956 0.7503729875 0.2282652264
0.442406161 0.7500215868 0.7284805005
0.432544353 0.9990150012 0.4816297632
0.4225757915 0.9983187073 0.7335761361
0.442549726 0.9993403722 0.2263280197
0.4526397655 0.997726532 0.9779420952
0.4625936024 1.0011364202 0.2256672528
0.4726100189 0.9987677193 0.4768276996
0.4625862401 1.0018912809 0.7249189852
0.4526692147 0.750535673 0.9770770243
0.4526324032 0.7497027232 0.4777351037
0.47251799 0.7511799076 0.9773715165
0.4626120082 0.7520128573 0.2298757307
0.4724774974 0.7481474498 0.4756239626
0.4624721244 0.7504185394 0.7279504145
0.4726284246 0.5001776526 0.4783424939
0.4827442322 0.9989434196 0.2283508132
0.4927385618 0.9987351822 0.4796382596
0.492624446 1.0007850195 0.9779697039
0.4823871604 0.5022990715 0.7237980742
0.4924514319 0.7515313083 0.4763592729
0.4826227542 0.7519542906 0.2289094281
0.4924367073 0.7499500052 0.9772058647
0.4825123196 0.751759068 0.7275556108
0.5125762936 0.9996266987 0.4833718688
0.5125468444 1.0005832895 0.9824515073
0.5025193845 1.0024639339 0.2320236832
0.5224896378 0.7501972871 0.7360793199
0.5225558986 1.0009932569 0.2370521378
0.5226442463 1.0001017404 0.7361814719
0.5024494426 0.7526570919 0.2297257237
0.5024126311 0.5022756448 0.2321055889
0.5024457614 0.7481409424 0.729433919
0.502460486 0.4994351559 0.7275730963
0.5123627868 0.7525074213 0.9822306381
0.5124364098 0.501548766 0.9831049119
0.5124989894 0.7520519019 0.4839010345
0.5225743044 0.4970384731 0.2380248824
0.5225743044 0.7480823756 0.2321074295
0.5325097355 0.7487721621 0.4894614156
0.5325318224 0.5006051901 0.4892377856
0.5325023732 0.9964315554 0.9884057717
0.5425261519 1.0009086605 0.2420649475
0.5525020757 0.9989889715 0.4967169676
0.5523585108 0.7490389664 0.9943600362
0.5424488477 0.9993924316 0.7390951042
0.5425151085 0.7480758682 0.2415192166
0.5524542208 0.7507113733 0.4971172929
0.5423641812 0.7486224915 0.7445146813
0.5325244601 0.7495920971 0.9928415607
0.5623749273 1.0015919396 0.2506052217
0.5624669561 0.9998089065 0.7500980696
0.5624706372 0.749390367 0.2465347872
0.5623896519 0.7504771062 0.7511794082
0.5725201841 0.9998544584 0.5021485084
0.5724576045 1.000498693 1.0062869709
0.5725349087 0.748863266 1.0011609658
0.5724833725 0.7515963825 0.5052701258
0.6025767958 1.0009672272 0.2570012246
0.5924646694 0.7510237295 1.0077686349
0.5924131332 1.0013251353 0.5061674068
0.6024295497 1.0006809008 0.7542678954
0.5924241767 1.0008110492 1.0050537848
0.6024700424 0.7499760349 0.2547814895
0.6024295497 0.4994253948 0.2566634788
0.5924536259 0.7503599726 0.5085205837
0.6025068539 0.7506072546 0.7570646511
0.5822568329 0.9992948203 0.2552167858
0.5824592963 1.0001212626 0.7558001752
0.5823672675 0.7499890497 0.2554404158
0.5824961079 0.753913024 0.7558995663
0.6124312416 0.7501322129 1.0069219698
0.6124680531 0.7503925097 0.5048790034
0.6124238793 0.9961712586 1.0100509496
0.6224844696 1.0011429276 0.2574309991
0.6225065565 0.7495270229 0.2542964976
0.6225764984 0.7491691148 0.7562879279
0.6424841721 0.9996852655 0.7501339609
0.6526662405 0.9969131045 1.0018971964
0.6325045672 0.9975768614 1.0050169733
0.6325597845 0.7505682101 1.0043727715
0.6324051761 0.4984909293 1.0054679145
0.6324824803 0.7494944858 0.5016865237
0.6525521247 0.7483296576 0.996633148
0.6524895452 0.4994650901 1.0014830667
0.6424768098 0.7483491798 0.2496968973
0.6424215925 0.4988013332 0.2522967114
0.6525889363 0.7459023899 0.5005039534
0.6425025779 0.7477765269 0.7539025409
0.6725886388 0.747236411 0.9991547376
0.6725371027 0.4968439013 0.9965871336
0.682501983 0.9977005024 0.2416885496
0.6726180881 0.9974532204 0.4978912553
0.6825130265 0.9966463003 0.7454487738
0.6823841862 0.746013016 0.244589298
0.6725739142 0.7480498385 0.4954975857
0.6823915485 0.7457722415 0.7464767357
0.6626421643 0.7480693608 0.2488824423
0.6626090339 0.7477114527 0.7482234426
0.7025789898 1.0004010817 0.2378435857
0.702534816 0.4964554083 0.7378536355
0.6925625734 0.7479717495 0.9928047492
0.6925515299 0.9991907016 0.4898405743
0.7025900333 0.9998349362 0.7378223457
0.6925478487 0.9979673066 0.9918200409
0.7024243814 0.7489673847 0.2403173203
0.7024243814 0.4992763749 0.2406642689
0.6925993849 0.74711277 0.4936054732
0.702486961 0.7489153254 0.7369535937
0.7224498521 0.4998698516 0.7327267101
0.7323889643 0.7510692814 0.981383973
0.7224093594 0.7477439898 0.2327083776
0.7224093594 0.5007913023 0.2331804855
0.7324000078 0.7486159841 0.4800431864
0.722328374 0.7508285069 0.7355556759
0.722519794 1.0003490223 0.7336387157
0.7125181021 0.7484793282 0.9850835314
0.7125144209 0.7514857563 0.4825620152
0.7424053808 0.5003702722 0.7300956062
0.7424127431 0.748661536 0.2302926212
0.7425194965 0.4975512578 0.2268921564
0.7424016996 0.7490324589 0.7300440701
0.7525101449 0.4978349813 0.4775547272
0.7524107538 0.748908818 -0.0221546645
0.7625081557 0.4974790255 0.7240309071
0.7624492572 0.7485248802 0.2302613314
0.7625854599 0.4982833426 0.2281658352
0.7524954203 0.7492667261 0.479202043
0.7624566195 0.7471648294 0.7284262035
0.7825225828 0.7490129367 0.2308521564
0.7824857713 0.4975011507 0.2309386635
0.7724067752 0.7477960491 0.4809855615
0.7825704378 0.749312278 0.7295351507
0.7724288622 0.9959239767 0.479929991
0.7725834706 0.4985078486 0.4785136675
0.7724472679 0.7494684561 -0.0202227035
0.7825667567 0.4983868106 0.7315892339
0.7725650648 0.4987915721 -0.0267779162
0.7923807097 0.7498263642 0.4842489034
0.8126123249 0.4977705579 0.4889276485
0.8124834846 0.7493773522 -0.0137895395
0.8024265754 0.4983855091 0.7363471238
0.8024781116 0.7487656547 0.2322445524
0.8024376189 0.4974198079 0.2364695954
0.7924396082 0.4968230775 0.4814733143
0.7924138401 0.7505942398 -0.0173759945
0.8125239773 0.7481084053 0.4869076159
0.7924396082 0.4979722879 -0.0146138048
0.8024486624 0.7496051119 0.7337905632
0.8324611003 0.5011674312 0.4903485734
0.8324942306 0.7507699401 -0.0088979649
0.8225624807 0.5001334021 0.7417933892
0.8325531291 0.5001054202 -0.0058318537
0.8225587995 0.750737403 0.2404489215
0.8225293503 0.5009572415 0.2385264395
0.8326083464 0.7499565126 0.4906126961
0.8225919299 0.7502753762 0.7402970006
0.8625250743 0.7495400377 0.7538648091
0.8626207843 0.5026420126 0.748793101
0.8525896432 0.7522536319 -0.0019338443
0.8525565128 0.5014739306 -0.0015024316
0.86263919 0.7481539572 0.2497291074
0.8625434801 0.5021669709 0.2469535183
0.8525270636 0.7506983585 0.4969488802
0.842459111 0.7510822963 0.2431637716
0.8426063571 0.5006526942 0.2454525283
0.8425695455 0.7497808123 0.7453300566
0.8525675563 0.500083295 0.5006594821
0.8725672588 0.4992965479 0.5028359636
0.8825689507 0.7470607107 0.7542853808
0.8926847583 0.4994846123 0.5052139883
0.8725341285 0.7509911924 0.0029080035
0.8925485556 0.7511994298 0.0055286161
0.882528458 0.4984922308 0.7535463894
0.8726372007 0.5006416316 4.6591757809e-04
0.8925927295 0.4979892072 0.0044123986
0.8825542261 0.7472949778 0.250660439
0.8825726318 0.499366828 0.2584055843
0.8726408819 0.7509456404 0.502339008
0.8924418022 0.7512124447 0.504839431
0.8824364292 1.0015008357 0.2570499998
0.882454835 0.9992297461 0.753535346
0.9126476493 0.7509131033 0.5128238512
0.9125813886 1.0019498477 0.0147099631
0.9127028666 0.5014836918 0.5102838558
0.9025907402 0.7509065959 0.7580079465