POSCAR file written by Ovito 3.7.11
1
271.5849466252 0.0 0.0
0.0 15.3631645942 0.0
0.0 0.0 10.863397865
Sr Ti O 
800 800 2400 
Direct
0.0123356406 0.2498659878 0.5047440073
0.0224352062 0.2525796214 0.7568225958
0.002414914 0.2530014095 0.7617335823
0.01239518 0.2511756138 1.0063605427
0.0223390301 -4.5190578288e-04 0.2586745884
0.0024233828 0.9996952257 0.2574659426
0.0124219487 -0.0011818335 0.5122573103
0.0224692656 -5.530780577e-05 0.7554813948
0.0024753371 0.0014051986 0.7565943063
0.0124465819 0.999115918 1.0100426319
0.0223489717 0.2504706809 0.2583855444
0.0024020267 0.2515947983 0.2609390733
0.0323496364 0.2526050068 0.5034313425
0.0423004825 0.2508169637 0.7589066583
0.0322332824 0.2495867485 1.0095547551
0.0423892209 1.0034835077 0.2602597278
0.0323662058 -3.0050468412e-04 0.5080661723
0.0423616052 1.0015372941 0.7559591459
0.0323220208 0.0014196487 1.0062776957
0.0424308285 0.2520484809 0.2601685961
0.07245127 0.2493556763 0.508941589
0.0525315356 0.2519215539 0.5071612989
0.0624868002 0.2506522841 0.7606050219
0.0725020828 0.2502981904 1.0086710537
0.0523916162 0.2510734213 1.0076768896
0.0624647076 1.0014982397 0.2589562682
0.0723010407 0.9996236259 0.5087206637
0.0523039825 -7.4813381403e-04 0.5117795593
0.0623862791 1.0001378429 0.7586848124
0.0724155537 0.00102253 1.00975727
0.0523761514 1.0008928957 1.0089195947
0.0624963736 0.2507687966 0.2580357459
0.0924170305 0.25009706 0.5053892934
0.1024481461 0.2489436518 0.7527759798
0.0824499832 0.2478253926 0.7575093054
0.0924435415 0.2479477632 1.006535442
0.1024665565 0.9984715195 0.2528393975
0.0824389369 0.9991289362 0.2554076548
0.0923868373 -5.3743503643e-04 0.5066053034
0.1024172165 -0.001561573 0.7544651382
0.0824116895 1.0010881679 0.7558643321
0.0924693161 1.001784639 1.0047864496
0.102370454 0.2499714348 0.2535748949
0.0825600777 0.2496974027 0.2579169986
0.112467479 0.2488193284 0.5020229434
0.1222298021 0.248611038 0.7537811901
0.1123791089 0.2469674964 1.005670151
0.1224518321 4.4081393746e-04 0.2475150966
0.1123080446 1.0002680244 0.5012276121
0.1224518321 0.9999881341 0.7498570036
0.1123161452 -0.0017641354 1.0036726176
0.122255945 0.2502702014 0.2522235681
0.1524545996 0.2488193284 0.50111807
0.132263127 0.249237862 0.5017504688
0.1422316471 0.250547488 0.7496001778
0.1524048914 0.250449201 0.9998616553
0.1323743261 0.2501380672 0.9990515957
0.1422622084 -1.6661299875e-04 0.2455875229
0.1524696961 0.9979377753 0.4950527485
0.1321994269 -0.0031784013 0.4955829694
0.1424209065 -0.0013023816 0.7453436827
0.1522841188 0.9997538074 0.9952406333
0.1323728533 -0.0012377465 0.9943845476
0.1423299589 0.2495118941 0.2487283449
0.1724811145 0.250160198 0.498044446
0.1624268018 0.2492196366 0.748037131
0.1724310381 0.2516650963 0.9983980248
0.1624006589 -9.4752803986e-05 0.2436111615
0.1725945229 -0.0019114684 0.4980794259
0.162446685 0.9991354452 0.7467391945
0.1723087928 -8.0534858867e-04 0.9996499352
0.1623730433 0.2491200477 0.2475206197
0.1925098388 0.2505748261 0.4997041477
0.2025531053 0.2497735589 0.7477131071
0.1823590552 0.2500554019 0.7500171744
0.1926247199 0.2486442343 1.0006533045
0.2025810892 -1.1421494007e-04 0.2517264861
0.1825181215 8.1111524909e-04 0.2530943822
0.19250137 -0.0011322344 0.5008722905
0.202575566 1.0005023511 0.7513224751
0.1824639948 1.0015047488 0.7517799746
0.1926309795 -4.9961730712e-04 1.0003219164
0.2025199665 0.2495808903 0.25190967
0.1825873448 0.2500007257 0.2503898877
0.2125286214 0.2492964437 0.4994436399
0.2224838859 0.2501654053 0.7509956896
0.2126331927 0.2503509139 1.0025771961
0.2226963425 1.0010556225 0.2501054463
0.2125595509 1.0012118404 0.5010904543
0.2225814613 0.9994348627 0.7537535745
0.2125219936 1.0008212958 1.0027428901
0.2225490589 0.2483825695 0.2483895927
0.2526203132 0.2508416982 0.5006053391
0.2323990157 0.2507668439 0.5036310959
0.2425862519 0.2494839051 0.7505004486
0.2524619834 0.2497507772 1.0023010394
0.2326597077 0.2519423829 0.9991988792
0.2424367591 1.000404715 0.2521361185
0.2525591906 4.2968341816e-04 0.5028412877
0.2324627159 -5.9543090015e-04 0.5021039494
0.2425332299 0.9982762473 0.7499554994
0.2524038064 3.4858033602e-04 1.00397639
0.2325496132 5.4131406493e-04 1.0000641702
0.2423966243 0.2474472153 0.2522557864
0.2726961682 0.2496433774 0.5025568463
0.262507091 0.2488544775 0.7528431779
0.2726247357 0.2495789376 1.0038291064
0.2626042981 0.9989792274 0.2491416595
0.2725058042 0.0019456471 0.498021433
0.2625126141 0.9983738834 0.7502647949
0.2725930697 -4.5281705346e-04 0.9993185471
0.2626425918 0.249822377 0.2518516771
0.2925776089 0.2511157303 0.499262297
0.3025457608 0.2506809241 0.7463387673
0.2826407547 0.2476626657 0.7485259283
0.2926541963 0.2506399169 1.0022181924
0.3025943643 -0.0012489421 0.2435936716
0.2826127708 0.9982241747 0.2475924204
0.2926066974 -0.0011007304 0.5008999062
0.302579636 -4.4669852239e-04 0.7459042808
0.2825950968 0.9995715533 0.7470337617
0.2926328402 3.6127303347e-04 1.0000457598
0.3026646922 0.250604117 0.2493303665
0.2826772074 0.2471666741 0.2530133763
0.3325684115 0.2495561558 0.4969195678
0.312519804 0.2493400545 0.4978281233
0.3225542335 0.2501628016 0.74874041
0.3325882948 0.2497566353 0.993905876
0.3125857134 0.2483148751 0.9934364096
0.3227534345 -0.0010884283 0.2443650692
0.3326991257 6.5392107303e-04 0.496847767
0.3127271056 -1.5365993828e-04 0.4965495178
0.3226426036 -0.0030376296 0.7475474131
0.3327160633 -3.0499594629e-04 0.9961519504
0.3126935986 0.9995259898 0.9975695548
0.3225096802 0.2519091866 0.2444110954
0.3525153933 0.2492430693 0.491833682
0.3425638109 0.248984659 0.7472252303
0.3525669426 0.2496967518 0.9912271561
0.3425785392 -0.0014589249 0.2439489932
0.3527742442 -0.0014795586 0.4919284958
0.3426002635 0.9974561037 0.7445363847
0.3526357977 -0.0010919432 0.9944950103
0.3425568149 0.251111174 0.2464712243
0.3725459586 0.2484522166 0.4914433806
0.3824176398 0.2489156628 0.7393566057
0.3625269939 0.2486435834 0.7425001893
0.3725570049 0.2498607805 0.9926171448
0.3824434144 0.998341338 0.2370146987
0.3625674969 1.0000727521 0.2418032557
0.3724318138 -0.0015979587 0.49278182
0.3823734547 -0.0018689966 0.7402375455
0.3625638148 0.9999295525 0.7408690238
0.3726122362 -6.3760971012e-04 0.9940807752
0.3825244204 0.2466029882 0.2408505151
0.3625527685 0.2478305999 0.2452607374
0.3925249746 0.2491024732 0.4859027569
0.4026580841 0.248273217 0.7373415823
0.3925212925 0.2473866809 0.9872320893
0.4024592513 1.0002289699 0.2382767347
0.3924734254 0.9994804262 0.491872344
0.4025513035 -0.001834824 0.7365480921
0.3923997836 0.9990768636 0.9932615104
0.4023598349 0.2494786978 0.2381101202
0.4325566485 0.249132415 0.4857094472
0.4126254996 0.2463257016 0.484671098
0.4225597763 0.2487223432 0.7380724771
0.4326266082 0.2477199456 0.982841198
0.4125739504 0.2478690034 0.9886773093
0.4226076434 0.9982241747 0.2349011795
0.4323835903 0.9983673743 0.4893602386
0.4125702683 -9.9014124533e-04 0.4880061503
0.4224971808 0.9979898479 0.7358761108
0.4326302902 0.9981981384 0.987839634
0.4124966265 -0.0028474344 0.988787772
0.4225524121 0.2489742444 0.2365240603
0.4525835316 0.2502975395 0.4851580543
0.442568249 0.2491669131 0.7340930591
0.4525688033 0.2488030558 0.9863299775
0.4425645669 1.0005609328 0.2345136396
0.4524767511 -0.0020171823 0.4836842981
0.4425387923 -0.0016457353 0.7349344165
0.4524841152 1.0006585689 0.985980179
0.4425166998 0.2503099068 0.2368996334
0.4724410387 0.2507063095 0.4869806885
0.4825631019 0.2508579709 0.7405947082
0.4625840859 0.2495418358 0.7359110907
0.472617779 0.2481085374 0.9849031679
0.4825851945 -0.0012742624 0.2359726674
0.4624957158 -6.6130274535e-04 0.2341297818
0.4725183626 0.999890498 0.4885538611
0.4824379109 0.998686319 0.734559764
0.46250308 -0.0014567769 0.7362093399
0.4725036342 -0.001335643 0.9867902386
0.4825152348 0.2502070634 0.2403736845
0.4624441665 0.2507889747 0.2332672524
0.5125058514 1.8416108604e-04 0.4871160053
0.5123953887 0.0013598954 0.9856119701
0.49255261 0.2488629392 0.4836658877
0.5025052971 0.2502422124 0.7366318597
0.4925047428 0.2506666041 0.9864956715
0.5125021693 0.2496297084 0.4865701355
0.5125794931 0.250449201 0.9869927535
0.5024316553 3.9616167875e-04 0.2315062932
0.4923574592 -4.5548577446e-04 0.487455678
0.5024647941 -0.0011691408 0.7330896898
0.492390598 -0.0012001891 0.9886681041
0.5025273896 0.2503749975 0.2391613567
0.5222817982 1.00135504 0.2301862642
0.532470139 -3.0323849587e-04 0.482112046
0.5224217176 1.0008928957 0.7347226964
0.5325437808 1.0016023849 0.9828872241
0.52235544 0.2508547164 0.2353807716
0.5323744047 0.2516032601 0.4845173708
0.5224622206 0.2504505028 0.7355318355
0.5324627748 0.2493094618 0.9827767614
0.5423160456 -5.6347133889e-04 0.231516419
0.5624718019 0.0026762258 0.2338048374
0.5524233804 0.0013548834 0.4835112399
0.5423712769 1.0009319501 0.7310148326
0.5622619228 1.0018757661 0.7314695706
0.5525227968 0.0032516281 0.9822520637
0.542374959 0.2505208008 0.2325059804
0.5624128884 0.2509074399 0.2358189402
0.5523534207 0.2522007932 0.4857306192
0.5425369709 0.2499603694 0.7370902798
0.562560172 0.2513891115 0.7349905684
0.5524712476 0.2515811292 0.9838445673
0.5824287253 0.0020315018 0.2368029785
0.5724576278 2.0843993807e-04 0.4845017219
0.5823624477 1.0027414731 0.7324094239
0.5725828188 0.0016876925 0.983006892
0.5824545 0.2523902073 0.2374169669
0.5724097606 0.2529994568 0.4826781672
0.582413997 0.2510701668 0.736831613
0.5723618935 0.2524793817 0.9850136306
0.6024371981 1.000404715 0.2384157336
0.5923593199 1.0020905656 0.4879803757
0.6123751568 0.0014287614 0.4883007175
0.6024187876 9.3927894791e-04 0.7360574537
0.5925029214 -0.0010981268 0.9855107126
0.6123972494 3.4387256178e-05 0.9884747944
0.6024703369 0.2490868515 0.2390941585
0.592444008 0.2507356003 0.4879453958
0.6125113941 0.2497527299 0.4950168482
0.6024592906 0.2518453977 0.7392452225
0.5924292796 0.2516253909 0.9845901903
0.6124672091 0.2509901052 0.9912363613
0.6224346245 -9.7356434231e-05 0.2423077019
0.6324167684 -0.0011338616 0.4965265047
0.6222652484 0.0014268087 0.742423786
0.632442543 1.0008863866 0.9952406333
0.6225229947 0.250371743 0.2433976003
0.6323725833 0.2502825686 0.4945906463
0.6225414051 0.25164622 0.7419046114
0.6322731669 0.2513669806 0.9944489842
0.6422884495 1.0026633642 0.2466221899
0.6623300611 -5.423819339e-04 0.2481576211
0.6523552814 0.0019190901 0.4955940156
0.6423694555 1.0012964583 0.7472997926
0.6623742461 1.0011988222 0.7476919351
0.652381056 1.0020254748 0.997744454
0.6423363167 0.2524194982 0.2468633668
0.6624331596 0.2526258359 0.2489833296
0.6523589635 0.2520862335 0.4979487117
0.6423436809 0.2514548532 0.7458131491
0.6624368417 0.2504739355 0.7487256816
0.6523626456 0.2513428971 1.0002298642
0.6823790368 1.0007627141 0.2493883594
0.6724631706 1.0030929632 0.498745884
0.6824526786 0.0012235954 0.7490957316
0.6724263497 -3.0694866897e-04 0.9984716666
0.6825042278 0.251688529 0.2507949175
0.6725331303 0.2511118249 0.5006808219
0.6824195398 0.2510551959 0.7519548739
0.6723932109 0.2513279262 1.0005796627
0.7026415737 0.0012639516 0.2501266183
0.6925268746 0.9999816251 0.5012754793
0.7125132548 0.9986212283 0.5004644991
0.702446423 1.0015568214 0.748659404
0.6923280418 1.0007366778 0.9997143717
0.7126089892 4.6559227575e-05 1.0010215134
0.7024758797 0.248597369 0.2488470923
0.6926373373 0.2506516332 0.4989161806
0.7125721683 0.2482751697 0.49917945
0.7026305274 0.2486559506 0.7520321978
0.6926373373 0.2489032955 1.001251644
0.7125353474 0.2515648565 0.9987662338
0.7224806703 -3.4450603526e-04 0.2505436149
0.742485461 1.0009124229 0.2508777645
0.7324812246 -0.0016980032 0.501572808
0.7226058614 1.0009059138 0.7546262296
0.742610652 -0.0011868455 0.7518149545
0.7325585485 0.9997798437 1.0023838864
0.7225764046 0.2504016847 0.2465301377
0.7425959236 0.2494591706 0.2454126236
0.7325511843 0.2491825349 0.4978548184
0.7225064449 0.2492840764 0.7476173728
0.7425996057 0.2484372457 0.7464529121
0.7326100977 0.2508742436 1.0009018455
0.7624350203 -6.772499806e-04 0.250589641
0.752640663 1.5818987434e-04 0.5009109525
0.7623761068 0.0011417112 0.751072093
0.7524933794 0.9983543562 0.9985361032
0.7623945173 0.250611277 0.2493073535
0.7525486108 0.2516091183 0.5010085278
0.7625344367 0.250322274 0.7475041486
0.7524160555 0.2484463584 1.0005244314
0.7823845796 -9.1606796485e-04 0.2512248014
0.7725497193 1.0003331152 0.5007912846
0.7925766025 0.9995520261 0.5001349522
0.7825355452 1.7309565749e-04 0.7513500907
0.7725313089 1.0003721696 1.0009754873
0.7924182727 -8.4362195327e-04 0.9993645733
0.7825171348 0.2498204243 0.2501155721
0.7724355746 0.2499330313 0.5001828193
0.7925103249 0.2513520098 0.4996240623
0.7825097706 0.2502623905 0.7504176016
0.7724797596 0.2499310786 1.0008834351
0.7924440473 0.2489592736 1.0002758903
0.8024335553 0.9982827563 0.2492005729
0.812658717 3.594504923e-04 0.500085244
0.8026618448 -4.7989480801e-04 0.7496867069
0.8125887573 0.998341338 0.9984348457
0.8025366538 0.2487431723 0.2489971375
0.8126108499 0.2501471799 0.4965918618
0.8024372374 0.2493589308 0.7472169456
0.812533526 0.2474856188 0.9970816779
0.8226003579 0.999975116 0.2504478806
0.8425646455 1.0013159856 0.2497197475
0.8326303689 -6.9554048308e-04 0.500374288
0.82260404 -7.9792824247e-04 0.7495550722
0.842623559 0.001184606 0.7478769601
0.8325493629 7.5910773494e-04 0.9959770512
0.8225966758 0.2517972305 0.2491462621
0.8426640619 0.2505891461 0.2470281403
0.8326856002 0.2514607113 0.4973448491
0.8227034564 0.2516663981 0.746738274
0.8425977843 0.2515466311 0.7447582305
0.8326303689 0.2479640359 0.9993645733
0.862521569 -0.0011641939 0.2490588125
0.8525946565 0.9984454832 0.4996277444
0.8624295168 0.9999165343 0.7476173728
0.85265357 3.5847413095e-04 0.9988859017
0.8626651705 0.2507329967 0.2527703584
0.8526609341 0.2498751005 0.4974939737
0.8627130377 0.2486735251 0.7495762443
0.8526830267 0.2487692086 0.9992264949
0.8825116313 0.9990508273 0.2500262814
0.8725773546 7.167336527e-04 0.5001469189
0.8924569543 -0.0014254682 0.5035224742
0.8824858567 1.0013029674 0.7520920317
0.8725405337 -0.0014305453 0.9985729241
0.8826257761 0.2492782183 0.2522723558
0.8923612199 -0.0030080393 1.0010215134
0.8726215397 0.2491018223 0.5019990098
0.8925858274 0.2518929139 0.506920122
0.8825742268 0.2483708531 0.7503844628
0.8725294875 0.2506867822 1.0015462111
0.8924937751 0.2492827746 1.0052927369
0.9024243697 -0.0011797506 0.2524270036
0.9225506693 1.8943343728e-04 0.2596825603
0.9123770568 -1.9661983733e-04 0.508095629
0.9023765026 1.0002484972 0.7552374564
0.9225322589 1.0012183494 0.7578001905
0.9124359703 1.0013745673 1.0096836283
0.9025716533 0.2513656788 0.2565491024
0.9225874902 0.2492033639 0.2593649801
0.9125574792 0.2482601988 0.5086599092
0.902520104 0.2512407046 0.7583543449
0.9226132648 0.2492990473 0.7615522394
0.9125096121 0.2499603694 1.0056609458
0.9423529451 1.0000141704 0.2599743659
0.9325070385 0.9999100252 0.5094313069
0.9425296853 1.0021816926 0.760895907
0.9324996743 0.9999035162 1.0076584792
0.9424265868 0.251159992 0.2601069211
0.932525449 0.2498744496 0.5124552226
0.9425959629 0.2501966488 0.7612401823
0.9324554893 0.2501452271 1.0103832252
0.962409285 -4.828889828e-04 0.2613726393
0.9524897366 1.0015958758 0.5068013747
0.972523984 1.0025396918 0.510323293
0.9624681984 0.9994739172 0.7611987588
0.9525633784 1.0007431869 1.0110920274
0.9625381581 0.2501510853 0.2618697213
0.972483481 0.002885818 1.0098861432
0.952504465 0.250632106 0.513917012
0.9725276661 0.2510018215 0.5103518292
0.9624461058 0.2490464952 0.7647188361
0.9524197769 0.2511593411 1.0132184339
0.9725203019 0.2508052474 1.0135682324
0.9825429487 2.7580887067e-04 0.2593705033
0.9925250926 1.0007562051 0.5108746858
0.982472989 1.0009710046 0.7579806129
0.9825024457 0.2516000055 0.2627340918
0.9925103642 3.7468172923e-04 1.0099413745
0.9924330403 0.2507115167 0.5057841975
0.9825208562 0.2494747924 0.7618431244
0.9924219941 0.2517933251 1.0076953001
0.0123096082 0.7495970135 1.0064249793
0.0223086528 0.502077046 0.7563696988
0.0024666473 0.5015869126 0.759101809
0.0123661651 0.5001685851 1.0094995238
0.0223159802 0.7483342528 0.2605717849
0.0024245979 0.7491543963 0.2613965729
0.0123797152 0.7505343203 0.5070664851
0.0223380727 0.7517254812 0.7583037162
0.0222308871 0.5003612537 0.2573241822
0.0023851995 0.5006932166 0.2553616286
0.0024975401 0.751712463 0.7599081866
0.0124211755 0.5020314825 0.5076639041
0.0322851999 0.7516018087 1.0104476618
0.0422979051 0.4998392258 0.7589839822
0.0323555278 0.5013825277 1.0105765349
0.0422868588 0.7501047214 0.2604373886
0.0323625238 0.7502934846 0.5064920792
0.0423321485 0.7496490861 0.7613046189
0.042477591 0.5017834867 0.2551434649
0.0323879302 0.500154916 0.5050753953
0.0724711532 0.750508284 1.0084133075
0.0625357719 0.4994167868 0.7576289733
0.0524240186 0.750586393 1.0087078746
0.0725355898 0.5018420684 1.0077505314
0.052467099 0.5031106872 1.0085145649
0.0624856955 0.7501828303 0.261136065
0.07245127 0.7491413782 0.5069348504
0.0525127569 0.7513154094 0.5106915019
0.0625626512 0.5019162719 0.2549565988
0.0724350688 0.4995834192 0.5075009716
0.0624227318 0.7500070852 0.7634660053
0.0524597348 0.5022000676 0.507536872
0.0925068734 0.7501958484 1.0050534011
0.1026801177 0.49960555 0.7510048949
0.0825622869 0.5003124356 0.7555200567
0.0925116602 0.5006808493 1.003028252
0.1024113252 0.7488419607 0.2499507986
0.0824823856 0.748607634 0.2541612676
0.0924729982 0.7491934508 0.5051849375
0.1024798121 0.7502739573 0.7505593621
0.1025460897 0.4994089759 0.2537976613
0.0825792245 0.4984697163 0.2554297473
0.0825133151 0.7475466546 0.7569330585
0.0924376502 0.4993699215 0.5033659854
0.1124505414 0.7491153419 0.9995947038
0.1223954961 0.501478862 0.7494372454
0.1124696883 0.4988498463 0.9992909315
0.1224518321 0.7489330877 0.2431775955
0.1125131369 0.7496686133 0.4985157534
0.1224643512 0.50230226 0.2459345598
0.1223225908 0.7482366167 0.7462393509
0.1124424408 0.4999713601 0.496601067
0.1523706479 0.7497857767 0.9943017006
0.1423144941 0.5002623157 0.7480721108
0.132442813 0.7484774525 0.9935376671
0.152358497 0.4988745808 0.9951485811
0.1324262435 0.4994200414 0.993740182
0.1423207537 0.751022501 0.242166862
0.1523588652 0.7503390481 0.4929079316
0.1323592295 0.7488224335 0.4955166918
0.1423645705 0.5011215137 0.2476651417
0.1423734075 0.750501775 0.740338803
0.1523658612 0.4995905791 0.4976836013
0.1323599659 0.5002030832 0.4977563225
0.1725264042 0.7499485035 0.9941636223
0.162511858 0.5005754023 0.7498726524
0.1726990942 0.4982158624 0.9964004914
0.1623660473 0.7500135943 0.2454420803
0.1724509214 0.7509574103 0.4973365644
0.1625965461 0.500436759 0.2499719706
0.1623947676 0.7493952321 0.7460451207
0.1725551245 0.4985068181 0.4985783489
0.1926858426 0.7483277437 1.0006256888
0.2026701957 0.4993289143 0.7468312467
0.1825623066 0.4995658447 0.7506689042
0.1927734764 0.4971216868 0.9977260436
0.2025630469 0.7524414795 0.2508934134
0.1825461054 0.7495644681 0.2496148079
0.192460867 0.7516408632 0.5026010314
0.2025818256 0.5027370663 0.2507912354
0.2025637833 0.7509834466 0.7477830668
0.1826827109 0.4972381992 0.2516408775
0.1825265903 0.7497597404 0.7499407711
0.1925558649 0.5001965741 0.5011263547
0.2126166233 0.7501177395 1.002080114
0.2225420629 0.4991466602 0.75115494
0.2125065288 0.5006430967 1.001831573
0.2225416947 0.7516408632 0.2447673375
0.2127296634 0.7502023575 0.4984393501
0.2226558395 0.4993211034 0.2455175632
0.2224352824 0.7499289763 0.749607542
0.2125334081 0.4994089759 0.4993985343
0.2524656655 0.7478135267 1.0011043604
0.2426937689 0.4998125386 0.7454173245
0.2328220878 0.7499745398 0.9965017489
0.2525113234 0.5003208974 1.0006993306
0.2326541845 0.5016441925 0.9915585441
0.2424492782 0.7483212346 0.2479339342
0.2524781846 0.750072176 0.501245102
0.2324619795 0.7464661481 0.5012745588
0.2426061352 0.4979027758 0.2459428445
0.2426083445 0.7482821802 0.7460092203
0.2526957961 0.5018492284 0.4979155729
0.2325864341 0.4995417611 0.4981208494
0.2725938061 0.7487052701 0.9960414877
0.2625667408 0.499936862 0.7496149062
0.2726085345 0.4991505656 0.9973118085
0.2625387569 0.7488940333 0.2504847015
0.2725956472 0.7506449746 0.4984816941
0.2626149762 0.4998899966 0.2503613515
0.2625858877 0.7487052701 0.7491629297
0.2726475646 0.5016253162 0.4963064999
0.2925765042 0.7514586091 0.9962808235
0.3026831027 0.5007849945 0.7482552947
0.282593624 0.5002102431 0.74692514
0.2926961721 0.499957691 0.9964557228
0.3027387022 0.7502414119 0.246379172
0.2826823623 0.7497987948 0.2471708212
0.292664138 0.7498443583 0.494762784
0.3027298652 0.5009900304 0.248256117
0.3026422315 0.7521095166 0.7465762621
0.2826208714 0.4992429945 0.2469637037
0.2825063585 0.7491739235 0.7460939084
0.2927679729 0.4990594386 0.4973678621
0.3327153269 0.7497532313 0.9940071335
0.3226470221 0.4994408704 0.7490377387
0.312620325 0.7522787526 0.9946514991
0.3325279085 0.4976612891 0.9970080362
0.3124653091 0.499098493 0.998075842
0.3226628551 0.7484058526 0.2426446131
0.3325650976 0.7522917708 0.4960708462
0.312604492 0.7526823153 0.4946753344
0.3225225675 0.5003417265 0.2480241454
0.3226687465 0.7503130118 0.7487376484
0.3325625202 0.4995619392 0.4972242606
0.312634317 0.4980192883 0.4980269561
0.3525091338 0.7488484698 0.9946422939
0.3425560785 0.4988394318 0.7434428042
0.3526015542 0.4979476885 0.9969435996
0.3426219879 0.7491869417 0.2479109211
0.3525466911 0.7498899219 0.4911699855
0.3425778028 0.4996114082 0.243076338
0.3426809013 0.7497402131 0.7444461735
0.3525599466 0.4992644745 0.4954651425
0.3725496407 0.7482496348 0.988456384
0.3825207383 0.4977413508 0.7370276842
0.3625601327 0.4992091473 0.7397634765
0.3725017735 0.4983824947 0.9884287683
0.3826385651 0.7482496348 0.2389303056
0.3625601327 0.7478721084 0.2461702135
0.3724207676 0.748008799 0.4884470805
0.3826091084 0.4977660852 0.2381598284
0.3825281024 0.7478070177 0.7424265475
0.3625085834 0.4993634124 0.2427145728
0.3626264103 0.7487638518 0.7414194961
0.3725165019 0.4986780067 0.4909674706
0.3925176105 0.7493952321 0.9885208205
0.4025991707 0.4970084288 0.7320099172
0.3924807896 0.4985230907 0.9889994921
0.4024666155 0.7467395293 0.2384332235
0.3925360209 0.7475726909 0.4880779511
0.4024813438 0.4980869827 0.2369152823
0.4026985871 0.7482886893 0.7391485676
0.3924550149 0.498858959 0.4889588909
0.4327297067 0.7492780688 0.983006892
0.4225929151 0.5003807809 0.7367598123
0.4126696847 0.7492194871 0.9864588506
0.4324461858 0.5008233981 0.9850412463
0.4125076727 0.4987769447 0.9878120184
0.4225781867 0.7495905044 0.2340938814
0.432619244 0.7502023575 0.4869107288
0.412599725 0.748262653 0.4836447157
0.4227181061 0.4985022617 0.2325943506
0.4226186897 0.7502609392 0.7353799493
0.4324940529 0.4997793423 0.4850595584
0.4125408116 0.4984007201 0.4876922522
0.4525503928 0.7484904706 0.9857592536
0.4425756132 0.4979815357 0.7341998397
0.452473069 0.4989351152 0.9853266082
0.4425314281 0.7488484698 0.2359597801
0.45259826 0.7486011249 0.4843259022
0.4424688326 0.4979463866 0.2378578971
0.4425903415 0.7506905382 0.7344621886
0.4525062078 0.4996452554 0.4872172627
0.4724447208 0.7492910869 0.9866521603
0.4825189169 0.4995664956 0.7362148631
0.4625104441 0.4989657079 0.7362829817
0.4725146805 0.4990099696 0.9866705707
0.4825005064 0.7494017412 0.23719328
0.4625509471 0.7479306901 0.2366483308
0.4723784432 0.7501763212 0.4888254152
0.4825778303 0.5014196294 0.2350926481
0.4824489572 0.7495449409 0.7366511906
0.4625104441 0.4992150055 0.2352159981
0.4625399009 0.7503390481 0.7364523578
0.4725846402 0.4979854411 0.4885538611
0.4923648234 0.5001464542 0.9875358617
0.5024684762 0.7507100654 0.2393353354
0.4925489279 0.7491023237 0.4860564841
0.5024058807 0.4987841047 0.2322758499
0.5024537478 0.7503455572 0.7382878793
0.4923721876 0.7489070514 0.9844705224
0.4924568756 0.4986487159 0.4855041707
0.5025715747 0.4996257282 0.7331863447
0.5123917066 0.7484644343 0.9843600597
0.5123401573 0.5006144567 0.9855567387
0.5124690305 0.7511201372 0.4851332002
0.5125132155 0.5006261731 0.4894660987
0.5224511743 0.5009399105 0.7342035218
0.5323707226 0.7504041388 0.9853174029
0.532429636 0.5027865353 0.9828872241
0.5223443937 0.4984495382 0.2341288613
0.5224069892 0.7504562114 0.2335811505
0.5323007629 0.7510485373 0.4826606773
0.5324112256 0.5018772174 0.4818727102
0.5223480758 0.7506384656 0.7360786258
0.5423712769 0.5004881807 0.7354913325
0.5524638834 0.7502218847 0.9804846609
0.5624055243 0.5020744424 0.7313922467
0.552445473 0.5019885226 0.9832186121
0.542293953 0.5008175399 0.2328852356
0.5425296067 0.7515822815 0.2320576861
0.5624165705 0.5022781765 0.2305581552
0.5624423451 0.7534634044 0.2351267074
0.5524196983 0.5033404576 0.4827140676
0.5524233804 0.7518035901 0.4829147415
0.542415462 0.7513414457 0.7344520628
0.562479166 0.7519858442 0.7331412391
0.5823919045 0.5016005817 0.7332240861
0.5723729397 0.7515302089 0.980696381
0.5724834024 0.5017060287 0.9846546269
0.5824765925 0.5015953744 0.234530209
0.5823035343 0.7525976973 0.2345495399
0.572424489 0.5025528595 0.485888949
0.5724760382 0.751276355 0.4827582527
0.5824287253 0.7508662832 0.7333483566
0.6024224697 0.4993777324 0.7400239843
0.5925029214 0.7524479886 0.9848571418
0.6124598449 0.7498769037 0.9936481298
0.5924476901 0.5006541621 0.9868270595
0.6124009315 0.501858992 0.9896622682
0.6024371981 0.7499094491 0.2385335605
0.6022199548 0.5000546762 0.2350926481
0.5925728811 0.7518882081 0.4879030518
0.5924182334 0.5030950655 0.487746563
0.612342018 0.7518166082 0.4907124859
0.6124193419 0.5008403217 0.49073734
0.6025918458 0.7502088666 0.7398361978
0.6224051678 0.5008832816 0.7426852143
0.632361537 0.7504692296 0.9955075848
0.6323099878 0.4990321005 0.9965938011
0.6223757111 0.7491609054 0.2445556174
0.6223131156 0.5004621444 0.2385924739
0.6324388609 0.7486336703 0.4952166015
0.6323026236 0.4990197332 0.4956998757
0.6224051678 0.7491413782 0.7437171198
0.6422442645 0.4999882837 0.7454311323
0.6522779575 0.7514521 0.9966950586
0.6623190148 0.4995710519 0.7494446096
0.6523552814 0.4995970882 0.9965938011
0.6423731376 0.751797081 0.2446108487
0.6423105421 0.5006632748 0.2454835038
0.6622490551 0.7521355529 0.2478750208
0.6623411073 0.5012777315 0.2476016256
0.6523110964 0.750586393 0.4989180217
0.652296368 0.4998906475 0.4986335803
0.6424136406 0.7508077015 0.7477333586
0.6624037029 0.7499680308 0.7488619189
0.6822906667 0.5019963335 0.7475271616
0.6724300318 0.7492325052 0.9987110024
0.6724742168 0.5009158269 0.9989595434
0.6824379502 0.7489330877 0.247469991
0.682426904 0.5004458717 0.2489455882
0.6723490258 0.7494342866 0.4964298499
0.6723895288 0.5005155188 0.4975989132
0.6823606263 0.7508923195 0.7462200199
0.702531111 0.5012796843 0.7508474855
0.6924274582 0.7495970135 1.0003127112
0.7124285668 0.7496100316 1.0018499835
0.6925784239 0.5010707429 0.9987938494
0.7124985265 0.5026550519 0.9984256405
0.7024832438 0.7519728261 0.2474663089
0.7023433245 0.499323707 0.2460468635
0.6924642791 0.7489330877 0.4986888116
0.692582106 0.5002219595 0.4981622729
0.7125316653 0.4994050705 0.4971929629
0.712520619 0.7502544301 0.5007369737
0.7025384752 0.7484644343 0.7510417158
0.7225727225 0.5009360051 0.7492743129
0.7325106813 0.7504952659 0.9989319278
0.7425333281 0.4992202127 0.7474286657
0.7324738604 0.4989260025 0.9969067787
0.7225727225 0.7506124293 0.2475666458
0.7224990808 0.50115471 0.2487255834
0.7424744147 0.7506905382 0.2486178823
0.7426143341 0.5018329557 0.2490974744
0.732661647 0.4991375475 0.5020772542
0.7324407216 0.7501177395 0.4985939978
0.7224769882 0.7504301751 0.7482727847
0.7425811953 0.7504236661 0.7506504938
0.7525927958 0.4989696133 0.4956805447
0.7525081078 0.7492259962 0.997992995
0.7625823038 0.4993184998 0.7514872485
0.752515472 0.4984345673 0.9970908832
0.7624865695 0.7502869755 0.2498486206
0.7624276561 0.4992293254 0.2520302584
0.7525117899 0.7513023913 0.5009008267
0.7624865695 0.7506514837 0.74958637
0.7725276268 0.4994981503 0.5006053391
0.7723361581 0.7503715935 0.9982599465
0.7925508279 0.497394417 0.5010232562
0.7924035443 0.7510355192 0.998692592
0.7825834124 0.4998496404 0.7521205679
0.7724687134 0.4984521418 1.0031571251
0.7926207876 0.4997448442 1.0047864496
0.782524499 0.7490307239 0.2494003262
0.782524499 0.5011371355 0.2521020592
0.7723877074 0.7495384318 0.4985930773
0.7925729204 0.7491153419 0.5025264691
0.7825613199 0.7502218847 0.748472538
0.8126034857 0.4996315863 0.4969683554
0.8125482543 0.7499680308 1.0000917859
0.8025071971 0.4991251802 0.750598024
0.8126550349 0.5007374783 0.9981494838
0.8024703762 0.7476182545 0.2485755382
0.802588203 0.4984306619 0.2516086592
0.8124562021 0.7483733072 0.4986915732
0.8025587463 0.7499745398 0.7490589107
0.8326635077 0.5002616648 0.495256184
0.8325788196 0.7511136281 1.0002482747
0.8226850459 0.4982868113 0.748906104
0.8426272411 0.4986506686 0.7491279499
0.8327886987 0.4999010621 0.9990423905
0.8226408609 0.7479957809 0.2505491381
0.8226445429 0.4998483385 0.2486353722
0.8425278246 0.7487117792 0.2464031056
0.8426456515 0.4987170612 0.2474663089
0.832637733 0.7518686808 0.5003926984
0.8225893116 0.7503455572 0.7500245386
0.8427855709 0.7483342528 0.7514329377
0.8526388416 0.4984807818 0.5008327081
0.8625768004 0.7470845103 0.7486511193
0.8627130377 0.4987756429 0.75164834
0.8525357431 0.7511657007 1.0014449537
0.8526867088 0.4999824255 1.0008282037
0.8626173033 0.7483342528 0.2502453657
0.8627056735 0.4984573491 0.2503788414
0.8526277953 0.7491543963 0.4998919343
0.8726914994 0.5002356285 0.5010904543
0.8825447701 0.7474425094 0.7534949077
0.8925747811 0.5009093179 0.5058725677
0.8725699905 0.7498573765 0.998775439
0.8925968736 0.7504562114 1.0055965092
0.8825852731 0.4989715661 0.7526876096
0.872673089 0.5007355255 1.0001654277
0.8925747811 0.5011377864 1.0069772927
0.8825189955 0.7474099641 0.2515018786
0.8825779089 0.4995762592 0.2551213723
0.8725442158 0.7506384656 0.5003540365
0.8924164513 0.7508077015 0.504154873
0.9126937165 0.5000312436 0.5083588984
0.9024538264 0.7460886217 0.7554804743
0.9226059007 0.7507946834 0.7595933679
0.9125648434 0.7487247973 1.0063145166
0.9025974279 0.4994584449 0.7579971823