POSCAR file written by Ovito 3.7.11
1
271.5998724549 0.0 0.0
0.0 15.3640089266 0.0
0.0 0.0 10.8639948982
Sr Ti O 
800 800 2400 
Direct
0.012618 0.2484686439 0.5289015267
0.0224942197 0.2494560164 0.7797383529
0.0025486286 0.2496350062 0.7842532667
0.0126814021 0.2511938441 1.0310197669
0.0225797131 0.0019715208 0.2744951112
0.0025393502 1.0008263167 0.2823550192
0.0124178527 -6.6737377975e-04 0.529819237
0.0226163479 -2.3265651084e-04 0.7812212329
0.0024782677 -1.5468207033e-04 0.7818333465
0.0125327275 1.0001689362 1.0311854519
0.0224696615 0.2515205818 0.2789336258
0.0024809923 0.2520393266 0.2847151087
0.0324986795 0.2506835606 0.5246599931
0.0424692291 0.2501967085 0.7730170685
0.0326139225 0.2495796821 1.0242542999
0.0425255619 1.0023558654 0.2723439688
0.0324776927 -0.0016882662 0.5252371288
0.0424644426 1.0014836972 0.7772144195
0.0324931566 3.5163109553e-04 1.0240057725
0.042594045 0.2505657528 0.2788682723
0.0725848544 0.2507382339 0.526501857
0.052454138 0.2498159485 0.5263775933
0.062517103 0.2502578905 0.7753366572
0.0725421445 0.2506607801 1.0270893527
0.0525612809 0.249295902 1.0263161565
0.0625461899 0.999687291 0.2738167236
0.0725090075 1.0014511536 0.5197225828
0.0526264503 5.1181064318e-04 0.5218884527
0.0626338188 0.9987044746 0.7743453092
0.0724618794 0.0014193863 1.0219991442
0.0525977316 0.9991665936 1.0241162291
0.0624994299 0.2498764796 0.2742613114
0.0925406812 0.2532603621 0.521994307
0.1025889186 0.2522905631 0.7690884952
0.0825546676 0.2517379729 0.771845308
0.0925318446 0.2522183163 1.0218978923
0.1026018052 1.0008067905 0.2672528398
0.0825995867 1.0016073628 0.2750050526
0.0925642452 0.0027887554 0.522206936
0.1025053397 3.5521089038e-04 0.7690240622
0.0826518695 1.0026813013 0.7734404855
0.0925671907 1.0021671126 1.0221556243
0.1025793457 0.2528913177 0.266090284
0.0825465675 0.2517614043 0.2719187109
0.1125712502 0.249798375 0.5136916521
0.1226544656 0.2497957715 0.7597263774
0.1124909851 0.2528783003 1.0097384609
0.1225609456 4.9781689969e-04 0.2615707679
0.112547318 1.0019783597 0.5133593618
0.1225598411 1.0010541218 0.7614633075
0.1125498953 0.0031682788 1.0149207167
0.1226323742 0.2501901998 0.2591646548
0.1524902675 0.2491579172 0.5130951865
0.132628697 0.251463305 0.5107700749
0.14258231 0.2515674445 0.7619870559
0.1525569096 0.24758476 1.0121316874
0.1325624231 0.2521324012 1.0085786666
0.1425760508 -0.0022038543 0.2636758867
0.1525882057 1.0002665669 0.5141251943
0.1326154423 -3.4935782289e-04 0.5095081082
0.1425988785 -6.3144565691e-04 0.7603541391
0.1525035223 1.0010085608 1.0100053977
0.1326739843 0.0031166646 1.0111191685
0.1425138269 0.2494273781 0.2625630364
0.1724402032 0.2496467219 0.5116150679
0.1625421868 0.2477741637 0.7652123888
0.1724803358 0.2496519288 1.0140922921
0.1624265755 8.7083152285e-04 0.2624442956
0.1723864477 -3.0282048986e-04 0.5110618645
0.1624700218 0.998164251 0.7635840743
0.1724383623 9.5316680435e-04 1.0158411884
0.162439094 0.2512322456 0.2627130733
0.1925237914 0.2500704394 0.5109992724
0.202572397 0.2489112367 0.7592072313
0.1824114892 0.2482994173 0.7632830801
0.1924715087 0.2496278466 1.0119752072
0.2025687152 -3.9472358669e-04 0.2567235639
0.182481445 -2.3115950572e-04 0.2623706578
0.1925491965 -0.001620901 0.5096986458
0.2024991275 0.9978778675 0.7609533662
0.1825396189 1.0000192357 0.7604811642
0.1925156913 8.3535901026e-04 1.0099593741
0.2024597313 0.2498660657 0.261112373
0.1824604583 0.2492028273 0.2612200682
0.2125127552 0.2506379996 0.5071710305
0.2225138644 0.2479290712 0.7511411377
0.212389412 0.2495067844 1.0055227005
0.2224479587 0.9973181177 0.2479781621
0.212582711 0.9982098121 0.5083032107
0.222370639 0.9971488911 0.7473653628
0.212491032 0.9982618818 1.0035989146
0.2225182827 0.2473152991 0.2542566997
0.2523621848 0.2489066806 0.4970697739
0.2324645319 0.2519644763 0.496154825
0.2425020918 0.2473947055 0.7474058635
0.2525738933 0.2511814776 0.9921114276
0.2323577571 0.2482056917 0.9985547296
0.2425197648 1.0000778141 0.2444812901
0.2525171922 6.3059474496e-04 0.494121503
0.2326257985 -8.4870666059e-04 0.4946480129
0.2424453907 0.998418091 0.7459202222
0.2526099758 0.0014687223 0.9925440493
0.2324339722 -0.0030462451 0.9989873513
0.2424402361 0.2494534129 0.2473237067
0.2726574815 0.2478268843 0.4964236028
0.2625886255 0.2501960577 0.7425651028
0.2726434903 0.2493564331 0.9978367617
0.2624910555 0.9971879434 0.245394398
0.2724071132 -0.0010014012 0.4934909799
0.2625779481 0.9974222572 0.7450310465
0.2724995286 -7.9045363534e-04 0.9955631965
0.2625768435 0.2485766886 0.2430969006
0.2926125719 0.2478867645 0.4962431903
0.3025595574 0.2490088675 0.7406330326
0.2826055716 0.2478145178 0.7452961423
0.2926066809 0.2486189953 0.9966953767
0.3024947562 -0.0017832935 0.2444527554
0.2826295039 0.9968364726 0.2438719378
0.292581644 -0.0014057227 0.4920347937
0.3026030037 -0.0034253063 0.7420616047
0.2825853212 0.997266048 0.7430281
0.292595267 -0.0023148344 0.9918536955
0.3025864352 0.248818813 0.242871385
0.2827226556 0.2485011875 0.2430637636
0.3324461694 0.2482929085 0.484881808
0.3124697241 0.249310872 0.4909541599
0.3225194342 0.2501055865 0.7391832897
0.3322889528 0.2500105592 0.9858614247
0.3124075002 0.2502207908 0.9890462568
0.3224947656 -0.0018116715 0.2361869195
0.3324586878 -0.0015040695 0.4852904974
0.3125013883 -0.0012661758 0.4910913102
0.3225157523 -0.0010329685 0.7354342084
0.3324667879 -2.958561617e-04 0.9858154011
0.3124516828 1.0013144705 0.9913198219
0.3224034548 0.2478815576 0.2378023473
0.3522977987 0.2495835873 0.4856715727
0.3424159826 0.249031648 0.7359607182
0.352296326 0.2487953816 0.9850882284
0.3424262919 -0.0032545891 0.2352305494
0.3523990506 -0.0024576552 0.4820927787
0.3424174554 0.997266048 0.7340608646
0.3523644409 -0.002618349 0.9812866803
0.3422952167 0.2481184749 0.2382717879
0.3724093693 0.250072392 0.4820117772
0.3824020102 0.2526836896 0.7236613752
0.3622952261 0.2478483631 0.7306523579
0.3724093693 0.2508495329 0.9802189331
0.382475648 0.9976760972 0.2275952365
0.3624461835 0.9969341034 0.2338277505
0.3724351425 -0.0028350762 0.4758657875
0.3826486966 -2.2868619292e-04 0.7261945133
0.3623762276 0.9964329321 0.7341851283
0.3725308716 -0.0012418332 0.9771353528
0.3823799189 0.2487511223 0.2255407436
0.3623983189 0.2494182659 0.2330563952
0.3924498794 0.2521174312 0.4758446167
0.4024314747 0.2492282113 0.7224675234
0.3924093787 0.2465023602 0.974852583
0.4024351566 1.0000452705 0.2194886421
0.3924756526 0.9992772418 0.4718451671
0.4024388385 -0.0024631811 0.7205879201
0.3924535613 0.9963222839 0.9712443339
0.4024388385 0.2503711422 0.2191692384
0.4325124903 0.2517464343 0.4670264977
0.4124241156 0.2476804382 0.470139533
0.4225898052 0.2513897565 0.7163703187
0.432424125 0.2500593746 0.9664302668
0.4123836149 0.2497424 0.9694033904
0.422597169 0.9980210593 0.217425865
0.4326008556 1.0005334244 0.4643911872
0.4124682983 4.8650277033e-05 0.4684578312
0.4225124856 0.999296768 0.7127777176
0.4325529911 0.9995375905 0.9700845395
0.4125051171 -2.8824096175e-04 0.9668168649
0.4224609392 0.2495673155 0.2178768961
0.4523689061 0.2528737442 0.4609707143
0.4424830399 0.2500229258 0.7194861155
0.4525161816 0.2516780927 0.963300663
0.4424572667 1.0023428479 0.2139032197
0.4525272272 -9.1763398321e-04 0.4642899353
0.4426045422 7.1279985211e-04 0.7156643169
0.4525124997 1.0018416767 0.9586246667
0.4425824508 0.2509803582 0.2173816824
0.4725125091 0.2507824931 0.4540920292
0.4827039719 0.2511111834 0.7062037087
0.462556687 0.2517295116 0.7117615169
0.4726266476 0.2494527621 0.9545745911
0.4826487436 4.6859275629e-04 0.2008803859
0.4624720036 0.0018349028 0.2107552065
0.4724904178 1.0009434736 0.4572345196
0.4825125138 0.9998109567 0.7036779343
0.4625309138 -3.2488504356e-04 0.7085840485
0.4725751012 0.0013525417 0.9604472007
0.4826818806 0.2502025664 0.2091968479
0.4624499123 0.2509452111 0.2097353238
0.5125824837 -9.4165115228e-04 0.4578420309
0.5125935294 -0.0010451398 0.9570046365
0.4925456555 0.2478190739 0.4564530391
0.5025567058 0.2486756212 0.708618106
0.4926156113 0.24948856 0.95509926
0.5125493467 0.2504180049 0.4575935036
0.5126598033 0.249341463 0.9584497771
0.5026229798 5.4734824295e-04 0.2044702256
0.4925567011 -1.1836342442e-04 0.4578088939
0.5025456602 6.8416149332e-04 0.7060048868
0.4925162004 -1.6496584462e-04 0.9598580988
0.5026892537 0.2493076177 0.2066038791
0.5225051688 0.9997458695 0.2109779606
0.5325824931 -0.0031682575 0.4620881669
0.5225714428 1.0010996828 0.7078237389
0.5326045844 0.9995245731 0.9628588366
0.522659808 0.2482037391 0.2124258626
0.5326229939 0.2497319861 0.4632608479
0.5225235782 0.2487328979 0.7126810681
0.5325640837 0.2498452378 0.9592413827
0.5425567246 -5.2574407812e-04 0.211013859
0.5624536412 3.3073811105e-04 0.2185111011
0.552534638 -1.1803798853e-04 0.4666491043
0.5425419971 1.0008523515 0.71161148
0.5625309608 1.0015878367 0.7224445116
0.5525088648 -0.0015112291 0.9640922687
0.5424204948 0.2502481274 0.2148108049
0.56249046 0.2493746575 0.2199939811
0.5526230033 0.2490251393 0.4667264239
0.5424573137 0.2485447959 0.7115590131
0.5625530521 0.2476160019 0.7195477871
0.5525162285 0.2488656757 0.9650127404
0.5825825166 7.2861603662e-04 0.2226835994
0.5725861938 9.5889447611e-04 0.4704405273
0.5826082898 0.999433451 0.7228458372
0.5725236017 0.0024031139 0.9712535386
0.5824941513 0.2498706218 0.2220125755
0.5725604206 0.2506282365 0.4744261698
0.5824573324 0.2472990273 0.7258033129
0.5723984176 0.250585279 0.9722936716
0.6024867969 1.00141861 0.2253262737
0.5925493843 0.9990038757 0.4775751035
0.6126083039 -0.0014861054 0.4806540814
0.6026046173 -0.0018611052 0.7237340925
0.5926929779 -3.6022738179e-04 0.9794273274
0.612538348 9.974371259e-05 0.9831092143
0.6027629384 0.2494111063 0.2285497657
0.5926635228 0.2484536739 0.4766868483
0.6125162567 0.2491032439 0.4821608936
0.6026009354 0.247914752 0.7307158704
0.5926414315 0.2501680702 0.9762977236
0.6126451228 0.2499272476 0.9804950746
0.6226193542 9.0083671239e-04 0.2312338612
0.6324647197 0.0020565898 0.4862993344
0.6225236252 -0.0011009846 0.7340553418
0.6326156771 1.0010150695 0.9844807171
0.6225457165 0.2512283403 0.2362771257
0.6326709054 0.2500535167 0.4848008065
0.622659855 0.250128367 0.7343784273
0.6326672235 0.2496180835 0.9821243095
0.6425015433 0.9999736746 0.234527309
0.6623211402 0.0010265201 0.2367235545
0.6525125936 5.3862656096e-04 0.4873606383
0.6425678172 1.0004943721 0.7326718728
0.6622843213 1.0014446449 0.735934945
0.6524573653 0.9999932008 0.9884847691
0.6425788629 0.2506184735 0.2382055139
0.662490507 0.2504967604 0.2373126564
0.6525899132 0.2522814509 0.4871967943
0.6427224565 0.2521668974 0.7368020294
0.6626009636 0.2504577081 0.7400098733
0.6524647291 0.2497437018 0.9877668011
0.6823579685 1.0020694818 0.2405407507
0.6724721023 1.0017505546 0.4888103812
0.6822916945 0.0019079306 0.7417385192
0.6724905117 0.0020504716 0.9913106172
0.6824905164 0.2515472675 0.2380591589
0.6724868298 0.2521018103 0.4903761036
0.6824205605 0.2518512246 0.7392044605
0.6724721023 0.2528984773 0.9910620899
0.7023174771 6.5161790379e-04 0.2450915628
0.6924463384 1.0022321997 0.4932461344
0.7124500297 1.0009825259 0.4959477189
0.7022438394 1.0014511536 0.7467403625
0.6924573841 1.0020564644 0.9977907381
0.7124242565 -5.8243501108e-04 0.9977355098
0.7024205699 0.2518629403 0.2426992568
0.6923984739 0.2517692148 0.4896038279
0.712343255 0.2517470851 0.4943055974
0.7023653416 0.2479928566 0.743371436
0.6923984739 0.2520861893 0.9935749776
0.712376392 0.2485714817 0.9941364654
0.7223469416 -0.0021960438 0.2495125885
0.7424831808 0.9983009341 0.2523890626
0.7324279478 9.5850395304e-04 0.5011529865
0.722398488 0.9986133526 0.7517339215
0.7423579966 -0.0023564186 0.7505474335
0.7324095384 1.0007547208 1.0001287362
0.7225199903 0.2504772343 0.2466057388
0.7425199997 0.2490173288 0.2516066616
0.7323984927 0.2509295902 0.4993074407
0.7223469416 0.2510116 0.7475660256
0.7424610895 0.2507597126 0.7540673173
0.7323911289 0.2482629684 0.998508706
0.7624463713 -4.7426011949e-04 0.2528520598
0.7524537304 2.8641374212e-04 0.5007222057
0.7625273728 7.905139439e-04 0.7503817486
0.7524831855 1.0007547208 1.0013253495
0.7625236909 0.2505110796 0.2521202848
0.7523506376 0.2502578905 0.5035029507
0.7626083743 0.2508345629 0.750368862
0.7524316391 0.2498992601 1.0044365439
0.7824868815 0.0025959021 0.256704234
0.7725052862 1.0018026244 0.5025235688
0.7923874752 1.0024990572 0.503999085
0.7825310641 0.0016918412 0.7532932006
0.7726267885 1.0004813546 1.0028533325
0.7925421145 0.0011957467 1.0059645269
0.7824426988 0.2519657781 0.255514064
0.7723616926 0.248788222 0.5014576626
0.7923727477 0.2517496886 0.5056448884
0.7824316532 0.2523139945 0.7540673173
0.7723727383 0.2495992082 1.0026692382
0.7924206122 0.2500463571 1.003129474
0.8025310735 0.9994009074 0.2583739696
0.8123764389 -4.3123749414e-04 0.5050815597
0.8024022074 -2.2543183397e-04 0.7535951153
0.8123874846 1.0005073895 1.0065444241
0.8024574358 0.2504453416 0.2555186664
0.8124905774 0.2489118876 0.5067577387
0.8023138422 0.2518160775 0.7551461101
0.8125089869 0.2510708293 1.0064523769
0.8225016278 1.0008848951 0.2553861185
0.8423874987 0.9999346223 0.2592373721
0.8323801302 -3.2644713586e-04 0.5052426423
0.8224095806 -0.0012546554 0.7578071939
0.8423249066 0.0012940284 0.7583668407
0.8324795412 4.1678336177e-04 1.0091309496
0.8223838074 0.2513812952 0.2545273184
0.8424537726 0.2506406031 0.2565367081
0.8323911759 0.2494846548 0.5070136299
0.822494264 0.2507486478 0.7530069339
0.8424795459 0.2510779889 0.7590111709
0.832453768 0.2502006138 1.0053846297
0.8622291869 0.0023388078 0.2620153557
0.8523175475 0.9979299372 0.5114033595
0.8622365507 1.0018221505 0.761756938
0.8522954562 9.2752245581e-04 1.0102355157
0.8622991428 0.2532785865 0.261487005
0.8523543664 0.2494299816 0.5083814508
0.8624132813 0.2510890538 0.7629066072
0.8523801396 0.2503457582 1.0081552496
0.882273379 1.0000062182 0.2695595419
0.8723654215 0.0011404877 0.5148045024
0.8923507033 -4.7933691946e-04 0.525898948
0.8821960594 1.0007677382 0.7697981789
0.8722844199 4.6722592553e-04 1.0166972271
0.8824501095 0.25061587 0.2681337312
0.8923838403 0.0011218077 1.0236467885
0.8722476011 0.2484849157 0.5145274405
0.8925127063 0.2488533092 0.5210848809
0.8824906103 0.2508749169 0.7697383482
0.8722144641 0.2493811662 1.0143960478
0.8925274339 0.249260104 1.0225974508
0.9025200748 -0.0010573762 0.2772602083
0.9225164023 0.0011292927 0.2802811964
0.9124353961 -9.3436138823e-04 0.5294215932
0.9024206638 1.0008914039 0.7769106638
0.922494311 1.0003902326 0.7787479254
0.9125016701 0.9997263433 1.0289579103
0.9025274386 0.2494085028 0.2747408772
0.9224685378 0.2518811647 0.2754109806
0.9124538055 0.2484029059 0.5293240232
0.9024722103 0.2510760363 0.7781321298
0.9224906291 0.2495048318 0.7770468936
0.9124906244 0.2477240466 1.027503565
0.942505366 0.9990494367 0.280182706
0.9325090432 1.0019067638 0.5301229927
0.9426747328 1.0011517526 0.7783116218
0.9325605896 0.9997784131 1.0272458329
0.94257164 0.249894704 0.2844831498
0.9325421802 0.2520178478 0.5254957814
0.9426563234 0.2502774166 0.782532905
0.932582681 0.2512673926 1.0295470122
0.9624427833 -0.0010222942 0.285843607
0.9525679628 0.9988606839 0.5366601828
0.9724575156 1.0004162674 0.5418093016
0.962520103 1.0001103577 0.7842385391
0.9525495534 0.9982683905 1.0379601237
0.9625311486 0.2482148039 0.2885709647
0.9724501518 -0.0014781648 1.0380705803
0.952693147 0.2487368031 0.5325953797
0.9727520665 0.2510558593 0.5364374286
0.9626931516 0.2491624733 0.7879728929
0.9526158273 0.2492041291 1.0302465707
0.9727078839 0.2501836911 1.0396906105
0.9824832935 -5.8712128797e-04 0.2888020031
0.9925053895 0.9998825526 0.5367651166
0.9825679769 1.0016659413 0.7904250295
0.9825237942 0.2479271186 0.2896488371
0.9925090714 -9.4184641382e-04 1.0379325095
0.9925900729 0.2496695024 0.5372456028
0.9826195233 0.2504772343 0.7909101181
0.9926416193 0.251301238 1.034922567
0.0124653122 0.7499282589 1.0288658631
0.0225571431 0.5016323865 0.7755897869
0.0025333856 0.4979770905 0.7833346359
0.0125164904 0.5010895594 1.0325753641
0.0226010681 0.7503448168 0.2752572618
0.0025282309 0.7490235471 0.2835875308
0.0125486333 0.7507613747 0.5288444575
0.0226182625 0.749902224 0.7756698679
0.0225783876 0.5016584213 0.279400305
0.0025927376 0.5003722987 0.2835856899
0.0025320969 0.7478780127 0.7843940988
0.012508243 0.5007283255 0.5322354753
0.0326676781 0.7518613481 1.0238216781
0.0425222482 0.4991642806 0.7739688362
0.0325550123 0.5015588379 1.023370647
0.0426514825 0.7506702527 0.2736326292
0.0326179726 0.7501951163 0.523018792
0.0427236475 0.7517637173 0.7703946446
0.0425679036 0.5001718302 0.2753437862
0.0324309328 0.4992859936 0.5270449353
0.0724920709 0.7507223224 1.0248894253
0.0626268232 0.5001334287 0.775213314
0.0525211484 0.750201625 1.023370647
0.0725513492 0.5006586823 1.022266081
0.0526710012 0.5022455077 1.0219163017
0.0625800633 0.7511453891 0.2729965833
0.0726084185 0.7516400517 0.5238775921
0.0526260822 0.7526814465 0.5235775183
0.0625303578 0.5001165061 0.2757147363
0.0725344126 0.499670008 0.5257958552
0.0626846289 0.7521216968 0.769745712
0.0525211484 0.5014123918 0.5239760826
0.0925528314 0.7504814999 1.0210878772
0.1025535725 0.5030037733 0.7692007927
0.0824913392 0.5006254878 0.7753992493
0.0924110787 0.5021719592 1.0247789687
0.1025263265 0.7525382547 0.2675768458
0.0825141669 0.7518288045 0.2733767381
0.0925679271 0.752948304 0.5201772958
0.1026305239 0.7524080804 0.7678541426
0.1025671954 0.5027876839 0.2676560064
0.0825130623 0.5021413682 0.2739382258
0.0825406765 0.7508004271 0.772073585
0.0925057032 0.5011559483 0.5222667666
0.1126680838 0.7512755635 1.0109810977
0.1225580001 0.5009366045 0.7578881954
0.1124696301 0.5013557659 1.0149023072
0.1225410634 0.7510477583 0.2589354574
0.1125741957 0.7498761891 0.5102389627
0.122497249 0.5023867469 0.2576872977
0.1225664685 0.7508850404 0.7578964796
0.1125134446 0.499994793 0.5136437876
0.1524670716 0.7501886076 1.0096924373
0.14253555 0.5003462638 0.7564237249
0.1325237633 0.7499803286 1.0089192411
0.1524497667 0.5003579795 1.0116070185
0.1324828943 0.5024056221 1.011330877
0.142523768 0.7508915491 0.2587081009
0.1523816518 0.7484312537 0.508797504
0.1324740578 0.7500063635 0.5088380048
0.1424909992 0.5012900279 0.25819908
0.1424685397 0.7504489563 0.7589973638
0.1525337138 0.5021895327 0.5098459213
0.1326102876 0.5005050765 0.5088370843
0.1722163445 0.7495442445 1.0118739553
0.162484013 0.4994441555 0.7622153329
0.1724365213 0.5000611819 1.0119291836
0.1623249555 0.7525122199 0.260706445
0.1723415287 0.7485223758 0.5085747499
0.1624722309 0.5021934379 0.2632994138
0.1622262809 0.7497525235 0.7639679111
0.172441676 0.497999871 0.5117559001
0.1923540565 0.7497134712 1.0090665166
0.2025245325 0.4989820365 0.7573791745
0.1824899134 0.4969259325 0.7603210021
0.192460463 0.5001008851 1.0096187996
0.2023492747 0.7510672845 0.2528631055
0.1823360105 0.7508069358 0.2595374459
0.1925245278 0.748678585 0.5056945939
0.2024394809 0.5006593331 0.2565864136
0.2025374191 0.7499282589 0.7555704476
0.1823404288 0.4991864103 0.2619030582
0.1823477926 0.7503448168 0.7598736529
0.1924611994 0.4971055731 0.5097179757
0.2123765254 0.7496744189 0.9987848475
0.2224509042 0.4984483217 0.749065474
0.2124240217 0.4979002876 1.0038290325
0.2223540705 0.7489259163 0.2485433317
0.2124527404 0.7508199532 0.5010609393
0.2223386066 0.501223639 0.2499277212
0.222489564 0.7502406773 0.7469161726
0.212563197 0.4999147358 0.508081377
0.2525146149 0.748587463 0.994118056
0.242527865 0.4988791988 0.7464154359
0.23241409 0.7458212579 0.9974409588
0.2525757342 0.4978013551 0.9948544333
0.2324056217 0.49655819 1.00033124
0.242617703 0.7491016517 0.2469490747
0.2524218314 0.7477543471 0.4962247809
0.2323014243 0.749095143 0.4956697365
0.2425260241 0.4999934913 0.2432404942
0.2423688075 0.7472401584 0.7455409878
0.2525249242 0.4982576162 0.4948790513
0.2325540017 0.4989872435 0.4953558556
0.2725219881 0.7466153214 0.9956552437
0.2626453266 0.4998457434 0.7433475037
0.2726567451 0.4983558979 0.9928293956
0.2625573295 0.7486265153 0.2441664887
0.2726703681 0.7465697604 0.4926772829
0.2626202898 0.499568472 0.2441830572
0.2624649141 0.7485614281 0.7419833646
0.2725797937 0.4970138002 0.4925769515
0.2925606573 0.7478845214 0.9924796163
0.3026516046 0.4990256449 0.7404526202
0.2825488705 0.5005818794 0.7416630405
0.2925300976 0.4980428285 0.9906294682
0.3025510891 0.7483271142 0.2396396089
0.282584953 0.7483726753 0.2435598979
0.2926184629 0.7494270876 0.4937735647
0.3024594101 0.4984737057 0.2402084604
0.3027138285 0.7479300825 0.737710535
0.282604467 0.4995268162 0.2427765765
0.2824796511 0.7466348476 0.7424988288
0.2925838532 0.4981137736 0.4930132551
0.3325893948 0.7500454158 0.983118419
0.3225621441 0.5012731052 0.7379121183
0.312672596 0.7491537214 0.9880613521
0.3324822519 0.499543088 0.9842966228
0.3126556593 0.4989787822 0.9883743125
0.3225492575 0.7493229481 0.2352038557
0.3326052269 0.7489194076 0.482928567
0.3125728169 0.7502081337 0.489127944
0.3226317318 0.5019500119 0.232281358
0.3226273135 0.7504359388 0.7394327375
0.3324796745 0.4965646987 0.4832884714
0.3126729642 0.49922351 0.488411817
0.3525529535 0.7488152681 0.979961201
0.3423714318 0.4982452497 0.7341980149
0.3524038371 0.4980226515 0.9829987577
0.3424686336 0.7485744455 0.2339437299
0.3525393305 0.7492773871 0.4804046336
0.3423276173 0.4982315813 0.2314888318
0.3425584716 0.749485666 0.7335730146
0.3524093599 0.4972019022 0.4819795607
0.3725603267 0.7500584332 0.975892716
0.382700243 0.5001165061 0.7254590564
0.362460911 0.4985492068 0.7307085066
0.3724056874 0.4989839891 0.9760215821
0.3823946464 0.7476892599 0.2215983633
0.3625787314 0.7483987101 0.2261629825
0.3726229187 0.7483466404 0.4762054416
0.3825934683 0.4997741475 0.2256014948
0.3825456038 0.7478584866 0.7198230081
0.362622914 0.4990308519 0.2286758703
0.3623725457 0.7465437255 0.726238696
0.3725198259 0.4991903155 0.476600324
0.3925014259 0.7492448435 0.9700109018
0.4024020196 0.4993211407 0.7169400907
0.3925382447 0.4997474617 0.9724225377
0.4025051124 0.749186265 0.2162412179
0.3925051077 0.7494335963 0.467390084
0.4024646117 0.5008604525 0.2165284051
0.4024093834 0.7491146691 0.7150973064
0.3925345628 0.499624447 0.4697271617
0.4325566729 0.747409385 0.9673139197
0.422402029 0.4998294716 0.7162893172
0.4124241156 0.749856663 0.9659240074
0.4325898099 0.4991668841 0.9686670131
0.4124609345 0.5010928137 0.9663658338
0.4225088037 0.7484377625 0.217946852
0.4325824462 0.7518938917 0.4632645298
0.4123946605 0.7487762158 0.4675907468
0.422468303 0.4996693571 0.2180895251
0.422530895 0.7502667122 0.7178863357
0.4325308997 0.4997891175 0.4659081245
0.4124830258 0.5004146053 0.4712671109
0.4526376838 0.752232345 0.9617174516
0.4425161769 0.5009730533 0.7150310324
0.4526045469 0.5000227805 0.9617358611
0.4426266335 0.7516921214 0.2161003857
0.4525235454 0.7502081337 0.4619408915
0.4426155878 0.5032315784 0.2114483217
0.4424241297 0.7501951163 0.714702424
0.4525198635 0.5002414734 0.4645292579
0.4727518317 0.7482750445 0.9547310713
0.4826413798 0.4981879729 0.7024058424
0.4625971878 0.5013089032 0.7084119203
0.4727518317 0.4999368654 0.9586338714
0.4825787877 0.7495507532 0.2061758597
0.4627260538 0.749602823 0.2105517822
0.4726229657 0.7504229214 0.4569997993
0.4827297451 0.4988277799 0.2031806448
0.4828181104 0.7494791573 0.7082489968
0.4627113263 0.5003540743 0.2084972894
0.4626855531 0.7526489029 0.7123837558
0.4726376932 0.4995190057 0.4559743938
0.4928070694 0.5006534753 0.9608153894
0.5025309326 0.7501235204 0.2127314593
0.4925751106 0.7499738199 0.4564199021
0.5026634805 0.4998750326 0.2039575229
0.5025419783 0.7506832701 0.7102998078
0.492494109 0.7505921481 0.956010527
0.4925382917 0.4991037495 0.459092952
0.5026745262 0.5009209836 0.7066446146
0.5126229845 0.749856663 0.9597568469
0.5126818947 0.4996166365 0.9582012497
0.5125640743 0.7513797029 0.4590837473
0.5125677562 0.4982524092 0.4581292181
0.5225898522 0.4990516798 0.7089255435
0.5324830822 0.7513797029 0.9598304846
0.5325272648 0.5010628736 0.9626195139
0.5224867594 0.5005259044 0.2100860236
0.5225603971 0.7487176373 0.2073770753
0.5324425814 0.7483206055 0.4618782994
0.5325935388 0.4964560031 0.4604828643
0.522497805 0.7483661666 0.7106210524
0.5424683593 0.4983676135 0.7126608177
0.5524794097 0.7480667655 0.9626471281
0.562394731 0.4996029682 0.7189347529
0.5523468617 0.4991004952 0.9639265837
0.5424389042 0.4992580062 0.2144030359
0.5424241767 0.7494791573 0.2116268932
0.5623652759 0.4984340025 0.2193883107
0.562457323 0.7503122732 0.2210644897
0.5524536365 0.4987119247 0.4652527487
0.5523984082 0.7491472127 0.4677186924
0.5423358114 0.7493685091 0.7141749937
0.5622695468 0.7519199265 0.7200835016
0.5823542396 0.4994356942 0.7217145775
0.572416827 0.7499998547 0.9693389574
0.5723873719 0.4996198909 0.9682896197
0.5824168317 0.498121584 0.2239289977
0.5823431939 0.7503513255 0.2201559841
0.5724315545 0.498502344 0.4724572808
0.57238369 0.7491732476 0.4726524208
0.5823321483 0.7495832968 0.7230299316
0.6024131592 0.4998340277 0.7268857876
0.5924352458 0.7508524968 0.972965616
0.6124021182 0.7498892065 0.9768131877
0.5924536552 0.4997572248 0.9748341736
0.6124463009 0.5000865659 0.9780374151
0.6023284758 0.7482880619 0.2228704552
0.6024647056 0.5015646958 0.2299461212
0.5923800175 0.7498176106 0.4735268689
0.592461019 0.5000878677 0.4738103742
0.6124205277 0.7492513522 0.4757636152
0.612409482 0.5011950006 0.4800585362
0.6023800222 0.7499998547 0.7252648369
0.6224426237 0.5006411087 0.7320984189
0.6322879891 0.7518548394 0.9807343972
0.6324021276 0.5002629522 0.9844162841
0.6222732569 0.7509371101 0.2319518291
0.6224831244 0.5012958857 0.2349194299
0.6324058095 0.750754866 0.4829635449
0.6323947638 0.5011175469 0.4838867781
0.6222806207 0.7506572353 0.7307370412
0.6423653134 0.5028065592 0.7360251512
0.6523726819 0.7500584332 0.9854195983
0.6623837323 0.5017859922 0.737090137
0.6524058189 0.5000611819 0.9859442671
0.6423211308 0.7498696804 0.2351762415
0.6424499968 0.5001646706 0.2348172576
0.6622769576 0.7530914958 0.2378805874
0.6623248221 0.5011592027 0.2370549243
0.6524426378 0.7507418486 0.4855463886
0.6523800457 0.5008200985 0.4866675231
0.6422401293 0.7503513255 0.733526991
0.6623837323 0.7523625193 0.7370873756
0.6823911054 0.5022663356 0.7429259277
0.6722106883 0.7513146158 0.9893960361
0.6724279196 0.5015334539 0.9909240191
0.6822327843 0.751978505 0.2396276427
0.68224383 0.5014644615 0.2421193597
0.6722033245 0.7503448168 0.4887118908
0.6724205558 0.5017026806 0.4898578781
0.6822953764 0.7524926937 0.7410619725
0.7023763873 0.5012711526 0.7429756332
0.6922732898 0.749693945 0.9954895588
0.7122548897 0.7483466404 0.9961154796
0.6923321999 0.5027948435 0.9920193804
0.7125347131 0.5002427752 0.995646039
0.7023690235 0.7520045399 0.2423780122
0.7024942077 0.502401066 0.2437679245
0.692299063 0.7520435922 0.4927371136
0.6923542913 0.5007738866 0.4929230489
0.7123174818 0.502248762 0.4914337256
0.7122696173 0.7514512988 0.4951331014
0.7022953858 0.7500454158 0.7460987937
0.7224168974 0.5005421762 0.7434883359
0.7324758123 0.7489128989 0.997956423
0.7424279525 0.501954568 0.747356158
0.7323653557 0.5003983335 0.9962811645
0.7224168974 0.749602823 0.2489621464
0.7223543054 0.5013407959 0.2447924095
0.7424942264 0.7498111019 0.2485451727
0.7424647713 0.5007061959 0.2474267996
0.7323285368 0.5027551403 0.5004414618
0.7324169021 0.7497199799 0.500273936
0.7222438487 0.7510477583 0.7488565269
0.7424021793 0.7496614014 0.7524877878
0.7524868674 0.5000097631 0.4968009962
0.752435321 0.7485158671 1.0009755702
0.7624537351 0.4998281698 0.751034363
0.7523653651 0.5017840396 0.9989597372
0.7624316438 0.749485666 0.2478161591
0.76242428 0.5004985678 0.2484641712
0.752497913 0.7490756168 0.4986695538
0.7625421004 0.7511193542 0.7499555702
0.7725789239 0.5012327512 0.5031494896
0.7725310594 0.750247186 0.998996556
0.7924868862 0.5008077319 0.5012698864
0.7924721586 0.7484768148 1.0004509013
0.7824242894 0.4997162199 0.7542633778
0.7725273775 0.4991922681 1.001960475
0.7925052956 0.4994057541 1.0075109194
0.782696749 0.7521151881 0.2530564046
0.7824095618 0.5000156209 0.2511077659
0.7725568326 0.7509696537 0.5009744149
0.7924058846 0.7529092517 0.5042347258
0.7825200184 0.7495832968 0.7517256373
0.8125973521 0.4980948983 0.5069031732
0.8124832137 0.750455465 1.0081644543
0.802450072 0.500096329 0.7516271468
0.812405894 0.4997578757 1.0038290325
0.8024353444 0.7495312271 0.2562219068
0.802578938 0.4990380115 0.2536556316
0.8125237144 0.7511584065 0.5075373783
0.8024206169 0.7502406773 0.7567541742
0.8325789521 0.4989742261 0.5112063785
0.8325384514 0.7509371101 1.0116254279
0.8225053097 0.4977030735 0.7589559426
0.8425568655 0.5013336363 0.7603458549
0.8325936797 0.4984860722 1.009084926
0.8225163553 0.7492513522 0.2589290141
0.8224758546 0.4988687848 0.2607138087
0.8425016372 0.7488152681 0.2639069251
0.8425310923 0.4982374392 0.2636758867
0.8325237238 0.7518288045 0.5118470268
0.8224721727 0.7501886076 0.7596444554
0.8425016372 0.7479300825 0.7604922099
0.8524905962 0.4990178345 0.5159762629
0.8624758734 0.7493685091 0.7638289198
0.8623470073 0.4991903155 0.7658705261
0.8524537773 0.7491602301 1.0165867705
0.852531097 0.500812288 1.0103827911
0.8625126922 0.7500128722 0.2647556
0.8623138703 0.4988954706 0.2649111598
0.8524905962 0.7511128455 0.5111235361
0.8724832418 0.5028078609 0.5182636351
0.8824096088 0.748724146 0.7705069421
0.8926894369 0.4987926328 0.523051929
0.8724022403 0.7517637173 1.0195230752
0.8923727946 0.7499217501 1.0184000998
0.8826231582 0.4995216092 0.7681431707
0.8725642433 0.500132127 1.0168076837
0.8926305267 0.4991831559 1.0231405291
0.8823801537 0.7503513255 0.2679349093
0.8825495205 0.4981437137 0.2697942622
0.8724795599 0.7509761624 0.5196010805
0.8924353867 0.7501886076 0.5225318625
0.9124685331 0.4993784174 0.5264208555
0.9024832559 0.7506832701 0.7762543675
0.9223175804 0.7508980578 0.7792053998
0.9124096229 0.7488803553 1.0279361867
0.9024758921 0.5000494663 0.7748690576