POSCAR file written by Ovito 3.7.11
1
271.592208764 0.0 0.0
0.0 15.3635754028 0.0
0.0 0.0 10.8636883505
Sr Ti O 
800 800 2400 
Direct
0.0126222522 0.2517296658 0.5320697748
0.0224802301 0.2501948668 0.7773639985
0.002589122 0.2487661629 0.7834356012
0.0125654759 0.2513130961 1.0299025389
0.0225360491 0.0010112035 0.2792449596
0.0026084524 0.9992457679 0.2835574912
0.0125690106 0.0014279685 0.5285424277
0.0225596507 -6.9143971589e-05 0.7778619877
0.0026067955 -0.001750198 0.7823282425
0.0125189724 0.9996948821 1.0280799535
0.0226239751 0.2524651717 0.2774711605
0.0025063508 0.2498713744 0.2817082114
0.0323650866 0.2496435628 0.5257754116
0.0425340086 0.2500705468 0.7743005822
0.0325569183 0.2524371834 1.0238732791
0.0424894566 0.9995321596 0.2693624964
0.0324523498 3.0563858059e-04 0.5244038701
0.0425141259 1.0000789073 0.7742573188
0.0325421904 4.5195868779e-04 1.0243795528
0.0424592642 0.2514387179 0.2756356881
0.0725805259 0.2506146909 0.5210063131
0.052437091 0.2497320839 0.5217049708
0.062535687 0.2486034404 0.773151801
0.0724763256 0.2515155229 1.0246280872
0.052507417 0.2499117296 1.0221243335
0.062543051 1.0020055422 0.2693496094
0.0725337647 1.0009706268 0.5202017981
0.0525228813 2.9270620091e-05 0.521649741
0.0625183816 1.0006256551 0.7719174136
0.0725175639 3.476860847e-04 1.0204950526
0.0525972576 0.9988682516 1.0214431652
0.0625297958 0.2503504295 0.2741656533
0.0924883135 0.2502710209 0.5188827249
0.1025780728 0.2533575421 0.7684278069
0.0825049638 0.2535274244 0.7738375718
0.0925067235 0.2526936341 1.0213050905
0.1025430939 1.0007493242 0.2678491982
0.0825612983 1.0027150125 0.269715047
0.0925273426 0.0026778078 0.5194985379
0.1026454532 0.0014709272 0.7660529229
0.0824744033 1.0017256594 0.7700570878
0.0926422207 0.9985232798 1.0230540361
0.1025585582 0.2516320323 0.2672610002
0.0824604117 0.2515194283 0.270708264
0.1126365351 0.2494821421 0.5147266779
0.1225930063 0.2516593696 0.7605446647
0.1125411715 0.2528596111 1.0108942617
0.1226894744 3.3160909784e-04 0.26356152
0.1125518493 0.9982368882 0.5130357236
0.1226069978 1.0014522856 0.7628652394
0.1126041336 0.0022437291 1.0135729099
0.1226324036 0.248511014 0.2610154234
0.1524881938 0.2515708486 0.509309549
0.1326857111 0.2525745212 0.5119145574
0.1426060988 0.2488058672 0.7606146225
0.1524819344 0.2515103158 1.0107377771
0.1326105985 0.252142981 1.0112808707
0.1427058807 -0.0017464228 0.2596217899
0.1525471056 0.9999747649 0.5123140534
0.1326301131 0.0028039503 0.5124024212
0.1425611785 5.8858053167e-04 0.7614062506
0.1525721432 1.0013937054 1.0092373658
0.1325719376 0.0026107661 1.0112992807
0.1425125762 0.2482929658 0.2610135824
0.1724350104 0.2496259888 0.5108550646
0.1625275097 0.2488507786 0.7635390437
0.172517487 0.2513085399 1.0118423743
0.1625363465 5.5772833824e-04 0.2586948487
0.1724110775 7.0040346057e-04 0.5133634208
0.1624384056 0.9987315647 0.7584707834
0.172532215 3.7417731408e-04 1.0126800272
0.1624936354 0.2520674778 0.2604677272
0.1924628309 0.2490486492 0.5078284682
0.2026052426 0.2496097165 0.7572861029
0.1824456069 0.2497411964 0.7582682739
0.1925968554 0.2494795385 1.0092189559
0.2025293936 2.205021481e-04 0.2560557818
0.1824522345 0.0018588578 0.2611875564
0.1924002371 -9.3482787988e-04 0.5098544836
0.2025433852 0.9994215083 0.7570237611
0.1823988456 1.0001374874 0.7584809089
0.1925666631 8.7119703767e-04 1.0100381988
0.2024984649 0.251207001 0.2584960212
0.1824732218 0.2480801247 0.2594165189
0.2124737142 0.250235222 0.5020965291
0.2225572141 0.247058878 0.7513599388
0.2124910196 0.2492614903 1.0021403287
0.2225159758 0.999772989 0.2477464492
0.2125333625 0.999701391 0.5055898178
0.2225410133 0.9978333363 0.7509438738
0.2125145843 0.9988161804 1.0012566509
0.2224578004 0.248380185 0.2515683556
0.2525024767 0.249441136 0.4967410736
0.2324510914 0.2500640379 0.4968782277
0.2424712611 0.2477533778 0.7477340984
0.2526700072 0.2486958668 0.9930274016
0.2324753926 0.2482272259 0.9962675534
0.2425916622 0.9985558244 0.2442283071
0.2526188276 -2.1865344056e-04 0.4964179789
0.2326193584 -0.0037144868 0.4980509418
0.242421186 1.000235121 0.7465567819
0.2525245686 -0.0025692716 0.9944725829
0.2324691332 -0.0026648744 0.99363493
0.2425253863 0.251277948 0.2464154096
0.2726422297 0.2482545632 0.4950510398
0.262714478 0.2507136262 0.7422120328
0.2727162377 0.2483528477 0.9954851304
0.2625638846 0.9983280128 0.2468057006
0.2726043052 -0.0018326007 0.4944766493
0.2625583616 0.9989658852 0.7462843146
0.2725409749 7.4186516355e-04 0.9944817879
0.2626032819 0.2482395928 0.2449453748
0.2927679911 0.2466410065 0.4937531381
0.302505752 0.2476603005 0.7450333582
0.2826215292 0.2482571668 0.7438146193
0.2925864689 0.2486424938 0.993644135
0.3024851329 -7.5140703375e-04 0.242058694
0.2825464166 0.9978268274 0.2450125711
0.2926214479 -4.9450068893e-04 0.4948963962
0.3024291666 -0.0032183979 0.7438762926
0.2825858139 0.9979439876 0.7435725284
0.2925422851 -0.0012228468 0.9983294682
0.3026066386 0.2471916596 0.2413802872
0.2827669678 0.2479863965 0.2427527493
0.3325334912 0.2481712493 0.4834049031
0.3125064071 0.2470400022 0.4878729989
0.3224183262 0.2508665854 0.7363355756
0.3324745793 0.2478503605 0.984880997
0.3125745239 0.2497516106 0.9897228149
0.3224264266 -9.332657435e-04 0.2346321187
0.3325106628 2.7888699515e-04 0.4841155273
0.3124198803 -0.0015426291 0.4919581676
0.3223918159 -7.0239500496e-04 0.7344706472
0.3323902617 -9.0775084937e-04 0.9819538144
0.3124272443 1.0011724028 0.9907077474
0.322425322 0.2476655076 0.2358315272
0.3523845761 0.2488416662 0.4868484849
0.3425882715 0.2510286571 0.7320561818
0.3523536474 0.2492881768 0.9867772223
0.3425904807 -0.0012922968 0.2337281899
0.3524869354 -0.0026867573 0.4815813972
0.3425017447 0.9979309698 0.7305981135
0.3525230189 -0.0033945808 0.9830952315
0.3424244229 0.2482135572 0.2368136982
0.3723615851 0.2493161651 0.4872231275
0.3823876459 0.2490610161 0.7286696708
0.362453348 0.2480169883 0.733554752
0.372402087 0.248410126 0.9821747338
0.3824723317 0.9986534579 0.2284905581
0.3624275741 0.9965575916 0.2324744721
0.3726303704 -0.0022114448 0.4796142936
0.3826196113 1.9069137893e-04 0.7255602296
0.362468076 0.9981002012 0.7335345011
0.3726230064 -0.0034690557 0.9791278865
0.3824134198 0.2488520804 0.2289038616
0.3624128461 0.2480983496 0.2331169795
0.3924468446 0.2501961686 0.4753247744
0.4023992656 0.2494417869 0.7224756419
0.3923842508 0.2501779437 0.9801864588
0.4024581775 0.9986209134 0.2204417263
0.3925241664 0.9973126242 0.470696512
0.4024360855 -1.1047549653e-04 0.7220733844
0.3925168025 0.9982824505 0.9742860687
0.4024508135 0.2481881724 0.2206976247
0.432488494 0.2516489554 0.4673256495
0.4124290084 0.2511334504 0.4704378522
0.422550801 0.248511014 0.7155921602
0.432510586 0.2512375928 0.9674467708
0.4124731923 0.2493382953 0.9699505246
0.4225692109 0.9987966537 0.2186559608
0.4325289959 0.9998250602 0.4671654829
0.4124179624 -7.5262339061e-05 0.4652720191
0.422547119 0.9992067145 0.7199433527
0.4323890803 0.9988096715 0.966609118
0.4125173762 -1.7471835499e-04 0.9664434284
0.4223372455 0.2493584729 0.2141620911
0.4524522479 0.2518617965 0.4621377245
0.4425955586 0.2508887157 0.7151024554
0.4525700716 0.2513885993 0.9632585064
0.4424740529 0.9991416255 0.2160417474
0.4526105735 5.679473137e-04 0.466934438
0.4425108728 0.0012393405 0.7176098911
0.4526253014 0.9978333363 0.9621539091
0.4425292828 0.251153628 0.2136687043
0.472692151 0.2506999576 0.4596477783
0.4825488402 0.2487134408 0.7061809918
0.4625224926 0.2515142211 0.7111231439
0.4726516491 0.2512506106 0.9571187868
0.4826187981 0.0014541343 0.2061500792
0.4625519485 0.0010772038 0.2125337307
0.4724822775 0.9994540528 0.4601071066
0.4825635682 0.9998445869 0.7091422329
0.4624893546 7.9667011473e-04 0.7123382009
0.4725375074 0.002137634 0.9603129138
0.482651936 0.2500288898 0.2096001046
0.4625409025 0.249761374 0.2129415112
0.5125239269 4.6601791518e-04 0.4581777435
0.5126086127 2.477947801e-05 0.9591070618
0.4925417631 0.249861611 0.4589205851
0.5027151036 0.2504168203 0.7091827348
0.4925196712 0.2479701242 0.957026737
0.5126417506 0.2500711977 0.460953044
0.5126785705 0.2500861681 0.9595304907
0.50254205 -0.0013830959 0.2112459544
0.4927221807 9.6870038313e-04 0.4592933867
0.5026672377 5.4139099531e-04 0.7090161247
0.4925270352 0.0013686073 0.9595765156
0.5026709197 0.2484966944 0.2077738372
0.5225573517 1.0005084948 0.2135002533
0.5325392286 -0.0016671444 0.4621091891
0.5224984399 1.0023960763 0.7092582156
0.5324250869 0.9980351122 0.9620158345
0.5225683977 0.2482005394 0.211402439
0.5326865083 0.2478809523 0.4629790594
0.5224653019 0.2496123201 0.7147848837
0.5326239144 0.2511230362 0.9639212647
0.5425247875 0.0016318273 0.2119123948
0.5624112196 0.0014681284 0.2200689248
0.5524845725 -4.8909830063e-04 0.466732849
0.5425247875 1.0003457723 0.7145179394
0.5624590854 1.000957609 0.7219693682
0.5524624806 -0.0013273797 0.9636175005
0.5424806036 0.2489666371 0.2134717178
0.5625290433 0.2509310236 0.2206258259
0.5525692583 0.2509785385 0.4682258962
0.5425321515 0.2508171178 0.7121228044
0.5625143153 0.2484797712 0.7196782494
0.5524293426 0.2514985998 0.9707145376
0.5825001611 0.0012125238 0.2259849634
0.5724925102 0.0011668313 0.4708686451
0.5824854331 1.0001049429 0.7255860036
0.5724556903 4.7076941332e-04 0.9712944512
0.5824670232 0.2501414938 0.2249006171
0.5726434719 0.2513925047 0.4759037674
0.5825738009 0.2496832671 0.7238453424
0.5724556903 0.2510423258 0.9706132829
0.602430777 1.0005866016 0.2305653599
0.5924525821 0.997325642 0.4751931432
0.6125267956 -7.9156695641e-04 0.4821060808
0.6026480145 -0.0014034688 0.7312848047
0.5925630418 9.9987802163e-04 0.976127064
0.6125415236 7.2611362176e-04 0.9810885466
0.6026296045 0.2508913193 0.2308599191
0.5926698195 0.251574103 0.4786256791
0.6124715658 0.252789315 0.4837795456
0.6027179723 0.2496507226 0.7304802898
0.5926329996 0.2503660509 0.9787873024
0.6126372554 0.25193014 0.9845496179
0.6226044043 0.0015332174 0.2334262667
0.6323800898 0.0022981435 0.4839461557
0.6226449062 4.5417171433e-04 0.7344384298
0.6324979135 1.0003392634 0.9839697043
0.6225933583 0.2505658742 0.2344029147
0.6326267831 0.2502625594 0.4842112591
0.6226338602 0.2493604256 0.7353773375
0.6325862812 0.2517010266 0.984503593
0.6426012961 0.9996948821 0.2347269299
0.6624877281 0.0023918066 0.2371202239
0.6524690313 0.0024014398 0.484229669
0.6425313382 1.0012635274 0.735550391
0.6624950921 0.9996232842 0.7383229301
0.6525132152 1.0002871922 0.9830584116
0.6423914226 0.247900479 0.2320979885
0.6624509082 0.2496793618 0.2353924498
0.652564763 0.2505235663 0.4884584354
0.6425313382 0.2501655767 0.7335197731
0.6624509082 0.25136712 0.7355807674
0.6524948052 0.249482793 0.9884157082
0.682425708 1.0022398626 0.2391084989
0.6724143752 1.0014587945 0.4895842041
0.6823667962 0.0013626842 0.7399328805
0.6724106932 0.0036725632 0.9879094344
0.682425708 0.2515513219 0.2404174466
0.672499061 0.2522243423 0.4897793496
0.6824514819 0.2541796163 0.7410024988
0.6725616548 0.2522568868 0.9900357841
0.7023636879 -8.5704650617e-04 0.2419620417
0.692367083 1.0021617558 0.4930204219
0.7123308369 1.0013871965 0.4955794055
0.7025330595 0.9992457679 0.7436599756
0.6924186309 1.0013806876 0.9946566825
0.7123713388 0.0019911186 0.996055839
0.7024262818 0.2519926254 0.2452086371
0.6924444048 0.2519789567 0.4914537349
0.7124007947 0.2523766506 0.4948899527
0.7024078718 0.2504949272 0.7465402129
0.6925217266 0.2525914444 0.9924198731
0.7124633885 0.2481771073 0.9957336648
0.7225189053 -0.0019393271 0.249610457
0.7424016553 0.9994345261 0.2529270102
0.7324381883 0.0019141834 0.4997649085
0.7223863536 0.9978984253 0.7498061387
0.7423243335 -2.907069809e-04 0.7543377488
0.7323608665 1.0009641179 0.999618165
0.7223532157 0.2483456879 0.2496831763
0.7424347932 0.2487895949 0.2503938006
0.7323792765 0.2498922029 0.5034607067
0.7223642617 0.2505404895 0.7503114919
0.7424421572 0.2495290062 0.7523752478
0.7323903225 0.2476524898 1.0014223405
0.7623322712 -0.0010386449 0.2539763776
0.7525344938 7.956937795e-04 0.4997428165
0.7624574589 -0.0016118838 0.7489813728
0.7524534901 1.0010357159 1.0010909613
0.7625274167 0.2505443948 0.2499059368
0.7524350801 0.2501258724 0.505122205
0.7624685049 0.2519620336 0.7465503384
0.7524976739 0.2521397266 1.0032633359
0.7824985346 4.1615972918e-04 0.2527962995
0.7725534775 1.0022919339 0.5024886611
0.7923331318 1.0008795022 0.5023561095
0.7824506687 7.4837406511e-04 0.7516287241
0.7725939794 0.9997534622 1.0027478571
0.7924767295 0.0016065076 1.0034750503
0.7824543507 0.2517667665 0.2513860971
0.7723325581 0.2516417956 0.5004184618
0.7924620015 0.2512851078 0.5032554357
0.7824285767 0.2521494899 0.7506318251
0.7723509681 0.2499878837 1.0024717078
0.7923073579 0.2516437483 1.0013763156
0.8024880623 0.9986990202 0.2575525111
0.8124993952 -0.0012270776 0.5065996038
0.8023628746 -0.001644949 0.7543708867
0.8123962994 1.0004759503 1.0090624713
0.8023076448 0.2515858191 0.2545130277
0.8124073454 0.2486776418 0.5056864701
0.8023481467 0.2534304418 0.7543267028
0.8123594795 0.2520101994 1.0046072625
0.822499682 1.0005019859 0.2571373666
0.8424597539 1.0005019859 0.2566835613
0.832455785 2.0462042828e-04 0.5058622852
0.8225401839 -6.5774394021e-04 0.7589522037
0.8423529762 0.0023135696 0.7598147101
0.8325110149 4.9537306124e-04 1.0090900862
0.8224444522 0.2511646931 0.2543178822
0.8423603401 0.2501297778 0.2570177019
0.8323600533 0.2497984747 0.5050817031
0.8223634484 0.2504669389 0.7561833467
0.8424965738 0.2490896553 0.7596039161
0.8323379613 0.2504220275 1.0032633359
0.8622688641 0.0035791604 0.2607392741
0.8524048109 1.0001244696 0.5077649539
0.8624161438 1.0011658939 0.7606781369
0.8524084929 5.7029051827e-04 1.0099461491
0.8624235077 0.2522425672 0.2619994354
0.852364309 0.2486561625 0.5081395964
0.8624124618 0.2508535676 0.7600641649
0.8522833052 0.2513345755 1.0089704215
0.8822620739 1.0014653034 0.2696045873
0.8724090666 -3.0736976891e-04 0.5109912983
0.8924243684 -0.0018243344 0.5194681615
0.8823614876 0.9991871878 0.7664662263
0.8723722467 4.0216559081e-04 1.0138490593
0.8824461734 0.251094397 0.2620693932
0.8924317323 -4.9775513972e-04 1.0191695359
0.8723096529 0.2490603653 0.5174973759
0.8924980082 0.2456529553 0.5178112656
0.8824645834 0.2517862932 0.7623552837
0.8723796107 0.2488709562 1.013563705
0.8926047859 0.2496370539 1.0209737114
0.902509341 7.8176473015e-04 0.2740653191
0.9225651446 2.0273284683e-04 0.2783391898
0.9125206739 0.0010940618 0.5290542244
0.902520387 1.0005735838 0.7706876287
0.9226130105 0.9994084905 0.7799064131
0.9125059459 0.9977291939 1.0274448101
0.9025498429 0.2494932072 0.2718736141
0.9225430527 0.2491775255 0.2768093227
0.91247649 0.250892621 0.5235257153
0.9024504292 0.2497093027 0.7740124664
0.9226277385 0.2492322003 0.7769967199
0.9125722217 0.2466774564 1.0287519168
0.9425694004 1.0019079087 0.2783483948
0.9324917917 1.0014002143 0.5272325595
0.9425804463 1.0006061284 0.7805019751
0.9325212476 1.0000398539 1.026294188
0.9426246302 0.2507285967 0.280858592
0.9325507035 0.25136712 0.5289594131
0.9425657184 0.2490330279 0.7787272555
0.9324660177 0.2515988369 1.0287887367
0.9624447864 2.8767401227e-04 0.2853589052
0.9525844152 1.0000268361 0.5334311909
0.9725076671 0.9992067145 0.536381386
0.9625257902 0.9993824549 0.7860562581
0.9525549593 0.9981262369 1.0307862167
0.9625626101 0.2496227343 0.2849888651
0.9726107629 -5.6434120274e-04 1.0382974778
0.9526359631 0.2503764651 0.5334624878
0.9727359506 0.2490512528 0.5356339418
0.9626546599 0.25014605 0.7815798779
0.9526028251 0.2483515459 1.0305376823
0.9727285866 0.2492660465 1.0390983108
0.9823569924 2.171826083e-04 0.2900911838
0.9925597887 0.9983931018 0.5336557923
0.9825705478 0.9983865929 0.7884311422
0.9825595019 0.2489419032 0.2869854246
0.9926187006 -5.0398335078e-05 1.0341552382
0.9925413788 0.2494652189 0.5360794627
0.9826699616 0.2516483045 0.7880933195
0.9925708347 0.2511783618 1.0341920581
0.0126712227 0.7502477385 1.0284389476
0.0224587641 0.5009841459 0.7744138034
0.002480135 0.4997409457 0.7843340069
0.0125816398 0.5027278806 1.0277761893
0.02260273 0.751868455 0.2748007967
0.0025213733 0.7501696317 0.2789043754
0.0125869787 0.7511329491 0.5310185664
0.0226698895 0.749687973 0.7741238466
0.0225936354 0.5011423122 0.2780234591
0.0025018588 0.500574736 0.2850450155
0.0026003889 0.7483861927 0.7841508279
0.0125587747 0.5009424889 0.5289308777
0.0326084662 0.7509246643 1.0232841605
0.0425255401 0.5003065693 0.7724273694
0.032682106 0.5010446787 1.0217929543
0.0425594144 0.7508530664 0.272317294
0.032608098 0.7506577993 0.5227285643
0.0426076485 0.7498311688 0.7697956665
0.0424345949 0.5000143196 0.2711933663
0.0325053704 0.501208703 0.5230166801
0.0723897988 0.750807504 1.0199979838
0.0625629337 0.5012627269 0.7727136441
0.0524974756 0.7497140086 1.020320158
0.0725842079 0.5005539075 1.0229803963
0.0526786296 0.5012080521 1.0218021593
0.0625596199 0.7506512904 0.2709411499
0.0724354555 0.75160159 0.5209124223
0.0526112491 0.7502217029 0.5186940229
0.0625493104 0.5012230226 0.270530608
0.0725819987 0.5008630803 0.5246763374
0.0626317869 0.7500264359 0.7680126625
0.052520304 0.5013649167 0.5237052123
0.0925475936 0.7502542474 1.0193812504
0.1025397801 0.5023471099 0.7679095667
0.082507173 0.501647403 0.7739333036
0.0924297699 0.5024069918 1.0208356367
0.1025372027 0.7515820633 0.2668274458
0.082583022 0.7511589847 0.2725851588
0.0925873591 0.7536584029 0.5190051511
0.1025497214 0.750547148 0.7674769328
0.1025773364 0.5011989397 0.2657283715
0.0824928132 0.5030188285 0.2720236552
0.0825992228 0.7519791063 0.772966781
0.0923940546 0.503170486 0.5194847304
0.1127193799 0.7508530664 1.013959519
0.1225716507 0.5011585845 0.7565929682
0.1124944103 0.5027278806 1.0113637155
0.1226088388 0.7496944819 0.2600056374
0.1126755642 0.7490761362 0.5135815788
0.1225219439 0.501451485 0.2594321674
0.1226103116 0.7505927103 0.7591160523
0.1125382259 0.5023627313 0.513480324
0.1524395915 0.7510808779 1.0095043102
0.1425773793 0.5002440838 0.7581522912
0.1326330587 0.7510548423 1.0089980364
0.1524248635 0.5014853313 1.0095411301
0.1325572096 0.5034204278 1.0088139369
0.1425350364 0.7507228883 0.2570977852
0.1523990896 0.7480867832 0.5104343972
0.1324975614 0.7498311688 0.5086716441
0.1424628694 0.5010127851 0.2574641433
0.1425206766 0.7501761406 0.7602372185
0.1524745704 0.5003169835 0.5065001901
0.1326371088 0.5012835554 0.5074630306
0.1723168185 0.7504495145 1.0106089074
0.162585317 0.4984567394 0.7583474367
0.1723849354 0.4990139014 1.0094766952
0.1623890669 0.7517643126 0.2603204476
0.1723908266 0.7502282118 0.5099833533
0.1624722799 0.5028866978 0.25740247
0.1623949581 0.7495187415 0.7622659954
0.172602541 0.4980824776 0.5098250277
0.1923092919 0.7513867963 1.0117411196
0.2023788002 0.4989709427 0.7581403248
0.1824787448 0.4971875036 0.7575447628
0.1924676175 0.5004484633 1.008767912
0.2023677542 0.7484838262 0.2546557049
0.1823782265 0.750612237 0.25917811
0.1923295429 0.748295068 0.5072669646
0.2024141473 0.4978663821 0.2542976313
0.2023699634 0.7508270308 0.7574932149
0.1823852222 0.4985712961 0.2596521663
0.1823517161 0.7472861883 0.7592081021
0.1924064965 0.4984098753 0.5076738246
0.2125024338 0.7489003959 0.9988541519
0.2224342356 0.498785439 0.7508545856
0.212404861 0.4995710634 1.0024809128
0.2223388721 0.7474749464 0.2488234315
0.2122833553 0.7495057237 0.5005758669
0.2223550728 0.4994083408 0.2514376449
0.2225005114 0.7497009908 0.750500194
0.2124181162 0.4995248502 0.507521022
0.2525488697 0.7487181466 0.9995537302
0.2424561649 0.4980317082 0.7502323291
0.2325486642 0.743667239 1.0002993333
0.2525705935 0.4984762661 0.9965344978
0.2324264221 0.4965535366 0.9978876294
0.2426027081 0.749948329 0.2522495239
0.2524181591 0.7472861883 0.500348504
0.232487175 0.7489264315 0.5002960356
0.242641369 0.5015198285 0.2482545639
0.2424731021 0.7485163707 0.7455773723
0.2526125682 0.4982712357 0.4970374738
0.2325262041 0.4995977499 0.4963949664
0.2725181466 0.7475009821 0.9968750819
0.2626493068 0.4999095263 0.7467970318
0.2727364886 0.4969017629 0.9935244703
0.2626268466 0.7497856065 0.2455197653
0.272587368 0.7462187284 0.4959365586
0.2627008546 0.4994259149 0.2450466295
0.262475885 0.7506057281 0.7480636366
0.272648489 0.4960302209 0.493000171
0.2924888962 0.7486074953 0.9922633885
0.3026799102 0.4993439027 0.741731533
0.2827279387 0.4995957972 0.740736475
0.2924870552 0.4975539548 0.9925119229
0.3025771826 0.7499548379 0.2422197811
0.2826060648 0.7483731749 0.2453457912
0.2926203433 0.7493755457 0.4920290459
0.3025374171 0.5000598819 0.2386694215
0.3025120114 0.7479240607 0.7422663422
0.2825707177 0.4996075132 0.2454277155
0.2825784499 0.7496554285 0.7450508477
0.2925559084 0.4987463856 0.4906749938
0.3324502782 0.7503779165 0.9841261889
0.3225309951 0.4983903486 0.7352236143
0.3125896201 0.749753062 0.9870717815
0.3324285544 0.5001034915 0.981732895
0.312537704 0.4998131945 0.9846048477
0.322497489 0.7514518853 0.237897124
0.332538646 0.7468370741 0.4843051498
0.3124721646 0.7484838262 0.4888137475
0.3226237813 0.4999707099 0.233715303
0.3224639829 0.7494341258 0.7336873037
0.332522077 0.4968288632 0.4852569444
0.312463696 0.4984606448 0.4855551857
0.3524526929 0.7500069092 0.9804441982
0.3423393689 0.4981176257 0.7324547573
0.3523860489 0.4981443122 0.9853780658
0.3423552015 0.7493039478 0.2328104537
0.3523691117 0.7493625279 0.4810603955
0.3422771433 0.4967546617 0.2343826638
0.3424767072 0.7471690281 0.731980701
0.3524758895 0.4965288028 0.4850130125
0.3724794088 0.7499222934 0.9772316613
0.3826601132 0.5005376353 0.7294723448
0.362449666 0.4991284581 0.7335409446
0.3724757268 0.4979828914 0.9792291412
0.3824870597 0.7475335266 0.2284307257
0.3624791219 0.7473187328 0.2298197568
0.372405769 0.7503779165 0.4797081844
0.3825275616 0.5001217165 0.2300977471
0.3824870597 0.7487767268 0.725416632
0.3624828039 0.4983779817 0.2344415756
0.3624018001 0.7477808648 0.7328211154
0.3724389069 0.4976196947 0.4811542862
0.3924468446 0.7482690324 0.9726844027
0.4025134073 0.5016063969 0.7206631819
0.3925536224 0.5008741455 0.976145474
0.4024250396 0.7496684463 0.2208522683
0.3924578906 0.7491086807 0.4693940078
0.4026238671 0.501493142 0.2199290091
0.4024434495 0.7488092713 0.7176310626
0.3926198982 0.4988778654 0.4719695603
0.4325694978 0.7499288023 0.9682844237
0.4224182493 0.4986305271 0.7197187513
0.4124842383 0.7498637133 0.9701990589
0.4325879078 0.4990015345 0.9643815135
0.4125136942 0.4982094012 0.9670141369
0.4224292953 0.7493364923 0.2154406624
0.4325547699 0.7521223022 0.469290912
0.4125173762 0.7499353112 0.4701893178
0.4224035214 0.5005018363 0.2223508385
0.4225765749 0.7491998054 0.7181437798
0.4324479921 0.5001614208 0.4652434837
0.4123995525 0.4997669813 0.4673587874
0.4526547573 0.7514779209 0.9625773381
0.4425476927 0.5018387647 0.7163175124
0.4527431251 0.5005278719 0.9631112267
0.4426802444 0.7521939001 0.2159533796
0.4525001137 0.7527536656 0.4634521952
0.4426471065 0.5031717877 0.2137211727
0.4425955586 0.7492583855 0.7122176157
0.4526326654 0.5004699427 0.46233287
0.4726590131 0.7501110516 0.9575330108
0.4827071658 0.4992241389 0.7079704393
0.4625372205 0.501368822 0.7101409729
0.472684787 0.4986995215 0.9604141685
0.482633526 0.7503844254 0.2057422988
0.4626366343 0.7499353112 0.2117375002
0.4725632813 0.7514453764 0.4584548133
0.4826740279 0.4979151988 0.2070549285
0.4826740279 0.7484057194 0.7072018238
0.4626476802 0.5008826071 0.2114328155
0.462732366 0.7493885635 0.7114388746
0.4725632813 0.5000501185 0.4603086956
0.4926448589 0.4997533126 0.9572384515
0.5025751879 0.7504950768 0.2111980885
0.492600675 0.7500069092 0.4586425948
0.5024684102 0.4995840812 0.2099664626
0.5026230538 0.7509572088 0.7096236532
0.4926301309 0.7495903395 0.9589229623
0.4926190849 0.5006346179 0.4583848555
0.5026230538 0.4998327212 0.7101787133
0.5126601606 0.7507879773 0.9597974351
0.5125165629 0.4995658563 0.9587020428
0.5125386549 0.7494601614 0.4628373028
0.5124245132 0.498305082 0.460758819
0.5224800299 0.4990724815 0.713278029
0.5324545428 0.7512370916 0.9640685443
0.5323588111 0.4989299366 0.9598802799
0.5224910759 0.5008787017 0.2118590059
0.5225868076 0.7486400398 0.2120348209
0.5324471789 0.749089154 0.4655536914
0.5324619068 0.4958219361 0.461163838
0.522454256 0.7491282074 0.7107264094
0.5425026956 0.5012321351 0.7137999512
0.5523667488 0.7509897533 0.968192374
0.5624885414 0.5007517781 0.7194030206
0.5524293426 0.4994317729 0.9677137152
0.5424621937 0.4994278676 0.213422011
0.5423112321 0.7482755413 0.2127518886
0.5624885414 0.5015745033 0.2204279189
0.5623780816 0.7506577993 0.2212802997
0.5524514346 0.4975396352 0.465746996
0.5524072507 0.749818151 0.4674848956
0.5424769217 0.7488027624 0.7138174406
0.5624406755 0.7498702222 0.7204938104
0.5824375672 0.5007433166 0.7235452602
0.5724961922 0.7509246643 0.9724910982
0.5723930965 0.4997031941 0.9702266739
0.5824044293 0.5001210656 0.2233053946
0.5824228393 0.7481388544 0.2237288236
0.5723894145 0.4985589292 0.4738022712
0.5725293301 0.7515560277 0.4743987537
0.5823271075 0.7474554197 0.7227637577
0.602438141 0.5017001251 0.7290811333
0.5923936702 0.748496844 0.9758417098
0.6124089719 0.7492063143 0.9799839493
0.5925078119 0.5000052071 0.9782902336
0.6124531558 0.4996992887 0.982091889
0.6023571372 0.7493299834 0.2286083818
0.6024860069 0.5018296522 0.2336435042
0.5923347584 0.7498246599 0.4778948039
0.5924231262 0.4993862106 0.4767340563
0.6124494738 0.7480672565 0.4831977911
0.6123426961 0.4998372775 0.4817434048
0.6023129533 0.7496814641 0.7283161997
0.622331937 0.5014898876 0.7327695675
0.6324463656 0.7497074997 0.9832517161
0.6324169097 0.5019988837 0.9842182387
0.622324573 0.749551286 0.2329347209
0.6225418105 0.5013818398 0.234712202
0.6324537296 0.7498572044 0.4835485007
0.6324868675 0.4998600586 0.4845905041
0.6222730252 0.7495577949 0.7345893914
0.6424356065 0.502802733 0.7366006789
0.6523696175 0.750612237 0.9882776335
0.6624067243 0.503158119 0.7375911344
0.6523953915 0.5014677573 0.985286016
0.6423546027 0.7499678557 0.2337769763
0.6424466525 0.5013291177 0.2349892718
0.6624177703 0.7505080946 0.2366921925
0.6622815366 0.5010036726 0.2391121809
0.6524948052 0.7530335484 0.485239455
0.6524064374 0.5016805984 0.4830652394
0.6423656487 0.7496424107 0.7342027824
0.6623367665 0.7520767399 0.7360603467
0.6824919838 0.5016994742 0.7438818156
0.6723407353 0.751406323 0.9886366276
0.6722707775 0.5019448598 0.9881027389
0.6823115663 0.7539382857 0.2405785337
0.6822784284 0.5023868142 0.2428319121
0.672480651 0.7518944906 0.4903233637
0.672473287 0.5027454547 0.4902883848
0.6823447042 0.7518749639 0.7435771309
0.7022974121 0.499952485 0.7421245855
0.6924075849 0.749622884 0.9960650439
0.7123492468 0.7487767268 0.9983294682
0.692374447 0.5022624942 0.992447488
0.7124007947 0.5012705376 0.9972616909
0.7024189178 0.7499548379 0.2441242908
0.7024851936 0.5027643305 0.2444943309
0.692381811 0.7529619505 0.4932790818
0.6924296769 0.5018713092 0.4941066092
0.7123308369 0.5026165784 0.4956705348
0.712275607 0.7479826408 0.4963112012
0.7023894618 0.7518619461 0.7458443167
0.7223826716 0.5006971034 0.7476181157
0.7323719125 0.7472015726 1.0012750608
0.7424421572 0.5019155697 0.7524461261
0.7324087324 0.4990627182 0.9998298795
0.7224158095 0.7489850116 0.2480907153
0.7223348057 0.5008552697 0.2491032628
0.7424937051 0.7510613512 0.2506892803
0.7423611534 0.499425264 0.249033305
0.7322135869 0.5003631967 0.4978723652
0.7324160964 0.7500069092 0.4988342853
0.7223826716 0.7508465575 0.7494729185
0.7423537894 0.7506643082 0.7519085554
0.7525381758 0.5011423122 0.5005114321
0.7524093062 0.7501110516 1.0030700313
0.7624648229 0.4990666235 0.7520429481
0.7523540763 0.5021088841 0.998430723
0.7624869148 0.7509376821 0.2506745524
0.7624979608 0.5002831372 0.2522578084
0.752482946 0.7485098618 0.5001183796
0.7625090068 0.7519595796 0.7520972574
0.7725608415 0.4999902366 0.5032508332
0.7725645235 0.7480412209 1.0002164885
0.7925798252 0.500859175 0.5024122598
0.7924362276 0.7502282118 1.0019009993
0.7825132625 0.50134539 0.7542420171
0.7726492093 0.4991076296 1.0000692089
0.7924214996 0.4988804689 1.0046256724
0.7826089943 0.751998633 0.2512774783
0.7824433047 0.4976262036 0.2511845081
0.7724872017 0.7506903438 0.5017854009
0.7925061854 0.7539773391 0.501134609
0.7824948526 0.7505536569 0.7526965014
0.8125067592 0.4999355619 0.5062571787
0.8123557975 0.7488548336 1.0082248184
0.8025396102 0.5005831976 0.7529303079
0.8124147094 0.4987743738 1.0040365539
0.8024991083 0.750944191 0.2521142107
0.8023996946 0.5005753869 0.2546777968
0.8126282649 0.7497660798 0.5067671344
0.8023628746 0.7497400442 0.7530628595
0.8324962869 0.499828165 0.5096022673
0.8325294248 0.7502412296 1.0097252296
0.822507046 0.4982041941 0.7585379798
0.8424744819 0.5021980561 0.7609754576
0.8324263291 0.4991915944 1.0059511891
0.8223781764 0.7497921154 0.2562987932
0.8224886361 0.498707983 0.2567599626
0.8425186657 0.7499938914 0.2628693057
0.842437662 0.5001047933 0.2628831132
0.832452103 0.749225841 0.5121686148
0.8224591802 0.7483015769 0.7576809964
0.842408206 0.7494145991 0.7596646689
0.8525042247 0.4990926591 0.5113226774
0.8625560594 0.7506252548 0.7623055768
0.86231673 0.4995365662 0.7652907508
0.8524232209 0.7485424063 1.0119896539
0.8525668185 0.5008344412 1.0114741752
0.8624713736 0.7508725931 0.2628545778
0.862302002 0.5018101255 0.2653813439
0.8524858147 0.7513737785 0.5115914628
0.8724827065 0.5008546188 0.5178269141
0.8823504417 0.7494666703 0.7658596184
0.8925421921 0.496355666 0.5205543487
0.8723464728 0.7530465662 1.0170155713
0.8924059584 0.7513282162 1.0187553119
0.8825419052 0.501309591 0.7705891355
0.8725047984 0.4983343721 1.0140515687
0.8925127361 0.4981072114 1.01753105
0.8823983075 0.7492518766 0.2701946263
0.8825639971 0.4992397603 0.2693624964
0.8723685647 0.7503063186 0.5161516083
0.8924575063 0.7499288023 0.5210366895
0.9125206739 0.4998776327 0.5249690556
0.902527751 0.7490826451 0.7760117874
0.9224399569 0.7509116465 0.7795050761
0.912469126 0.7502737741 1.0262205482
0.9024246552 0.5009737317 0.7740612528