POSCAR file written by Ovito 3.7.11
1
271.5900113946 0.0 0.0
0.0 15.3634511008 0.0
0.0 0.0 10.8636004558
Sr Ti O 
800 800 2400 
Direct
0.0223794559 0.4979718099 0.8070672612
0.0123846847 0.250122549 0.5594256059
0.0224446644 0.2494352034 0.8060860027
0.0023802299 0.2514204344 0.8172600146
0.0124845411 0.249474908 0.0593250156
0.0225145124 -2.7652964068e-04 0.3108192611
0.0025558991 0.0011694345 0.3136010276
0.0025359426 0.5006176998 0.3129603561
0.0124772876 0.5000755039 0.5606535597
0.0123954731 -3.3211610978e-04 0.5616412617
0.0224626695 0.0020807532 0.8071132865
0.0025803477 0.0010479124 0.8112850157
0.0224894746 0.2504994174 0.3078147324
0.0024083237 0.2510865251 0.3159842154
0.0324526172 0.4998060332 0.0524284071
0.0424758135 0.5010935043 0.3002095189
0.0324544582 0.4989709343 0.5522548709
0.0323141732 0.2513293091 0.5539559644
0.0424353113 0.2510455187 0.8018157794
0.0323951777 0.2499754466 0.0527305168
0.0523300051 0.4985999239 0.0487266877
0.0424448845 -5.0083123081e-05 0.8026571211
0.0424776545 0.2490336009 0.3032876881
0.0524798633 0.2501700643 0.5454293253
0.0524640306 0.2501830822 0.0467631582
0.0625700724 0.2493538415 0.2948033923
0.0623797119 0.4983252461 0.7963820376
0.0724805989 0.4979945912 0.0443132338
0.062436415 0.4996875702 0.2962982926
0.072406222 0.4991570904 0.5462320058
0.072510055 0.2490674475 0.5401603539
0.0625767 0.2492907046 0.7979082351
0.0724765486 0.2522718057 0.0407636739
0.0924710248 0.2510683 0.5363807598
0.1025527652 0.2520010332 0.7862758117
0.0824526151 0.2500359799 0.791165535
0.0925107906 0.2522679003 0.0391627314
0.1024117438 0.0037355247 0.2891183526
0.0923049656 0.0016724465 0.5363089604
0.1024982713 0.2520921585 0.2849005981
0.0825623393 0.2507363434 0.2873380956
0.1024087982 0.5019754676 0.7861312924
0.0824610837 0.5005317816 0.7915098039
0.1023270573 0.501095457 0.2890327456
0.082470657 0.5010433854 0.2924699118
0.1226878945 0.2496949107 0.2831046925
0.1124559276 0.4992462631 0.0350311362
0.1124993755 0.2506478216 0.5364405927
0.1223535671 0.4997018899 0.2816171562
0.1124099024 0.500367105 0.5341522169
0.1226057855 0.2505996553 0.7796463338
0.1125122626 0.2510735072 0.0342969413
0.1224452494 -0.0018429485 0.2799372344
0.1526113072 0.2488539538 0.5179881467
0.1324621862 0.2504011322 0.5244270801
0.1425284622 0.2480767847 0.7720586099
0.1525273572 0.2477142359 0.0187380112
0.1325067387 0.2501739697 0.0284108632
0.1424478259 9.3908265096e-04 0.2690135999
0.1427099858 0.2482714024 0.2725731933
0.1425593912 0.4975643493 0.7706704882
0.1525295664 0.4984345965 0.0182472899
0.1324842784 0.500964627 0.0250097809
0.1525873741 0.4974361229 0.5192740924
0.132463659 0.4989527093 0.5272079262
0.1826816326 0.2486827683 0.2662023773
0.1725501849 0.4997162096 0.5155662977
0.1825984189 0.4981039416 0.7635043557
0.1726477584 0.2497163902 0.5174404462
0.1625310388 0.2487062005 0.7655966639
0.1726429718 0.2494697009 0.0155336408
0.1826352391 0.4999895857 0.2615234497
0.1625236747 -3.3940916596e-05 0.7656454507
0.1625888465 0.2504486476 0.269024646
0.1825667535 0.2499487599 0.7671992633
0.1826142516 -6.2684155723e-04 0.2639784368
0.1926127784 -5.4619561434e-04 0.0134048806
0.2025159408 0.2501127855 0.261137758
0.2025512882 0.5007569914 0.7571740419
0.1925881088 0.500491426 0.0112229152
0.2025512882 0.4996992863 0.2565020941
0.1926149876 0.4985087986 0.5113595892
0.1926271382 0.2515740458 0.5161904002
0.2025612297 0.2484582094 0.7609490335
0.192612042 0.2489808784 0.0128803768
0.2024533465 0.0022243408 0.2622000209
0.2126109365 0.2496226613 0.5096373241
0.2225608606 0.2502071654 0.7552639938
0.2124945847 0.2494664464 0.0073839485
0.2224463498 -0.0026519269 0.7574492729
0.2224787516 0.2509264048 0.2530833381
0.2324408263 0.2509517897 0.501637214
0.2323966421 0.2512310239 1.0004138417
0.2324021651 4.9523706215e-04 0.497597117
0.2224783834 0.4994239576 0.7528890905
0.2125199906 0.499725973 0.0059370986
0.2124456138 0.4989429458 0.5029056701
0.2424058467 0.5009307805 0.7398206791
0.2623539294 0.2508404866 0.7366062752
0.2623701303 -0.0019973019 0.2399191941
0.2623881722 -0.0010794742 0.7376381614
0.2524205744 0.2507897168 0.4907375127
0.2424710185 0.2482727042 0.7464805338
0.2524931102 0.2520973657 0.9901225943
0.2624772771 0.2487120586 0.2398538383
0.2422773442 8.4053708394e-04 0.244372598
0.2624183647 0.5004263365 0.2366477189
0.2524069509 0.0017072694 0.4908700655
0.2422699802 -0.0015242311 0.7471939252
0.2523693943 0.0014072066 0.9873334638
0.2424772779 0.2505586489 0.2451421403
0.2723476695 0.2499813047 0.4881076295
0.2725078374 0.2501205963 0.9875820001
0.2724098957 8.358506369e-04 0.485231051
0.2723403055 -0.0025100578 0.9872137981
0.282438615 0.2461625012 0.7310326166
0.272288389 0.4987196887 0.4855495458
0.2823465645 0.2488663208 0.2329693804
0.3125089404 -2.5882528518e-04 0.4763242433
0.2924290413 0.4991212912 0.4800053434
0.2925509162 0.2494801152 0.477163744
0.302482062 0.2492627161 0.729766922
0.2924584975 0.2494026586 0.9813501804
0.2924975269 -9.3204642098e-04 0.4805926256
0.3024386142 -0.0016920319 0.7268176236
0.3123252075 0.4991850789 0.4761649959
0.3025593845 0.2483091543 0.2267486067
0.3125498108 0.2502488227 0.4758547857
0.3124820616 0.24951266 0.9750999505
0.3225067307 -3.5841228486e-04 0.2253540414
0.332518881 0.0016428308 0.4702710016
0.3224684377 -4.753131028e-04 0.7240441416
0.3325615924 -3.6088871491e-05 0.9708564218
0.3225019441 0.2500262165 0.2199700069
0.3223701278 0.5009659288 0.7243018831
0.3224721197 0.5014521477 0.2246903572
0.3324422949 0.2515551698 0.4736538579
0.3225048897 0.2514028603 0.7252647314
0.3323811734 0.2509166414 0.9709024471
0.3624853733 0.2501199454 0.2121475542
0.3526668974 0.4994076852 0.4616421864
0.3524290388 0.2500678738 0.4639287212
0.3424702779 0.2518623924 0.7176622795
0.3626473822 0.4988915251 0.7082501145
0.3525590142 0.2495862111 0.9659317194
0.3625074654 0.4976750015 0.2110079689
0.3425166713 0.001604428 0.2184981192
0.3424205706 0.2496721293 0.2196542736
0.3625369216 0.2498693507 0.7098950572
0.3425730062 0.499856803 0.71901174
0.3427040862 0.499110226 0.2165254767
0.382508201 0.249275734 0.205116736
0.392538025 0.2506966387 0.4503181323
0.3925306609 0.2508404866 0.9540848183
0.3924091542 -6.2059598861e-05 0.9542689193
0.3825744774 0.4999661534 0.7019759515
0.3924607025 0.5018355251 0.950632924
0.3725151973 0.2501746206 0.4592203374
0.3824861089 0.2480754829 0.7061338732
0.3725741096 0.2484054869 0.9607953007
0.3926227114 0.5003625488 0.4480601332
0.3725372894 -3.6186203061e-04 0.4584158159
0.4125461246 0.4988511696 0.945597761
0.4024610703 0.2500737318 0.6987808782
0.4023763838 0.0039311838 0.6999112585
0.4024242501 0.2500034351 0.1977747871
0.4125350785 0.2517387223 0.445251672
0.4123509775 0.2507044495 0.9475676419
0.4125166684 0.0029442962 0.4460902522
0.412616083 -2.5107962964e-04 0.9466195217
0.4425950942 0.0016712098 0.6900821047
0.4424367673 0.2499923699 0.1880533323
0.4224691699 0.4983903356 0.6966222937
0.4325358141 0.4981983215 0.9403324716
0.4324548096 0.4986272616 0.4417675601
0.4426245503 0.4985823498 0.6880045246
0.4425730021 0.4979555375 0.1904825454
0.4325394961 0.2502553316 0.4415144211
0.4225759485 0.249923375 0.6911370036
0.4325468601 0.2511724433 0.9424036081
0.4224213036 0.0017533528 0.1925352718
0.4324253534 0.0011829732 0.942909886
0.4225207182 0.2510032105 0.1891459719
0.4425251358 0.2541691658 0.6897350742
0.4725851515 0.2464117942 0.4321372353
0.462459595 0.2498576345 0.6890999257
0.4725998795 0.2529760745 0.9336956296
0.4724746908 7.6568411032e-04 0.9343583933
0.4625700556 0.2490401099 0.1867784327
0.4525218215 0.4988824126 0.9360153025
0.4525328676 0.4968047544 0.4371061221
0.4625958297 0.4999336087 0.6859803338
0.4725372852 0.4994350228 0.9328027396
0.4626952443 0.5009340349 0.1837287992
0.452606508 0.250283971 0.4358836912
0.4525844159 0.2486085662 0.9336864245
0.4525034114 3.2385326988e-05 0.4403122414
0.4826223395 0.250557998 0.6862656904
0.4825818372 0.0013550048 0.6801029085
0.4925674769 0.5007224939 0.9356194853
0.4926889836 0.4995294026 0.4336183281
0.4825855192 0.2490511751 0.1895399481
0.4926411173 0.2524267188 0.4352816809
0.4925085646 0.2496135488 0.9361349682
0.4826444316 0.4983337077 0.1790130514
0.5025825728 0.2497606511 0.6855467759
0.5125277103 0.2499962753 0.4362086296
0.5124982541 0.2504655709 0.9371291137
0.5025531166 2.3624577341e-04 0.6839662686
0.5025015683 0.2490648439 0.1854096416
0.5223771152 0.250539122 0.1869634543
0.5223992073 0.2509888908 0.6902965824
0.5124577519 0.4983115773 0.4374071272
0.5224618017 0.4990854919 0.6874733931
0.542410989 0.4993556135 0.6933793541
0.5525512735 0.4988726491 0.946683957
0.5423852148 0.4984280876 0.1931391232
0.5524739511 0.4982308662 0.4454652292
0.5324953076 -0.0013040332 0.4360585872
0.5323590729 0.2493655576 0.4401585171
0.5324069392 0.2497072777 0.9401667807
0.5324474414 0.5008513712 0.9397985786
0.552462905 7.5377272408e-04 0.9437567507
0.5424735833 0.2507610774 0.192480962
0.5525070893 0.2480885008 0.4451955212
0.5423888968 0.2492588107 0.6911314805
0.5525218174 0.2501310106 0.9476688975
0.5724857327 0.2493928952 0.4535058415
0.5725777832 0.248622235 0.9571132802
0.5623749043 0.4992833641 0.7003328499
0.5624632728 0.4983128791 0.1998643337
0.5724415485 0.4984775556 0.9548672477
0.5724120923 0.4977199133 0.4509339502
0.5623564942 0.2502501245 0.2005878508
0.5624043605 0.2480403345 0.7019336083
0.6024316058 0.4996524218 0.7092019168
0.5923760077 0.5000579297 0.9549500931
0.5924128279 0.5011195401 0.4569190746
0.5825302847 0.2488441904 0.7060105255
0.6024242417 0.2487472069 0.2133902362
0.5924643762 0.2495738441 0.4610558247
0.602479472 0.2491136611 0.708790451
0.5924091458 0.2499702394 0.9596078491
0.5823167276 0.5006294159 0.7023846558
0.5824529623 0.5005402432 0.2035693669
0.582585515 0.2487738937 0.2074769112
0.6124614297 0.501413094 0.9631241787
0.6124246095 0.5002063338 0.4634482175
0.6225243918 0.5018810878 0.7181308166
0.6124798398 -2.2107335065e-04 0.4630109776
0.6224986177 0.5014423843 0.2144175199
0.6124945679 0.2494430142 0.4629465422
0.6126123925 0.2503939724 0.9662999214
0.6225059817 0.0017862881 0.715507377
0.6224838896 0.2506536796 0.2178997908
0.6226422165 0.2511158154 0.7161977558
0.6425398555 9.3185771176e-04 0.2177966942
0.6525402233 3.2203379014e-04 0.4748836528
0.6325984 0.4996706469 0.4679568516
0.6426134959 0.2504610146 0.2185358599
0.6525659974 0.2490856726 0.473039881
0.6424809431 0.2495979273 0.7193790216
0.6325542158 0.0012224174 0.4660762597
0.6526322738 0.2482805149 0.968914156
0.642628224 0.5010127933 0.7199874755
0.6528163748 0.5007674057 0.4721847317
0.6326241742 0.2502976398 0.4684345938
0.6326499483 0.2497033723 0.9700003521
0.6825707828 0.5000475154 0.7293609793
0.6625958214 -0.0012888022 0.2269014105
0.6825560547 0.5006606589 0.2256329545
0.6625553191 -2.9416890663e-04 0.72697503
0.6725925071 0.4997715357 0.4779415708
0.6625810933 0.2508626171 0.2263058437
0.6625000888 0.2498309478 0.7255924313
0.6724710004 -0.0012584054 0.9784597943
0.6626805078 0.5003866319 0.7268516823
0.6626289595 0.4992521212 0.2268231676
0.6823314514 0.2490811163 0.231190044
0.6724489083 0.2491032467 0.478421154
0.6823903638 0.2501108329 0.7302685973
0.6723605398 0.2493766228 0.9763334274
0.7024463296 0.2485955483 0.2347257042
0.6924238697 0.2500978149 0.4796491079
0.7024500117 0.2499591742 0.7316981418
0.6924901461 0.2510845724 0.9821878401
0.6925122382 0.4990841901 0.9812949501
0.692644791 0.4977889082 0.4832758981
0.7325100273 0.5002870449 0.992580343
0.7324216588 0.5007426717 0.4941415407
0.7125718861 0.2528042381 0.4886820248
0.712549794 0.249636981 0.9858790656
0.7225722539 -6.0659870958e-04 0.2429163589
0.7326536261 0.0012806075 0.5002601383
0.7324695251 -1.0495360722e-04 0.9989962638
0.71254243 0.4997357365 0.9916690429
0.7224691573 0.2507194201 0.2430866523
0.7324805712 0.2492301714 0.4956668177
0.7224581113 0.2507812551 0.7433471343
0.732458479 0.2501258035 0.9951117321
0.7124430154 0.5015341605 0.4858026847
0.7125902962 5.7724988542e-04 0.4906684748
0.7125718861 -0.0010815571 0.9893769852
0.7523966203 0.5005382905 0.0017925242
0.7425030311 0.001001113 0.2536733819
0.7425324872 -0.0014286145 0.7505777021
0.7424662109 0.247352989 0.2528320402
0.7425361693 0.2501492357 0.7510830594
0.7625589969 1.8755879579e-04 0.2529839235
0.752521809 -0.0013486195 0.5042680177
0.7626142273 -4.5038380811e-04 0.756119143
0.7524628966 1.8325985856e-05 0.0045708849
0.7626031812 0.248939872 0.2571271171
0.7525439011 0.2506029098 0.5024978863
0.7624448543 0.247757195 0.7536015615
0.7524518506 0.2498569836 0.002163948
0.7824050877 0.0036233103 0.2613494742
0.7823829955 0.0011253038 0.7623334732
0.7725704108 -2.1117974023e-04 0.0103957493
0.782464 0.251715941 0.2569632672
0.7724599502 0.2519795536 0.5081543904
0.7825670966 0.2532937115 0.759616142
0.7725483187 0.2515590752 0.0066691763
0.7924680498 0.0021504641 0.5137906433
0.7923391791 0.001527427 0.0157451728
0.8123362326 0.5023289038 0.0154287032
0.7924349116 0.2525087316 0.5120969139
0.7924165015 0.2513950495 0.0107330224
0.8022732705 0.0015400544 0.2669967732
0.812398827 0.0018405728 0.5216480751
0.8022769525 0.0022137962 0.7684962551
0.8124246011 0.0014781542 0.023738103
0.8025567861 0.2525367201 0.2677856461
0.8125387437 0.2489541917 0.5207772773
0.8024573715 0.2515629805 0.764357664
0.8124172371 0.250732438 0.0179128704
0.8324327007 -8.8498668191e-04 0.5251294256
0.8223476465 6.9799098635e-04 0.7705940863
0.8324069266 1.4772399591e-04 0.0242019456
0.8223550105 0.2507799534 0.2735572133
0.8324584749 0.2499207714 0.5215643092
0.8224765172 0.2515577734 0.7768820568
0.8325173872 0.2485376186 0.0242568077
0.8224249689 0.0013777862 0.2723117698
0.8424919808 -1.8254336906e-05 0.7791032357
0.8424882988 0.2516352299 0.2772300288
0.842517755 0.2500366308 0.7769823919
0.8625221725 -0.0011946827 0.2822550663
0.8424330685 0.4983616962 0.7769796304
0.8525181227 -5.0844367982e-04 0.53085957
0.8625516287 0.0011720381 0.7848287777
0.852569671 -0.0012746127 0.0313249063
0.8625737208 0.2517549947 0.2846934844
0.8424441146 1.0671758427e-04 0.2785261
0.8524592104 0.2502748585 0.5333265238
0.8626326332 0.2494768607 0.7836367235
0.8524776205 0.2496936089 0.0311630815
0.8725814527 -3.3055396077e-04 0.536774736
0.8926631927 -0.0021854888 0.5386083822
0.8725151763 1.9354703367e-04 0.03730147
0.8827033271 0.2488806405 0.2895316594
0.8925748242 -0.001170144 0.0412499768
0.872640365 0.2495738441 0.5403370909
0.8925895523 0.2488188054 0.5419728285
0.8826186406 0.2495211216 0.7874614224
0.8725372684 0.2485857849 0.039690365
0.89254905 0.2503868125 0.0450055457
0.9024500033 0.0020534807 0.2943173656
0.9125092834 -1.464807352e-04 0.5480997107
0.902398455 -9.2719800714e-06 0.7928500594
0.9026120122 0.249823788 0.2922674006
0.9125681957 0.249331711 0.5442612043
0.9026304223 0.2492418875 0.7955158423
0.9025972841 0.4987587424 0.7924091375
0.9126013339 0.2497795271 0.0455643844
0.9225538354 -0.0011004331 0.2972372079
0.9226053837 0.0011605173 0.7988802886
0.9225354253 0.2487485087 0.2982967093
0.922476513 0.2495471574 0.7995890775
0.9424882946 -1.0117841377e-04 0.3061716307
0.9324952909 -8.3506300299e-04 0.5569743007
0.9425324788 -0.0011395519 0.8085032492
0.9324842448 -3.7169055149e-04 0.052318959
0.9425766631 0.2495940219 0.3092424358
0.9324326965 0.2487231238 0.5532453344
0.9426576675 0.2483195687 0.809545261
0.9324290145 0.2487022952 0.0529671787
0.9525586208 -4.2376218531e-04 0.5595692047
0.9527169477 5.669006482e-04 0.0626380057
0.9627467716 0.2479179662 0.3139738322
0.9525512567 0.2502885273 0.5604400025
0.9724783519 0.2496278685 0.5662879716
0.9626620851 0.2495556191 0.8142232681
0.9525659848 0.2494273927 0.0637358001
0.9724452137 0.2479199189 0.064213174
0.9625442605 -9.9986972404e-04 0.3107612693
0.9824971298 0.4997064462 0.8132180765
0.9825634061 0.5023627504 0.3159335877
0.9822946186 0.0011541385 0.3147682282
0.9926190042 6.9616545173e-05 0.5677396082
0.9824860837 0.249257509 0.3176098275
0.9924349032 -7.0800821645e-04 0.068331514
0.9925232717 0.2509407245 0.5660035356
0.9825560421 0.2500893533 0.8166506402
0.9925159077 0.251572744 0.0659744686
0.0126418002 0.7495858499 0.0641591404
0.0026148114 0.4988628857 0.8137400029
0.0123972404 0.5002024285 0.0621455354
0.0225410229 0.7517533316 0.3068297919
0.0025511125 0.7499373334 0.3159280646
0.0125511857 0.7514278839 0.5627467884
0.0223787563 0.7496183946 0.8062793088
0.0223590206 0.4988589803 0.3075137272
0.0024440393 0.7496769752 0.8167334856
0.0125185262 0.9980847044 0.0608094222
0.052422792 1.0003107667 0.551839723
0.0524040137 1.0010658054 0.0506285434
0.032375663 0.750139111 0.0557292464
0.0423579888 0.5019136325 0.8026709287
0.0423624073 0.7515190093 0.2998302708
0.0323679307 0.7505882288 0.5555963045
0.0424824411 0.7496704663 0.799052423
0.0523605658 0.7504124871 0.0455379659
0.0524231602 0.7490846604 0.5458914189
0.0524662398 0.4998899987 0.5481043132
0.0424743407 1.0006622503 0.3030603233
0.0324717637 0.9998160862 0.5578469396
0.0324949604 0.9990219938 0.0543970914
0.0724905403 1.0019705501 0.5447306619
0.0623940718 0.9990675565 0.7933848729
0.0723826571 1.0012415472 0.0430896063
0.0723244812 0.7531397389 0.0412189558
0.0623951764 0.7487722306 0.2963765356
0.0724216865 0.7508616049 0.5434447162
0.0622552596 0.7502692901 0.796278941
0.0623995948 0.9981953566 0.2936812965
0.0824065898 1.0020681844 0.2870168394
0.1024367816 1.0003628384 0.7858045131
0.0823749245 1.0008640278 0.7875958161
0.0924537193 1.0031356529 0.0371802395
0.0923344218 0.7528077822 0.0393092758
0.0923933341 0.5015803741 0.0391756185
0.1023550407 0.751981145 0.2887538325
0.0822906062 0.7521699047 0.2895960947
0.0923369992 0.7547930133 0.5414131614
0.1023086472 0.7516101346 0.7873518822
0.0822541542 0.7504840856 0.7914380045
0.0923572503 0.5009145081 0.5414076384
0.1124367811 1.0024261769 0.0348343322
0.1123716094 0.7505947378 0.0334932482
0.1223671905 0.5020620367 0.7802695157
0.1224614503 0.7504971035 0.2823507988
0.1123557767 0.7509982929 0.5349631819
0.1225951076 0.7509722571 0.7807914422
0.112441936 1.0007663935 0.534806696
0.1223977513 0.999139155 0.7805521108
0.1525067379 1.0000438996 0.5168586869
0.1326264044 0.9988137073 0.5269428207
0.1424684453 0.9988006894 0.7719941746
0.1525012148 0.9981953566 0.0188618191
0.1325468727 1.0004279279 0.0238374255
0.1524931144 0.7493775633 0.016470715
0.1325026885 0.7488047754 0.022990837
0.1425398765 0.7502497632 0.2695207983
0.152576328 0.748290568 0.5144653736
0.1325174165 0.7490390977 0.524312017
0.1424964286 0.5009795976 0.2709715144
0.1425045291 0.7482645322 0.7691847929
0.1725549715 0.7502627811 0.0142877371
0.1625343526 0.4991076224 0.7673861259
0.1726319257 0.5002434349 0.0162864299
0.162498637 0.7504450318 0.2674966075
0.1825612305 0.9995036564 0.7668439484
0.1725711724 0.7508876407 0.5126648655
0.1624353062 0.4985706337 0.2665061439
0.1623653478 0.7498787528 0.7649292977
0.1824253639 0.7509527303 0.2650600304
0.1824695482 0.7487982664 0.7633110496
0.1625708046 0.998995958 0.2667675674
0.1724106363 0.9989438864 0.5175453838
0.1723509875 0.9973166478 0.0172140229
0.1925034224 0.9994450758 0.5134758306
0.2024809616 0.9994646027 0.7609646821
0.19244451 0.7496574484 0.0131003775
0.202447087 0.7473402607 0.2572615109
0.1924474556 0.7485379082 0.5120932318
0.2024702837 0.7504645587 0.7607594094
0.232301646 0.747294698 0.9988950082
0.2324242572 0.4992820623 0.9973025344
0.2324408263 0.7487787396 0.5011254132
0.2324279393 0.5008110157 0.4975612173
0.222370132 1.0000829533 0.2564892071
0.2125155722 0.9978959447 0.5065444269
0.2125037897 0.9994320579 0.0071635796
0.2124279401 0.7502888169 0.0067690511
0.23234178 1.0007273398 0.9970263828
0.2223944333 0.7499178065 0.2516998189
0.2124883252 0.7499828961 0.5067368125
0.2224706511 0.5003247968 0.2526792363
0.2224978981 0.7503799423 0.7522640675
0.2523631349 0.751981145 0.9895426761
0.2523911182 0.5002831395 0.9907945631
0.2423944324 0.7508941497 0.242856526
0.252250465 0.7503864512 0.4908893961
0.2425439225 0.5031145346 0.2406740084
0.2424684411 0.7505166303 0.7425324872
0.2524202062 0.4982256591 0.4920041278
0.2624386159 0.5013278267 0.7337840064
0.2623752851 0.7497811185 0.2397921644
0.2623535612 0.7504385229 0.7381066986
0.28251336 0.5005949184 0.7330015771
0.2823594516 0.7492213484 0.2344016864
0.2824761716 0.500230417 0.2323010936
0.282391117 0.7482580232 0.7343344685
0.2724964232 0.7488177933 0.9870941324
0.2723785985 0.4978487906 0.9885301204
0.2724227827 0.749423126 0.4842912153
0.282356506 0.9981042313 0.2339414338
0.2823900123 0.9982669551 0.7319844189
0.31270151 1.0015214322 0.9747501586
0.2923693926 0.7479651203 0.9815711016
0.3024249907 0.5011312562 0.7235774455
0.292444874 0.4988733 0.9829518593
0.3024827984 0.7481799158 0.2252932881
0.2924647569 0.7478414501 0.4807850112
0.3024448736 0.5007895361 0.2266206565
0.3025442882 0.7492213484 0.7263214713
0.3024246225 0.9976551134 0.2247262569
0.3123723374 0.7491627679 0.9733694009
0.3123900111 0.5005122547 0.9750999505
0.3125059947 0.7492343663 0.4775255025
0.2924301459 1.0004084011 0.9832924462
0.3325869983 0.7510438556 0.9702028632
0.3324603368 0.5020613858 0.9685827742
0.3225980448 0.7501716558 0.2229938662
0.3324765377 0.7482059516 0.4733233966
0.3226208734 0.7495337782 0.7240238905
0.3324500272 0.5003781702 0.4693256428
0.3525170391 1.000694795 0.4633552465
0.3423296247 0.9995101654 0.7211868937
0.3627615249 0.7461361041 0.2106296413
0.3526503283 1.0004409458 0.9657292082
0.3626805204 0.7476071278 0.7119910474
0.3624485531 0.9984752416 0.2132899011
0.352679048 0.7480497367 0.9658304638
0.3624964194 0.9993474415 0.7128655273
0.35256601 0.501275755 0.9624798251
0.3425803703 0.7495598141 0.2208233151
0.3525059931 0.7496899931 0.4644193504
0.3426153495 0.748856847 0.7181694778
0.3924827946 0.9982539372 0.4543757189
0.3726882522 0.7501846737 0.955640472
0.3725741096 0.5001471024 0.9550881689
0.3827659424 0.7499503513 0.2065757367
0.3725446534 0.7515515541 0.4568666058
0.3825523853 0.5021251736 0.2049814218
0.382692302 0.7479260665 0.7058107759
0.3824676988 1.0007533756 0.2054619254
0.3824824269 0.9993409326 0.7056165493
0.3725483355 0.9994515848 0.959405338
0.3726035658 0.5006639133 0.4585557327
0.3925748452 0.7506207736 0.9537166162
0.3925822092 0.7482384963 0.4488057423
0.4124945763 0.7493775633 0.9450178427
0.4125350785 0.7523131017 0.4454182834
0.4124135718 0.5015289533 0.443555181
0.4024757984 1.0018729158 0.2016906159
0.4025199826 0.5021974229 0.6981991189
0.4026009871 0.7507249169 0.1954900933
0.4026046691 0.5028893248 0.1983427387
0.4026341253 0.7523977181 0.698379538
0.432340667 0.7498331901 0.9417500495
0.4226495889 0.7527492016 0.1894294875
0.4325910444 0.7501911826 0.4424579389
0.4224286677 0.4994682184 0.1932551068
0.4225612204 0.751564572 0.6905331522
0.442385219 0.7499047886 0.189435931
0.442385219 0.7523977181 0.6897286307
0.4326315466 0.9993799863 0.4425776046
0.4225685845 1.0015930307 0.6970190314
0.442554592 0.9976420955 0.1908756011
0.4524518632 0.9985858939 0.9369818329
0.4626952443 1.0017036829 0.1847146602
0.4725151931 0.9966917882 0.4355780835
0.4626068758 0.9991196281 0.6833568942
0.4524739553 0.7490586246 0.9355182297
0.4525255036 0.7522024495 0.4361644453
0.4725483313 0.7523781912 0.9333918629
0.462466959 0.7502107095 0.1857235338
0.4724710088 0.7491172052 0.4317892844
0.4624853691 0.7504059781 0.6864019251
0.4724268246 0.4987938908 0.4361497172
0.4825118788 1.0024912664 0.1830098847
0.4925969331 0.9998941937 0.4319457703
0.4926263893 0.9987876715 0.935932457
0.4825928833 0.5013096016 0.6796058357
0.4925232927 0.7520722704 0.4343933934
0.4824640126 0.7504059781 0.1852163355
0.4925674769 0.748570453 0.9366688611
0.4825192429 0.7500935483 0.6849125478
0.5125424383 0.9992107535 0.4342543972
0.5125387563 1.00041491 0.9370830885
0.5025494346 1.0000699354 0.1846539069
0.5224065714 0.7497485737 0.6894773328
0.5224838938 1.0002847309 0.1815251099
0.5223513411 1.0014823785 0.6841954743
0.5025162964 0.7480822814 0.1854188466
0.5026525312 0.4993621225 0.1820893796
0.5024978863 0.7496574484 0.6854298717
0.5025273425 0.4991440725 0.6828671854
0.5125903046 0.7501195841 0.9338521154
0.5125093002 0.4993718859 0.937184344
0.5125203462 0.7491106962 0.4354363257
0.5225575342 0.5012718497 0.1861524892
0.5224912578 0.7498266812 0.1866983488
0.5325026717 0.7506533184 0.4388449563
0.5324879436 0.4999147327 0.4415494003
0.5324768975 0.9991521729 0.9385374866
0.5424036249 1.0004734906 0.194356031
0.5525623196 0.998989449 0.4460782856
0.5525218174 0.7503408886 0.9477977682
0.5425509057 1.0009356263 0.6908129857
0.5425104035 0.7520071808 0.1928086619
0.5524960432 0.7507314258 0.4450169432
0.5425840439 0.7490390977 0.6910744092
0.5324106212 0.7495923588 0.9399274493
0.5624706368 1.0008640278 0.2009229146
0.5624154065 0.9999462653 0.6984844755
0.5625369132 0.7507965154 0.2002481844
0.5625590053 0.7487592127 0.7006946084
0.5724452305 1.0005841428 0.4511861686
0.5724783687 0.9996468534 0.9541492537
0.5724673226 0.7509397124 0.9521517575
0.5724525945 0.7511870526 0.4515065044
0.6023874215 1.0001805877 0.2117655446
0.5923907357 0.7497811185 0.9567726933
0.5924717402 1.0008575189 0.4556911207
0.602483154 1.0013196546 0.7141220168
0.5924717402 0.9992953699 0.9566898478
0.6023506013 0.7494621797 0.2089469579
0.6023542833 0.5002694707 0.2092396785
0.5924459661 0.7495467961 0.4575984074
0.6022769609 0.7495077424 0.7092672727
0.582401414 0.998703055 0.2070856965
0.5823388197 1.0009746801 0.7034828184
0.5825118746 0.7493189828 0.2035353082
0.5823461837 0.7484402739 0.702326664
0.6124540657 0.7506598273 0.9625718756
0.6123141489 0.75070539 0.4598877036
0.6123841073 1.0005971607 0.9603442532
0.6226238064 1.0019705501 0.2151585265
0.6222740144 0.7493840723 0.2155350131
0.6223329268 0.749852717 0.7142260338
0.64263927 0.9995947818 0.7185791026
0.6526322738 0.9995427101 0.9735258867
0.632591036 1.0006557413 0.9670823508
0.6324879394 0.7502107095 0.966401177
0.6325431697 0.5011872333 0.9671559912
0.6326278562 0.7506468094 0.4661904023
0.6525291772 0.7493450186 0.9712522391
0.6525659974 0.4993601698 0.9709852926
0.6426650442 0.7498657349 0.2189620537
0.642631906 0.502483166 0.2215238195
0.6525844075 0.7508095333 0.4742641528
0.6425103993 0.7486420515 0.7169903108
0.6724894105 0.7501716558 0.9771158568
0.6726145992 0.5001842034 0.9785334347
0.6824713682 0.997850382 0.2298267758
0.6725151847 0.9973491926 0.4791041688
0.6825229165 0.9983385536 0.7325698602
0.6825891929 0.7506012467 0.2301471116
0.6725630509 0.7501846737 0.4778228257
0.6825450086 0.7494491618 0.7310326166
0.6624779967 0.7490716425 0.2241426566
0.662540591 0.7501976916 0.7251137686
0.7026525228 0.9981302671 0.2355513973
0.7024684218 0.4996101136 0.734240577
0.6926190168 0.7493970902 0.9810003884
0.692464372 0.9998811758 0.4833164003
0.7025494262 1.0000243728 0.7324575585
0.6923833675 0.9991131192 0.9822154552
0.7024831498 0.7501065662 0.2332832726
0.70251997 0.499906922 0.2335732317
0.6925601045 0.7514604287 0.4814054317
0.7025310161 0.7520527435 0.7360815873
0.7224691573 0.5011546885 0.7405773343
0.7324916172 0.7495402872 0.9979008627
0.7226201202 0.7494817066 0.2427828856
0.7224544292 0.4999921893 0.2409280678
0.7324400689 0.7496769752 0.4973495011
0.7225280697 0.7506142646 0.7422600177
0.7225575258 1.0008835547 0.7446781847
0.7126050243 0.7497876275 0.9896807518
0.7126307984 0.7486615784 0.4878959134
0.7423962525 0.4995346098 0.7481273175
0.7425067131 0.7495923588 0.2516749652
0.7423594323 0.4982243573 0.2480803927
0.742495667 0.748140862 0.7521508454
0.7523745281 0.4991154331 0.5044907799
0.752525491 0.7502042005 0.0050086771
0.76238226 0.5008754543 0.7532287569
0.7624522184 0.7491041873 0.258366117
0.7624816745 0.5010720248 0.2525374785
0.7524408045 0.7503994692 0.5032665081
0.7625258588 0.7482710411 0.7544180495
0.7824124517 0.7506207736 0.2612749133
0.7823866775 0.5017079496 0.2597266236
0.772426812 0.7519290734 0.5079086155
0.7823572214 0.7509071676 0.7618051032
0.7724047199 1.0009486443 0.506830704
0.7724673142 0.5012920274 0.5069945539
0.7724378581 0.7503864512 0.0070792613
0.7825302764 0.5019585443 0.7598932141
0.7724452221 0.5006131435 0.0082324702
0.7923539071 0.7499763871 0.5138339071
0.8124577393 0.5014970595 0.5193357662
0.8125092876 0.7505231393 0.0204549374
0.8025273299 0.5006242087 0.7664039469
0.802369003 0.7526450584 0.268137279
0.8024536895 0.5009014902 0.2688138503
0.7925380082 0.500535036 0.5134086337
0.7923759993 0.7502042005 0.0151195975
0.8124724674 0.7519160555 0.5208858969
0.79250487 0.5012620862 0.0136235926
0.8024389614 0.7506207736 0.7675987626
0.8325173872 0.5011969967 0.5246231477
0.8325137052 0.7513953392 0.0261172406
0.8225317475 0.5012340977 0.7702792735
0.8325210692 0.5022690214 0.0244900637
0.8224286509 0.7489414634 0.2697187069
0.8225059733 0.4996739014 0.2717373746
0.8324363827 0.7487917575 0.5211675715
0.8225170194 0.7491562589 0.7723991968
0.8625700388 0.7481668979 0.7838686908
0.862603177 0.5002323697 0.7844734627
0.8526433114 0.7500544946 0.0319979797
0.8526359474 0.5002499438 0.0312102114
0.8625884489 0.7484467829 0.2832372453
0.862606859 0.4982152448 0.2838153225
0.8526506755 0.7523586644 0.5311725418
0.842528801 0.7508290601 0.2794512077
0.8424477966 0.5003287022 0.2766390645
0.8425729853 0.7501195841 0.7778154491
0.8525954452 0.4994617095 0.5320912059
0.8726550931 0.5008240336 0.5377246973
0.8826296867 0.7473077159 0.790529466
0.8924864557 0.4983883829 0.539464452
0.8726182729 0.7504059781 0.0395837705
0.8925785062 0.7504450318 0.0417512839
0.8826480968 0.499066616 0.7935993506
0.8726808672 0.4993289268 0.0348753867
0.89254905 0.5001614221 0.0436509303
0.8825707744 0.7476852352 0.2902597789
0.8826996451 0.4969896087 0.2890861349
0.8727360975 0.7500610035 0.5393935731
0.8924975018 0.7492929469 0.5443311627
0.8824897699 1.001130895 0.2924745143
0.8825670924 1.0002912399 0.7929918172
0.9126013339 0.7492343663 0.5458960214
0.9126086979 0.9986640013 0.0485886119
0.9125939699 0.49874247 0.5460948505
0.9025936021 0.7496183946 0.7935063796
0.9126970664 0.7505556841 0.0450779895
0.9126307901 0.4995756162 0.0458409041
0.9026488324 0.7495402872 0.2973154508