POSCAR file written by Ovito 3.7.11
1
271.5768404432 0.0 0.0
0.0 15.3627060393 0.0
0.0 0.0 10.8630736177
Sr Ti O 
800 800 2400 
Direct
0.0223300013 0.4992709618 0.8063153354
0.0123466758 0.2501280054 0.5573627742
0.0223976065 0.2503284909 0.8052557826
0.0024381357 0.2491750483 0.8082807092
0.0123850811 0.249766741 0.0567307071
0.0224333238 7.3034136022e-04 0.3092801325
0.0023243926 4.1620399485e-04 0.3061907674
0.0023360283 0.499687555 0.3090380279
0.0123763543 0.5004406776 0.560244095
0.0123924455 5.562834831e-04 0.5574999361
0.0222986658 0.0010231934 0.8087096854
0.0024320969 -1.3467551676e-04 0.8103841654
0.0224043081 0.252548152 0.3100220956
0.0023260864 0.2496515269 0.303492636
0.0325197877 0.4990177512 0.0547104686
0.0424841867 0.4986838256 0.303233041
0.0324932759 0.4990060345 0.5546351852
0.032439884 0.2496756112 0.5550181339
0.0425254273 0.2494582016 0.8018129265
0.0324107946 0.2520918522 0.0519243326
0.0524353298 0.4978597521 0.0487196227
0.0425464159 0.001239171 0.8015339999
0.0423954457 0.2495311054 0.3005358302
0.0525384314 0.2494393247 0.5497783646
0.0525167064 0.2488691126 0.0481310232
0.0624490703 0.2492141039 0.2950198959
0.0624269771 0.4973774152 0.7943187307
0.0725673852 0.498921414 0.0444415517
0.0625109312 0.4980680487 0.2939851979
0.0724727527 0.4988315861 0.5457850196
0.072474962 0.2485228195 0.539754498
0.0623864729 0.2492993754 0.7980662889
0.0724896908 0.2494295608 0.0402965002
0.0925050205 0.2483509747 0.5373371343
0.102530544 0.2491906706 0.7842635655
0.082586649 0.2497979854 0.7918976848
0.0925418425 0.2516628913 0.0390317568
0.1024499039 -5.605119536e-04 0.2879086489
0.0923824033 -1.2901245195e-04 0.5376022527
0.1024447488 0.2497114122 0.2850650706
0.0824511441 0.2488189913 0.289566559
0.1025294394 0.4984208511 0.7838962661
0.0825214741 0.4987756063 0.7888055581
0.1024097679 0.4998704655 0.2870111128
0.0825420944 0.4985412726 0.2900480065
0.1225182572 0.2478081016 0.282095377
0.1123866864 0.4994239296 0.0324730238
0.1123215115 0.2495447748 0.5348765048
0.1224335666 0.5002076457 0.2814859731
0.1125118811 0.4989663279 0.531107774
0.1224254658 0.2489862795 0.7815967328
0.1124297681 0.2480216057 0.0338432621
0.1222925384 3.8378783075e-04 0.2862129962
0.152288837 0.248028115 0.5243629058
0.1324255822 0.2491190686 0.528611243
0.1423542638 0.2470888273 0.7779522762
0.1523112984 0.2510087096 0.0263409655
0.1323486242 0.2486198076 0.0316671745
0.1423439537 -3.2103591399e-04 0.2784269862
0.1422960851 0.2463832225 0.2773260086
0.1423634693 0.498716372 0.7787476312
0.152454536 0.4991121356 0.0255902572
0.1324174813 0.4972940965 0.0306374475
0.1524619004 0.4963456959 0.5254196969
0.1323983339 0.4965813314 0.5302581065
0.1823098064 0.2487799356 0.2672478297
0.1725611842 0.4992097746 0.5190596185
0.1826157971 0.498760635 0.7627751721
0.172438567 0.2492883096 0.5190706651
0.1623537601 0.2498422485 0.7704258613
0.1723686052 0.2520684188 0.0179922234
0.1825038583 0.5001041483 0.267310427
0.1623162016 2.6505874778e-04 0.7712773698
0.1624472879 0.2488079255 0.2688247314
0.1825259515 0.2489270451 0.7651465083
0.1824662998 0.0018236383 0.2650734911
0.1925094979 0.0013793807 0.0172333222
0.2024182957 0.2496957899 0.2590540161
0.202527657 0.4982307804 0.7621261845
0.1925234903 0.4994890223 0.0137157174
0.2025512231 0.4985907431 0.2598981602
0.1925275407 0.4996582633 0.5156047952
0.1925912427 0.2476011069 0.5114199759
0.2025026181 0.2462237453 0.7571662623
0.1924520556 0.2482045162 0.0116969517
0.202356803 8.4412339806e-04 0.2608315977
0.212366493 0.2493078374 0.5103291244
0.2224586644 0.2477371506 0.7497098091
0.212461862 0.2464300892 0.0050101702
0.2224513 -3.3268750711e-04 0.7530256294
0.2224358347 0.2505413441 0.2506843775
0.2323140703 0.2516960886 0.4934149428
0.2323844003 0.2520638623 0.9964153083
0.2325515721 0.0012625393 0.4982018017
0.2225002732 0.4997389783 0.7511274557
0.2125369789 0.4983336269 0.0036022814
0.2125494983 0.4989812993 0.5005399981
0.2425678901 0.5001803068 0.7394871038
0.2624057378 0.2507157925 0.7345842557
0.2625419792 0.0012556394 0.2372682851
0.2625162038 3.6946743697e-04 0.7376165466
0.2525031998 0.2534229979 0.487260147
0.2424408543 0.2513198527 0.7438532714
0.2523886834 0.2510406051 0.9884157307
0.2625806423 0.25088959 0.2339938895
0.2424677343 0.0013167615 0.2409771801
0.2625648088 0.4997546005 0.2371053478
0.2524262418 0.0044682896 0.4905897755
0.2425734134 0.001955386 0.7397282878
0.2524763197 0.0040827455 0.9856632869
0.2424890911 0.251469566 0.2429223018
0.2725119015 0.2495395674 0.4843171494
0.272469188 0.250996993 0.9831409805
0.2725159519 0.0024429303 0.4828700451
0.2725041689 0.0027599968 0.9831593915
0.2825576771 0.2489133757 0.7321530837
0.2725104286 0.499447363 0.4857136234
0.2825620958 0.2496046601 0.2335603106
0.3125370376 1.7418933998e-04 0.4744065105
0.2924738393 0.4994955316 0.4844810072
0.2925360685 0.249712714 0.4801249657
0.3025847899 0.2503981401 0.7284837723
0.2924815719 0.2518952722 0.9776084763
0.2926877751 -3.4922105266e-04 0.4803569442
0.3027552757 0.0010069202 0.7261538608
0.3125252546 0.499367299 0.474166247
0.302479479 0.2489394127 0.2302527752
0.3126073676 0.2520423817 0.4722045554
0.3126452943 0.2510093606 0.974865238
0.3227054304 3.9120839844e-04 0.2205943669
0.3325969219 0.0013098617 0.467592601
0.3225625611 0.0010338035 0.7227524294
0.3325781427 1.8108916607e-04 0.9678414432
0.3226078522 0.249490097 0.2208309482
0.3224826574 0.4997083847 0.7188750737
0.3225772899 0.5005676083 0.220318202
0.3325932397 0.2513426352 0.470162776
0.3224616689 0.2510783588 0.7238902289
0.3326061274 0.2501735703 0.970906874
0.3626112633 0.2505888617 0.213724304
0.3526188796 0.4975961266 0.4674057294
0.3527009926 0.2477683951 0.4656769369
0.3427237059 0.2514858391 0.7179655705
0.3625854879 0.5002961718 0.7110982692
0.3525279293 0.2506643693 0.9662212756
0.3626370387 0.4984332187 0.2084946607
0.342609926 5.1117424269e-04 0.2193267699
0.3425775226 0.2481947523 0.2204378735
0.3625523481 0.2510197754 0.7164613922
0.3424913591 0.4995710391 0.7162358575
0.3424788397 0.4973865281 0.2175289362
0.3825245961 0.2513680213 0.2060837408
0.3925070379 0.2482207894 0.4501647526
0.3924923091 0.2507196981 0.9501852985
0.3926248682 0.0023396282 0.9483534044
0.3825540537 0.5000338482 0.7045807768
0.3925585887 0.5003488969 0.9498446951
0.3726820779 0.2510126152 0.4575807016
0.3825945579 0.2469286993 0.7079545917
0.3725458365 0.2480203038 0.9570525998
0.3926138216 0.4999472749 0.4536260198
0.3724648281 0.0010181813 0.4609941002
0.4126044806 0.4984371243 0.9495593246
0.4025373482 0.2503232835 0.6980181774
0.4023716493 0.0027108518 0.698981993
0.4025078906 0.24645873 0.1991372722
0.4124350994 0.2506858499 0.4480474881
0.4124682392 0.2458208215 0.9469265523
0.4123872309 0.0030270071 0.4458335659
0.4124093241 -1.0128296218e-04 0.948086445
0.442349285 9.3551354746e-04 0.6949729988
0.4424671154 0.2492459994 0.1932356276
0.4223696726 0.4986265441 0.6999890745
0.4324404872 0.4979840791 0.9466135653
0.4325141312 0.4974086597 0.4449433943
0.442459751 0.4991524931 0.6928225945
0.4422830054 0.4992221422 0.1984017529
0.4323668432 0.2484284351 0.4454745515
0.4223254863 0.247510628 0.6965867225
0.4324662626 0.2503681975 0.9470186072
0.4224285878 0.0016349346 0.1955388431
0.4323042458 0.0014255965 0.9452695627
0.4224249056 0.2503297928 0.1952461083
0.4423897892 0.250684548 0.6955004738
0.4723849831 0.2489628461 0.4397717456
0.4622626178 0.2487011735 0.691786976
0.4724291695 0.2503109159 0.9395161266
0.4724475805 -1.4600164639e-04 0.9381813294
0.462358355 0.2490604852 0.1921420144
0.4524495572 0.4984722744 0.9435573401
0.4524237818 0.4981103589 0.4423741399
0.4624982785 0.497146987 0.6881093796
0.4723960297 0.4988576231 0.9379051644
0.462431999 0.4990164493 0.1892588525
0.452409053 0.2519082907 0.4433195445
0.452372231 0.2491483603 0.9439531765
0.4524569216 5.1631656591e-04 0.4433922679
0.4824005647 0.2502855298 0.6850540749
0.4824005647 0.0012741909 0.6876647541
0.4924529683 0.4985926958 0.9359812154
0.4925008369 0.49841304 0.4363546649
0.4823048275 0.2509117215 0.1873431884
0.4923609133 0.2505895127 0.4352785422
0.4923572311 0.2492414429 0.9366163948
0.4825552171 0.4989806483 0.1868249189
0.5025716514 0.2497205251 0.6889608882
0.512476767 0.2504593273 0.4408359012
0.5123773477 0.2526542531 0.9414492811
0.5024869609 3.9218478892e-04 0.6850614393
0.5023912237 0.2492297262 0.1900827446
0.5224039758 0.2492407919 0.1957100654
0.5223376963 0.2480124927 0.6945523075
0.5124215341 0.4998060238 0.4406987393
0.5224150224 0.4976742379 0.6968674902
0.5424756432 0.4986193839 0.6987610611
0.5525722331 0.4988270296 0.9457206321
0.5424388212 0.4970630174 0.1974664743
0.5525538222 0.4981708952 0.447712408
0.5324747904 2.4891575843e-04 0.4463251395
0.5325079302 0.2493071865 0.4455003269
0.5323864176 0.2493423366 0.9483165824
0.5325189768 0.4998209951 0.9435573401
0.5523144792 -3.9075019462e-04 0.9489885838
0.5425161474 0.2467633638 0.1963415625
0.5523623478 0.2485976761 0.4494678964
0.5423504484 0.2486041853 0.6966217034
0.5524249452 0.2513198527 0.9490530222
0.572356689 0.250033621 0.451687342
0.5725592099 0.2492896115 0.9521644805
0.5625178529 0.4993809684 0.6973019897
0.5624773488 0.4985165374 0.1974250496
0.5724008754 0.4988224731 0.9481785
0.5723824644 0.4981891211 0.4511819601
0.5624405268 0.2484362462 0.1986779178
0.5623374252 0.2480131436 0.6986515157
0.6026390944 0.4993100174 0.709338178
0.5924467673 0.5000227824 0.9540700185
0.5924614961 0.498100595 0.4537061076
0.5824716899 0.2493573079 0.7001391241
0.6023887049 0.2482364116 0.2107352788
0.5925756443 0.2509937383 0.456256951
0.6025875437 0.2500420831 0.7051165368
0.5925572333 0.2503512734 0.9550089793
0.5823354485 0.4979261466 0.7055915404
0.5825011475 0.5000429612 0.2048833439
0.5825121941 0.249908643 0.2046697763
0.6126767692 0.4998437775 0.9595841117
0.6126436294 0.497896204 0.4581109383
0.6226371178 0.499785845 0.7122489564
0.6123932399 1.8427870833e-04 0.4576930087
0.6227402194 0.4994636362 0.2116503053
0.6126399472 0.2510568782 0.4605540774
0.6125221168 0.2516837209 0.9623733775
0.6225266518 5.4040086454e-04 0.7092129833
0.6224714188 0.2491210214 0.2103514096
0.6225340162 0.2497140159 0.7114223027
0.6425173108 -3.6497348582e-04 0.2141440747
0.6523856044 -4.9112313647e-04 0.4699528906
0.6326711104 0.4992950461 0.4646799815
0.642410527 0.2496931862 0.2176283556
0.6523303714 0.2508297047 0.4714220881
0.6424731244 0.2493123939 0.7195958642
0.632442814 3.8144449359e-04 0.4621503107
0.6524629306 0.250702774 0.9709989289
0.6425173108 0.5004348192 0.7146718434
0.6525954898 0.4996595652 0.4671801947
0.6325385512 0.2506734822 0.4613291803
0.6325753732 0.250318727 0.9655124523
0.6824986287 0.4977777353 0.7225710811
0.662456419 4.2824614417e-04 0.2227806727
0.6826753743 0.4987300414 0.2259666954
0.6624416902 8.7941513809e-05 0.722634599
0.6724720005 0.4990522503 0.4722119198
0.6623533174 0.2503734049 0.2227898782
0.6623422708 0.2499854524 0.7221669597
0.6724278142 -2.8484437335e-04 0.9735856738
0.6624858766 0.4995768975 0.7200441719
0.662438008 0.4981663387 0.2202574457
0.6823587052 0.247938938 0.2256914511
0.6725493267 0.2497875706 0.4758232366
0.682355023 0.2497146668 0.7256641283
0.6724535896 0.2486204585 0.9761448022
0.7024156437 0.2476870292 0.2332602113
0.6924111087 0.2490136184 0.4773614752
0.7023935505 0.2506819443 0.7325526023
0.6924295197 0.2495102757 0.9784829986
0.6924442485 0.4979359105 0.981005305
0.6923890155 0.4989715354 0.4799132392
0.732418202 0.4988302842 0.9942243998
0.7324513418 0.4985640551 0.4964085707
0.7124790939 0.2506565581 0.4849072218
0.7125011871 0.2496085657 0.9864641652
0.7225867304 0.0016889615 0.2402554691
0.7327569644 0.00189153 0.4961195181
0.7326317696 4.1047583734e-04 0.9961851708
0.7124717295 0.4982535629 0.9863444937
0.722579366 0.2497563261 0.2396248925
0.732491846 0.2495161341 0.4949743541
0.7224725823 0.2497315909 0.7397798386
0.732455024 0.248848283 0.9942796328
0.7125380091 0.4994441084 0.4891905399
0.7124827761 7.960849862e-04 0.4862926492
0.7126006064 0.001281286 0.9867127136
0.7525045982 0.4985276031 0.003648585
0.7425921182 0.001274321 0.2497242441
0.742680491 0.0015889141 0.751159675
0.7426657622 0.2507340185 0.2519832733
0.7425626606 0.25055957 0.7478079532
0.7625901415 0.0020828375 0.2595640007
0.7526666149 0.0017095308 0.5039349857
0.762579095 0.0014741556 0.7599407993
0.7525892888 -8.8004051581e-05 0.0051783547
0.7626122347 0.25112132 0.2582494556
0.7526334752 0.2522513293 0.5012626297
0.7627227007 0.2522168301 0.7604065975
0.752629793 0.2510106624 0.0047106233
0.7826286691 0.0022042353 0.263370474
0.7825955293 2.1623922353e-04 0.7621077735
0.7725136681 0.0011939967 0.0131208581
0.7826802199 0.2527024217 0.2656884183
0.7726425451 0.2522656497 0.51094129
0.7825697539 0.252815683 0.7623968261
0.7726425451 0.2505485043 0.0094365418
0.7925301025 -1.906552379e-04 0.5167149782
0.7924638229 0.0016894823 0.0140644217
0.8127601044 0.5000214806 0.0255160609
0.7927142125 0.2534581479 0.5163430761
0.7927768098 0.253145052 0.0177610734
0.8025088621 3.2305634259e-04 0.2676436661
0.8125060327 0.0025117983 0.5216077003
0.8024315359 3.5657908257e-04 0.7688719732
0.8125428547 1.080551578e-04 0.0222254636
0.8026451035 0.2520833901 0.2729819342
0.8127196002 0.2498663328 0.5275470875
0.8025861883 0.2508908919 0.7673263702
0.8125796767 0.2489146775 0.0273733621
0.832540878 0.001332579 0.5272138484
0.8223927373 0.0014633502 0.7726756849
0.8325813822 0.0031048579 0.0265525079
0.822628398 0.250479506 0.2763833657
0.8325666534 0.2512664767 0.530016002
0.8226394446 0.2507216508 0.7789234563
0.8327139414 0.2494224006 0.030819072
0.8224442881 0.0012726286 0.2780495608
0.8426264214 8.0656491074e-04 0.7761931056
0.8424938622 0.2523125164 0.279607131
0.8425233198 0.2501299582 0.7782634221
0.8626796777 3.220799521e-04 0.279273892
0.842729523 0.4997448366 0.7793920161
0.8525609946 0.0031472984 0.5264875347
0.8625765762 0.0016894172 0.7796184713
0.8524689396 0.0015719249 0.0281421132
0.8624587458 0.2516524764 0.2814960991
0.8425711884 0.0012059737 0.2727048487
0.8526456852 0.2495200396 0.5300252075
0.8624476992 0.2521920949 0.7807433832
0.852678825 0.2524283814 0.028079792
0.8724816918 0.0012255666 0.5298282098
0.8925533591 0.0022132181 0.538421542
0.8725332426 0.0016803042 0.0295868241
0.8825782817 0.250086997 0.2885475104
0.8924907617 -3.6666589599e-04 0.0410428819
0.8726400263 0.2511603756 0.5350983573
0.8924981261 0.249971783 0.5424507883
0.8824383582 0.2509566355 0.7863311203
0.8726179331 0.2509052123 0.0348530132
0.8924576219 0.2512801462 0.0428955804
0.9025689407 0.0028982537 0.2937145563
0.9124482809 0.0020921457 0.5477908976
0.9025578941 0.0010443485 0.7944319583
0.9024400637 0.2504625819 0.2985152234
0.9124814207 0.2515606957 0.5473922996
0.9024511103 0.2508576946 0.7968686536
0.9024069239 0.4999323036 0.7971825611
0.9124924673 0.2503590845 0.0518083433
0.9225669641 0.0013312772 0.2982307735
0.9224270405 2.4709316286e-04 0.7982411933
0.9225117311 0.2503610373 0.3023778503
0.9224675447 0.2515242438 0.8028025175
0.9424434748 0.0050061506 0.2977879891
0.932571499 0.0013256141 0.5497636358
0.94250239 0.0027241307 0.8018083237
0.9325015373 0.0028948689 0.049256027
0.9424176995 0.2538597699 0.3019332247
0.9324647153 0.2502692566 0.5505405798
0.9425318476 0.2515873837 0.8040305309
0.9324683975 0.2513328713 0.0505346707
0.9524590564 0.0035316708 0.5536851778
0.9525584758 0.0021332843 0.0492804216
0.9624414982 0.2510738023 0.3036307185
0.9523559548 0.2542112704 0.5494377612
0.9722471944 0.2503005011 0.5532746126
0.962308939 0.2535694564 0.8042901259
0.9525216538 0.2506513507 0.0543902093
0.9722876986 0.2495981509 0.0512029898
0.9624083584 7.7818449398e-04 0.3000488593
0.9824247928 0.4999440203 0.8053441554
0.982299598 0.5006574363 0.3044012187
0.9823511488 0.0017085544 0.3054644537
0.9924919251 -7.8716473151e-04 0.5557426066
0.9822590938 0.2488710654 0.3054138234
0.9925618869 -5.9949098313e-05 0.0554396361
0.9924551031 0.2489895341 0.5552105288
0.9824063818 0.2500219043 0.8051167796
0.992414599 0.2500954591 0.0559809193
0.0124182209 0.7513619664 0.0577640242
0.0024658627 0.5006964919 0.8058099536
0.0124366687 0.5010545017 0.058898878
0.0224487522 0.7504376501 0.3111810678
0.0023575692 0.7525596721 0.3111313581
0.0122484347 0.7503530296 0.5576932516
0.0225078515 0.7484393043 0.8104458423
0.0223189547 0.5013291929 0.3094881767
0.0026043502 0.7513489479 0.8102120226
0.012513774 0.9992610013 0.0606963435
0.0524872488 0.9994692979 0.5517630699
0.0524298065 1.0001788084 0.0533779728
0.0324034302 0.7499103993 0.0566243836
0.0425206405 0.5004719221 0.8023376398
0.0423534686 0.7500080383 0.3034051838
0.0324520352 0.7508998083 0.5590326515
0.0424720355 0.746551616 0.803136677
0.0524835666 0.7496305007 0.0470850024
0.0524544772 0.7502228442 0.5483800495
0.0525170746 0.5003996692 0.5499726006
0.0425338964 0.9994432609 0.3034180715
0.0324682369 0.9992805291 0.5584840038
0.0325400398 0.9986881856 0.0590213111
0.0725909513 0.9982455552 0.5439835037
0.0625573269 0.9991763808 0.7958809037
0.0724812218 0.9966507841 0.0417670784
0.0723994769 0.7489600459 0.040621086
0.0625617456 0.7481008222 0.2945375278
0.0724517642 0.7482961003 0.5420199711
0.062403411 0.7490707034 0.7974983097
0.0625252918 0.9990527047 0.2937964852
0.0825708155 0.9980177308 0.2890795882
0.1022981973 0.997685758 0.7872084042
0.0826138973 0.996696349 0.7894020744
0.0924921328 0.9984798889 0.037933633
0.0924821909 0.7506003819 0.0389454093
0.0924921328 0.5012022622 0.0385502172
0.1025426953 0.749252963 0.2866355285
0.0825520363 0.7500080383 0.2923889646
0.0925481022 0.7481528964 0.5382991089
0.1024863576 0.7496695563 0.7858036453
0.0825818621 0.7499689827 0.7915082923
0.0925134896 0.499660867 0.5370020542
0.1123815313 0.9997882522 0.0353023335
0.1124014152 0.7499624734 0.0379711914
0.1224052137 0.5013578337 0.7805528294
0.1224527141 0.7495588987 0.2830969352
0.1124573846 0.7498973807 0.5356617337
0.1223647095 0.7491097591 0.7838953456
0.1124017834 0.9979526381 0.5353947743
0.1222557164 1.0001722991 0.7853452115
0.1522774222 0.9972235998 0.5246924626
0.1323769771 0.9983887591 0.5351259738
0.1423619964 0.99775736 0.7792189527
0.1522752129 0.9973668038 0.0273683911
0.1322643018 0.9965661636 0.0328143636
0.1525598469 0.7476777197 0.0245320852
0.1324314737 0.7471634874 0.0308164944
0.142315969 0.7500666217 0.2809529747
0.1525524825 0.7465255789 0.5245451746
0.1324852338 0.7475084787 0.5298908072
0.142441532 0.5005018647 0.2766659744
0.1424614158 0.7469031166 0.7792493309
0.1726653905 0.7503074647 0.0178990638
0.1625537035 0.5005851834 0.7729941951
0.1725398275 0.5003352274 0.0194581069
0.1625669594 0.7495328616 0.2727876982
0.182516746 0.9993651496 0.7643299806
0.1725991109 0.7503400111 0.5197012417
0.1623961054 0.4999518314 0.2708039135
0.1626070954 0.7507761322 0.7719420067
0.1825509904 0.7519347822 0.2652640449
0.1826806038 0.7480422388 0.7656979176
0.1624749044 0.9976206653 0.2725750512
0.1724658153 0.9997231595 0.5222198659
0.1723851751 0.9986165836 0.020265337
0.1924174429 0.9996125019 0.5133853497
0.2025225019 0.997516517 0.7624198398
0.1926567859 0.7496760655 0.0117010022
0.2026204484 0.748094313 0.2590190352
0.1926674642 0.7475996084 0.5099084332
0.2026473285 0.7495458801 0.7571257581
0.2326226386 0.750385576 0.9970136656
0.232427482 0.5002981246 0.997685667
0.2326664567 0.7516939392 0.5007360752
0.2325843437 0.5005513352 0.4955625854
0.2224126369 0.998818371 0.2520688844
0.2125174632 1.0001397527 0.5044044661
0.2123403494 0.998577528 0.0061163028
0.2126128322 0.7489925922 0.0051073803
0.2325489946 0.9993911867 0.9971885701
0.2225610295 0.7499689827 0.250785638
0.2126069406 0.7505938726 0.5037214181
0.2225363588 0.5007394531 0.2540710802
0.2224608737 0.7497281397 0.7531600296
0.2526530653 0.7521560974 0.9898057609
0.2526390729 0.5016709296 0.9870441116
0.2425642079 0.7502684091 0.2436302046
0.2525470179 0.7511471605 0.490969042
0.2426164952 0.500757679 0.2434267631
0.2425719406 0.7519998749 0.7486382891
0.2525289752 0.5011938001 0.4916180296
0.2626344024 0.5011625556 0.7375382999
0.2624418234 0.7510430122 0.236702147
0.2625913207 0.7501121866 0.7349156536
0.2825609911 0.4998737202 0.7343559593
0.2826338986 0.7494677689 0.235963866
0.282495448 0.5018570947 0.2315120873
0.2825827161 0.7500861495 0.7347996643
0.2725549832 0.7513619664 0.9865470147
0.2726186853 0.4996686782 0.9861143563
0.2726109527 0.7498387973 0.4837786277
0.2825462623 0.9999835303 0.2301312626
0.2826191698 0.99891601 0.7308136838
0.3124737038 0.9995343906 0.9737145508
0.2925798867 0.7499364363 0.9797533573
0.302576689 0.5014476616 0.7239067988
0.2925839371 0.5010030785 0.9830857475
0.3026510694 0.7487452399 0.2295715684
0.2926443251 0.7486215638 0.481665966
0.3024172498 0.5013116179 0.2292328061
0.3026547516 0.7490251386 0.7253198427
0.302613511 0.998193481 0.2277221839
0.3126313019 0.748771277 0.9734199749
0.3124427733 0.5001321382 0.9746443061
0.3126416121 0.7481594057 0.4741736114
0.2926159722 1.0008753002 0.9780227237
0.3326057592 0.7521821345 0.9691302129
0.3325961855 0.501230252 0.9671050034
0.3226619805 0.751374985 0.2189926103
0.3325232779 0.7487647678 0.472373016
0.3225279485 0.7503204833 0.722319771
0.3326359532 0.4997227051 0.4670918219
0.3525338208 0.9987923339 0.4655968491
0.3426739962 0.99891601 0.7176627097
0.3625192083 0.7483481745 0.2132308893
0.3526244029 0.9996515575 0.966433002
0.3625192083 0.7504376501 0.7127175163
0.3626296743 0.9980632956 0.2112857676
0.3525367665 0.7498648344 0.9680347587
0.3626112633 0.9997426873 0.7109896443
0.3526487054 0.5003332746 0.9659911382
0.3425259718 0.7508151878 0.2165080465
0.3526070965 0.7483481745 0.466177716
0.342670314 0.7497216304 0.7152241733
0.392621186 0.9991828901 0.4479351811
0.3725237433 0.7485564711 0.9597590162
0.3726415737 0.4999082193 0.9576233407
0.3826387443 0.7499103993 0.2059723543
0.3725679297 0.7514596055 0.4604896389
0.3825466893 0.5010974629 0.2051613499
0.3825098673 0.7480878037 0.7044859602
0.3824399055 0.9998663634 0.2050785005
0.3825319605 0.999905419 0.7031898261
0.3724942857 0.9992740199 0.9575957242
0.3725863407 0.4995248233 0.4571130623
0.3924886269 0.7498713436 0.9522381245
0.3925401777 0.7504571779 0.4531546983
0.4123835487 0.7492399445 0.9511334647
0.4123651377 0.7524294867 0.4505274492
0.4125124256 0.5014691422 0.4459449524
0.4025815346 0.9979005639 0.1978567874
0.4024047891 0.5015466025 0.6985161948
0.4025115728 0.7475345157 0.1996481773
0.4025226194 0.5018349632 0.1989632883
0.4025631236 0.7509844288 0.6995251174
0.4324478516 0.7524229774 0.9473684162
0.422340215 0.7515116797 0.1987681317
0.4323742076 0.7480878037 0.449395173
0.4224396344 0.5000670455 0.1995929443
0.4223438972 0.7485759989 0.695772036
0.4423824248 0.7487452399 0.196886528
0.4424339756 0.7494287133 0.6957066769
0.4323778898 0.9987532783 0.4467762089
0.4224948674 0.9983757406 0.7001391241
0.4424818442 0.9988834637 0.1977592092
0.452390642 0.9979331103 0.9449381647
0.4625093251 0.9988769544 0.191134933
0.472326068 0.9982781016 0.4408543122
0.4624209524 0.998408287 0.6922003028
0.4524016886 0.7465711438 0.9444226569
0.4523648666 0.7510169751 0.4457083711
0.4723371146 0.7502684091 0.9399579904
0.4622626178 0.7503920852 0.1902410791
0.4723407968 0.7487777863 0.435450685
0.4623141686 0.7474629138 0.6918845543
0.4723002926 0.5001379965 0.4384120936
0.4824963019 1.0007841705 0.1876340822
0.4923425023 0.998336685 0.434867977
0.4925266123 1.0000225859 0.9365335453
0.4824484333 0.5018173882 0.6883901473
0.4924271929 0.7520389305 0.4337826488
0.4825220773 0.7497671953 0.1853557215
0.4925155657 0.7501317144 0.9345543633
0.4823085097 0.7499950198 0.68539744
0.5124804492 0.999664576 0.4411157483
0.5123442079 1.0006670036 0.9395253321
0.5023470373 0.9992935477 0.187761118
0.5224702554 0.750626419 0.6902846387
0.5224555266 0.9992870384 0.1959595344
0.5224150224 0.9990006305 0.6965563444
0.5025974268 0.7493375835 0.1896160258
0.5023912237 0.5013025049 0.1881698421
0.5025753336 0.7514856426 0.6889885047
0.5024722321 0.5021441535 0.6862231731
0.512605644 0.7528656078 0.9421120769
0.512513589 0.5009015339 0.9404827038
0.5124104875 0.7474759323 0.44483569
0.522499713 0.501738626 0.1929889202
0.5224592088 0.7508867897 0.1957091448
0.532577892 0.7498453066 0.4474307198
0.5324932014 0.5003013792 0.4458685468
0.5323716888 0.9987337504 0.9447724658
0.5423467662 0.9987207319 0.1968266922
0.5522997504 0.996696349 0.4489395009
0.5524065342 0.7489470273 0.9485927474
0.5425161474 0.9970022847 0.7001400447
0.5424977364 0.7470788669 0.1991372722
0.5524912248 0.7471765059 0.447195059
0.5425382406 0.7463433194 0.6957886059
0.5325079302 0.7501382237 0.9472763612
0.5623926582 1.0001137157 0.1981817415
0.5623926582 0.9984668704 0.6998804496
0.5624736666 0.7487126936 0.1991271461
0.5623742472 0.74785347 0.6958622498
0.5724376973 0.9973082203 0.4547242357
0.5723419602 0.9969892661 0.9511242592
0.5725923497 0.7488754253 0.9508849163
0.5725813031 0.7496435192 0.4514682511
0.6025654505 0.9977117951 0.204588768
0.5925020003 0.7492334352 0.9546499649
0.5924614961 0.9978224527 0.454535523
0.6024365735 0.9979851844 0.7085133654
0.5923952165 0.9986361114 0.9568040514
0.6025175819 0.7514856426 0.2078447525
0.6026096368 0.5011599519 0.2081457723
0.5925167291 0.7484718506 0.4534575592
0.6025065353 0.7485694897 0.7051312655
0.5824238213 1.0002634289 0.2050481223
0.5824348679 1.0001853176 0.7071353024
0.5826373889 0.7482961003 0.2025377831
0.5825121941 0.7475735714 0.7005782264
0.6126620404 0.7478469607 0.9610293749
0.612562621 0.7497997417 0.4601720492
0.6125773498 0.9994042052 0.9577614231
0.6224971942 0.9994237331 0.2128810804
0.6226444822 0.7494807874 0.208555417
0.6226481644 0.750385576 0.7083734419
0.642502582 0.9990006305 0.7166096007
0.6524408374 0.9984278148 0.9676665387
0.6324575428 0.9997752336 0.9622168841
0.6325643266 0.7471895244 0.9614712387
0.6327926229 0.5000956863 0.9648680674
0.6326121952 0.7494482411 0.4608127519
0.6525513034 0.7493636206 0.9677954157
0.6525107992 0.5002512578 0.9715880808
0.6424915354 0.7490772127 0.215047134
0.642668281 0.5021864638 0.2183095624
0.6526838625 0.7488363697 0.4678264206
0.6425983192 0.750001529 0.7151772253
0.6726119241 0.748504397 0.9760619527
0.6725382801 0.5003547552 0.9752518689
0.6824507601 0.9984147962 0.2266948503
0.6723725812 0.9989355378 0.4731251052
0.6825575439 0.9976206653 0.727110312
0.6825023109 0.7495979543 0.2236533539
0.6725714199 0.7485109062 0.4707896704
0.6823255654 0.7497867231 0.7244112601
0.6623975038 0.748361193 0.2191500243
0.6625447917 0.7497867231 0.7218521317
0.7024892877 0.9991438345 0.2318628168
0.70264394 0.5003690756 0.7322340921
0.6925915365 0.7484458135 0.9796520968
0.6924552951 0.9995929741 0.4794262684
0.7024782411 1.0001918269 0.7304997763
0.6925031637 0.9989615749 0.9803701257
0.7025555673 0.7493766391 0.2344090575
0.7025150631 0.5006340029 0.2320082636
0.6926099475 0.7506134004 0.4778502872
0.7024561479 0.7510430122 0.734201307
0.7224357603 0.5008943737 0.7425019043
0.73256549 0.7487322214 0.9948687847
0.7226971964 0.750626419 0.2411023749
0.7224504891 0.5013780124 0.2417716146
0.7326059942 0.7527419317 0.495794564
0.7226125058 0.7495133338 0.7438072439
0.7224136671 0.9995148628 0.7425856743
0.7125085515 0.7518501617 0.9877805514
0.7125895598 0.7486606194 0.485530434
0.7424926988 0.5014216245 0.7503293391
0.7425184742 0.7492204167 0.2497665894
0.742625258 0.500525949 0.2501154778
0.7424853344 0.7489274995 0.7524530474
0.7524346364 0.5013226836 0.5050801496
0.7526187464 0.7507045302 0.0058973961
0.7625717306 0.5025314551 0.7605391566
0.7626048703 0.7521040232 0.261908641
0.762523862 0.4996784421 0.2583175763
0.752500916 0.7519022359 0.5047579572
0.7625864593 0.7513814943 0.7622430943
0.7825218853 0.7500536032 0.2665224364
0.7826213047 0.4995358891 0.2644171391
0.7725578545 0.7527224039 0.5151684546
0.7825366141 0.7522472272 0.7657595944
0.7725283969 1.0005172904 0.5121186732
0.7725210325 0.5006828224 0.5121011827
0.7725836299 0.7516288465 0.0130382848
0.7825071565 0.501631874 0.7640482924
0.7727051425 0.500775254 0.0150475688
0.7926037465 0.7509063176 0.5157990312
0.8127011892 0.5034115084 0.5219657942
0.8125207615 0.7515767724 0.0211724468
0.8026561501 0.5005532879 0.7694279853
0.802785027 0.7525726907 0.2705341924
0.8026451035 0.502433816 0.2703160221
0.7925632423 0.5006092677 0.5166302876
0.7925816533 0.7536922851 0.0170227004
0.8124986683 0.7520975139 0.5220247093
0.7926295219 0.5004022729 0.0178209091
0.8026856077 0.7514596055 0.7705676259
0.832688166 0.5025470773 0.5315597639
0.8326771194 0.7525596721 0.0267015449
0.8225179321 0.502603057 0.7789796098
0.8326218864 0.5031752219 0.0308349054
0.822738864 0.752435996 0.2786249044
0.8226799488 0.5007199253 0.2792748125
0.8325777 0.7499950198 0.5270150097
0.8227535928 0.7528330614 0.7772139953
0.862554483 0.7499559642 0.7815470231
0.8626391735 0.50148867 0.7864369835
0.852697236 0.7529762654 0.0267552129
0.8526346386 0.5025594449 0.0338855153
0.8625876228 0.7508998083 0.2802864967
0.8626575845 0.5012979484 0.2847778591
0.8526346386 0.7516874299 0.5300767582
0.8427037476 0.7526508019 0.2810450297
0.8427184764 0.5012367613 0.2781278075
0.8425859172 0.7523774126 0.7806448843
0.8526567318 0.5015023395 0.5310230834
0.8726989415 0.5025965478 0.5352281548
0.8826777011 0.7489665551 0.7850727288
0.8924428931 0.5006001547 0.5445625295
0.8725001028 0.7527940058 0.0365169989
0.8924797151 0.7521300603 0.0412630774
0.882471498 0.5016279684 0.7922290827
0.8726216153 0.5018707642 0.0344126222
0.8925239015 0.5020139681 0.043755558
0.8825488241 0.7461154949 0.2860859603
0.8825561885 0.5007824142 0.289779206
0.8726326619 0.7514661148 0.5342468487
0.8924134355 0.7515181889 0.5412264571
0.8823683964 0.9996971224 0.2873047682
0.8824788624 0.9999965488 0.7849677861
0.9124225055 0.7508802805 0.5464680676
0.9125366537 0.9994432609 0.0477002059
0.9125071961 0.5016637694 0.5526412744
0.9025210721 0.7510169751 0.7941217331
0.9124630097 0.7508477341 0.0479585121
0.9122936285 0.5025223421 0.0492081584
0.9024916145 0.7512708367 0.2962479093
0.9024290171 0.5007361984 0.2981580501
0.9223975829 0.501087699 0.2986072784