POSCAR file written by Ovito 3.7.11
1
271.5893387318 0.0 0.0
0.0 15.3634130492 0.0
0.0 0.0 10.8635735492
Sr Ti O 
800 800 2400 
Direct
0.0224106748 0.4981866009 0.8051865046
0.0124500481 0.2476589357 0.5586543678
0.0223882144 0.2497789074 0.8039382965
0.0023606609 0.2480188818 0.8104453635
0.0125879033 0.2501505696 0.0580168957
0.0224364858 -0.0028013356 0.3053224428
0.0023585622 0.001356113 0.3150798214
0.0022857684 0.49891886 0.314157473
0.012385539 0.4999954437 0.5596871772
0.0122853141 -6.3075016986e-04 0.5596963822
0.0225563359 -0.0022690255 0.8073855968
0.0024999153 4.4882765226e-04 0.8153203707
0.0224819957 0.2491651114 0.305721943
0.0024879487 0.2508867341 0.3086795333
0.0322507886 0.499342594 0.0536838832
0.0424065628 0.4979301474 0.300130781
0.0323093328 0.4979913318 0.5533780193
0.0323862873 0.2503132938 0.5525311525
0.0424883038 0.2482108964 0.8026587912
0.0323870237 0.2467880355 0.0512966393
0.0524518761 0.4981019842 0.0537712394
0.0424168724 -0.0030471729 0.8043663325
0.0425207057 0.2484953384 0.3035743992
0.0522515737 0.2495582533 0.5542543424
0.0524058507 0.2490453464 0.0534125176
0.0625579429 0.2488155797 0.3032881214
0.0625546291 0.4993080965 0.8045403084
0.072485063 0.4976411491 0.0508977834
0.0624817249 0.5002258613 0.3031868656
0.0724835902 0.4973625652 0.5489798349
0.0724364602 0.2495231048 0.5528800248
0.0624559507 0.2481269307 0.8022583705
0.0723764432 0.2492139287 0.0521166273
0.0924751703 0.2503510458 0.5452527004
0.1024398471 0.2482141509 0.7924135437
0.0824287523 0.2491846384 0.7982431172
0.0924173624 0.25096354 0.0455303967
0.1025477306 -0.0023349743 0.2913086379
0.092398584 -0.0014333062 0.5435681718
0.1023673111 0.2482987675 0.2940821268
0.0824755141 0.2504564912 0.2972541953
0.1024858725 0.4976984281 0.7904979678
0.0825311128 0.4998242578 0.7990172639
0.1025377891 0.4985263691 0.2911631977
0.0823606348 0.498780219 0.2984094321
0.1224391594 0.2486151035 0.2861013275
0.1123596032 0.4974061753 0.038477653
0.1125385499 0.2465413455 0.5371347455
0.1225753945 0.5003501826 0.2837144518
0.1124490765 0.4957223047 0.5407192014
0.1225242143 0.2444356936 0.7860160172
0.1125175623 0.248434805 0.0388636218
0.1224991765 -0.001656629 0.285420152
0.1526292252 0.2496812728 0.5234044569
0.1325117197 0.2484126745 0.5327816659
0.1424830243 0.2517654451 0.7796415033
0.1525250237 0.2515578089 0.0204986704
0.1325606907 0.2494365355 0.0287711785
0.1423180693 -9.6544142522e-04 0.2783211988
0.14247161 0.2498492042 0.2765004351
0.1426560797 0.4989579138 0.7773770551
0.152527233 0.5001100016 0.0231570038
0.1323846897 0.4985582631 0.0316241071
0.1526027146 0.4984814572 0.5254967703
0.1325404396 0.4985973169 0.5295893462
0.1824853309 0.2484614918 0.2641177694
0.1726292739 0.5011403716 0.5181879414
0.1826200932 0.4970930938 0.7641723762
0.1725674158 0.2503399806 0.5159888492
0.1623704028 0.2504219936 0.7702688968
0.1725729388 0.2490381865 0.0167587408
0.1825641263 0.4996452611 0.2632396053
0.1625349896 -0.0013023457 0.7710108258
0.1625651822 0.2496708584 0.2713023298
0.1826837923 0.2468375036 0.7628229124
0.1825405613 -2.3474441382e-04 0.2684533593
0.1924223925 8.9182817422e-04 0.0098546591
0.2025446602 0.2499351226 0.2574744674
0.2025498151 0.4980863627 0.7554211122
0.1925008197 0.4989071439 0.0106323958
0.2024942164 0.5012803145 0.2530698394
0.1924941921 0.5000279886 0.5103442977
0.1926366866 0.2499312173 0.5096824529
0.2024846432 0.2500900361 0.7563968501
0.1924912465 0.2497359481 0.0099635551
0.2023951698 0.0026443034 0.2552716931
0.2124986592 0.2528622066 0.5035380659
0.2224935287 0.2501883216 0.7508231777
0.2125756136 0.2506042448 0.0030132639
0.2225594371 -2.5609383656e-04 0.7510938069
0.2223841724 0.2498609204 0.2521668216
0.2324942895 0.2498817491 0.4950749207
0.2324736701 0.2497502679 0.9993472925
0.2324795614 8.1059622426e-04 0.4972104979
0.2225019974 0.4995391649 0.7507808344
0.2124618389 0.5007003652 0.0055745757
0.2123605831 0.5024948883 0.5075551602
0.2424538115 0.5006463408 0.7425450545
0.2624420777 0.2498296773 0.7360085314
0.2622970057 -1.8377917598e-04 0.2341957554
0.2622866961 -2.5733054093e-04 0.7349204916
0.2525153257 0.2519887028 0.4883763883
0.2423908488 0.2506159609 0.7405365074
0.2524556769 0.2516287567 0.9842785861
0.2624501782 0.2502228191 0.2354789427
0.2424773765 8.1638920788e-04 0.2456772444
0.262455333 0.4998118908 0.2364104962
0.2523430068 -1.8189157458e-04 0.4910477008
0.2424593345 -5.3285525581e-04 0.7444725971
0.2522907219 -8.8629234577e-04 0.9878225397
0.2424479203 0.249996307 0.2408399779
0.272509115 0.2500197393 0.4807987712
0.2725547722 0.2496331064 0.9853371697
0.2723091808 3.4468412667e-04 0.4845931028
0.2723246453 -0.0010201168 0.9855949118
0.2824933066 0.2485910203 0.7280755985
0.2724866546 0.5018889032 0.4820294896
0.282472319 0.2517589361 0.2282860978
0.3122827676 9.2945002284e-04 0.4760148942
0.2924649793 0.4995860295 0.4749066033
0.2925257328 0.2492705568 0.4796831162
0.3025644185 0.2531824479 0.7237630213
0.2925927458 0.2497001488 0.9779915205
0.2924086443 -0.0023250547 0.4794971737
0.3023515972 0.0012013297 0.7264564259
0.3123773957 0.5025085572 0.4719554565
0.3023556474 0.2499513951 0.2249004715
0.3124009607 0.2511588091 0.4706078336
0.3124131114 0.2492380119 0.9709588439
0.3223608509 0.0030067879 0.2217191979
0.3323612435 4.2799894714e-04 0.4714151186
0.3222577541 6.0393641568e-04 0.7218520479
0.3322835527 0.0010533808 0.9706182561
0.3224035625 0.2512128335 0.2202123273
0.322388098 0.5016298462 0.7182915252
0.3224378054 0.5024122244 0.2186474646
0.3324297292 0.2502202155 0.4639691342
0.3223649012 0.2482362814 0.7168076672
0.3322673517 0.2515975137 0.9668994062
0.362518171 0.2508841305 0.2073003698
0.3523992171 0.5005428481 0.4617543933
0.352438983 0.2488006091 0.4612094529
0.3423509582 0.2505183264 0.7145054782
0.3625513093 0.5004855692 0.7075758984
0.3525932601 0.2502872579 0.9587713257
0.3624555765 0.5019670108 0.2081168598
0.3424415361 -5.8264887898e-04 0.2146257678
0.3424816702 0.2485819077 0.2138893618
0.3624666226 0.2514094044 0.7089677056
0.3424625237 0.5015133356 0.7138132566
0.342459578 0.4998281632 0.2137236705
0.3823753569 0.2486743351 0.2037600982
0.3925083026 0.2500737637 0.4523090667
0.392438344 0.248080717 0.9525947209
0.392438344 -0.0024997945 0.9541779937
0.3825484123 0.5003267503 0.7051310307
0.3924015237 0.5014456423 0.9537821755
0.3725259276 0.2493616824 0.4577179683
0.3823238085 0.2518773994 0.7014959469
0.3724117847 0.2492894328 0.9552549874
0.3924088878 0.5035011752 0.4542135966
0.3724117847 -4.7557631674e-04 0.454947241
0.4126158665 0.5011657566 0.9486733594
0.4024718748 0.2498277246 0.6993226289
0.4026412482 -0.001908767 0.6983975189
0.4025197412 0.2493844637 0.1979977218
0.4125385439 0.249547188 0.446257651
0.412545908 0.2499064832 0.9445771014
0.41254959 3.4208053853e-04 0.4470299567
0.4126379587 -0.0013730982 0.9454331733
0.4424292607 -9.6837046188e-04 0.6903927865
0.4425654958 0.2513104681 0.1873207563
0.4226383513 0.498128671 0.6892255831
0.4324215041 0.4994441339 0.9393486192
0.4325798313 0.4998203524 0.4378791925
0.4424918552 0.4967565801 0.6859228025
0.442473445 0.499380346 0.1850240903
0.4325319649 0.2508528875 0.4378635439
0.4225278904 0.2502983232 0.6936578263
0.4323773197 0.2497151194 0.9388147249
0.4225389365 -2.8298002758e-06 0.1910570959
0.4327307945 -2.8121846211e-04 0.9402046911
0.4225021162 0.2511679216 0.1924645518
0.442477127 0.2500288518 0.6879672494
0.4725372172 0.2517348529 0.4374934999
0.462702516 0.2490870038 0.6849884874
0.4724893508 0.2480338524 0.9358506911
0.4724157102 -0.0021078113 0.9361544585
0.4626436035 0.2484256924 0.185979577
0.45253275 0.4997520082 0.9322791223
0.4524701555 0.4984228765 0.4360344957
0.4625147324 0.4988374979 0.68568255
0.4726108578 0.498204826 0.9346448264
0.4625552348 0.4986995077 0.1855147208
0.4524738376 0.2497789074 0.434271724
0.4525069758 0.2504363134 0.9353812323
0.4523854689 5.4774587315e-05 0.4363575938
0.4825597019 0.2501492678 0.6901193958
0.4823314161 -0.0010132173 0.685002295
0.4925195921 0.5018348787 0.9374983993
0.4924422695 0.4983330527 0.4365729925
0.4826627987 0.2502084994 0.1894047851
0.4926410991 0.2474779863 0.4374456335
0.4927036936 0.2491970054 0.9404624332
0.4824750152 0.4994324178 0.1845316189
0.5026635838 0.2484322014 0.6893710232
0.5127302529 0.2474473942 0.4401804611
0.512741299 0.2482681753 0.9405268687
0.5025420769 -0.0016511615 0.6865377014
0.5026304456 0.2485122617 0.1878500481
0.522550226 0.2486574118 0.1886867893
0.5227232814 0.247707753 0.6892550393
0.5125535155 0.4992814097 0.4391568568
0.5225612721 0.4982282583 0.6871148596
0.5425473291 0.498368852 0.6876644025
0.552463035 0.4996660898 0.9396155664
0.5426504259 0.4959748527 0.1873953174
0.5525329935 0.4996042546 0.4384572712
0.5327126279 -0.0040657616 0.4377401959
0.5326978998 0.2507877978 0.4392516691
0.5325432545 0.2476088166 0.9416222726
0.5325543006 0.4987730591 0.9379862683
0.552588224 -1.2187886796e-04 0.9417511436
0.5425141908 0.2501583803 0.1912154232
0.5525587677 0.2490590152 0.4407879959
0.5425510111 0.2479889405 0.6909552165
0.5524740811 0.2504141829 0.9429017779
0.5724343638 0.2476719536 0.4459253478
0.5723386311 0.2489054035 0.9483972071
0.5623824229 0.5003280521 0.6913998216
0.5623824229 0.4986266073 0.1936538473
0.5724417279 0.5000969837 0.9460499132
0.5725080044 0.4971334495 0.4452515364
0.562404515 0.2504773199 0.1949683319
0.5623566487 0.2485200725 0.6949023523
0.6024281774 0.4982438798 0.7040715266
0.5925087895 0.5002095888 0.953349537
0.5924241028 0.4993849023 0.4513250443
0.5824973509 0.2489190724 0.7009408809
0.6024244954 0.249768493 0.2050055448
0.5923578263 0.2470744302 0.4489823529
0.6024392235 0.249945537 0.7050583106
0.5924056927 0.2466676195 0.9507260909
0.5824200283 0.4990854897 0.6987841321
0.5824273923 0.4988101602 0.1976755442
0.5823647978 0.2507585074 0.2031829401
0.6124543442 0.5002649151 0.959176349
0.6126126715 0.5009424989 0.4596722056
0.6224436906 0.4992208762 0.7085332261
0.6124064778 3.4982621324e-04 0.4581285146
0.6225320594 0.4986571994 0.2078002053
0.6124212059 0.2473523632 0.4564154503
0.6124948465 0.2468680958 0.9544725561
0.6224584188 -7.321599279e-04 0.7071589085
0.6225688797 0.2510872104 0.2083377816
0.6224584188 0.2496669531 0.7099775022
0.6424444757 -0.0017102629 0.2174655331
0.6526142417 -9.890220263e-05 0.4745236722
0.6324919496 0.4999459755 0.46084125
0.6425880749 0.2493786057 0.2227961916
0.652529555 0.2484569355 0.4719232387
0.6425659827 0.2495706203 0.7163078317
0.6325140418 7.1934045997e-04 0.4629206762
0.6526031956 0.2479804788 0.9716952498
0.6425917569 0.5001763931 0.7161706761
0.6525000987 0.4995671535 0.4658460488
0.6325361339 0.2471746683 0.4656361731
0.6325103597 0.2467919409 0.9608332623
0.6825123225 0.5016793144 0.7297997089
0.6625041733 -0.002278112 0.2230263184
0.6825675529 0.5000084617 0.2267359633
0.6625041733 -2.4079775624e-04 0.7248077972
0.6725561143 0.5005643277 0.4754690333
0.6626440904 0.2510885122 0.225516291
0.6626330444 0.2475977514 0.7259510674
0.672648165 8.9662668386e-05 0.9795839983
0.6625704499 0.4995821241 0.7200809916
0.6625667678 0.5005252739 0.2218361023
0.6827737466 0.2502560149 0.2316551549
0.6726592111 0.2508548401 0.4769574938
0.6827406083 0.2498765419 0.7330021542
0.6726334369 0.2510852577 0.9776325226
0.7025793841 0.250407023 0.2374451466
0.6925163971 0.251538282 0.4858707671
0.7026640708 0.2485116108 0.7372779111
0.69263054 0.2493480135 0.9864141634
0.6927925493 0.5001724877 0.9842417659
0.6926820884 0.5008494206 0.4843620554
0.7325658337 0.4997826004 0.9938978886
0.7326799766 0.502755898 0.4951402767
0.7125613665 0.2487908457 0.4914913854
0.7125834587 0.2506022921 0.9906484975
0.7226943121 9.0224252678e-04 0.2385350273
0.7325621516 6.0849269492e-04 0.4913146479
0.7325179673 -7.1263301686e-04 0.9925355377
0.7126644634 0.5009893635 0.9894886581
0.7225617591 0.2506120556 0.2421286883
0.7325731977 0.250015183 0.4925380023
0.7224439341 0.2492887819 0.7398571729
0.7324480087 0.2493961799 0.9939162988
0.7126865555 0.5007146849 0.4917905503
0.7125871407 -0.0020446808 0.4873850018
0.712620279 -7.0716548176e-04 0.9879698209
0.7526071211 0.5002037308 0.0013522082
0.7425514981 0.0011034348 0.2461605108
0.7426067285 -2.1445455475e-05 0.7460926901
0.7424484013 0.248472557 0.2467017691
0.7425036317 0.2500744146 0.7436625505
0.7623865919 -9.8334109368e-04 0.2550093485
0.752474568 5.1287592049e-04 0.5001174603
0.7625633293 4.2103434886e-04 0.753466875
0.7525592547 -0.0025420507 0.0014475728
0.7624823246 0.2503699219 0.2525350246
0.7525334805 0.2511633653 0.4986262383
0.7625964675 0.2484087691 0.7536472945
0.7525334805 0.2494990216 -0.0033364607
0.7823726488 -8.3103118751e-04 0.261464867
0.7824205152 -0.0012962273 0.7634405728
0.7724238047 -0.0029665918 0.0069630691
0.7825972526 0.2518201205 0.2596569905
0.7724311688 0.2517856229 0.5063759902
0.7824168332 0.2508600473 0.7586659009
0.7725379476 0.249237361 0.0074946622
0.7924761382 6.2880068241e-04 0.5144368737
0.7925424148 0.0016500581 0.0147573736
0.8125468819 0.5013180665 0.0222640195
0.7922957188 0.2518578725 0.509943877
0.7924172257 0.2506680327 0.0122599449
0.8024765308 0.0014413155 0.2674987931
0.8125137436 0.0013555272 0.5242347546
0.8024654847 0.0011759447 0.7653561488
0.8124511491 -4.4153440181e-04 0.0183245239
0.8024470745 0.2519346783 0.2664457327
0.8124180108 0.2515473946 0.5162281811
0.8024433925 0.2515962119 0.764821334
0.8124990155 0.24894641 0.0172875723
0.8325292568 2.7874825703e-04 0.5296243255
0.8225141362 0.0021436334 0.7766378876
0.8324961186 0.0013989421 0.0301408015
0.8225399104 0.2536113891 0.2768750817
0.8324740264 0.2510227716 0.5295948693
0.8224368135 0.251222597 0.7780665152
0.8325255748 0.2495413299 0.0282815606
0.8226614174 0.0024949225 0.275990474
0.8425627877 0.0019434174 0.7869705834
0.8425591056 0.2493271848 0.2828381287
0.8425517416 0.2512063245 0.7790974835
0.8626188032 0.0025561068 0.2890497127
0.8425591056 0.4994330687 0.7849104878
0.8526957333 -0.0012777418 0.5382329108
0.8625341165 0.0045965388 0.7873682426
0.852662595 0.0029478817 0.0379069384
0.8626077571 0.2544250104 0.2939072304
0.842610654 2.6644630307e-04 0.285549023
0.852533724 0.2513430129 0.536324699
0.862593029 0.2519294712 0.7912389763
0.852415899 0.2507018793 0.0370958793
0.8725897395 0.0034863688 0.5440468357
0.8924984739 0.0058932559 0.5463932091
0.8725566012 0.0031670388 0.0424565463
0.8825754039 0.2525836227 0.2945110832
0.8925426582 0.0033893852 0.0448562171
0.8724350943 0.2512896394 0.5418118437
0.8924763817 0.251658698 0.5454791452
0.8826048602 0.2541516336 0.7963947383
0.872405638 0.2505189773 0.0396753252
0.892388013 0.2519125478 0.0471071339
0.9024141797 0.0016044302 0.2980182165
0.9125581715 0.0011940397 0.5477969829
0.9024583641 0.0038512617 0.797662277
0.9025099125 0.2537246452 0.2989000626
0.9126134019 0.2514666834 0.5491059444
0.9024657282 0.2527424416 0.7990181844
0.9025540969 0.5028105734 0.7987825345
0.9124513926 0.2520329638 0.0516471685
0.922562246 0.0027200678 0.2999991484
0.9226358866 6.1213771832e-04 0.8014547675
0.9226322046 0.2521969898 0.3016744719
0.9226211585 0.2512330113 0.8001586931
0.942548303 3.7098036688e-04 0.3067685599
0.9324779519 0.0032403298 0.5507389246
0.9424562523 0.0031676897 0.8048127786
0.9325479105 6.6004374009e-04 0.0539799184
0.9424783445 0.2511991647 0.3071432065
0.9325589566 0.2518207713 0.5547523369
0.9426366717 0.2518051498 0.8072907845
0.9325920948 0.253327598 0.0543171923
0.9525634237 0.0016752478 0.5592112748
0.952475055 0.0037412601 0.0574518883
0.9624938577 0.2506764944 0.3140313634
0.9524971472 0.2517309476 0.5639776622
0.9725678908 0.2524137385 0.5655204326
0.9626926873 0.2501993868 0.8140233758
0.9524087784 0.2500268991 0.0622826191
0.9726673056 0.250356253 0.0676387756
0.9625085858 7.7883244896e-04 0.3125152877
0.9826235138 0.5019299097 0.8146649694
0.982516735 0.5018062393 0.3164918798
0.9824762326 -0.0015222838 0.3158696168
0.9924250768 -5.8342995543e-04 0.5638156529
0.9823841819 0.2498296773 0.3158263529
0.9923661643 0.0013989421 0.0646550429
0.9923588002 0.2505658419 0.5624477789
0.9825572373 0.2517947355 0.8152430481
0.9924177127 0.2513104681 0.0630486654
0.0125464805 0.7496190129 0.0634300316
0.0023990645 0.4986643593 0.8100964911
0.0122936723 0.4998939038 0.0564743094
0.022267002 0.7491959298 0.3086362695
0.0022231371 0.7510184415 0.312425078
0.0123524375 0.7509012801 0.5642446094
0.0224131785 0.7487403019 0.8065313659
0.0224616341 0.4975682487 0.3056667126
0.0023622074 0.7519492243 0.8114293859
0.0123618267 0.9995048936 0.0606981497
0.0525781697 0.9993356603 0.5512359986
0.0525766969 0.9984569493 0.0506711545
0.032403961 0.7479396985 0.0544100715
0.042383366 0.494753119 0.8024166978
0.0423958849 0.7486231404 0.304785787
0.0323340024 0.7474970886 0.5524943322
0.0423955167 0.7482260932 0.8066096091
0.0525137342 0.7463645277 0.0489086589
0.0524238927 0.7467941198 0.5547007885
0.0524087963 0.4975688996 0.5510399305
0.042381525 0.9987693799 0.3006407421
0.0324562458 0.9981054649 0.5550625479
0.0323837098 0.9989516311 0.0551849546
0.0724997912 0.9982616802 0.5460581444
0.0625052899 0.9976107832 0.7989841256
0.0726430221 0.9995179115 0.0469770662
0.0724511884 0.7478876268 0.0494407122
0.0624739926 0.7494823245 0.302675984
0.072604729 0.7475882141 0.552094832
0.0623675819 0.7498403179 0.8006511646
0.0625133903 0.9978906689 0.3003747154
0.0825219077 0.9979167048 0.2972634004
0.1024019222 0.9971616642 0.7920342947
0.0825226441 1.0023428046 0.7957927264
0.0924545509 0.9999084497 0.0443634695
0.0924667016 0.7473734181 0.0437511479
0.0924055799 0.4992059056 0.044549504
0.1024424245 0.7482260932 0.2904755787
0.0824291205 0.7488184095 0.2947715868
0.0926095643 0.7486426673 0.5433803883
0.102419596 0.7487403019 0.7915353796
0.0824471625 0.748707757 0.7947037662
0.0924335633 0.4972597235 0.5446387219
0.1124763236 0.9988995593 0.0400705911
0.112500625 0.7458242832 0.0380890148
0.1225087498 0.4963894741 0.7831265444
0.1224509419 0.7517409372 0.2862679393
0.1124881061 0.7470544786 0.5349595865
0.1225315784 0.7476858487 0.7869770269
0.112402683 0.9995179115 0.5403160191
0.1224627244 0.9975261666 0.7853219546
0.1525209735 0.997877651 0.5265479897
0.1324863137 0.9988409786 0.5309194794
0.1425032754 1.000077683 0.779531963
0.1524767892 1.0011126092 0.0243740066
0.1324601713 1.0001948444 0.0324233837
0.1524845214 0.7515001053 0.0263861438
0.1324642216 0.7473669092 0.0317670619
0.1424966478 0.7491829119 0.2765105607
0.1524970403 0.7493000733 0.5256633821
0.1324877866 0.7497882461 0.5308200646
0.1425209492 0.4987561358 0.2764590123
0.1425596105 0.7484539072 0.7792410826
0.1725663112 0.7489941517 0.016635669
0.1626469233 0.5007166376 0.7707760964
0.1726082863 0.4995079218 0.0153644482
0.162483073 0.7496710847 0.2713455936
0.18259616 0.9999995753 0.7659333069
0.1725710978 0.7485580507 0.5201062788
0.1625637094 0.4987066676 0.2722200757
0.1624709223 0.7483432547 0.7718632157
0.1825166281 0.7507125199 0.2674002988
0.1825733314 0.7501136946 0.7635050084
0.1624768135 0.9993747142 0.2743841886
0.1725475328 0.9992445348 0.5171118682
0.1725294909 1.0010475195 0.0159196063
0.1925604686 0.9998759049 0.507280849
0.2024249943 1.0000321202 0.7571663943
0.1925074474 0.7478680999 0.0100563422
0.2023951698 0.752893025 0.2565162192
0.1925494225 0.7503480176 0.511123047
0.2024765427 0.7507776096 0.7579488256
0.2323676277 0.7503284907 1.0028084004
0.2323985567 0.500929481 1.001759022
0.2324637286 0.7488965172 0.5009376324
0.2323492175 0.5008735038 0.5001377115
0.2225244578 1.0006179275 0.2527467413
0.2124931362 1.0021345176 0.5060602562
0.2124570523 1.0007806518 0.004506603
0.2124979228 0.7498923896 0.0049524968
0.2325347918 1.0008262145 0.9976903792
0.2224662817 0.751779991 0.2528360305
0.2125885007 0.7517018834 0.5022337069
0.2224585494 0.5013753454 0.25183728
0.2225579642 0.7513699259 0.7539436978
0.2524774008 0.7491048042 0.9895530936
0.2524074423 0.4984189711 0.9883656391
0.2425035189 0.7502113292 0.2446573222
0.2523595759 0.7506539392 0.4945603571
0.2423720704 0.4992338942 0.2439770672
0.2424567571 0.7503740535 0.7460208905
0.2525263718 0.4996367995 0.4902956462
0.2624575422 0.5003488808 0.7339419922
0.2623113657 0.7518190449 0.238987917
0.2623393491 0.7508361903 0.7392901403
0.2824093563 0.4994141927 0.7281869799
0.2823927872 0.7512462555 0.2323731507
0.2824428628 0.5009099541 0.2311378298
0.2824980933 0.7492545106 0.7307800493
0.2723986541 0.7510444774 0.9849413515
0.272431056 0.4996452611 0.9829990808
0.2723364278 0.7504065983 0.4853147806
0.2823784273 1.0006504724 0.2325379215
0.2823857913 0.9999930663 0.7314372916
0.3124447769 0.9997522344 0.9753496642
0.2924587199 0.7525089957 0.9828149794
0.3024705267 0.501959851 0.7241082115
0.2923401585 0.5027897447 0.9770710131
0.3024624263 0.7499379524 0.2264137857
0.2925419338 0.7512657824 0.4821362685
0.3024705267 0.4995873313 0.2234893336
0.3024966691 0.7502959458 0.72590136
0.3023527018 0.9978581241 0.2280624145
0.3124580322 0.7488509544 0.9729287297
0.3124665008 0.5001952691 0.9702960785
0.312457664 0.7501852933 0.4724718612
0.2924830213 1.0016138 0.982520417
0.3322876029 0.7492545106 0.9669730468
0.3322721384 0.5018153518 0.9641931144
0.3224392782 0.7493196003 0.2217882359
0.3324890099 0.7497752282 0.4628939815
0.3224400146 0.7509273159 0.7205881912
0.3324127919 0.4997923638 0.4669607833
0.3525251425 1.0001753175 0.4635199265
0.3423933015 1.0017179435 0.7146233031
0.3624077101 0.7508687352 0.2111968776
0.3525619628 0.9998043062 0.9609713384
0.3625255351 0.749378181 0.7102573365
0.3625108069 1.0018676498 0.213606766
0.35260762 0.7497296654 0.9604006238
0.3624887148 1.0000516471 0.7075418396
0.3523716019 0.5009932689 0.958808146
0.3424382223 0.7488769903 0.2154358143
0.3524062129 0.7499184255 0.4612563988
0.3424746744 0.7515196322 0.7169696765
0.3925193486 1.0004747302 0.4521719111
0.372455969 0.749371672 0.9564608521
0.3724117847 0.5009854581 0.9601612919
0.3825336842 0.7515196322 0.2053728272
0.3724228308 0.7473669092 0.4529773551
0.3826699193 0.5010922052 0.2052899816
0.3824195413 0.7498988986 0.7076384929
0.3823679929 0.999198972 0.2022983325
0.3824232233 1.0002729521 0.7055102797
0.3724854253 1.0015422013 0.9576391016
0.372573794 0.5006775838 0.4564200529
0.3925856252 0.7490397145 0.949253279
0.3925119846 0.7477769743 0.4525815369
0.4126158665 0.7498403179 0.9446783572
0.412674779 0.7489746248 0.4451871009
0.4125201338 0.4990490394 0.4485441914
0.402619156 1.0004161494 0.1962901806
0.4026081099 0.4973091917 0.6979630394
0.4025528795 0.7489681159 0.1986236669
0.4026854325 0.4971054609 0.1978614867
0.402497649 0.7496841026 0.6993640517
0.4324583243 0.7498598448 0.9379402429
0.422605213 0.7487663378 0.1940837243
0.4324693704 0.750029078 0.4352502233
0.4226678075 0.4979757102 0.1892529014
0.422605213 0.7489616069 0.6952134838
0.442466081 0.7494562886 0.1866358988
0.4424992192 0.7497817372 0.6875189623
0.4324472783 0.9990622836 0.4408441469
0.4224358396 0.9993226424 0.6903826609
0.4423114357 1.0008392325 0.1879273707
0.4524296532 1.0009303581 0.9364306107
0.4624042716 0.9966734915 0.1870004197
0.472393618 1.0012623156 0.4385106606
0.462337995 0.9983332789 0.6874002169
0.4525437961 0.7501136946 0.9347736974
0.452400197 0.7487533198 0.4358117329
0.4725408992 0.7489746248 0.936458226
0.4625257785 0.7465988507 0.1848151351
0.4723457516 0.7501202036 0.4330953155
0.4624779122 0.751578213 0.6862256494
0.4726145398 0.4990666137 0.4333401705
0.4825597019 1.0008327235 0.185729199
0.4925122281 0.9994918756 0.435947968
0.4924790898 0.9998238331 0.935224746
0.4824786973 0.4968802505 0.6845245517
0.4927036936 0.7477118846 0.4373618673
0.4826443886 0.7496125039 0.1873594176
0.4924975 0.7508101545 0.938446522
0.4825597019 0.7499574794 0.6854432181
0.5126087459 0.9992250078 0.44066833
0.5126234741 1.0001167368 0.939560336
0.5025457589 0.9998043062 0.188082016
0.5224729034 0.7505107418 0.6883428164
0.5226606869 0.9988409786 0.1890025234
0.5226901431 0.9975652204 0.6874029784
0.5024537081 0.748284674 0.184804089
0.502560487 0.4972109062 0.1882329792
0.5025457589 0.7496971205 0.6860645606
0.5026488557 0.5000299413 0.6862348545
0.51261611 0.7484473982 0.9371762217
0.512487239 0.500429592 0.9379402429
0.5124614648 0.7500486049 0.4395894953
0.5226312307 0.4978943481 0.1855165618
0.5223550784 0.7514675605 0.1885091314
0.5324512038 0.7502829279 0.4335841049
0.5325690287 0.4997181616 0.4359838677
0.5326758076 1.0013078784 0.9400205897
0.5425436471 0.9990948284 0.1875131424
0.5526176802 1.0005723647 0.4416210552
0.5523893944 0.7486882301 0.9391276975
0.5424663244 0.9991013374 0.6909552165
0.5425215549 0.7504196162 0.1889344058
0.552348892 0.748720775 0.4377825392
0.5424552784 0.7503284907 0.6869206325
0.5324659319 0.7495799591 0.9353996424
0.5624634275 0.9993161334 0.1938057311
0.5623419205 1.0004617122 0.6925256021
0.5623640127 0.7509012801 0.1920521644
0.5623382385 0.7506409212 0.6906753822
0.5724233177 1.0002208803 0.4478271161
0.5723864974 1.0018806677 0.9499344545
0.5723607232 0.7491373491 0.9455436341
0.572460138 0.7470284427 0.4446062607
0.6025239102 1.0006634903 0.2030531485
0.5924277849 0.7482521291 0.9511863446
0.5924830153 1.00028597 0.449238254
0.6023545368 0.9979817945 0.7015824746
0.5924940614 0.9987758889 0.9521896977
0.602494454 0.7473148374 0.203166371
0.6024760438 0.498981997 0.2004066897
0.592438831 0.747620759 0.4495705572
0.6022993064 0.7493911989 0.7020068285
0.58238689 0.9974480589 0.2012112132
0.582383208 0.9975326756 0.6989525849
0.5824715767 0.7503089637 0.1978016537
0.5824163462 0.7489681159 0.6996733422
0.6126200355 0.7497947551 0.9539754821
0.612435934 0.7505563046 0.4532553484
0.6125316668 0.9995569653 0.9562951607
0.6224105524 1.0002599341 0.2091036438
0.6225762437 0.7497557013 0.2058376835
0.6224805109 0.7489876428 0.711564457
0.6424997062 0.9997392165 0.7178717738
0.6525958315 1.0003445507 0.9732601124
0.6325250878 0.9999149587 0.9634475034
0.6325729542 0.7515456681 0.9601152665
0.6325545441 0.4999973964 0.9597746788
0.6324514473 0.7512006927 0.460656228
0.6525626932 0.7516758475 0.9694123914
0.6525516472 0.5002662169 0.9658408226
0.6425880749 0.7489681159 0.2146358933
0.6424555218 0.5000781076 0.2158169043
0.6525847854 0.7490917863 0.4692997926
0.6426101671 0.7486817212 0.7139007048
0.6725561143 0.7506148854 0.9743002858
0.672640801 0.5000195269 0.975073512
0.6826448755 0.9999735394 0.2312261985
0.6726813033 1.0012427887 0.4800016118
0.682574917 1.0007415979 0.7312762028
0.682700106 0.7498728627 0.228999491
0.6725966166 0.7508557173 0.4761879496
0.6827479724 0.7500030421 0.7283112484
0.6627619154 0.7509793877 0.2224003734
0.6626625006 0.7506083764 0.7220057726
0.7026972091 1.0009238491 0.2387200493
0.7026014763 0.500663915 0.7393554963
0.6926673603 0.750256892 0.9839840238
0.6927299548 1.0008522504 0.4846446512
0.7024689232 0.9997977972 0.7366031792
0.6925532174 0.9989516311 0.982023343
0.7026493427 0.7525740854 0.2354430429
0.7026456607 0.5004647405 0.2408234088
0.6925163971 0.7501006767 0.4810703209
0.7026272505 0.7501006767 0.7349876887
0.7225764872 0.4995085727 0.7426334232
0.7324774649 0.7507515737 0.9949012417
0.7225875333 0.750920807 0.2426165572
0.7224807544 0.500107398 0.2416279323
0.7325474235 0.751135603 0.494861363
0.7225801692 0.7501071857 0.7401637019
0.7225985794 1.002694289 0.7392404329
0.7125613665 0.750250383 0.9881815376
0.7126865555 0.751565195 0.4909924703
0.7424704934 0.499349103 0.7440445611
0.7425883184 0.7513959618 0.2448653568
0.7426288207 0.5014085412 0.2473912292
0.7425330879 0.7516172668 0.745827584
0.7525482086 0.500379473 0.4992512629
0.7524303837 0.7471586221 -3.5696028434e-05
0.7625559652 0.5002994126 0.7560387727
0.7625706933 0.748271656 0.2566800695
0.7624823246 0.4986148911 0.2541652432
0.7524561579 0.7492089478 0.5021186435
0.7624270942 0.7500225691 0.7583952717
0.7823726488 0.7476858487 0.2630398552
0.7824904738 0.4997096999 0.261956418
0.7722765235 0.7478941357 0.5111672313
0.7824757457 0.7476467949 0.7609865001
0.7724827172 0.9976823819 0.5114360195
0.7724274867 0.4996882203 0.5072182545
0.7724679891 0.7487988826 0.0100962002
0.7823284645 0.4983083186 0.7607637373
0.7725269015 0.4985771391 0.0083546002
0.7924650921 0.750699502 0.5142564542
0.8124879694 0.5010837436 0.5170999016
0.8125873842 0.7521965652 0.021301629
0.8024618027 0.5009796 0.7639385674
0.8024765308 0.7479592255 0.2671895026
0.802634858 0.4996543737 0.263757851
0.7924061797 0.5005474044 0.5099309899
0.7925350507 0.7499770063 0.0152252675
0.8126536607 0.7525089957 0.5216748235
0.7924393179 0.5015556439 0.0122680454
0.8024470745 0.7501657664 0.7653763999
0.8324519342 0.499405731 0.5276931009
0.8326949482 0.7514740694 0.0325426815
0.8225251823 0.499917987 0.7751752014
0.8325623951 0.498887617 0.0314997466
0.8224478596 0.7494172348 0.2734646017
0.8226871916 0.5002772821 0.2737278668
0.8327207224 0.7513113452 0.5331406638
0.8224736338 0.7510314595 0.7764648323
0.8626003931 0.7512592734 0.7915068439
0.8625267525 0.5016669473 0.792571871
0.8525153138 0.7505367777 0.0368673173
0.8527178255 0.5023152408 0.0415957798
0.8625193884 0.7496385398 0.2868791562
0.8625672548 0.5010316718 0.2888849419
0.8525189959 0.7501202036 0.5390429574
0.8426548384 0.7491438581 0.2820234796
0.8424707369 0.4989071439 0.2824285029
0.8426290642 0.7495278873 0.7828559152
0.8525963185 0.49847625 0.5393356787
0.872530827 0.5020177808 0.545457053
0.8824023486 0.7508231724 0.7906655001
0.8924137872 0.5031809338 0.5489687888
0.8725713294 0.7518515897 0.0389959907
0.8925058379 0.7501527485 0.0453230064
0.8825754039 0.5015165901 0.7928130439
0.8725713294 0.5024558345 0.0436504444
0.8925500223 0.5037856172 0.046198501
0.8823949845 0.7525480495 0.291065624
0.8825974961 0.5014840452 0.2927391064
0.8725823755 0.7520403499 0.5370187616
0.8924653356 0.7526847379 0.5425473291
0.8824465329 1.0023362957 0.2918526578
0.8824907173 1.0029481389 0.7893546976
0.9125323972 0.7539670051 0.547813552
0.9125692175 1.0029090851 0.0470188572
0.9125434433 0.5030650741 0.5473008294
0.9025467328 0.7529906595 0.7951474507
0.9126649503 0.7528214263 0.0479011636
0.9125287152 0.5038324817 0.0485050164
0.9025356867 0.7529581147 0.2928063035