POSCAR file written by Ovito 3.7.11
1
271.6030531225 0.0 0.0
0.0 15.3641888523 0.0
0.0 0.0 10.8641221249
Sr Ti O 
800 800 2400 
Direct
0.022693403 0.4995437442 0.7827670753
0.0126967554 0.2493867046 0.5332881051
0.0226826152 0.2489441169 0.7846641453
0.0026022813 0.2495910759 0.782986145
0.0126971236 0.2485503441 0.0338379021
0.022529745 -6.2128719808e-04 0.2870086571
0.0025428931 -0.0027204283 0.2845353785
0.0026982301 0.4989351862 0.2817611093
0.0126985227 0.5006775496 0.5324247127
0.0126429269 -8.1609084367e-04 0.5356196326
0.0226379544 -7.6844758654e-04 0.7851556714
0.0025642478 -0.0011264229 0.7815419418
0.0226390221 0.2505576092 0.2844295255
0.0027155716 0.2504222295 0.2829632313
0.0326948738 0.4988017591 0.0373832415
0.0425010964 0.4987483882 0.2808627394
0.0326024595 0.4983077532 0.5343586012
0.0325667456 0.2490638759 0.5312897844
0.042604188 0.250673463 0.7799799196
0.0325391318 0.2514981079 0.0336180961
0.0526044438 0.5032647347 0.0297480181
0.0424646461 0.0020143222 0.7836737293
0.0425408603 0.248383072 0.280153064
0.0525153431 0.2485835382 0.5276033384
0.0524892021 0.250299867 0.0262255061
0.0624592667 0.2520187993 0.2747444356
0.0624636849 0.5005929373 0.7792720851
0.0724650453 0.5013017283 0.0266594114
0.0626205315 0.5024205638 0.278693213
0.0723262397 0.5018959673 0.5276337136
0.072456577 0.2501059095 0.525501926
0.0623616979 0.2525648743 0.7749127821
0.0724002448 0.2496392399 0.026299143
0.0923065011 0.2490736389 0.5216092968
0.1023004978 0.2505263677 0.7690706166
0.0823496911 0.2508726275 0.7750186352
0.0923956018 0.2496470502 0.0221170288
0.1023870211 6.4249575764e-04 0.2754366222
0.0925307254 0.0019975299 0.5263303409
0.1024054303 0.2511349257 0.2710570691
0.0823669958 0.2521691489 0.2755305092
0.1023855484 0.4995652227 0.7724210944
0.0824251689 0.5009229254 0.7768613979
0.1023560936 0.5019005234 0.2718661542
0.0825779654 0.5023424601 0.2750012442
0.1224832606 0.2498364517 0.2673043499
0.1123567176 0.5001073926 0.0225567329
0.1123883814 0.2517070353 0.5212181009
0.1224309784 0.5007673689 0.2715992206
0.1123743904 0.4997565768 0.5220235042
0.1223359868 0.2504554235 0.7664537462
0.1123353629 0.2510145158 0.0193493868
0.1224243511 7.8139017117e-04 0.2727313875
0.152462305 0.2512540339 0.5144683608
0.1325188621 0.2518756091 0.5163645103
0.1425526226 0.2507339934 0.7665549969
0.1524906552 0.2502914058 0.014037959
0.1324260796 0.2517617079 0.014768713
0.1425242724 0.0014908321 0.2677093527
0.1424764085 0.2494491875 0.2658877605
0.1424602083 0.5019441313 0.7686904662
0.1525554557 0.5002544879 0.0163732605
0.1324831482 0.5003488632 0.0214926801
0.1524670914 0.5029406043 0.5149331936
0.1323587019 0.4999694094 0.5193624516
0.1825146182 0.2505380833 0.2553355963
0.1726947727 0.5023984345 0.5071580601
0.1825680049 0.5036396324 0.7564492563
0.1724495619 0.2529365177 0.5102416042
0.1624772882 0.2502146038 0.7602792942
0.1725169397 0.2525049948 0.01070092
0.1825367092 0.4998216632 0.2584854136
0.1625730161 2.4481775077e-04 0.7632993265
0.1624165378 0.2534064417 0.2597694567
0.182486268 0.2510067055 0.7573411829
0.1825576957 9.2835530039e-04 0.258276469
0.192630852 2.0739306109e-04 0.0068949981
0.2024853068 0.2504365485 0.2538223586
0.2025283844 0.5014624918 0.7552047931
0.1927037525 0.5000462114 0.0063008406
0.202607544 0.5019239545 0.255991885
0.1926982298 0.5018100533 0.506782512
0.192555006 0.2520864891 0.5029708833
0.2025512118 0.2486258443 0.7560221624
0.1925837244 0.2501970305 0.0044368151
0.202603494 1.8643523487e-04 0.2526202366
0.2125455766 0.2479873466 0.4972686278
0.2225741826 0.2486486246 0.7453043153
0.212536372 0.2497700636 -3.4261384148e-04
0.2225436233 8.1515930927e-05 0.7491343532
0.2224276452 0.2516425998 0.2511042374
0.2325155289 0.2504137682 0.4979534507
0.2325129516 0.2510581237 0.9953088687
0.2323844552 3.589793259e-04 0.5012247689
0.2225292641 0.4969897532 0.7509522636
0.2125555176 0.5012672325 0.0014014111
0.2126619229 0.4987197502 0.5047160772
0.2425308802 0.4993217995 0.7475935016
0.2624813187 0.248023795 0.7426303763
0.2626256469 0.001295703 0.2443360882
0.2625527464 -0.0020961845 0.7407112152
0.2524306216 0.2525160595 0.4945376202
0.2425194665 0.2488328192 0.7490496708
0.2525499134 0.250328505 0.9932470362
0.262538019 0.2489083194 0.2393545536
0.2426645311 -6.2239366716e-04 0.24577753
0.2625181371 0.5017286952 0.2424141657
0.2525197222 0.0021206734 0.4946572801
0.2425857397 4.955850026e-05 0.7446848451
0.2524295171 0.0014444906 0.9961925112
0.2424855935 0.2492871223 0.2489715294
0.2723707509 0.2504567253 0.4932554181
0.2724569061 0.2519406956 0.9919123678
0.2725441658 7.5918499079e-05 0.4903992279
0.2725371703 0.0025803136 0.9927315781
0.2825587807 0.2501762028 0.7390994881
0.2725795115 0.5001835437 0.4902887725
0.2825109168 0.2461401941 0.2364707495
0.3124281062 -0.001405969 0.4833181219
0.2924007172 0.4984040811 0.4881017574
0.2925678729 0.2482398819 0.4851802144
0.3024981737 0.2457483739 0.7339973732
0.2926135278 0.2483817703 0.9857913026
0.292462204 7.1506711242e-04 0.4858300598
0.3024333732 -0.0016586996 0.7327814443
0.3124306835 0.4983786974 0.484256992
0.302377041 0.2485360251 0.2341926087
0.3124722884 0.2489460695 0.4805558186
0.3123979151 0.2511707232 0.9847235679
0.3225494947 -7.0166892287e-04 0.2277862006
0.3323973221 -0.0016022697 0.4841244457
0.3224165801 4.2634376733e-04 0.7316363909
0.3324352451 -0.0010998025 0.9812258164
0.3223090703 0.2461343363 0.2313226115
0.3224335166 0.5006892652 0.7356431573
0.3225196717 0.5002941906 0.2321335376
0.3324013721 0.2503779707 0.4771105334
0.3223746071 0.2511785336 0.7295377399
0.3324702226 0.2492109712 0.9799187619
0.3624036122 0.2515156813 0.2248121913
0.3525079208 0.4989000396 0.4777401286
0.3524578477 0.2471653052 0.4798212908
0.342479683 0.2494426789 0.7279241719
0.3625103857 0.4994083645 0.7243610676
0.3525208072 0.2483876281 0.9772402205
0.3624662035 0.4974290865 0.2277779164
0.3424480191 0.0014651881 0.2299409996
0.3424575919 0.2504788546 0.230167433
0.3624698854 0.2489616903 0.7265278327
0.3424679011 0.5001978627 0.7250698226
0.34256952 0.4979614934 0.2269209673
0.3824217966 0.2521509247 0.2203102169
0.3924879574 0.2473234651 0.4705062261
0.3924769118 0.2494459332 0.9730981463
0.3924143205 0.0021146854 0.9732546247
0.3823481597 0.4992840494 0.7252557557
0.3925358213 0.4996706627 0.9716806365
0.3723777269 0.2480329071 0.4736698504
0.3826022069 0.2490794967 0.72502472
0.372587592 0.2473156548 0.9778017017
0.3925579124 0.5002030696 0.4677742981
0.3725323643 1.347566199e-04 0.4732215859
0.4124840507 0.5005922864 0.9662683262
0.4024952086 0.2490039964 0.7183753102
0.4024436628 5.3887818204e-04 0.7178175109
0.4025430726 0.2497791757 0.217786313
0.4124987781 0.2509559381 0.4631876413
0.4125061418 0.2497524902 0.9655227529
0.412594506 8.885874997e-04 0.4678037528
0.4125650513 0.0018204297 0.9685878878
0.4426052143 0.0013969775 0.7121355055
0.4426273054 0.2503922897 0.2101069074
0.4225060294 0.4986038964 0.7145001697
0.4326237359 0.4997956287 0.9622735258
0.4325500991 0.4994415585 0.4611856387
0.4426714875 0.5018549629 0.7130228299
0.4425278956 0.499832077 0.2095224147
0.4326679181 0.2507749978 0.4622929532
0.4224618472 0.2488608063 0.7148849223
0.4325316898 0.2500759697 0.9621722751
0.4226275302 -6.2493203742e-04 0.2119349428
0.432597963 5.8489427874e-04 0.9623931857
0.4224765746 0.2497394729 0.2138918428
0.4425904869 0.2510014986 0.7099346834
0.4724760125 0.2503499835 0.4606103506
0.4626197169 0.2522036447 0.710544949
0.4726858776 0.2499809435 0.9575331519
0.4724723307 7.7449101099e-04 0.9563457573
0.4626712627 0.2497668092 0.2075305373
0.452649284 0.500876714 0.9595489614
0.4526051019 0.5012659308 0.461274003
0.4625018979 0.5004562558 0.7124070415
0.4724870581 0.5030082942 0.9611965865
0.4625350345 0.5009131624 0.2121530921
0.4526787388 0.2511492447 0.4623601469
0.4526566477 0.2529215479 0.9611965865
0.4525977382 2.5724925639e-04 0.4590124305
0.482737311 0.250496428 0.7078921806
0.4823691267 0.0020945737 0.7062556011
0.4925899249 0.5015230222 0.9558026854
0.4924941969 0.5023164256 0.4605956233
0.4826379013 0.2522003904 0.2089480471
0.4925420609 0.2502191598 0.4560605122
0.4925015606 0.2513373445 0.9596410075
0.4826047647 0.499659598 0.2062630625
0.5026524038 0.2500590472 0.7063540904
0.5124939721 0.2508706749 0.4597138217
0.5126633369 0.2482926019 0.9608468113
0.5024535842 3.5800302965e-04 0.7057870865
0.5026045398 0.2510457573 0.2041745367
0.5225454055 0.2494719678 0.2093410839
0.5224423139 0.2484104083 0.7075663374
0.5125418361 0.4990634065 0.456243684
0.5226116787 0.4965634372 0.7108579057
0.5424568164 0.4986943665 0.7089571539
0.5524051582 0.5027193105 0.9623011396
0.5424973167 0.5014572849 0.2124982649
0.5525782049 0.5027336295 0.4623408172
0.5323980194 0.0022311901 0.4598509704
0.532523202 0.2500954956 0.4598712205
0.5324201104 0.2501371509 0.9599171458
0.532383292 0.5025019219 0.9622551165
0.5523646579 0.0028197015 0.9627981885
0.542467862 0.2515365089 0.2094901986
0.5524861588 0.2507821573 0.4628166955
0.5423353156 0.2519205188 0.7116393771
0.5525782049 0.2510646324 0.9606074915
0.5725227524 0.2508745801 0.4736615662
0.5725153887 0.249417946 0.9703367635
0.5625118193 0.5021888562 0.7146842618
0.5625302285 0.5005538854 0.2159545957
0.5724785703 0.4999101807 0.9683669771
0.5723717968 0.5029210784 0.4680163793
0.5623535 0.254123694 0.2146475412
0.5623829548 0.2528714313 0.7175027132
0.6023677777 0.4990386736 0.7229748535
0.5924010267 0.5018100533 0.972941668
0.5924783455 0.5010960553 0.4711726399
0.5823680026 0.2514349741 0.7228892506
0.6025113696 0.2509292526 0.2229639057
0.5924672999 0.248550995 0.4783071326
0.6024635057 0.2520708684 0.723988281
0.5924231178 0.2505270186 0.9782711368
0.5823495933 0.5012392454 0.7184609131
0.5824305939 0.4980988258 0.2225045957
0.5824931852 0.2517779795 0.2214055654
0.6123087558 0.5010439861 0.9726379159
0.6123308469 0.50177751 0.4730936418
0.6223785984 0.5011448701 0.7219715511
0.6124891662 0.0014868618 0.4750799965
0.6223491437 0.5008955891 0.2265481806
0.6124118474 0.2503467292 0.4770396579
0.6125701667 0.2505608635 0.9762737366
0.6225037811 0.0017367937 0.7261614892
0.622459599 0.2506994976 0.223593501
0.6225516451 0.2513392971 0.7300458344
0.6425440566 0.0019560047 0.2319374794
0.6526212629 8.8526809244e-04 0.4836393628
0.6324300318 0.5010270637 0.4776628099
0.6425514203 0.2517630096 0.2310114957
0.6526138992 0.2524620378 0.4827713681
0.6425882387 0.2523982531 0.7329489682
0.632592033 0.0021303062 0.477591014
0.6525218531 0.2514304181 0.9849444786
0.6424299194 0.5021413431 0.7323423844
0.6524850347 0.5001744316 0.4829278465
0.6325368053 0.2515137287 0.4795120159
0.6325809874 0.252168498 0.9790719378
0.6825583343 0.5010179516 0.7369851894
0.6626064231 0.004625459 0.2350072166
0.6825031067 0.5016889925 0.2379812259
0.662514377 -4.145727382e-04 0.7349712208
0.6725842196 0.5015373412 0.4879185856
0.6626506052 0.2514147973 0.2351508085
0.662610105 0.2527380042 0.7325789429
0.6724774462 7.4045081498e-04 0.9847419772
0.6625217407 0.4997390035 0.7332692886
0.6624886041 0.5004237126 0.233524354
0.6825583343 0.2514876941 0.2370580036
0.6726762657 0.2511303697 0.4885242489
0.6825104703 0.2519940664 0.7372889415
0.672598947 0.2504183243 0.9856624381
0.7024844726 0.2494198986 0.2411724639
0.692602404 0.2511167015 0.490609093
0.7025433821 0.250165789 0.7426662742
0.6925471764 0.2508817396 0.9916454342
0.6924882669 0.4985609393 0.9902187197
0.6926907683 0.5009567703 0.4903237501
0.7324767717 0.5 0.997020926
0.7324657262 0.4980363428 0.4941482652
0.7125064513 0.2508478946 0.4954718881
0.7125911337 0.2497700636 0.99563103
0.7223885199 9.5354374371e-04 0.2478890674
0.7325025446 -7.5256650084e-04 0.4998588049
0.7324730899 -0.0012815889 0.9985212773
0.7124769965 0.4980096574 0.9939926096
0.7225652484 0.2492949327 0.2468728785
0.7323699982 0.2494413772 0.4953945693
0.7224216565 0.2493548122 0.7449352104
0.732399453 0.2496047441 0.9951707995
0.7125211786 0.5013277629 0.493294998
0.7125174968 -0.0021852943 0.4948432132
0.7126389976 -0.0015537803 0.9969012661
0.7523808189 0.4975768327 0.0018362368
0.7424103861 -0.0014476243 0.2495486584
0.742366204 2.1754654212e-04 0.7516002681
0.7425466143 0.2488198019 0.2525097813
0.7424030224 0.2489265436 0.7506586365
0.7624432979 -8.3984738581e-04 0.2558795887
0.7523219094 -0.0020064693 0.5027647
0.7623549336 -0.00264526 0.7523955463
0.7524065918 -0.0022777235 0.0014626218
0.7623807065 0.2486167323 0.2556283029
0.7523660916 0.2480179372 0.5033151357
0.7624101613 0.2482157999 0.7563710171
0.7524213192 0.2481741446 -3.8257105063e-04
0.7824541186 1.7192096391e-04 0.2581236725
0.7825424828 -4.7809708104e-04 0.7567401219
0.7723511394 -0.0035638506 0.0068324068
0.782255299 0.24983515 0.2606365309
0.772384276 0.2471021713 0.5091849151
0.782373118 0.2483069209 0.7570991017
0.7723180028 0.2483225416 0.0087103312
0.7923914148 -0.0021753621 0.5077931781
0.7925202794 -0.0017839909 0.0094519465
0.8124574632 0.4974967764 0.01178734
0.7923950967 0.250707308 0.5105702088
0.7923509145 0.2489851214 0.010397536
0.802494394 -0.0015500053 0.2614750708
0.8124758724 -4.9371782108e-04 0.5104533102
0.8024354845 -0.0016361146 0.7575878664
0.812461145 -0.0013190787 0.0115745294
0.8023655295 0.2484702878 0.2621368822
0.81239119 0.2481259807 0.5142677003
0.8024391664 0.248790513 0.7614436773
0.8123948718 0.2497205979 0.0137079738
0.8323799196 -0.0034180505 0.5113756121
0.8225420332 4.9090949283e-04 0.7634410775
0.8325014205 -0.0026325746 0.0186277454
0.8223174407 0.2471587965 0.2646837976
0.8325087842 0.246883481 0.5190633018
0.8223910776 0.2497655075 0.7633324631
0.8325198297 0.2480407175 0.0179643692
0.8224352597 -0.0012384366 0.2586105963
0.8424166257 -0.0017057571 0.7700582712
0.8423024885 0.2492051135 0.2644582847
0.8425049899 0.2499386374 0.7695750292
0.8624348101 -0.0018535488 0.268161299
0.8424166257 0.4995046924 0.7727395739
0.8525932418 -0.0019883753 0.5211288161
0.8626373115 -0.0026836935 0.7708848451
0.8525674689 -0.0028496834 0.0218157619
0.8624311282 0.2494290107 0.2665560151
0.8424460804 -0.0021504079 0.269233636
0.8524680591 0.2470976153 0.5221100275
0.8623906279 0.2504332941 0.7709400728
0.8525085594 0.2481487609 0.0223025016
0.8724715161 -4.1216454078e-04 0.5228804533
0.8924050181 -0.0014225661 0.5225269963
0.8725561985 -8.9692817338e-04 0.0213641838
0.8824934947 0.2508205583 0.2720336781
0.8924344728 -0.0028611191 0.0185441676
0.8724788798 0.2487364913 0.5195907259
0.8923976544 0.2494596013 0.5237871073
0.8824419489 0.2481689377 0.7741211857
0.872545153 0.2487358404 0.0196270899
0.8924381547 0.2497030245 0.0218567224
0.902445406 -3.2325649538e-04 0.2730213327
0.9124857938 3.5631078281e-04 0.5219268558
0.9024049057 0.0011302534 0.7736296596
0.9025411339 0.2493808468 0.2734484266
0.9125115667 0.2497095332 0.5238635056
0.9026552711 0.2512807193 0.7708655154
0.9024859062 0.4991447645 0.7729061773
0.9126146584 0.2496027915 0.0244462551
0.9224856814 0.0014953231 0.2730406624
0.9224783177 -5.8633579223e-04 0.7711867563
0.9225814094 0.2496053949 0.2733683465
0.9224930451 0.2498455638 0.7761204269
0.9425590935 0.001773177 0.2782265393
0.9324266595 3.512340423e-04 0.5257016661
0.942570139 3.6893754768e-04 0.7791947664
0.9325002964 0.0011090352 0.0235636252
0.9426695488 0.2504476132 0.2809409786
0.9325297511 0.248206037 0.5259603156
0.942570139 0.248828914 0.7780773268
0.9325812969 0.2507372477 0.0288141184
0.9525000716 0.0016887599 0.5287833693
0.9526215724 -2.7313995442e-04 0.0285670667
0.9625146865 0.2485959046 0.2801236093
0.9525884358 0.2520467864 0.530544211
0.9725698018 0.2504996823 0.5313799896
0.9626730058 0.2503402206 0.7801069432
0.952890347 0.250587549 0.0323269655
0.9725918928 0.2489799145 0.0322641901
0.9625625505 5.4309808689e-05 0.2782826874
0.982742736 0.4982101235 0.784070448
0.9825218254 0.4997025551 0.2842279446
0.9824113701 1.0676946066e-04 0.2807789775
0.9926542594 -0.0023854871 0.5351455953
0.9826285989 0.251119305 0.2840401706
0.9925364404 -0.003470009 0.0323416009
0.9926910778 0.2479912518 0.5329595005
0.9825218254 0.249350907 0.7822368898
0.9926321683 0.2473039392 0.0311314709
0.0125271329 0.7493135197 0.0325123464
0.0026996292 0.4989729363 0.7838486169
0.012735783 0.4983747922 0.0360088093
0.0225041562 0.7491377864 0.2845234126
0.0025874802 0.7498732629 0.2877063665
0.0124823617 0.7499643839 0.5365115593
0.0224989648 0.7487017074 0.7840308682
0.0226371444 0.4995528563 0.2861286964
0.0024531666 0.7500750308 0.7871493898
0.0124740039 0.9976963036 0.0325956481
0.0525900846 0.9991802739 0.530178788
0.0524299244 1.0002086393 0.0328068018
0.0324415629 0.7507649468 0.0341820625
0.0423482999 0.5011709046 0.7819874449
0.0425357057 0.750016453 0.2845850834
0.0324724904 0.7502247295 0.5343558398
0.0423751773 0.7502507641 0.7834749098
0.0524722656 0.7498602456 0.032026343
0.0524763156 0.749144295 0.5306261321
0.0525547389 0.5023313955 0.5315686841
0.0426237018 1.0005340714 0.2833387793
0.0324179991 1.000468985 0.5352127889
0.0324890587 1.0003843726 0.0358535275
0.0724341178 1.0012239874 0.5277727032
0.0625288536 0.9982625555 0.783091998
0.072460627 0.9981779431 0.0268966142
0.0726605512 0.7489945963 0.0318163858
0.0625155989 0.7505761962 0.2773300104
0.0725151183 0.7509276628 0.5289241998
0.0626363634 0.74974309 0.777732154
0.0624762032 1.0004950195 0.2772416461
0.0824214871 1.0027339923 0.2753970424
0.1023826029 1.002538733 0.7780055309
0.0823651549 0.9992713949 0.7788413094
0.0923705652 1.0010222195 0.0257987804
0.0923517878 0.7528346948 0.0263016282
0.0923366923 0.5005480276 0.0285278551
0.102436726 0.7506673172 0.2773567037
0.0825028558 0.7511359394 0.2759125005
0.0924327884 0.7505046011 0.5251972535
0.1024116895 0.7509667147 0.7744479494
0.0824803966 0.7502963246 0.7778002681
0.0922641599 0.4996420247 0.5267620371
0.1123979542 1.002994338 0.0211036933
0.1124082634 0.7510318011 0.0223922466
0.1225366473 0.5004321738 0.7694719376
0.1224442331 0.7520276233 0.2710064437
0.1124244635 0.7471721766 0.5223318586
0.1222770773 0.7503874456 0.7703472959
0.1123858041 1.0008074344 0.5215144893
0.12252192 1.0001695875 0.771100233
0.1525245282 1.0017707133 0.5160046101
0.1324522207 1.0007813998 0.5201522071
0.1424896631 0.9998376467 0.7649579971
0.1525510375 1.0002281652 0.0157283855
0.1325103938 1.0020896368 0.0198875803
0.1525963242 0.7494957617 0.0137136807
0.1325365349 0.7503679196 0.0181532478
0.1425644045 0.7524116331 0.270907034
0.1525539829 0.7492679592 0.520685154
0.1324717345 0.7481549815 0.5233213541
0.1425091769 0.5021576147 0.2649267993
0.1423685304 0.7520406406 0.7692878454
0.1725471308 0.7507584381 0.0122010872
0.1624625608 0.4997513699 0.7621763642
0.1726053039 0.5029093628 0.00847635
0.1625240476 0.7533098257 0.2655379853
0.1825948824 1.0001695875 0.7596386534
0.1727142865 0.7519365023 0.5133987852
0.1624408379 0.5030662211 0.265828851
0.1625012202 0.7511880085 0.7651439303
0.1827749245 0.7539997417 0.255484711
0.1826158689 0.7528151689 0.7604136815
0.1625733843 1.0017316615 0.2614548206
0.1725169397 1.0022979133 0.512320005
0.1725114169 1.0009701504 0.0104509228
0.1926183338 0.9997465258 0.5096994527
0.2025762483 0.9991151875 0.7549617914
0.1926481567 0.7500620135 0.0098307162
0.202721313 0.7496845123 0.2560655219
0.1926974934 0.7520080974 0.5057617208
0.2027739633 0.7503418851 0.7535157473
0.2327246576 0.7487277419 0.9997638996
0.2325214198 0.4994252869 0.9951707995
0.2326024204 0.7516631393 0.5008087206
0.2325994749 0.4998880514 0.4982277481
0.2226820606 0.9993885505 0.247910238
0.2124612624 1.0006447183 0.5023845497
0.2126357818 1.0009441158 0.002631331
0.2126239999 0.7524767196 0.0015479485
0.2323737779 1.0004429504 0.99563103
0.2226953152 0.7506217567 0.2497566826
0.212654191 0.7500750308 0.4987551722
0.2224920775 0.5005642992 0.2511474991
0.2225594552 0.7502833073 0.7504027484
0.2526283366 0.7515720184 0.9946369322
0.2525278223 0.4998724306 0.9974719519
0.2426170353 0.7505176184 0.2465341489
0.2525513861 0.7516501221 0.4965626343
0.242564385 0.5020385066 0.2446370789
0.2425746941 0.7513181813 0.7460112293
0.2525480724 0.5005825234 0.4948514974
0.2624658549 0.5005616958 0.7420201107
0.2625733647 0.7520666751 0.2438095845
0.2625932467 0.7504004629 0.7416445626
0.282619163 0.4992541097 0.740928444
0.2825208577 0.7510318011 0.239391372
0.2824829348 0.4969012357 0.2419815491
0.2825882355 0.7529193072 0.7401322453
0.2726535165 0.7497365814 0.9907802009
0.2726041798 0.4998366331 0.9914429328
0.2725603659 0.7491312777 0.489241288
0.2824671028 0.9961016864 0.2373037666
0.2825521534 0.9985684616 0.7371186562
0.31231176 1.0002737257 0.9834349226
0.2925686093 0.7466775198 0.9864356253
0.3025335194 0.4977681868 0.7384505632
0.2925189044 0.4980656317 0.9872824493
0.3025239466 0.7507844727 0.2340609828
0.2925748684 0.7507454209 0.4816852242
0.3024893373 0.4997025551 0.2365305794
0.3024712962 0.7487212333 0.7327160915
0.302480869 0.9980542789 0.2330438734
0.312485543 0.749853737 0.9812626348
0.3126099893 0.4997246845 0.9856440289
0.3124737611 0.7503353764 0.4813814721
0.2924360629 0.9983341505 0.9877794982
0.3325615323 0.7500359789 0.9744512239
0.332536864 0.4997468138 0.980010808
0.3225811585 0.7475496778 0.2311237919
0.3325173502 0.7485064481 0.476670553
0.3225443401 0.7479857568 0.7271712349
0.3324496043 0.4996348652 0.4787038512
0.3524847252 0.9986465653 0.4789578984
0.3424546465 0.999505706 0.7272862925
0.3624882946 0.7479922654 0.2228387231
0.3523496015 0.9997335085 0.9771665837
0.3624477943 0.7508365418 0.7215011955
0.3623483845 0.9991737653 0.2280641798
0.3525506302 0.7489945963 0.9720580255
0.3624514762 0.9981388913 0.7263557065
0.3526286853 0.4989332336 0.9784736382
0.3425684154 0.7490987345 0.2246014057
0.3524328112 0.7469443741 0.4766291323
0.342525706 0.7483892926 0.7259856812
0.3925358213 0.999850664 0.4689524881
0.372469773 0.7480898951 0.9698765331
0.3725507735 0.5003983289 0.97454327
0.3825248882 0.7488774407 0.2202853644
0.3724440001 0.7502637814 0.4700082568
0.3824402058 0.5006847091 0.2219053757
0.3824954335 0.7511749912 0.7218205955
0.382554343 0.9990305752 0.2234950117
0.3824991153 0.9986921258 0.7232592759
0.3724255908 0.9990110492 0.9726471205
0.3725286825 0.4993250539 0.4740951033
0.3924548208 0.7478751099 0.9710547231
0.3925652761 0.7512400776 0.4673205109
0.4125392784 0.749580374 0.9650993408
0.4126202789 0.7491377864 0.4654068726
0.4124730052 0.5013479397 0.4672836924
0.4024105262 0.9999808369 0.2164359968
0.4025136179 0.4982062184 0.7180936491
0.4027161193 0.7504264974 0.2178949274
0.4025430726 0.5012392454 0.2164525651
0.4026903464 0.750016453 0.7176371005
0.4324359619 0.7488253716 0.9616384077
0.4225244386 0.7496129172 0.2117572939
0.432458053 0.7495673567 0.4635024389
0.4224066196 0.4984587536 0.2125387652
0.4225833481 0.7486886901 0.7133882528
0.4424910772 0.7504850752 0.2124669692
0.4426052143 0.7501596431 0.7087666185
0.4326642362 1.0017316615 0.4634895524
0.4225759844 1.0011784269 0.7139119951
0.4426088962 1.0003062689 0.2097488481
0.4525866927 1.0015884714 0.957201786
0.4625239889 1.0010157109 0.210539524
0.472464967 0.9995903184 0.4574430446
0.4626049895 1.0011393751 0.7118906629
0.4525277832 0.7522814603 0.9606259007
0.4525056921 0.7519169764 0.4620545539
0.4724244667 0.7512075344 0.9589966848
0.462358306 0.7512270603 0.2100636457
0.4725496494 0.7522228825 0.4597294695
0.4625755347 0.7505566703 0.711523399
0.4725754223 0.5017137254 0.4575792728
0.4824169906 1.0010417455 0.2040162174
0.4925346972 1.0011784269 0.4583156415
0.4925236517 1.0027339923 0.9605890823
0.4825348096 0.4997364 0.7025755983
0.4923579687 0.7483372234 0.4551584605
0.4825642644 0.7509081369 0.2109500496
0.4924242419 0.7506542999 0.9549650659
0.4825348096 0.7527761171 0.7128414991
0.5124866084 0.9993625159 0.4595085589
0.5126117911 0.9987897554 0.9594108923
0.5024977664 0.9998701899 0.2067398613
0.5224275865 0.7488644234 0.7082069782
0.5224607231 0.9990305752 0.2106021154
0.5224607231 0.9998571727 0.7097901711
0.5025161756 0.7504850752 0.2068843737
0.5025272211 0.4999258015 0.2091312188
0.5024756753 0.7512400776 0.7079464878
0.5024609479 0.4987848366 0.7065998535
0.5124939721 0.750361411 0.9617120446
0.5126486096 0.499496882 0.9598803273
0.5124718811 0.7480638605 0.4570214735
0.5225711784 0.5007816879 0.2143226185
0.5224128591 0.7484739049 0.2097663369
0.5324974291 0.7513767591 0.4612491505
0.532431156 0.4995821452 0.4609582849
0.5323096551 1.0007293307 0.9599171458
0.5424494528 1.0012435133 0.2117490097
0.5523941127 1.0012825652 0.4631416182
0.5525377046 0.7536157318 0.9635989895
0.5424973167 1.0000719578 0.7127733849
0.5423426793 0.7505566703 0.2108764128
0.5525303409 0.7509081369 0.4647883228
0.5424236799 0.7498667542 0.7116679114
0.5324790199 0.7515915443 0.9635345572
0.5625081374 1.0006121751 0.2176013003
0.562423455 1.0022783874 0.7174861449
0.5624897282 0.7523725813 0.2153682621
0.5624565916 0.7530039195 0.7173158597
0.5724969795 1.0012109701 0.4692488765
0.5725264342 1.0005796319 0.9697108501
0.572390206 0.752541806 0.9708982447
0.5724343882 0.7539476726 0.4707878872
0.6024193235 1.0012304961 0.2262711219
0.5924083904 0.7528542208 0.9719935932
0.5923752538 0.9988418246 0.47440806
0.6025003241 1.0011068319 0.7287728369
0.5924341633 1.0032416663 0.9763749873
0.6023420048 0.7530755146 0.2245286893
0.6023162319 0.5006879634 0.2229427351
0.5923605265 0.7508821023 0.4744145033
0.6023567322 0.7510187838 0.7223296104
0.5824563668 1.0007293307 0.2220314788
0.5824379576 1.0014908417 0.7256395879
0.5823643207 0.7519169764 0.2236155921
0.5824011391 0.7509667147 0.7232206165
0.6125259846 0.7494632185 0.9719843886
0.6124891662 0.7511880085 0.4730411756
0.6124118474 1.0021482145 0.9751507742
0.6224927356 1.0010873059 0.2281755555
0.6223638711 0.7518649072 0.2221428546
0.6224411898 0.752105727 0.7222182346
0.6425661476 1.0015624368 0.7316888571
0.6525034439 1.0019920071 0.9816952515
0.6325110324 1.0025973108 0.9771941975
0.6324889413 0.749834211 0.9736043999
0.6324410774 0.5018419456 0.9787221627
0.6325147142 0.7514678801 0.4787397492
0.6525218531 0.7507909814 0.9832600351
0.6525844445 0.5019591011 0.9831035567
0.6424115102 0.7530559887 0.2296574977
0.6425146018 0.5017508246 0.2328063945
0.6525328986 0.7522228825 0.4796850626
0.6425146018 0.7523074949 0.7279398198
0.6724774462 0.7519625369 0.985193003
0.6725105828 0.5010101412 0.9855795966
0.6825141522 1.0001891134 0.2363934308
0.6724406277 1.0011654096 0.4864596551
0.682613562 0.9995577751 0.7391749659
0.6824589245 0.7501010653 0.2350808535
0.6724222185 0.7507128777 0.4859754926
0.6824368335 0.7514808974 0.7349758231
0.6623928762 0.7507909814 0.2321537877
0.662396558 0.7509406801 0.7318407332
0.7025544277 0.9985294098 0.2419870719
0.702451336 0.5006573728 0.7438288164
0.6923741297 0.749925332 0.9885895039
0.6925250853 0.9987767381 0.4895929041
0.7025544277 1.0000979924 0.7440009426
0.6925582219 0.999434111 0.9901634921
0.702451336 0.7484348531 0.2395073501
0.702547064 0.4993263556 0.2459680654
0.6925103579 0.7509341715 0.4901663512
0.7024366087 0.7501270999 0.7394676725
0.7225762939 0.5008389639 0.7474038867
0.7325025446 0.748181016 1.0000308333
0.722432702 0.7492093814 0.2451847532
0.7224879296 0.5000084612 0.246873799
0.732421544 0.7508039986 0.4987680587
0.7224695204 0.7484153271 0.7433290061
0.7224106109 0.9989459628 0.7464429255
0.7124401781 0.7497300728 0.9965422863
0.7124512236 0.7479987741 0.4962920188
0.7424582501 0.4991981353 0.7512744249
0.7424950685 0.7493395543 0.2494556919
0.7424324772 0.4988733541 0.2478319988
0.7425097959 0.7519169764 0.7491444783
0.7524470921 0.4993504376 0.5021590368
0.75240291 0.7483437321 6.370695492e-04
0.7624138431 0.498294085 0.7535976683
0.7623880702 0.7492809765 0.2538288018
0.7624506616 0.4988323497 0.2571949274
0.7523992282 0.7491638209 0.5012523827
0.7622812967 0.7471201074 0.7547749378
0.7823105267 0.7489164926 0.2588793709
0.7822921175 0.4994246361 0.2603788018
0.7724210944 0.7499839098 0.5058040621
0.782468846 0.7485129568 0.7588378524
0.7724284581 0.9988353159 0.5054791393
0.7722480477 0.4983025462 0.5099949207
0.7724468673 0.7478165321 0.0064582394
0.7823952091 0.4997936761 0.7583030646
0.7722554114 0.4973555389 0.0072267322
0.7924871428 0.7507779641 0.5070844232
0.8124795543 0.4995333304 0.514664419
0.8125237364 0.7498407197 0.0116425515
0.8024465301 0.4993270064 0.7641176163
0.802494394 0.7500099444 0.2614888777
0.8023581658 0.4999075773 0.2643395452
0.792457688 0.5006261313 0.5160128943
0.7923509145 0.748708216 0.0092137312
0.8125311001 0.7516305961 0.5113157821
0.7924319151 0.4989299793 0.0154581382
0.8024796667 0.7482526111 0.7592198437
0.8325456026 0.498831048 0.5204467546
0.832394647 0.7485585173 0.0178898119
0.8224131687 0.4989137077 0.7670410002
0.8324572384 0.4998450943 0.0152284832
0.8225751698 0.7479922654 0.2658951242
0.8223763502 0.4978593078 0.2655536332
0.8324277836 0.7491182604 0.5179265326
0.8225199421 0.7488709321 0.7634226683
0.8625231743 0.746365105 0.7740420261
0.8624900377 0.4966285236 0.7715429747
0.8524901501 0.7479727395 0.0226418756
0.8523318309 0.4987906944 0.0204254977
0.8624164009 0.7493460629 0.2760459674
0.8623832643 0.4979042174 0.2732091068
0.8525490596 0.7493330456 0.5203086855
0.842549172 0.7452911791 0.2711758085
0.8424387167 0.4960648752 0.2754117698
0.8425123536 0.7471656679 0.7705313881
0.8524275588 0.4985309996 0.5215540691
0.8724531069 0.4998939091 0.5239932906
0.8824345852 0.7496649863 0.7730580534
0.8925302008 0.5001562074 0.526314693
0.8724936072 0.7494957617 0.0202954366
0.8924344728 0.7508300332 0.0212226169
0.88246404 0.4960622718 0.7695391312
0.8723868337 0.4969656712 0.0242134706
0.892478655 0.4994636879 0.0232005033
0.8824382671 0.7484739049 0.2725693864
0.8824529945 0.4965432604 0.2718735179
0.8725046527 0.748109421 0.5216461152
0.8924271092 0.7492484333 0.5208232231
0.8824603582 0.9987962641 0.2728059449
0.8824051305 0.9981128567 0.7713156208
0.9125667944 0.7487928284 0.5247756824
0.9124784301 1.0002802344 0.0229054035
0.9125262941 0.499060803 0.525162276
0.9024638152 0.7491898555 0.7754641382
0.9123274745 0.7489555444 0.0251178234
0.9125631125 0.502300154 0.0249598723
0.9024711789 0.7479206704 0.273133629