POSCAR file written by Ovito 3.7.11
1
271.595584184 0.0 0.0
0.0 15.3637663454 0.0
0.0 0.0 10.8638233673
Sr Ti O 
800 800 2400 
Direct
0.0125064738 0.253986105 0.5317021022
0.02254364 0.2512491459 0.7759503664
0.0025990226 0.248881237 0.7820007225
0.0124369955 0.2507160735 1.029444915
0.0224809733 3.768719561e-04 0.2787883805
0.0025850312 0.9981005196 0.2831165068
0.012635931 0.0022557081 0.5290428175
0.022482446 0.0013548874 0.774238262
0.002645636 -9.8679106305e-04 0.7819040715
0.012544582 1.0000401482 1.029039901
0.0226317121 0.2511235257 0.2765976232
0.0025805024 0.2469708981 0.2807214016
0.0324088224 0.2500801617 0.526997497
0.042545217 0.2498861989 0.774808043
0.0324695745 0.2530065275 1.0252751123
0.0425477944 0.9977360257 0.2703456806
0.0325207536 0.0025517293 0.5242167081
0.0425481626 0.9995324602 0.771462996
0.0325796647 0.0012245808 1.0259838867
0.0423732702 0.2508566641 0.2704478546
0.0724831117 0.2512257142 0.5172026029
0.0525236561 0.2499799259 0.5184130423
0.0624722715 0.2491598145 0.7709005789
0.0724455559 0.2517073669 1.0188777329
0.0524750544 0.2511463066 1.0203505108
0.0625234505 1.0027282911 0.2670926822
0.0725298724 1.0004697303 0.5212242073
0.0524831547 1.2508174841e-05 0.520941618
0.0624288245 1.0022271119 0.7689519095
0.0725983566 4.3636257705e-04 1.0191630836
0.052466586 1.0002028687 1.0199639066
0.0624965723 0.2514112156 0.2718460732
0.0925313022 0.2488936037 0.5166613569
0.1025587111 0.2521512685 0.7669323627
0.0824946883 0.2526524477 0.7728280771
0.0925033194 0.2521773038 1.018666021
0.1025605521 1.0026762206 0.2658233317
0.0824777514 1.0031058027 0.2653087799
0.0925478709 0.0011525932 0.5168067938
0.1026850019 0.0030498493 0.7634740958
0.082446823 1.0006845214 0.7674846544
0.0926377104 0.9987579105 1.0187028405
0.1025686524 0.2497599278 0.2678566858
0.0824262041 0.2514841144 0.2707939574
0.1126163121 0.2509126399 0.5135022481
0.1225693458 0.2523732193 0.7618503581
0.1126111573 0.2515980187 1.0138794925
0.1226577124 9.5042923379e-04 0.2601724666
0.112646504 0.9981005196 0.5126351501
0.1226532941 1.000664995 0.7598308113
0.1126461358 3.8604939325e-04 1.0125355826
0.1225671366 0.2489267987 0.2632220376
0.1525576831 0.2522013864 0.5062055537
0.1325956502 0.2520926891 0.5101120973
0.1425519976 0.2475781711 0.7595077206
0.1524269741 0.2540921988 1.0071047138
0.1325809224 0.2508039426 1.0115230477
0.1426687153 9.7724557496e-04 0.2550508812
0.1525031903 1.0002158863 0.508793961
0.132631365 0.0026237819 0.513678061
0.1425236466 6.8975096584e-04 0.7608461076
0.1525794066 1.0002939922 1.010298801
0.1325245886 -5.9827955709e-04 1.0101054989
0.1425361652 0.249742354 0.2582532528
0.1724906287 0.250227912 0.509997957
0.1624952526 0.2510024616 0.7577615582
0.1725789954 0.2513454765 1.0070126651
0.1626219115 -4.0119246712e-04 0.2585781845
0.1725267118 0.0012612254 0.5119328191
0.1624993028 1.0008993125 0.7566219962
0.1726003507 -6.1357528567e-04 1.0079423562
0.1625703643 0.2505279686 0.2584898178
0.1924644439 0.2485447309 0.5056919223
0.2025080534 0.2486098192 0.7535383673
0.1825843127 0.2502383261 0.7558395829
0.192602885 0.2495744264 1.0055122725
0.2024981121 -2.7973787337e-04 0.2544700543
0.1824333529 9.2074901152e-04 0.2589693911
0.1923723952 6.4464483858e-04 0.5084184026
0.2025132081 1.0012052271 0.7514092826
0.1823832785 0.999102878 0.7580708416
0.192495004 -3.9338188231e-04 1.009092964
0.2025647554 0.2498399863 0.2531592819
0.1825438113 0.2489378637 0.257305152
0.2124806014 0.2486514756 0.4981393327
0.2225231064 0.2489248461 0.7490951802
0.2126183061 0.2486931321 0.999796053
0.2226184687 1.00124428 0.2494902237
0.2124375226 1.0006519773 0.4998044923
0.2227285589 0.9996040572 0.7517056792
0.2125884824 0.9996626366 0.9999985599
0.2224969645 0.2502025276 0.2474237321
0.2526601943 0.2492151395 0.4956374511
0.2325553019 0.2469669928 0.4963361001
0.2425149631 0.2488818879 0.7465491152
0.2527154235 0.2467164032 0.9967492435
0.2326285726 0.2484399389 0.997448813
0.2426184257 0.998412943 0.2461341309
0.252610488 -0.001887345 0.4980813421
0.2325379967 -0.0034629027 0.4987275234
0.2425293226 0.9998253571 0.7474613171
0.2525412675 -0.0048671547 0.9975132471
0.2325435196 -0.0018703179 0.9943191598
0.2427031104 0.2504244784 0.244317091
0.2726281183 0.2489730113 0.4914289879
0.2627527737 0.2490667384 0.7450459612
0.2726262774 0.2473666344 0.9915761108
0.2626533612 1.0007756449 0.2470426508
0.2727363675 -0.0021410848 0.4956466559
0.2626154371 1.0012572977 0.7455356598
0.2726185453 -5.4985393129e-04 0.9948254272
0.262639738 0.2481763317 0.2472331915
0.2927094463 0.2484770392 0.4896257554
0.3025387666 0.2473158656 0.7438971943
0.2826315947 0.2493309965 0.7432685022
0.2925459679 0.2486794635 0.9887226034
0.3025288254 -0.0010425717 0.2401933126
0.2824552295 0.9997667777 0.2449172481
0.2925794736 -0.0011250384 0.4953603847
0.3023395734 -6.4045671505e-04 0.7435409661
0.2825498555 1.0002158863 0.7445074767
0.2924520784 -0.001317309 0.9988111327
0.3025663812 0.2475625499 0.2383320895
0.2826109758 0.2477597672 0.2448021873
0.3324884436 0.2488115926 0.4850352905
0.3125227287 0.2458429195 0.487875911
0.3223818728 0.2485219501 0.7327657541
0.3325908016 0.2468595973 0.98527078
0.3126512286 0.2479010086 0.9895786556
0.3224209014 7.2847844884e-04 0.2363466006
0.3325315223 -5.2752867638e-04 0.4838994104
0.3124531399 -0.0014490475 0.4903851565
0.3224054372 1.2443086634e-05 0.7351912354
0.332457147 -0.0015898333 0.9810273384
0.3124954823 0.9982827666 0.9878573463
0.322526205 0.2484360336 0.235620337
0.3525745581 0.2476764543 0.485168761
0.3425530402 0.2498093948 0.7322650096
0.3524666771 0.2478235536 0.9873510789
0.3426546619 7.3114706532e-04 0.2313897822
0.3526095365 -0.0026029638 0.4808001332
0.3425721863 1.0004306774 0.7301432888
0.3526268417 -0.0034201267 0.9854824918
0.3425552494 0.2486963865 0.2328653216
0.3723447617 0.2488363261 0.4852387179
0.3824922021 0.2459704924 0.7355382587
0.3625691977 0.2492971506 0.7385556126
0.3725141311 0.2466545694 0.9821135121
0.3824517007 0.9996235837 0.2279370383
0.362484513 0.997397567 0.2295460482
0.3725840881 -0.0013552554 0.4844139623
0.3825142937 1.9540603575e-04 0.726149299
0.362617063 0.9991679662 0.7297824582
0.3726061798 -0.00285218 0.9802817445
0.3824222451 0.2497430048 0.2336550988
0.3624256019 0.2481991126 0.2358062752
0.3924850008 0.2476640875 0.4741256875
0.4023931147 0.2499402221 0.7251671402
0.3924187258 0.2524558813 0.9792323902
0.4025330286 0.99859519 0.2219235016
0.3925439119 0.9984324695 0.4742545555
0.4024925272 0.0018558062 0.7218469463
0.3924960466 1.0018691268 0.9781646261
0.4024704356 0.2472058665 0.2250144944
0.4324193761 0.2498822936 0.4658486751
0.4124558704 0.2520751153 0.4698270167
0.4224302594 0.2480442026 0.7180122006
0.4325740178 0.2508124041 0.9678367705
0.412547919 0.2491708795 0.9681681455
0.4224044857 1.0010685419 0.2190966884
0.4324782872 1.0002614481 0.4691513798
0.4124264148 -4.7148773039e-04 0.4692738045
0.4225296719 1.0005283097 0.7225860967
0.4323678289 1.0000401482 0.9649832631
0.4125258273 -5.9619673448e-04 0.9702944687
0.4223603024 0.2498054895 0.2180869149
0.4526074805 0.2491591636 0.4648738802
0.4425631345 0.2517021599 0.7124763963
0.4525964346 0.2488890476 0.9622678287
0.4425557707 0.9986928223 0.2173091041
0.4525964346 0.0025540074 0.4659002224
0.442463722 0.0013172664 0.7163663712
0.4526774374 0.997469164 0.9672200447
0.4424710859 0.2499382695 0.2112044393
0.4727919029 0.2498393354 0.4624327507
0.4824496446 0.2472117245 0.7084952933
0.4625524139 0.2496681534 0.7103095717
0.4725893959 0.2513734644 0.963851065
0.4825085557 0.0012420895 0.2124093558
0.4626334167 -1.8994517215e-05 0.2138554397
0.4725967598 0.9996300925 0.4615269922
0.482626378 1.0000206217 0.7131225776
0.4625487319 0.0017100737 0.7145401264
0.472519439 7.5444864333e-04 0.9607950507
0.4825416932 0.2493186297 0.2095089036
0.4626776 0.2491305248 0.2149314881
0.5125164074 5.6009525804e-04 0.460004508
0.5125753185 2.8386090869e-04 0.9635657143
0.4925676294 0.2519019807 0.4593841002
0.5026524768 0.2511417504 0.7082320342
0.4925529017 0.2485440801 0.9579783627
0.5125900463 0.249703301 0.4602567212
0.5125200893 0.2504791525 0.9603532173
0.5025272906 -0.0020503063 0.2140450598
0.4926928156 5.5482311329e-04 0.4602521188
0.5026303851 1.1690965843e-04 0.7110910645
0.4925676294 9.6500899209e-04 0.9578679044
0.5025383365 0.2489339584 0.2091222994
0.5225607533 0.9994218102 0.2137910056
0.5325020048 4.6252803616e-04 0.4630393511
0.5225349797 0.9997993218 0.7121146452
0.5323768186 0.9982502225 0.960574134
0.5224539769 0.2503040652 0.2105241999
0.5325793256 0.2475794728 0.4626168479
0.5225865269 0.2505461933 0.7129071838
0.532553552 0.2506932927 0.9666309335
0.5424874396 0.0015685068 0.2132387139
0.5624472634 7.8250166043e-04 0.2203522316
0.5525060119 -2.6886814284e-04 0.4672100743
0.5425095313 0.9986732958 0.7171027602
0.562406762 0.9994348279 0.7188737757
0.552498648 5.2696536082e-04 0.9683154233
0.5426236715 0.2488825387 0.2149305676
0.5625761314 0.25200482 0.2217863492
0.5524728744 0.2508755396 0.4673914101
0.5426273535 0.2513832276 0.715976085
0.5624656731 0.2515290252 0.7205785162
0.5524507827 0.2514893214 0.9722458996
0.5823923594 9.4535235366e-04 0.2260905429
0.5723958787 4.1993132489e-05 0.4731794276
0.5823997233 1.0001377805 0.7274812426
0.5724106065 -0.0019603674 0.9747772368
0.582484408 0.2505403354 0.2276351188
0.5725615662 0.2510135266 0.4726418636
0.5826574594 0.2522977169 0.7250649662
0.5725505204 0.2514769547 0.9719329343
0.6024773693 0.9995259514 0.2337241353
0.5924219775 0.9992395632 0.4759049874
0.6124775319 8.5618151044e-04 0.4834713843
0.6025141887 0.0010503396 0.7364955644
0.5923741122 0.0010708424 0.9742709693
0.6125290791 2.9896137265e-04 0.9808616508
0.6024552776 0.2511417504 0.2337002027
0.5925177081 0.252915404 0.4788284517
0.6125806263 0.2526244597 0.4841175657
0.6026025554 0.2518362416 0.7313748994
0.592458797 0.2502936511 0.9781554213
0.6125732624 0.251944288 0.9859243252
0.6224740125 6.0396470937e-04 0.2362315398
0.632477857 2.2371940567e-04 0.4832596725
0.6226176084 0.001178238 0.7332931928
0.6324410376 0.9994218102 0.9851695265
0.6226028806 0.2500144227 0.23297578
0.6324741751 0.2499675591 0.4841727949
0.6225513333 0.2507089138 0.7356616039
0.632481539 0.2516149417 0.9865962802
0.6425627044 1.0003200275 0.2355015942
0.662596167 0.0025601908 0.2377264095
0.6524376808 0.002840005 0.483928866
0.6424375182 1.000918839 0.7371739628
0.6626403504 0.9995519866 0.7401278031
0.6525444572 1.0014460534 0.983328554
0.6423565154 0.247948523 0.2310289516
0.6624267976 0.2514769547 0.2361348888
0.6524413628 0.2490049046 0.4859649816
0.6423454696 0.2490751998 0.7330428205
0.6623715684 0.252087482 0.7343756846
0.6524965919 0.2501680308 0.9859427349
0.6824528964 1.0018430915 0.2405246877
0.6724122324 1.000736592 0.4900178825
0.6824713061 8.9822849199e-04 0.7402879678
0.6723606851 0.0024500615 0.9865594607
0.6824160769 0.2525417977 0.2441468011
0.6725005991 0.2509686158 0.4892722887
0.6824933978 0.2541227903 0.7422412396
0.6725116449 0.250492821 0.9880966728
0.7024127201 -4.6803805543e-04 0.2429308387
0.6923205089 1.0012833329 0.4921248755
0.7123208341 1.0005152921 0.4963195314
0.7026594105 0.9994413367 0.7436597089
0.6923941478 1.0004046421 0.9903058397
0.7123318799 0.0018122622 0.995847167
0.7024605854 0.251568729 0.2471208921
0.6924604228 0.2512478442 0.4945494363
0.7124828397 0.2510206863 0.4984937199
0.7025010868 0.2529238655 0.7471778073
0.6925303798 0.2520868312 0.992966045
0.7124828397 0.2503086214 0.9983692993
0.7225087759 6.5779265634e-04 0.2493153314
0.7424244163 1.0010945771 0.2523418901
0.7324978926 -1.8653156133e-04 0.4991555495
0.7224056814 1.000300501 0.7475045799
0.742380233 0.0021089993 0.752587505
0.7323763885 0.9983283283 0.9996395703
0.7223209967 0.2479934338 0.2521264964
0.742380233 0.249896613 0.2529448086
0.7324242537 0.2490205257 0.5042228263
0.7224903662 0.2487959714 0.7520306108
0.742446508 0.2485948489 0.7514083621
0.7323763885 0.2491012351 1.0034135639
0.7623768762 5.3737947389e-04 0.2515373852
0.7525681748 -5.2030388543e-04 0.5014153432
0.7624136957 -0.0015949753 0.7510208374
0.7524982178 1.0000922187 1.001802713
0.7624210596 0.2494572676 0.2492601022
0.7525092637 0.2505702759 0.5032756459
0.7623474207 0.2511645313 0.7486616311
0.7525092637 0.252209197 1.0009558656
0.7824618861 -0.0010717963 0.249074164
0.7725243166 1.0009318566 0.5007838897
0.7924325932 0.9994608631 0.50176881
0.7823735195 -3.5374316441e-04 0.7505375821
0.7724212221 0.9995519866 1.0015449768
0.7924141834 6.0071029904e-04 1.0017843032
0.7824471584 0.249675964 0.2476750249
0.7725022249 0.2533345721 0.5002334389
0.7924620487 0.2502233558 0.5006154407
0.7824508403 0.2511183186 0.7475901851
0.7724359499 0.2509308646 1.0006981295
0.7923368626 0.2518824542 1.0003667544
0.802418028 0.9998383747 0.2537327449
0.8125139211 9.4974932765e-05 0.507724356
0.8024069821 -9.1584491771e-04 0.7558727204
0.8124844656 0.9996235837 1.0083749848
0.8023296613 0.2513044709 0.2526152746
0.81232246 0.2496173846 0.5048137785
0.8024217099 0.2521857652 0.7533128481
0.8122230475 0.2504440048 1.003072984
0.8223925795 0.9992395632 0.2582376045
0.8424554978 1.000228904 0.2565319435
0.8324774269 0.0011956165 0.5064043787
0.8225030379 9.5173099792e-04 0.7587906618
0.8424739075 2.8334020303e-04 0.7597875484
0.8324553352 5.6334966838e-04 1.0082829361
0.8224625365 0.2490888684 0.2560707799
0.8422714005 0.2498901042 0.2577589517
0.8323522407 0.249731289 0.5047070021
0.8222710753 0.2496798693 0.7585209593
0.8424444519 0.2483325434 0.7588569368
0.8323301491 0.2500144227 1.0058988768
0.8624668688 0.0010058844 0.2607661803
0.852481434 1.0027608352 0.5064439596
0.8625662813 0.9997732865 0.7612566445
0.852544027 7.9520003701e-06 1.0092678564
0.8625368257 0.2495607579 0.2619066627
0.8524077951 0.249206678 0.5101581216
0.8623748202 0.2504316381 0.7596154175
0.852345202 0.2505819918 1.0104460788
0.8824598301 1.0010229801 0.2666232343
0.8724559855 -0.001274546 0.5125164074
0.8925078579 -0.0016480872 0.5138943753
0.8825371509 0.997905255 0.763260543
0.8725038508 5.4271670684e-04 1.0115690721
0.8824966495 0.2495998108 0.2618072502
0.8924968121 -0.0019820548 1.0160426352
0.8725038508 0.2508761905 0.5149566164
0.8924415829 0.2465348071 0.5160068912
0.8824487842 0.2501153094 0.761624839
0.87255908 0.250393236 1.0129313917
0.8925078579 0.249256145 1.0180769098
0.9024417455 0.0011382087 0.2710305224
0.9225193915 -6.448176249e-04 0.275773788
0.9126296873 0.0014400878 0.5255863916
0.9025190664 0.9983608725 0.7675150305
0.9226151221 0.9998579012 0.7797777482
0.9125265928 0.9977034816 1.0242809871
0.9025374761 0.2491376845 0.2701901185
0.9226040763 0.2476764543 0.2793719688
0.9125229109 0.25204908 0.5199548567
0.9025080205 0.2478665118 0.7676779565
0.9226188041 0.2497104607 0.7775197955
0.9125302748 0.2486866232 1.0246583865
0.9426412209 1.0031643821 0.2795367358
0.9324937805 1.0006454685 0.5270784998
0.9423945306 0.9991809839 0.7824802959
0.9325379638 1.0013744564 1.0292792274
0.9425639001 0.2522417411 0.2759265888
0.9324864166 0.2493075647 0.5304401156
0.9424792153 0.2500079138 0.777151601
0.9324569611 0.2498458442 1.0280825953
0.9625237238 0.0012579059 0.2829591037
0.9525530168 1.001862618 0.5286847483
0.9726490726 0.9986863135 0.5329742142
0.96264891 0.9992005103 0.7875889945
0.952541971 1.0009578919 1.0264625395
0.9625494974 0.2523621543 0.2808042454
0.9726895739 7.6824734315e-04 1.0372322286
0.9525088335 0.2520588432 0.5319810096
0.9725901614 0.2474219594 0.5356169302
0.9626010447 0.2516429296 0.7797860326
0.9525714265 0.2493720021 1.0332097037
0.9725864795 0.2489873308 1.0346364574
0.982457774 -2.0621722383e-05 0.2872366033
0.9925831227 0.9973064435 0.5346633065
0.9825608685 0.997143723 0.7840257923
0.9826308254 0.2504856613 0.2849537974
0.9926420338 -3.7479567926e-05 1.0317369257
0.992494756 0.2494130076 0.5329677708
0.9826050518 0.2504446557 0.7833842134
0.9925058019 0.249140288 1.0344523602
0.0127452848 0.7515138484 1.028441585
0.022507336 0.5007498161 0.7753676986
0.0024634534 0.5022709275 0.7817945336
0.0125822483 0.501495727 1.027438255
0.0225677567 0.7512795309 0.276112527
0.0026033305 0.7510647398 0.2777012862
0.01264532 0.7504073489 0.5284831618
0.0225890015 0.7504919636 0.7752158184
0.0225436031 0.5007810585 0.2756173054
0.0025114291 0.4997389963 0.2822926716
0.002599759 0.7498540992 0.7829847223
0.0126113356 0.5008077446 0.5270490442
0.0325358495 0.7495612022 1.0229923064
0.0425897685 0.5015966137 0.7702267829
0.032610593 0.5001978681 1.0229462821
0.0424837285 0.7512469868 0.2699001653
0.0325885014 0.7509020193 0.5229547214
0.0424446999 0.7491446377 0.7711288595
0.0424432271 0.4997865107 0.2700676938
0.0326083839 0.5018869071 0.5215058761
0.0725144082 0.7509410722 1.0157388748
0.0624858947 0.5008676258 0.7697867905
0.0525619483 0.7509540899 1.0181229341
0.0725081489 0.5007602303 1.0225136535
0.052453331 0.4989338552 1.022081025
0.0625252915 0.7508434399 0.2682663022
0.0724654384 0.750693737 0.5186974725
0.0525420658 0.747608556 0.5170525636
0.0625599018 0.5013401662 0.2678649702
0.07256706 0.5017079145 0.5204104974
0.0624851583 0.7494830964 0.769484871
0.0525601074 0.4995801811 0.5206019586
0.092553762 0.7522168011 1.0182978265
0.1024824949 0.5004985757 0.7654402545
0.0825506539 0.5020398644 0.7706953104
0.0925559712 0.5021934726 1.0173773403
0.102620936 0.7511884074 0.2651817528
0.0826125106 0.7522233099 0.2708004008
0.0925552348 0.7525682774 0.5182869357
0.1025358831 0.7511363368 0.7647213547
0.1025097413 0.5004660316 0.2661823213
0.0824729648 0.502450571 0.2705168911
0.0825668544 0.7528807008 0.7699395912
0.0924797549 0.5035284317 0.5174870331
0.1126148393 0.7509605987 1.0153706803
0.1225752369 0.5005545515 0.7592950883
0.1125754425 0.5015927084 1.0103632351
0.122609479 0.7498801344 0.2623383708
0.1126233078 0.7512990574 0.5151720102
0.1224957069 0.499530714 0.2629081518
0.1226183156 0.7507718429 0.7621320269
0.112527209 0.5019103389 0.5143168785
0.1524347061 0.7510972839 1.0081816827
0.1425207011 0.500298104 0.7611360608
0.1325890227 0.7516179896 1.0102895962
0.152474103 0.5016213472 1.0063038907
0.1325665628 0.5011110557 1.0073164256
0.1424901409 0.7499582403 0.2585864688
0.1525002448 0.7499842756 0.5106027165
0.1325573579 0.7506611929 0.5092413173
0.1424709948 0.5009789266 0.2572361155
0.1424735722 0.7495612022 0.7610826726
0.1524634253 0.4985055748 0.5069621934
0.1325198021 0.5011722386 0.508593295
0.1725020427 0.7508239134 1.0091573981
0.1625258128 0.5001425432 0.7553443613
0.1724508637 0.4994871049 1.0066812901
0.1625305993 0.7495677111 0.2590678831
0.1724626459 0.7513706544 0.511737676
0.1624691108 0.5011807001 0.2545050328
0.1625751508 0.7498996609 0.7584970267
0.1725638994 0.5002141402 0.5078992484
0.1923919095 0.7512209515 1.0103080059
0.2022514218 0.4996127252 0.7567849223
0.1824285664 0.5005753797 0.7572893487
0.1924309382 0.4992664559 1.0088076133
0.2024690248 0.7474458355 0.2584290657
0.1824517627 0.7504464018 0.2618081707
0.192241318 0.7497304316 0.508193804
0.2024233687 0.4976574754 0.2538846251
0.2022661496 0.7498736256 0.7594488095
0.1824819546 0.4997194698 0.2566285946
0.1824241481 0.7476345913 0.7589858049
0.1923944869 0.500844194 0.5074739837
0.2125582904 0.7487736349 1.0038922168
0.2224509402 0.4994753891 0.7521042497
0.2124386272 0.5007276862 1.0037909633
0.222401234 0.7473807473 0.2526364457
0.2122729397 0.7482659469 0.5040249217
0.2224634588 0.497555287 0.2526143541
0.2224907052 0.7476996795 0.7541615365
0.2122795672 0.4988824355 0.5013030439
0.2525548907 0.7487020379 1.0023642096
0.2424461107 0.4980122062 0.7516403246
0.232589544 0.7470618151 1.0017658935
0.2525887645 0.5002662108 0.9984613479
0.232531001 0.4980291291 0.9977249589
0.24255841 0.7491316201 0.2514296883
0.252625584 0.7488191967 0.5003807167
0.2326709149 0.7481748234 0.5012008699
0.2426773368 0.5007830111 0.2517721091
0.2425900747 0.7493854641 0.7497211108
0.2526189565 0.4987522591 0.4999398038
0.2324831357 0.4996960381 0.4997133642
0.2725758347 0.7496197816 0.9959300107
0.2626139644 0.4992313083 0.7480568717
0.2726715653 0.4981430335 0.9958839864
0.2625738312 0.7497174139 0.2494027775
0.27249115 0.7484742292 0.4973992617
0.2626412108 0.4984391848 0.2476023064
0.2626172781 0.7502836813 0.7511846839
0.2726708289 0.4987190641 0.4963913293
0.2924988391 0.7486434585 0.9919535101
0.3025089429 0.4985036221 0.7406718105
0.2827328482 0.4973613241 0.7436836415
0.2925109895 0.4983812563 0.9937576632
0.302569695 0.7505765783 0.2423288407
0.2825542738 0.7483180175 0.2458082788
0.2925537 0.7483310351 0.4906668253
0.3026488568 0.499000896 0.2375036518
0.3023410462 0.7490079525 0.7460290405
0.2825958798 0.4982139796 0.2451271189
0.2826573683 0.7507458076 0.7461984099
0.2925993561 0.4987177623 0.4902443221
0.3323525798 0.748988426 0.9843042694
0.3224753942 0.4962509193 0.7323819114
0.3124244207 0.7492617965 0.9870012941
0.3324483104 0.4997194698 0.9816900885
0.3124354666 0.5000175738 0.9850406584
0.3224146421 0.7509605987 0.2394642875
0.3323805626 0.7473872561 0.4854964541
0.3124354666 0.7477061883 0.488644517
0.3224820217 0.496870559 0.2371179681
0.322336953 0.7479665412 0.7309266226
0.3324965438 0.4995287614 0.4852414794
0.3123231673 0.4992501839 0.4865163528
0.3523683691 0.7484026322 0.9830524081
0.3424525231 0.4980245729 0.7327215708
0.3524188118 0.4988511932 0.9852983946
0.3424013441 0.7483961233 0.2300164167
0.3523543778 0.7481878411 0.4820105727
0.3424709328 0.4975103761 0.2353165765
0.3423847753 0.745831648 0.7319373165
0.3525690351 0.4979373547 0.4855480013
0.3724294464 0.7484742292 0.9801712862
0.3824406548 0.4995574002 0.7296637155
0.3624513755 0.4990718422 0.7351663823
0.3725988159 0.4982139796 0.9841201722
0.3825216576 0.7487606173 0.2338502419
0.3623851005 0.7470357798 0.2338796975
0.3722453492 0.7491901995 0.4825407727
0.3823891076 0.4989683519 0.230596323
0.3824737923 0.7506156312 0.7319336346
0.3623261894 0.4980545135 0.2362674388
0.3625066047 0.7483896145 0.7366004998
0.3723852631 0.4973906138 0.4857100069
0.3924297716 0.7487996702 0.9767286676
0.4026213953 0.5011969721 0.7268000828
0.3925034105 0.4994363361 0.9793980777
0.4024741175 0.7503487695 0.2258935588
0.3924739549 0.748409141 0.4747865966
0.4026582148 0.5000071597 0.2230115164
0.4025367106 0.74924227 0.7254893104
0.3926101869 0.4986526741 0.4767923361
0.4324966969 0.7521777481 0.9685547497
0.4225812191 0.4988433826 0.7189170386
0.412614194 0.7490795495 0.9711597258
0.4325261525 0.5014976796 0.9637590164
0.4125368732 0.4977492498 0.9707823264
0.422452351 0.7512534956 0.2173993117
0.4325371983 0.7502706637 0.4698684386
0.4125884204 0.750986634 0.4721595288
0.4224376232 0.5016538913 0.2202491371
0.4225554455 0.7485393174 0.7191140226
0.4324782872 0.5014950761 0.4658284244
0.4124227329 0.5003957363 0.4682465418
0.4526848013 0.7485458262 0.9638326553
0.4425594526 0.5003026602 0.7164354076
0.4527694861 0.5008533064 0.9632343392
0.4425962721 0.7506677017 0.2159513868
0.4525890707 0.7516895866 0.4651343778
0.4426036359 0.499547637 0.2153585937
0.4427030485 0.7491511465 0.714003483
0.4526663916 0.5004770966 0.4619145169
0.4725599404 0.7511949162 0.9627464815
0.4826742432 0.5012054336 0.7123125497
0.4626186889 0.4991492971 0.711625867
0.4726225334 0.4994792943 0.9613933667
0.4826447877 0.7507718429 0.2078731995
0.4625340042 0.75073279 0.2129202256
0.4726114876 0.7507653341 0.4589339825
0.4825380113 0.4993901235 0.2115210865
0.4825159196 0.7496262904 0.7088911024
0.4625855514 0.500413961 0.214433505
0.4626591903 0.7473742385 0.711324868
0.4725488945 0.5008292238 0.4622974392
0.4924534891 0.4986364021 0.9545357442
0.5026046115 0.7504073489 0.207505005
0.492597085 0.7505375253 0.4596390749
0.5024057864 0.4997546175 0.2126146242
0.5026487948 0.7506416665 0.709920206
0.4927480447 0.7503097166 0.9588436198
0.492597085 0.5008311764 0.4573544281
0.5024904712 0.4988088858 0.7107468026
0.5126047741 0.7515463925 0.9617707661
0.5123544018 0.499547637 0.9611632452
0.5125090435 0.7485848791 0.4622606197
0.5123949032 0.5001685785 0.4612738585
0.5224061116 0.4992345627 0.7142713445
0.5324762312 0.7494505523 0.965323843
0.5323694548 0.4968334587 0.960841075
0.5224539769 0.4994630223 0.2127250825
0.5225202519 0.7500688902 0.2165211678
0.5325388242 0.7497564669 0.466527994
0.5323841825 0.4988869917 0.4646455996
0.5225607533 0.7512860397 0.7121017584
0.542461666 0.5009190455 0.7151089869
0.5523476883 0.7515529014 0.9718869099
0.5625024925 0.5012171495 0.72009342
0.5525465133 0.4998880483 0.9705890243
0.5424911215 0.4997559192 0.2126330339
0.5424027548 0.7482138764 0.2150502308
0.5625209023 0.502345779 0.2209072848
0.5624214897 0.7499387138 0.2201929875
0.5524876022 0.4994272238 0.4676040424
0.5524839202 0.7500623814 0.4655485966
0.5426457632 0.7490535142 0.7144149403
0.5625761314 0.7485197909 0.7198761852
0.5825175455 0.5001555608 0.7268276974
0.5724768815 0.7509605987 0.9751086118
0.5723921968 0.5000013018 0.973755497
0.5823923594 0.5010368551 0.2234377015
0.5824917719 0.7480902088 0.228892503
0.572443744 0.4999882841 0.473823768
0.572510019 0.752835139 0.4733478766
0.5824696802 0.7484156498 0.7241205473
0.6024405498 0.5007140176 0.7311760744
0.5923741122 0.7482789646 0.9799687792
0.6123781193 0.7501469961 0.9843042694
0.5924624789 0.5003957363 0.97991355
0.6124554402 0.5003260919 0.986338544
0.602429504 0.7507132635 0.2349723147
0.6024663234 0.499376455 0.2323332806
0.59238884 0.7498540992 0.4796504459
0.5924072497 0.499172078 0.4799330352
0.612470168 0.7494635699 0.4887052691
0.6124959416 0.5001672767 0.483692301
0.6023705929 0.7498671168 0.7330925268
0.6223782819 0.5008448449 0.7332996362
0.6324962668 0.747465362 0.9856113599
0.6324704931 0.5023965478 0.9831444567
0.622510832 0.7491576554 0.2350772501
0.6224592847 0.5002590511 0.2334710016
0.6324373556 0.7497043963 0.4852405589
0.6325294043 0.5002460334 0.4860321771
0.6224592847 0.7489754084 0.7370966419
0.6424927474 0.4999297047 0.7342863974
0.6523861336 0.7511688809 0.9873694886
0.6624267976 0.5021505144 0.7363786627
0.6524303169 0.5023249507 0.9857310231
0.6424632918 0.7504138577 0.2357372387
0.6423970168 0.5016187437 0.234781774
0.6625151643 0.7493268847 0.2364727072
0.6624157517 0.5005838412 0.239198267
0.6523640419 0.7526398744 0.4842952195
0.6524413628 0.5022468449 0.4836775733
0.6425258849 0.7502316108 0.7350283093
0.6623163392 0.7514031985 0.7358677928
0.6825338992 0.5015237149 0.7420276868
0.6724932352 0.7523599951 0.9879125755
0.6723091379 0.5021231773 0.9871117525
0.6824344866 0.7535055476 0.2417949587
0.6824639422 0.5029667205 0.2408625061
0.6725558282 0.7538114621 0.4899819836
0.672434324 0.5027668997 0.4899331978
0.6824860339 0.7518457983 0.7446409472
0.7023317174 0.5000735497 0.7445277274
0.6925377437 0.7529653154 0.9932790103
0.7124312925 0.7517676924 0.9984981673
0.6925046062 0.5019786815 0.9943835938
0.7123024244 0.500960051 0.9977433686
0.7024458576 0.7490860583 0.2468521102
0.7023759007 0.5012601077 0.2459767277
0.6924420131 0.7531866153 0.4946534513
0.6924641048 0.5026308653 0.4941757189
0.7124865216 0.5004211207 0.5013058054
0.7123871091 0.7484742292 0.4984872765
0.7024753132 0.7525292245 0.7451711473
0.7223430884 0.5003267428 0.7528636509
0.7322917037 0.7491771818 1.0029533208
0.7424612358 0.5007992832 0.7546567581
0.732472119 0.4982074708 1.0027784284
0.7223799078 0.7497369404 0.2480340145
0.722368862 0.4994272238 0.2527717572
0.7424575538 0.751058231 0.2537143351
0.7423213219 0.4993517215 0.2518061671
0.7323763885 0.4976789545 0.4979322233
0.7324316176 0.7511623721 0.499323078
0.7225308676 0.7496197816 0.748839285
0.7424538719 0.750186049 0.7490012906
0.7524577164 0.5019754271 0.5034551408
0.7524503525 0.7516049719 1.0016738449
0.7624726068 0.5007003491 0.7505707196
0.75248349 0.5010336007 0.9997040043
0.7625315179 0.7508369311 0.2523860735
0.7625094262 0.5007804076 0.2510780625
0.7524503525 0.7500819079 0.5020081364
0.7625315179 0.7498345727 0.753185821
0.7724506777 0.4999199415 0.4993810686
0.7724654055 0.7485197909 1.0032294667
0.7925356876 0.5017124707 0.5036493634
0.792509914 0.7517351483 1.0046470155
0.7825907542 0.5020977929 0.751148785
0.7725059069 0.5006508821 0.9971358477
0.7923920918 0.5005343742 0.999059664
0.7823956111 0.750003802 0.2509657632
0.7824913417 0.4988707196 0.2513173889
0.7724469958 0.7501404873 0.5011981085
0.7925209598 0.7510061604 0.4996001444
0.7824802959 0.7512534956 0.7518768896
0.8123555975 0.5025592683 0.5052335202
0.8123519155 0.74797305 1.0050980537
0.8024511655 0.5016538913 0.7550249526
0.8124366003 0.5000631356 1.0058896719
0.8025873974 0.7514422514 0.2527708367
0.8023002057 0.5021713426 0.2548078728
0.8124844656 0.7486044056 0.5045569628
0.8024290738 0.7503878225 0.7509748131
0.8323890602 0.5008637205 0.5063730822
0.8324442893 0.7490014437 1.007555752
0.8224183531 0.5010004057 0.7556536447
0.8424334061 0.5000253844 0.7601953238
0.8323043754 0.5013779173 1.0065800366
0.8223520781 0.750550543 0.2545473752
0.8224625365 0.5003182813 0.2528094971
0.8424775894 0.7510712486 0.2589472994
0.8423303116 0.5014430055 0.258743872
0.8323927421 0.7464369683 0.5074270389
0.8224514906 0.7492032171 0.7565557212
0.8424149964 0.7515008308 0.7582392905
0.8524667062 0.5001373361 0.508491121
0.8625257799 0.7518132542 0.76516687
0.8624079577 0.5002239034 0.7631758583
0.8524188409 0.7494635699 1.0072519916
0.8524740701 0.4999583435 1.0128025236
0.8623637743 0.7511884074 0.2634779328
0.8624852785 0.503311688 0.2642502207
0.8523599298 0.7496002552 0.5119134889
0.8724780772 0.4981612582 0.5148765341
0.8824266926 0.7511363368 0.7648308926
0.8923753079 0.497201858 0.5174520546
0.8724081202 0.7517872189 1.0142753016
0.8924673565 0.7502901902 1.0217128305
0.8823677814 0.5016219981 0.7698659523
0.8724044383 0.4988668143 1.0143213259
0.8923458524 0.498150844 1.0151681733
0.8825076953 0.749313867 0.2704110352
0.8824487842 0.5014521179 0.2667208058
0.8723749827 0.7504464018 0.5139045006
0.8924894482 0.7498996609 0.5194955341
0.912515547 0.4992710121 0.5228534679
0.9024969747 0.7485783703 0.7729164438
0.922688761 0.7500558726 0.7779772771
0.9126075956 0.7512209515 1.024354626
0.9024527914 0.4995671634 0.771156474