POSCAR file written by Ovito 3.7.11
1
271.585452666 0.0 0.0
0.0 15.3631932201 0.0
0.0 0.0 10.8634181066
Sr Ti O 
800 800 2400 
Direct
0.0225173228 0.500472558 0.8027450483
0.0123882457 0.251054358 0.5524849576
0.0224387103 0.2518204747 0.7989432982
0.002313111 0.2513205787 0.8039776253
0.0125191805 0.2500825548 0.0528895313
0.0225727381 6.9618404966e-04 0.2995820524
0.0023463234 7.4773583246e-04 0.3035826348
0.0024056418 0.5006736881 0.3035927606
0.012483317 0.5004471727 0.5531937585
0.0123101119 -3.8171686344e-04 0.5524021108
0.022476378 0.0025644155 0.7996106757
0.0024830391 -3.4617737681e-04 0.8022056232
0.0225185379 0.2521563424 0.3023942428
0.0023443351 0.2519871068 0.3020085446
0.0324716483 0.5026179453 0.049562954
0.0424961175 0.5031126342 0.2953384525
0.0325254067 0.500597532 0.5506126187
0.0324318818 0.2525286608 0.5503180522
0.0424360996 0.2531509273 0.8020500552
0.0324996321 0.2498234941 0.0487025434
0.0524800838 0.5026068799 0.0461541743
0.0425594493 0.0020485722 0.7994247305
0.0425439846 0.2513889238 0.2990555146
0.0525356832 0.2525937515 0.5453822208
0.0524797156 0.2535297548 0.0458365946
0.0623550604 0.2495253789 0.2925704471
0.062479883 0.5016344258 0.7956459935
0.0725802031 0.501494481 0.0375904792
0.0625465287 0.5010746464 0.2954212993
0.0724837325 0.5030345254 0.5400818632
0.0725271811 0.2516837844 0.5450628001
0.062426861 0.2500565185 0.793456075
0.0724796822 0.252284571 0.041918859
0.0924984275 0.2511578521 0.5306943943
0.1025118504 0.2510966669 0.7835199758
0.0822423554 0.2494869755 0.7881603201
0.09239312 0.2504372987 0.0318230495
0.1023954966 0.0016080388 0.2817644559
0.0923095367 -5.0656070108e-04 0.5329570339
0.1024820256 0.2511851901 0.2815785108
0.0823841155 0.2519382888 0.285794495
0.1024584602 0.5008787236 0.7788603006
0.0825483364 0.4990600912 0.7856666298
0.1024348949 0.5000774579 0.2800578108
0.0825663786 0.5000950323 0.2887199095
0.1224801512 0.2515008797 0.2813170829
0.112508704 0.4993914026 0.0271441354
0.1124737242 0.2498254468 0.5292629848
0.1225066622 0.5004204855 0.2760820823
0.1125219595 0.498290069 0.5273805202
0.1225317004 0.2504685422 0.7781441356
0.1124545774 0.2514357891 0.0303399988
0.122532805 -4.4042861607e-04 0.2783263115
0.1525535587 0.2494199321 0.5217809935
0.13254991 0.2500330859 0.5267619304
0.1423818063 0.250706774 0.7759072706
0.1524394142 0.2497102363 0.0220274217
0.1326452759 0.2517963912 0.0311548436
0.1425338763 0.0021150297 0.2748881671
0.1425231982 0.2516974534 0.2770836087
0.1425556006 0.4977947293 0.7738655559
0.1523499396 0.5010264793 0.020321605
0.1324203007 0.5026368216 0.0245363927
0.1524552471 0.4994551914 0.5223075313
0.1324692724 0.5008676582 0.5239930044
0.1825139264 0.2500649803 0.2612561778
0.1723885681 0.5033938257 0.5126567934
0.1824432304 0.4974028837 0.7624814778
0.1723885681 0.24992113 0.5142336452
0.1624104932 0.2505505564 0.7680036808
0.1723963005 0.2480335016 0.0126658194
0.18242482 0.5014352485 0.2587578849
0.1624042336 9.8652021746e-05 0.767763425
0.1625360522 0.252061961 0.2701935122
0.1825466969 0.2499601844 0.7617782001
0.1823902084 -5.1274431139e-04 0.2598440992
0.1924794822 -0.0012373333 0.0095578658
0.2026711179 0.2489903339 0.2564814375
0.2025908485 0.4992924648 0.7566509004
0.192494947 0.5011781405 0.0051157096
0.202361823 0.4992390905 0.2539269929
0.1925634337 0.4999524838 0.5044402267
0.1926319204 0.2491263734 0.5083957036
0.202701311 0.2495839605 0.7571903255
0.192567484 0.2478232588 0.008074631
0.2025786977 8.1061338572e-04 0.2515575729
0.2126455108 0.2511572012 0.5021840307
0.2226504649 0.2495052008 0.7537650684
0.2126234183 0.2484103764 5.3513472441e-04
0.2226445736 -0.0027593541 0.7488301575
0.22255694 0.2495416516 0.2513550584
0.2325946647 0.2505941672 0.5000079201
0.232634063 0.2494589865 0.9992071543
0.2324753653 -2.027176176e-04 0.5028412824
0.2223927192 0.5002336754 0.7512557293
0.2125011732 0.4985764678 0.004672663
0.2124684026 0.4998489897 0.5028716596
0.242553961 0.4994682095 0.7448590317
0.2625944306 0.2493828305 0.7444521616
0.2625701289 -0.0038601148 0.2408657263
0.2626879555 -0.0018011483 0.7427630064
0.2526023638 0.2502381214 0.493744698
0.2426088241 0.2466112712 0.7471152277
0.2526391846 0.251790533 0.9960865895
0.2627851625 0.2481832101 0.2434477865
0.2426320212 -3.371948692e-04 0.2460924422
0.2625281531 0.4969472492 0.2394941506
0.2526185649 -0.0016303505 0.4939297226
0.2426077194 -0.004048025 0.744445718
0.2525265129 -0.0020679939 0.9941350859
0.2426073512 0.2485164741 0.248521696
0.2724480512 0.249788996 0.4905422069
0.2726115356 0.2495078045 0.9914011397
0.2725301616 0.001875366 0.4895498857
0.2725294252 -0.0023516589 0.9886671936
0.2826198036 0.2481265812 0.7362733362
0.272661612 0.5001054468 0.4881865947
0.2825067637 0.2516278065 0.2384254262
0.3123750793 -9.5308245614e-04 0.4751078382
0.2925787318 0.5011273698 0.4800344644
0.2925610578 0.2502309614 0.4833731926
0.3024975252 0.2518172202 0.7292709361
0.2925433838 0.2499504208 0.9856110652
0.2924296074 -0.0016607478 0.4832627301
0.3026024645 1.224751941e-04 0.7289358666
0.3124575579 0.5007127425 0.4739940083
0.3024986298 0.2479397711 0.2276571764
0.3125245718 0.251207321 0.4791268311
0.312542614 0.2490300392 0.9782929266
0.3224982283 -9.8312239306e-05 0.2241389467
0.3323960338 -0.0014024031 0.4706865778
0.3224875502 -0.0011711361 0.7211685139
0.3324361685 -2.1938082012e-04 0.9704224756
0.3224643531 0.2500630276 0.2241205363
0.3224043352 0.4993972607 0.7236143371
0.3225004375 0.4995293947 0.2236216142
0.3324056072 0.2481806064 0.4721833443
0.3222971866 0.2471072619 0.7283080716
0.332412235 0.2506202034 0.9698793684
0.362435198 0.2487508004 0.2167609742
0.3525241369 0.4991232291 0.4658299112
0.3523720669 0.250671625 0.4651137462
0.3424683701 0.2510016345 0.7215707814
0.3625787992 0.499457795 0.7121115119
0.3526018289 0.250303212 0.9659487455
0.3624167876 0.4998092844 0.2153157569
0.3425758869 -0.0017164654 0.2155026226
0.3424661608 0.2484377144 0.2212356248
0.3624720188 0.2497837888 0.7133486916
0.3425777279 0.4991375491 0.7186140693
0.342503718 0.4991577272 0.2162933498
0.3825504138 0.2478675205 0.2102740657
0.392576724 0.2490886208 0.4553461023
0.3924809899 0.2490775554 0.9557125566
0.3923557991 -0.0021516679 0.9576732655
0.382469408 0.4984970572 0.7097292046
0.392440487 0.5018511777 0.9555468629
0.3726124736 0.2509196203 0.4645292156
0.3823699918 0.2483915001 0.7091695281
0.3726124736 0.2491940676 0.9616407092
0.3926577299 0.4990867784 0.4556010865
0.3723584099 2.8884685677e-04 0.4607486376
0.4124636508 0.4981006553 0.9533099979
0.4025220285 0.2494850228 0.7039161171
0.402499936 -1.8312533651e-04 0.7028740878
0.4024078839 0.2492702237 0.2050519524
0.4125593849 0.2490000975 0.451800257
0.4123900091 0.2494264412 0.9508522079
0.4125078358 9.473037189e-04 0.4523884696
0.4125299283 -0.0021717223 0.9520028587
0.4426898647 0.0031133899 0.6943169285
0.4424394831 0.2505147566 0.1980799295
0.4224200014 0.4974146 0.6998078337
0.4325309996 0.4986285403 0.9479433629
0.4324831325 0.4999140804 0.4492651433
0.4426235873 0.5001594721 0.6945903231
0.4427082752 0.500458889 0.1982585105
0.4325420458 0.2507653555 0.4498119325
0.4225267818 0.2493483324 0.6996476632
0.4325641383 0.2510374344 0.9490019615
0.4225636027 6.979414968e-04 0.1981701405
0.4325089071 5.1458117843e-04 0.9523710669
0.4224825968 0.2504672404 0.2010771445
0.442612541 0.2535173876 0.697067444
0.4725810092 0.2486173646 0.4412888324
0.4625362886 0.2514650799 0.689152808
0.4724889571 0.2526425694 0.9421993144
0.4724779109 0.0010233296 0.9358569276
0.4626172944 0.2509554202 0.189046861
0.4525946662 0.5024760477 0.941287999
0.4526462154 0.4990190841 0.4431768201
0.4624736932 0.503537676 0.6943353389
0.4726141479 0.501348027 0.9381950499
0.4625915198 0.5034465491 0.190008805
0.4524842038 0.2523665852 0.4436757423
0.4525210246 0.251088856 0.9403122472
0.4525688917 0.0013275632 0.4444112382
0.4825778628 0.2509026968 0.6875059966
0.4825189495 -4.5393553174e-05 0.687096365
0.4924495255 0.5029863583 0.940616019
0.4924568897 0.5004764634 0.4409187831
0.4826404582 0.2500903657 0.1889999144
0.4924311151 0.250400848 0.4435459489
0.4924127047 0.2485229832 0.9420980572
0.4824011228 0.4996472088 0.1869683255
0.5024353328 0.2497935524 0.6896066246
0.5124984639 0.2493626524 0.4433425138
0.5124211402 0.2493190416 0.945669677
0.5023874658 -9.0699828666e-04 0.6921417383
0.502442697 0.2499745043 0.1914577044
0.5225137279 0.2520632628 0.1951931769
0.5225100458 0.2515184542 0.6950643912
0.5124321864 0.4990438186 0.4426622491
0.5224437683 0.5013545361 0.6964249206
0.5424853425 0.5016409349 0.6982963389
0.5524932423 0.5010277811 0.9524631189
0.5424411575 0.4990997965 0.1968869348
0.5524306469 0.4999088731 0.4524124032
0.5324185294 -0.0020252424 0.4429540542
0.5325289918 0.2519467506 0.4461657505
0.5324258935 0.2526074205 0.9459458332
0.5325289918 0.5008136329 0.9476856171
0.5525079706 0.0013286047 0.9479157473
0.5424448396 0.2527336963 0.2023456219
0.5524821961 0.2503611427 0.44768553
0.5423969725 0.2508193808 0.7000480896
0.552390144 0.2524323267 0.9491032188
0.5724979957 0.2515015306 0.4517063639
0.5725790015 0.2511799829 0.9548840881
0.5623869976 0.5009366542 0.7024018608
0.5624680034 0.5004152783 0.2016340594
0.572424354 0.501918221 0.9540924404
0.5724611749 0.4999231931 0.4542221466
0.5624643213 0.2515444904 0.1993290759
0.5624201363 0.2508070135 0.6989876499
0.6022970881 0.4999218912 0.7124033169
0.5924953849 0.500027989 0.9584649132
0.5924696103 0.5001926683 0.4606529035
0.5825390342 0.2495631315 0.7030821255
0.6023707297 0.2480634433 0.2119171949
0.592410697 0.2500832057 0.4539671624
0.6024001864 0.2483478894 0.7089835829
0.5923922866 0.2507666574 0.9563661262
0.5823181093 0.5009828686 0.7051348864
0.5824064793 0.5026107854 0.2014379886
0.5824911672 0.250588309 0.2016727213
0.6124559533 0.4979105906 0.9657186154
0.6125295949 0.4967317992 0.4657737595
0.6223791652 0.4991440582 0.7207929415
0.6124485891 -4.7551246825e-04 0.4688133184
0.6223349802 0.4987984269 0.2150000183
0.612400722 0.2474196969 0.4595105374
0.6124338608 0.2482118499 0.9628465912
0.6225117201 -0.0026936972 0.7162869933
0.6225411768 0.2491725877 0.2177496133
0.6226700497 0.2484461762 0.71537936
0.6424428319 0.0010483895 0.2209327735
0.6525427837 0.0016992307 0.4716568065
0.6324643887 0.4987216199 0.4690959183
0.642671121 0.2520541501 0.2207293385
0.6525206912 0.2498339086 0.4755763832
0.6426048435 0.2509424021 0.7203768662
0.632523302 9.3617322034e-04 0.4679728832
0.6525611942 0.2498859811 0.9724015948
0.6423876006 0.5007700222 0.7184391704
0.6525906508 0.5006574154 0.4718142156
0.6324017933 0.2494641937 0.4686503863
0.6324938454 0.2484442235 0.9687563333
0.6823971074 0.5004946888 0.7348805886
0.6624917702 -0.0017916451 0.2301361383
0.6824191999 0.5004243909 0.2325285713
0.6624733598 0.001771221 0.7275541652
0.6723118838 0.5001243231 0.4811068709
0.6625985506 0.2528150596 0.2295819849
0.6626537819 0.2508421625 0.7287766166
0.6723597509 -0.0014670381 0.9824997057
0.6625028165 0.5006912625 0.7261540534
0.6623665794 0.5005291869 0.2269594218
0.6824670669 0.2505785454 0.2394333963
0.6725659475 0.2508831696 0.4830049843
0.6825186161 0.2499582317 0.7382358861
0.6725033521 0.2518614818 0.9820854714
0.7026006932 0.2491940676 0.242461909
0.692574383 0.2508187299 0.4873056565
0.7025638724 0.250053264 0.7387145568
0.6926259321 0.250595469 0.9876730314
0.6924528743 0.5012503911 0.9844604145
0.6925375622 0.5013564888 0.4873958675
0.7326207105 0.5003840347 0.9936287995
0.7325544331 0.5022963976 0.4957459097
0.7125865005 0.2518901217 0.4921052508
0.7124907664 0.2509502129 0.9890722226
0.7224102962 -0.0014663872 0.2421636603
0.7325470689 0.001306604 0.4980223572
0.7325360227 -1.8696568397e-04 0.9955895084
0.7126343676 0.5013389144 0.9919442469
0.7226164928 0.2519818995 0.244788985
0.7324918377 0.2501385327 0.4985350871
0.7225686257 0.2501183546 0.7449943483
0.7324218781 0.249323598 0.9977895526
0.7124023964 0.5014912264 0.4881470123
0.712608593 3.9917548284e-04 0.4901141648
0.7125128589 -0.0012003618 0.9886211676
0.752584961 0.503134765 0.0024030275
0.7424150496 0.0020528031 0.2505726159
0.7424408242 -4.5377219621e-04 0.748850409
0.7425512866 0.2492760818 0.2501657458
0.7425881075 0.2518165693 0.7509077725
0.7625670862 -0.0015527625 0.2514379052
0.7525960073 0.002482206 0.5008299449
0.7626517741 7.5385435213e-04 0.7530295725
0.7525334119 0.0014433594 0.0023063728
0.762600225 0.2519317797 0.2539214698
0.7526770131 0.2496763892 0.5009588178
0.7625670862 0.250157409 0.7531731737
0.7525186835 0.247696983 0.0039315519
0.7827301692 0.0018411934 0.260372478
0.7826233888 3.7498761365e-06 0.7608015278
0.7727296335 -2.4294362994e-04 0.0085951854
0.7826012963 0.2511624084 0.2575197847
0.7725639398 0.2516948498 0.5068446265
0.7825939321 0.2526113259 0.7624851599
0.7726412635 0.2503494264 0.0077673612
0.7926091961 1.3643652634e-05 0.5129863398
0.792561329 -0.0025342772 0.0148741483
0.8127023194 0.501494481 0.0207538815
0.7926423348 0.2503513791 0.5141415931
0.7924803232 0.2487892039 0.0120075552
0.802532408 -5.8024329972e-04 0.2666403027
0.8125439899 -0.0016466232 0.5200697457
0.8026391884 -0.001507915 0.7694949242
0.8127870073 -0.0026526705 0.0212315396
0.8026723271 0.2500662821 0.2658781117
0.812639724 0.249386085 0.5227355733
0.8025581826 0.249615204 0.7648205206
0.8125366257 0.2505108512 0.0209003363
0.8325561074 -0.0029152852 0.5270095504
0.8224598376 -2.55766485e-04 0.771140815
0.832537697 -3.1662622859e-04 0.0240834045
0.8225482076 0.2510576125 0.2717399867
0.8325119224 0.2504828622 0.5268595056
0.8224929764 0.2507998536 0.7742733465
0.8326223849 0.2501313728 0.0267112146
0.8225445255 -5.7900657766e-04 0.2726641894
0.8425235043 -0.0011654732 0.7787829769
0.8425271864 0.2483185986 0.2769022662
0.842508776 0.2488686144 0.7768259501
0.8624546161 -0.0012540616 0.2782802855
0.8425198223 0.4981917822 0.7824650592
0.8524135775 -0.002414966 0.5276925767
0.8623883386 -5.9241524844e-04 0.7779977728
0.8524614446 -0.00263328 0.0316774232
0.8623772923 0.2518868672 0.2827273205
0.842420406 -0.0014624167 0.2752545343
0.8525203579 0.2505219166 0.5329975368
0.8625282577 0.2486974261 0.7796694382
0.8525019475 0.2489454214 0.0311885347
0.8723557355 -4.1823270959e-04 0.5334577971
0.8924783155 -0.0012828316 0.5371021381
0.8722673655 5.9705101278e-04 0.0341087021
0.8825845602 0.2479150366 0.2849273647
0.8923163039 4.2026484853e-04 0.0384236424
0.8725103829 0.2499758061 0.5334016454
0.8925372288 0.2478740295 0.5349140607
0.8824483232 0.2495312371 0.7816761731
0.8725103829 0.2481793046 0.0335713943
0.8924930438 0.249309278 0.0371019589
0.9023499783 -0.0012853701 0.2911979509
0.9123394676 -0.0019199908 0.5415049881
0.9024088916 -0.0018838981 0.7902563455
0.9025377645 0.2495286335 0.287313354
0.9126045776 0.2478336733 0.540495177
0.9025377645 0.2476214779 0.7920596453
0.9025856315 0.4985712606 0.7885644286
0.9125677568 0.2487228114 0.0437397408
0.9224725583 -0.0021615617 0.2962884297
0.9226124774 -7.9517257599e-04 0.7969236761
0.9225130612 0.2481584756 0.2917907661
0.9224725583 0.2482847514 0.790750665
0.9425214966 -0.0017480995 0.3008689402
0.9324730939 -3.7917832868e-04 0.5458719377
0.9425509533 -0.0010959564 0.7989396162
0.932432591 -0.0020448932 0.0454352477
0.9425067683 0.249816985 0.3011423348
0.932476776 0.2491973221 0.5463045824
0.9425693637 0.2488237019 0.7983891448
0.932568828 0.2465956495 0.0470425687
0.9524631189 -0.0014781686 0.5525742481
0.9525883097 3.329783072e-04 0.05336811
0.9624415621 0.2486186664 0.3043779646
0.9526582693 0.2489675522 0.5527325777
0.9725967452 0.2487683749 0.555652469
0.9624452442 0.2478681714 0.8061951594
0.9525478068 0.2481916718 0.0531380719
0.9725709706 0.2479384693 0.05394454
0.9624931112 -3.7911323804e-04 0.3027928282
0.9824757721 0.4985946932 0.8076698334
0.9826193733 0.5001640284 0.3084936122
0.9823321709 -0.0033881817 0.3075150988
0.9925609957 -3.2333056398e-04 0.5555364834
0.98247209 0.2483661147 0.3065264597
0.9923732095 -9.9630263768e-04 0.054066601
0.9925241748 0.2505551128 0.5585557909
0.9826083271 0.2501177037 0.8063498069
0.9924984003 0.249441412 0.0577995881
0.0126100911 0.7510090152 0.0530408649
0.0025010077 0.4994083261 0.804389098
0.0122655219 0.5009900286 0.0531570346
0.0225502406 0.7522587554 0.3006351279
0.0025199704 0.7501433097 0.3019671212
0.0125821809 0.7526948626 0.5497887528
0.022446185 0.7512173052 0.8015308816
0.0224950094 0.5018687521 0.3005808172
0.002575128 0.7497918203 0.802444038
0.0124024217 0.9996031678 0.0534535343
0.0523493698 1.0021156663 0.5449173579
0.0524752971 1.0023630107 0.0415582911
0.0323987431 0.7517315212 0.0502588676
0.0423823412 0.5009431633 0.7992323417
0.0424766025 0.7529226798 0.2955925162
0.0323847512 0.7506445076 0.5483361713
0.0425403025 0.7525126088 0.7987085655
0.0524484179 0.7511652327 0.0448636044
0.0524907618 0.7514516315 0.5466764727
0.0524277982 0.5027572393 0.5469535494
0.0424791799 1.0038015137 0.2993602069
0.0325508131 1.0008073445 0.552167378
0.0325430807 1.0019269034 0.0481086236
0.0724200325 1.0025713007 0.5373451555
0.062446376 1.0027926089 0.7940921548
0.0723585417 1.0024215923 0.0389945492
0.0724104591 0.7506900711 0.0396540102
0.0624773055 0.7508527976 0.2938039447
0.0725997181 0.750683562 0.5442159212
0.0624025593 0.7524345001 0.7909209613
0.0625343778 1.0013085424 0.2962000597
0.0825019422 0.9994339321 0.2857006019
0.1023564666 0.9976895031 0.7803837622
0.0823830109 0.9996617494 0.7848740616
0.0924711801 1.0015558868 0.0341998337
0.0924689709 0.7475527025 0.0319773288
0.0925197836 0.5008403201 0.0333540593
0.1024864441 0.7481905907 0.2799169711
0.0824776404 0.7514841768 0.2874992992
0.0924936408 0.7508332705 0.5349858613
0.1024687701 0.7472858309 0.781672491
0.0824776404 0.7488154608 0.7870280798
0.0925407715 0.5009542287 0.5354396779
0.1124133381 1.0008724352 0.0303607105
0.1124494225 0.748737352 0.0299901089
0.1224068778 0.5024721423 0.7753319452
0.1223144575 0.7481124819 0.2778872232
0.112526378 0.7494858943 0.5283010408
0.1226020281 0.7494728762 0.7767587521
0.1123573704 1.0003256738 0.5304246818
0.122453272 1.0014907962 0.7791502646
0.1524132714 0.9997138219 0.5222329691
0.1324600672 0.9993623324 0.5273473815
0.1425909485 1.0002085107 0.7772291381
0.1524574564 1.0000002207 0.0224155132
0.1323330353 1.0022588657 0.0262318995
0.1523315292 0.7498113475 0.0240941746
0.1326025638 0.7502800001 0.0242107125
0.1424072126 0.7529617342 0.2716994838
0.1524195309 0.7492320408 0.519276257
0.132560588 0.7507616708 0.5235198569
0.1424282005 0.5017288073 0.275372361
0.142467967 0.7509113792 0.774808169
0.1723800993 0.7503385816 0.011331801
0.1623434793 0.4999108258 0.7710404782
0.1724139745 0.5022020162 0.0118082625
0.162464988 0.7542895832 0.2659020452
0.1823817396 1.0005404729 0.761100697
0.1723778901 0.7506705439 0.5097148096
0.1622860388 0.5010421011 0.2679004954
0.1623291192 0.7521741375 0.7674053424
0.1823986772 0.7503450907 0.2604562454
0.1823662749 0.750989488 0.7584459156
0.1624145435 1.0010807252 0.2700545135
0.1724323849 1.0005274548 0.5144361597
0.1723664756 0.9995510953 0.0148292269
0.1924445024 0.9985747357 0.5076703334
0.2026140457 0.9990433883 0.7526954235
0.1924735909 0.7507421436 0.0067380351
0.2024796497 0.7490497871 0.2522626917
0.1924017903 0.7493361859 0.5067369255
0.2026158867 0.7506705439 0.7568929974
0.2326219121 0.7479692825 0.9936011839
0.2325847231 0.4981885276 0.9999803916
0.2326602058 0.7468236873 0.4971193265
0.2325110815 0.4995866745 0.498976937
0.2226651933 1.0000848385 0.248028297
0.2125759194 0.9986723717 0.5062389239
0.212513324 0.9985226632 0.0033669046
0.212537994 0.749355713 0.0021374573
0.2324919346 0.9990629155 1.0029904939
0.2224107614 0.7509374155 0.2483790153
0.2126024304 0.750579417 0.5021610177
0.222440218 0.5004595399 0.2523823593
0.2226121713 0.7501302916 0.7483091429
0.2527249771 0.7487568792 0.9928555623
0.2525997863 0.4985276498 0.9939233661
0.2425992507 0.7506184714 0.2433925553
0.2526340297 0.7491278958 0.4903488976
0.2426717877 0.4996927722 0.2489313277
0.2426143472 0.7482686994 0.7429599978
0.2527798401 0.498456701 0.4914875815
0.2625800705 0.4982132621 0.7394058678
0.2626533439 0.7500456738 0.2390569033
0.2626345653 0.7504427266 0.7398274662
0.2824795163 0.499172698 0.733668263
0.2825678863 0.7514906859 0.2352247761
0.282484303 0.5004146273 0.234213124
0.2825730412 0.7497006934 0.7332411414
0.272638783 0.7490562961 0.9871299242
0.2727242074 0.4999186367 0.9887224248
0.2725968073 0.7502539638 0.4851728103
0.2824570556 1.000748763 0.2364067246
0.2825126551 0.9996877856 0.7340935435
0.3124233146 0.9989327342 0.9766083739
0.2926284399 0.7518942478 0.9822051391
0.3025026801 0.5015992769 0.7289331051
0.2925794682 0.5015114045 0.9806586645
0.3024839015 0.750065201 0.2252104327
0.292609293 0.7502279275 0.4817687252
0.3026282391 0.4991128146 0.2314552443
0.3026440721 0.7525516632 0.7266410088
0.3025446558 0.9997463672 0.2270367455
0.3125617608 0.7510090152 0.9748870004
0.3124019585 0.4996908195 0.974914616
0.3126689094 0.7520699925 0.4763394948
0.2924697421 1.0001304019 0.9845892874
0.3326390512 0.7499024744 0.9700542673
0.3325061281 0.501049261 0.9719781554
0.322575552 0.7490693142 0.2221073578
0.3325064963 0.7474355393 0.4716660117
0.3225424132 0.7486787704 0.725978234
0.3326254275 0.4972180263 0.4737850501
0.3523878999 1.0007682901 0.462956046
0.3424867805 0.9991865877 0.7184179984
0.3624977934 0.7496941843 0.2146695515
0.3525499115 1.0007747992 0.9642641929
0.3624867471 0.749557494 0.7149448743
0.3626266663 0.999316769 0.2127778817
0.3526611104 0.7487698973 0.9658290779
0.3626045738 1.0001629472 0.7119660696
0.3524696421 0.5004881798 0.9634909556
0.342473525 0.7488805514 0.2214096032
0.3524549138 0.7511131602 0.4641996693
0.3425784643 0.750579417 0.7205996322
0.3924625795 0.9979368475 0.4589582251
0.3726382482 0.7507616708 0.9614842207
0.3724246874 0.4993093884 0.9627545391
0.3826314196 0.7514581405 0.2092872676
0.3724946469 0.7504036723 0.4605580898
0.3825246392 0.5006613209 0.2125321027
0.3824988647 0.7475722296 0.7093996582
0.3824988647 1.0003191648 0.2073909952
0.3825283213 0.9984575726 0.710081764
0.3725093753 1.0008724352 0.9616038884
0.3724246874 0.5017867379 0.4652785194
0.3923742095 0.7517445393 0.9579770373
0.3924736257 0.7458863822 0.4567572603
0.4125483387 0.7478781556 0.9482747503
0.4125299283 0.7508202523 0.4500420627
0.4124415583 0.4987873615 0.451197316
0.402499936 1.0004753823 0.2048061734
0.4024631151 0.4990841748 0.7027995256
0.4024741614 0.7503320726 0.2016856086
0.4024667972 0.4984905482 0.2035735963
0.4025330747 0.7511066511 0.7017206755
0.4325678204 0.748529062 0.9477592588
0.4225709668 0.7501302916 0.1996972841
0.4327003753 0.7499610559 0.4460939499
0.4225083714 0.4982041494 0.1979427719
0.4225010073 0.7496421118 0.6980422753
0.442476304 0.7494598581 0.194818525
0.4424873502 0.7521025378 0.6963144581
0.4325604562 0.9993493143 0.4504774689
0.4226998397 1.0003777463 0.6990530069
0.4426199052 1.0012825062 0.1979050305
0.4525504813 1.0013410877 0.9412603834
0.4626283406 1.0025647917 0.1922134518
0.4725478705 1.0001238929 0.4354287984
0.4625031498 1.002291411 0.6905934227
0.4525504813 0.7506249804 0.940975022
0.4524915679 0.7508332705 0.4434907177
0.472569963 0.7507161073 0.9401005275
0.4625583811 0.7498959653 0.1908161015
0.4723748126 0.7481970997 0.4388706248
0.4625289244 0.7522587554 0.6885701184
0.4724742288 0.5004998961 0.4394901352
0.4824674003 1.0019073763 0.1880821554
0.492423751 1.0020961391 0.4423050871
0.4924973926 1.0004949095 0.9419415687
0.482500539 0.5000722506 0.6882985649
0.4924347972 0.7508723248 0.44057727
0.4825299957 0.7522847916 0.1898504754
0.4923537914 0.7483468082 0.938020151
0.4825741807 0.7514190862 0.6886032572
0.5125279205 1.0010677071 0.4411848136
0.5124763714 1.0010677071 0.9432302975
0.5023395987 1.0002866194 0.1908639686
0.5224437683 0.7493817493 0.6938806017
0.5225505487 0.9998570213 0.1911566941
0.5225063637 0.9995966587 0.6925476879
0.5024316508 0.7491734593 0.1926065141
0.5023616912 0.4995333001 0.1917108475
0.5023285525 0.7501042553 0.6918867541
0.502350645 0.5007068843 0.692530198
0.5124837356 0.7490107327 0.9443441274
0.5125242385 0.4997227139 0.9430830142
0.5122959494 0.7512042871 0.4443762585
0.5225689591 0.5013955432 0.1953625527
0.5224437683 0.750579417 0.1937792573
0.5324995352 0.75007171 0.4466784804
0.5325068993 0.5003664603 0.4500466653
0.5324958531 1.001777195 0.9456328562
0.5424080188 0.9980930651 0.1973030101
0.5525484735 1.0005144367 0.4501129427
0.552478514 0.750481781 0.9521869628
0.5425258454 1.0005990545 0.6963365506
0.5424006546 0.7525581723 0.2024763358
0.5524601036 0.7516469034 0.449521048
0.5424264292 0.7515492674 0.6997866618
0.5324774427 0.7493361859 0.9478881316
0.5625821479 1.0017706859 0.2032882349
0.5624643213 1.0007422539 0.7008636709
0.5625195525 0.7516403943 0.2024984283
0.5623833155 0.7496225846 0.701207025
0.572424354 1.0008008355 0.4510288607
0.5723875332 1.0000978566 0.9513769047
0.5723654407 0.7530203158 0.9516438556
0.5725053598 0.7518421753 0.4506210701
0.6025695622 0.9994990228 0.2103072044
0.5922928704 0.751705485 0.9580414737
0.5924843386 1.0023044291 0.4573215395
0.6024664639 1.0003842554 0.7122367027
0.5925506161 0.9990433883 0.9595419223
0.6024222789 0.7490888414 0.2144955731
0.6023596835 0.4992872575 0.211050985
0.5922376391 0.751607849 0.4543372117
0.6022970881 0.7511847599 0.7154935045
0.5823549301 0.9999481481 0.2027110685
0.5824359359 1.0012174155 0.7032119189
0.5824617105 0.7513670137 0.2055398283
0.5823549301 0.7513930499 0.70784674
0.6122976237 0.7489196058 0.9659211299
0.6121871613 0.7479237191 0.4641812589
0.6124669995 1.0003842554 0.9652491499
0.6225890439 0.9997724034 0.2158735924
0.6223018415 0.7478586284 0.2189048667
0.6222097894 0.7470449955 0.7199368574
0.6424722885 0.9991996058 0.7218469376
0.6526090612 1.0009961074 0.9740401215
0.63251962 1.0000718204 0.9684893823
0.6323797008 0.7482361541 0.9693270561
0.6324386141 0.4979112415 0.9673295264
0.632475435 0.7473183762 0.4676424163
0.6522997663 0.749147423 0.973257679
0.6523586796 0.4999062695 0.9734878091
0.6425569764 0.7489196058 0.2211049109
0.6424170573 0.4999192876 0.2192077179
0.6523549975 0.7494598581 0.4746641473
0.642313959 0.7474745937 0.7193799424
0.6723008376 0.7492710952 0.9804285343
0.6723744792 0.5008774218 0.9806862801
0.6823897432 0.9997854216 0.2356537387
0.6724260284 0.9986072811 0.4836631565
0.6823934253 1.0002475651 0.7354218547
0.6823639686 0.7497267297 0.235217412
0.6723965717 0.7498829472 0.4822170187
0.6823161016 0.7482752085 0.7348686218
0.6623518511 0.7497137115 0.2298563001
0.6624512673 0.7487243339 0.7300322067
0.7025049591 0.9991735696 0.2376798045
0.7024975949 0.4994844822 0.7387716291
0.6923240014 0.7484444442 0.9853072935
0.6924086893 0.9997984397 0.4868030523
0.7023908145 0.9996487312 0.7345547243
0.6922724522 0.9982688098 0.9857583485
0.7024718203 0.7503646179 0.2348611705
0.7024939128 0.500048818 0.2394831044
0.6922834985 0.7503125454 0.4864698238
0.7024975949 0.7505663988 0.7356786799
0.7225575795 0.5010375447 0.7435785876
0.7324992018 0.7507421436 0.9977343214
0.7226349032 0.7497918203 0.2420099334
0.7225686257 0.4998795823 0.2443894791
0.7325028839 0.7491344049 0.4969122093
0.7225097124 0.7501953822 0.7386409152
0.7224618454 1.0018618128 0.7429379053
0.7123729397 0.7490562961 0.9896981766
0.7124797201 0.7501302916 0.4891328899
0.7425954716 0.4986649911 0.7487905752
0.7425439225 0.7529877705 0.2481599314
0.7425954716 0.4999244949 0.2497202138
0.7425181479 0.7511457055 0.7505911134
0.7525039552 0.5025958145 0.5034543491
0.7527285622 0.7507226164 0.0049706356
0.762600225 0.4995437146 0.7548043361
0.7625229013 0.7503385816 0.2536002081
0.7626591383 0.4983844504 0.2535808771
0.7527027876 0.7510610877 0.5021140712
0.7626223175 0.7510155242 0.7525610275
0.7826381171 0.7498764381 0.2628136986
0.7827043946 0.5006085974 0.2621030567
0.7725970785 0.7531244608 0.5065795165
0.7826859842 0.7502214185 0.761931927
0.7725234369 1.0007292358 0.5046418207
0.7726559919 0.5027468248 0.5077513392
0.7726228531 0.7508788339 0.0074556729
0.7826823021 0.4999257967 0.7595302888
0.7725897144 0.5008793745 0.0097323044
0.7926975661 0.7502865091 0.5149580949
0.8127060015 0.4995775618 0.522296485
0.8126323599 0.7497462569 0.0195479075
0.8027201942 0.4992918139 0.7698520862
0.8026318242 0.7485420801 0.2683929739
0.802620778 0.4991954798 0.270858128
0.7926681094 0.4986610856 0.5156494059
0.7926239244 0.7491018596 0.0136863086
0.8126102674 0.7505598898 0.5191842049
0.7927343869 0.4980772226 0.0148820648
0.8027459688 0.7482882266 0.7680708788
0.8325266508 0.5000247344 0.5269405114
0.832493512 0.7507746889 0.0258615741
0.8226255314 0.5014821138 0.7752408137
0.8326187028 0.5005864666 0.0256720389
0.8226770805 0.7496225846 0.272175393
0.8226071209 0.5005265832 0.2772456204
0.8324272345 0.7505663988 0.5231203509
0.8226439418 0.7504036723 0.7738029605
0.8624325236 0.7485811345 0.7809572465
0.8626792231 0.5005135651 0.7812361643
0.8524209417 0.7484509532 0.0313408808
0.8525387683 0.4999316548 0.0325587296
0.8624546161 0.7465633248 0.2816613576
0.8625724427 0.4982790036 0.2804573167
0.8524025313 0.7506965801 0.5308554854
0.8425603252 0.7502214185 0.281076827
0.8424277702 0.498909081 0.2795708554
0.8425897818 0.7507291254 0.7817534968
0.8524393521 0.4998613569 0.5310303843
0.8724993367 0.5003046242 0.5355031939
0.8823231324 0.7458603459 0.7874137779
0.8925777317 0.4978285764 0.5381588957
0.8723851921 0.7494924034 0.0299771296
0.8923788993 0.7485420801 0.0328979414
0.8825366932 0.5003417258 0.7841358041
0.8725840246 0.5003293586 0.0333638169
0.8926071884 0.5002505989 0.0408449797
0.882396774 0.7481840816 0.2871734349
0.8826213811 0.4989696153 0.2815849544
0.8723925563 0.7509113792 0.5298060919
0.8923825813 0.7480539003 0.5356256231
0.8823084041 0.9991410243 0.2837435752
0.8825072365 0.9987374623 0.7831342777
0.9124720226 0.7478000469 0.5432033486
0.912442566 0.998086556 0.0419562322
0.9125677568 0.4995684491 0.5387894523
0.9023867991 0.7491344049 0.7897666285
0.9125898492 0.747604775 0.0428735309
0.9125383001 0.4976001083 0.0409807565
0.9025009436 0.7497788022 0.2911767789