POSCAR file written by Ovito 3.7.11
1
271.5896989791 0.0 0.0
0.0 15.3634334279 0.0
0.0 0.0 10.8635879591
Sr Ti O 
800 800 2400 
Direct
0.0124639501 0.2488816534 0.5462200924
0.0224070371 0.2509306746 0.7925503113
0.0024531507 0.2496770486 0.7944833743
0.0124340153 0.2506690143 1.0461543701
0.0222572892 0.0018509999 0.2922929359
0.0025086756 1.0004545394 0.3011316363
0.0123876586 0.0014527816 0.550623794
0.0223983475 0.0013865855 0.7951535028
0.0024273029 8.3384446593e-04 0.797192424
0.0123704635 1.0004935932 1.0454731955
0.0223792746 0.2495156263 0.2926731049
0.0025650843 0.2502407246 0.2964287702
0.0323316771 0.2525572641 0.5436555621
0.0423747679 0.2518920482 0.7874645146
0.0324134181 0.2495663962 1.0412940974
0.0423898642 1.0032729198 0.2893049728
0.0324454517 6.219777621e-04 0.542075053
0.0423176965 1.002908418 0.7919676308
0.0323298361 0.0018674676 1.040787819
0.0424594545 0.2508545197 0.2937482561
0.0724499145 0.249555331 0.5404429955
0.0523037159 0.2511142273 0.5381141148
0.062385468 0.2512242288 0.7907267885
0.0724491781 0.24900988 1.0395267255
0.052436637 0.2508493126 1.0408614595
0.0624458532 1.0014829554 0.2869880587
0.0722772275 1.0007539517 0.5405773894
0.0525268466 4.5398146022e-04 0.537101558
0.0625077112 1.000695371 0.7878676963
0.0724572785 0.0018674025 1.040345976
0.052434796 1.0007604606 1.0410731759
0.062476414 0.2506312623 0.2906654809
0.0924271081 0.2493444406 0.5351105031
0.1024900818 0.2515197356 0.780549672
0.0823773897 0.248464429 0.7879560649
0.0924064887 0.2475121679 1.0358078805
0.1025471532 0.9984497792 0.2818277009
0.0825408716 1.0010793997 0.2885483167
0.092495962 -5.7026875532e-04 0.5341688253
0.1024532615 -2.7834182238e-04 0.7815401367
0.082550813 1.0025959878 0.7859318717
0.0925000122 1.0004480305 1.0350346553
0.102515856 0.2487456161 0.2806779887
0.0824226786 0.2516564238 0.2900975286
0.1124871473 0.2478148346 0.5291244513
0.1225644809 0.2488699373 0.7761689831
0.112472051 0.2508818574 1.0301191522
0.122462857 -0.0026176236 0.2737281669
0.1124606367 1.0018214214 0.5257075324
0.1224363464 1.0002462526 0.7746087251
0.1125118168 6.0017274035e-04 1.0304873547
0.1224845809 0.2473123428 0.2750021475
0.1525796104 0.2502953999 0.5158157728
0.1324687593 0.2508720939 0.5217990631
0.1424591971 0.24946746 0.7692504585
0.1524717271 0.2478519357 1.0155015139
0.1325302491 0.2494531403 1.0182538274
0.1424415234 -0.0033927433 0.2694781899
0.1525030243 0.9981829118 0.5188009744
0.1324389349 -0.0018172556 0.5223035005
0.1424275317 -0.001416564 0.7684984049
0.1524706225 0.998651557 1.0170387592
0.1325295127 1.3901280281e-04 1.0231141001
0.1424094898 0.2481461408 0.2687960948
0.172367548 0.2503865254 0.5130653003
0.1624507506 0.2478721135 0.7631640715
0.1724905276 0.2475388546 1.0102454235
0.1624540645 4.4962045587e-04 0.2667240353
0.1723616567 -2.8869107151e-04 0.5142730044
0.1624883073 0.9993219801 0.7688509588
0.1724533391 3.6272581697e-04 1.0140102938
0.1623866834 0.2496796521 0.2640711365
0.1924504157 0.2498228493 0.5047080246
0.2025299585 0.2497792393 0.74844978
0.1824515092 0.2491908291 0.7615458217
0.1925277382 0.2498977024 1.0033784473
0.2026731893 -0.0018927921 0.2550363682
0.1826352422 -6.1179593107e-04 0.2603909527
0.1925675041 5.5428456026e-04 0.5079564909
0.2024765691 0.9983781806 0.7528921429
0.1824496682 1.0031036868 0.7571062203
0.1926157386 0.0010694038 1.0064069127
0.2025303267 0.247335775 0.2541259876
0.1826216187 0.2486896391 0.2615958953
0.2125428567 0.2464889591 0.5021103561
0.2225528092 0.2509007334 0.748436893
0.2126032419 0.2485314713 1.006011095
0.2225590687 0.9987557004 0.2531493305
0.2125196599 0.9980527325 0.5024767175
0.2225443406 0.9988988976 0.7505061909
0.2126286478 0.9999273135 1.0017675615
0.2226617972 0.2477640647 0.2479052067
0.2526224327 0.2484475057 0.4984449004
0.2325421424 0.2490001165 0.5007194712
0.2425045969 0.2495839704 0.7501987418
0.252490248 0.2500181181 0.9964470357
0.2325881677 0.2479150726 1.0013809489
0.2424681448 1.0004285036 0.2495934151
0.2525705162 -0.0016343538 0.4990607191
0.2323550956 2.5819189182e-04 0.5010250793
0.2425546724 1.000356905 0.7519504651
0.2525841397 -0.0027829773 0.9992545796
0.2324784434 6.1156342335e-04 1.0028997841
0.2426080618 0.2505935104 0.2473068777
0.2726773171 0.2498651575 0.4916395981
0.2626360673 0.2517918102 0.7452721927
0.2725381365 0.2498898916 0.9946796638
0.2625473305 0.9984107254 0.2453756557
0.2725521282 -0.0017128519 0.495858278
0.2625977743 1.0011640162 0.7469659241
0.2725285633 -0.0029191968 0.9962445243
0.2624482841 0.2493424879 0.246240011
0.2924431625 0.2487352018 0.484861911
0.3024899353 0.2510504395 0.7270967979
0.2824958043 0.2493763345 0.7413655644
0.2926519333 0.2478018167 0.9806235342
0.3025267555 1.7982399277e-04 0.2304652964
0.2826386669 0.9986906108 0.2396445841
0.2923610533 -0.0017719533 0.4864829224
0.3025300693 -0.0010591569 0.7275128667
0.2824943315 0.9999338225 0.7405895777
0.2925720333 -7.568806877e-04 0.9862846473
0.3025017177 0.2512645843 0.2296773431
0.2825815955 0.2494407732 0.2400192301
0.332534521 0.2490554427 0.4676475247
0.3125724237 0.2483342498 0.4711620174
0.3224686017 0.2490437266 0.7192439595
0.3325220021 0.2500031475 0.9694117688
0.3124428164 0.2495976392 0.9709858343
0.3225974726 8.3482081019e-04 0.2214323691
0.3324376838 -0.0012714792 0.4703335618
0.3125985661 -8.9636773727e-04 0.4708527273
0.3226405522 -0.001264775 0.7200282308
0.3325547722 -0.0011381757 0.9681690854
0.3124185151 1.0012616507 0.9747691148
0.3225934223 0.250163268 0.2204271763
0.3525176059 0.2504835089 0.4653434977
0.3425039713 0.2512561227 0.7212764372
0.3525190787 0.2479697479 0.9685004676
0.3424664146 -0.001507364 0.2212998162
0.3524089861 3.692998683e-04 0.4713838593
0.3425209086 0.999165765 0.719541283
0.3524439654 -0.0027039585 0.9717866747
0.3424955026 0.2512769513 0.2202117779
0.3724450921 0.2494837324 0.4630008094
0.3824565175 0.2528404039 0.7143919714
0.3625183534 0.2505817942 0.7210868129
0.3724708663 0.2510790789 0.9594795069
0.3825448861 0.9987231556 0.2118719918
0.3624226207 0.999003041 0.2193253304
0.3724487742 -0.0020972061 0.4680930497
0.3826111625 7.5163627947e-04 0.7145033526
0.362459441 0.9986255212 0.7192108213
0.3726144653 1.3907789243e-04 0.9694393839
0.3824675636 0.2478747171 0.2152207933
0.3624042106 0.25079659 0.2224973947
0.3925820856 0.2517091464 0.4603801283
0.4026413773 0.2486421236 0.7076529455
0.392482671 0.2491882255 0.958743102
0.4025088244 1.0034942245 0.2091960803
0.3925379013 0.9998817508 0.4644938705
0.4026413773 -1.952874709e-04 0.7074679238
0.3925268553 0.9989054065 0.9635297342
0.4025345986 0.2499387088 0.2092780053
0.4326830175 0.249524088 0.4535996797
0.4125828442 0.2451201245 0.4540571713
0.4228336012 0.2496607762 0.7000422003
0.4327051096 0.2481285666 0.9503296754
0.4125902083 0.2479996891 0.9539104445
0.4226421359 0.9986710839 0.2050473588
0.4326719714 0.9989444603 0.4513094603
0.4126233465 -5.5477742644e-04 0.4563335831
0.4226089977 1.0005131201 0.7020663935
0.4326719714 0.9975450335 0.9533305256
0.4126564847 -0.0010907253 0.9557606619
0.4226163617 0.2478988002 0.2012953756
0.4526101355 0.2487000534 0.4463783086
0.4426208023 0.2474008646 0.6986025287
0.4526948221 0.2495078156 0.9492158629
0.4426318484 1.0010793997 0.2010624875
0.4526101355 -0.0017727343 0.4469168047
0.4428564519 -4.3498483691e-05 0.7012940888
0.4526174996 0.9994456504 0.9446869724
0.4427018069 0.2495872249 0.1989333567
0.4726477143 0.2502368193 0.4469793991
0.4826665038 0.2501437411 0.696355573
0.4626952014 0.2500929712 0.6988713165
0.4725077974 0.2485588089 0.9501179589
0.4826112734 5.8546248687e-04 0.1945388601
0.4626473351 1.9850471289e-04 0.1965105844
0.4726918986 1.001040346 0.4430138585
0.4825302688 0.9989054065 0.6959597554
0.4627541138 -0.0018225279 0.6949269474
0.4725851199 -8.8816644551e-04 0.9476694125
0.4826628217 0.2498410744 0.1971586208
0.4626694272 0.2487573323 0.1950902433
0.5123141672 9.498341637e-04 0.4453399776
0.5123730796 -7.4588054241e-04 0.9464359342
0.4926374268 0.2504197211 0.4490827558
0.5024168846 0.2483674455 0.6967642778
0.4925821965 0.2518894446 0.9471631341
0.5123620336 0.2501743332 0.4481199063
0.51242831 0.2477217565 0.9482953567
0.5025531196 1.2404219086e-04 0.1952356833
0.4926411089 -4.9522042674e-04 0.4459024069
0.502468433 -2.4143600946e-04 0.6954617615
0.4924496436 -0.0017899831 0.9450551749
0.5024905251 0.2486434254 0.1967756902
0.5222666802 0.9985539226 0.1996587156
0.5323812023 -0.003969548 0.4480389018
0.5223329566 0.999849206 0.6967044449
0.5323812023 1.0001160734 0.9477246428
0.5223292746 0.2502804293 0.1970822187
0.5323885663 0.248934376 0.4551728248
0.5224250073 0.2521107493 0.6994549174
0.5323186078 0.2486642541 0.9496945261
0.5423373972 -4.5818443458e-04 0.1993319359
0.5622792434 6.5721893894e-05 0.2063121343
0.5523819608 -6.7486777009e-04 0.452972815
0.542307941 1.0009101667 0.7020130041
0.5623970682 1.001209579 0.7065722713
0.5523193664 -0.0041790454 0.9512317714
0.5422784848 0.2523314031 0.2017243315
0.5622718794 0.2491569825 0.2085480439
0.5523598687 0.2507881283 0.4530777527
0.5423447613 0.2495162772 0.6995644576
0.5622608333 0.2478167873 0.7074771289
0.5522972743 0.2492435517 0.9542050064
0.5824677853 8.2967873044e-04 0.2148912521
0.5722980328 -5.2906702766e-04 0.4575394462
0.5823978268 1.0001030555 0.7124138036
0.5723458992 -0.0012122476 0.9606025245
0.5821658592 0.2500636809 0.2104755839
0.5722612126 0.2513016854 0.4585566055
0.5823462784 0.248476796 0.7135984951
0.5722207103 0.2508506144 0.9592125601
0.6023838573 1.002062253 0.2201648321
0.5924608005 0.9988533348 0.4680037606
0.6125131074 -0.0036251588 0.4667389851
0.6025053641 4.9850275835e-04 0.718721112
0.5924276623 -0.0021544459 0.9666318401
0.6123474163 -0.00114859 0.9673958602
0.6023544011 0.2488439015 0.2151609604
0.5923577038 0.2480641278 0.4672047612
0.6124247388 0.2477966095 0.4707689612
0.6023138988 0.2493652693 0.7199518288
0.5923466577 0.2489194054 0.9654720022
0.6125167894 0.2479638898 0.9694025637
0.6224582563 -0.0014562686 0.2219855933
0.6324034052 -0.001458026 0.4713010138
0.622406708 -0.0026739391 0.722960043
0.6325727784 0.9977403024 0.9719155456
0.6224251181 0.2497148005 0.2196889304
0.6325322761 0.248345315 0.4752251317
0.6224324822 0.2494466313 0.718795673
0.6325470042 0.2486909409 0.9716117786
0.6425657936 0.9980852774 0.2245648517
0.6625150038 -2.9220591084e-04 0.2267556564
0.6524962144 -9.8365291387e-04 0.4747391044
0.6425179273 0.9995823385 0.7243785431
0.6624818656 1.0001290913 0.7265997245
0.652437302 0.9991918008 0.9776779144
0.6424626969 0.2494212464 0.2265991703
0.6623971791 0.2514051779 0.2246918815
0.6526103572 0.2504281827 0.472812485
0.642481107 0.2505661727 0.7227510881
0.6625150038 0.2506078301 0.7274162135
0.6524888504 0.2485262641 0.9755239299
0.6824752601 1.0005717007 0.2344648958
0.6724527887 0.9996604461 0.4737486398
0.6823206151 6.7652286127e-04 0.7314738048
0.6724233325 -8.031594055e-04 0.9766377424
0.6824237118 0.2516264826 0.2326459755
0.6724601528 0.2496484091 0.4766417907
0.6823647994 0.2522077329 0.7301510374
0.6724785629 0.2513303248 0.9804118178
0.7022550972 -1.3605591929e-04 0.2384470056
0.6922804921 0.9999598583 0.4861837579
0.7125537205 0.9989249334 0.4934925771
0.7023434658 1.0010468549 0.7393220406
0.6922547179 1.0010924177 0.9858704195
0.7125169003 5.271421899e-04 0.9931424184
0.7023103276 0.2507659978 0.2388520283
0.6923246764 0.2495221353 0.4867102875
0.7123659373 0.2509046387 0.4973614646
0.7024060602 0.2477881479 0.7411639735
0.6923983169 0.2508096079 0.9868185409
0.7122702046 0.2512886675 0.9954712991
0.7223515884 0.0013615911 0.2423195751
0.742650591 1.0030581241 0.246829135
0.7325176588 -6.8297627827e-05 0.4958794497
0.7225467358 1.0038131637 0.7456956255
0.7425106741 0.0012603767 0.7458097683
0.732543433 1.0009687474 0.9950202511
0.7224473211 0.2503370573 0.2449154026
0.7424591257 0.2490463302 0.246318254
0.7324550644 0.2494537912 0.4955379419
0.722432593 0.2506716179 0.7459478442
0.7425585404 0.2504971777 0.7489118742
0.7324697925 0.2487918298 0.9970545697
0.7625887552 0.002841729 0.2511941753
0.7524815972 4.9759150371e-04 0.4999950329
0.7626955339 0.0041310241 0.7491180675
0.7525000073 1.0030385972 1.0001198554
0.7626255754 0.2520371981 0.2527038055
0.7525626017 0.2504027978 0.498835195
0.7625887552 0.25020102 0.7502346416
0.7525920579 0.251404527 0.9958118864
0.7824311867 0.0017872121 0.2584450026
0.7724860378 1.0039368339 0.5031578921
0.7923579255 1.0015675719 0.5076435188
0.7824864171 0.0024446172 0.7568042943
0.7724602636 1.0026871133 1.0025684018
0.7924278839 8.6111701552e-04 1.0091776363
0.7825306014 0.2494127847 0.2580068417
0.7726885491 0.2514956525 0.5023303571
0.7925346627 0.2494941467 0.5148354337
0.7825637396 0.2506136881 0.7576309088
0.7726480469 0.2528059065 1.0038110852
0.7924683862 0.2493457424 1.010760907
0.8024208992 0.9999142956 0.2654657034
0.8125206931 -0.0021408682 0.5180314312
0.8023693508 2.5171062407e-05 0.7621745274
0.8124765088 0.9996604461 1.0198831233
0.8024061711 0.2477158984 0.2637314697
0.8124323245 0.2490801768 0.5211593113
0.8025166318 0.2491745567 0.7675723757
0.8125796055 0.2521823479 1.0204814524
0.8224768881 1.00120307 0.2698362668
0.8425660153 1.0009036578 0.2762411489
0.8326024563 0.0011369017 0.5230693616
0.8223590633 -0.0012784438 0.7736311475
0.8425476052 0.0018438401 0.7770572715
0.8326061383 0.0010183735 1.0279467576
0.8224216578 0.2512509155 0.2708175264
0.8425107849 0.2522044784 0.272850004
0.8325545899 0.250890319 0.526992559
0.8225284365 0.2500337397 0.7693646013
0.8425144669 0.2525488025 0.7743620294
0.8325545899 0.2512034001 1.0229944343
0.8624489491 0.0034902168 0.2769453361
0.8525553485 0.9998231701 0.527436243
0.8624636772 1.0027587119 0.7771511632
0.852478026 0.0013260522 1.0270446615
0.8623753086 0.2545164616 0.2763562121
0.8525553485 0.2531424198 0.5264448578
0.8623053501 0.2509293728 0.7765528341
0.8525406204 0.2503025598 1.027256378
0.8825896246 1.0024267548 0.2848432792
0.8725008767 -5.0088322344e-04 0.5310252966
0.8925089993 -0.0022205379 0.5357990418
0.882504938 1.0011444894 0.7846928704
0.8724088261 2.9815691675e-04 1.0317668583
0.8823429289 0.2511682517 0.2810056889
0.892615778 -0.0010023336 1.0333961543
0.8723609598 0.2503142759 0.530111234
0.8925936859 0.2499549812 0.53397736
0.8824902099 0.2499797153 0.7843937059
0.8724272362 0.2514188467 1.0299258459
0.8925495016 0.2512359449 1.0368388474
0.9024762404 -4.3097697461e-04 0.2893114163
0.9225874597 -3.1765595115e-04 0.2867137478
0.912671767 -2.070686916e-04 0.5385458322
0.9025756551 1.0003959588 0.7871506219
0.9226537361 0.9993154711 0.7864528782
0.912679131 0.9997190267 1.0370321537
0.902568291 0.2498710156 0.2871261346
0.9226463721 0.2505668236 0.2915132671
0.9125613062 0.2517097973 0.5393264215
0.9026382495 0.2502960508 0.7885350633
0.9226611002 0.2489155 0.7903815987
0.9125981265 0.2505355806 1.0382932472
0.9427760015 0.9987557004 0.2921373703
0.9327203919 1.0005782097 0.5387759588
0.9427207712 1.000018439 0.7922023599
0.932742484 0.9983716717 1.0369308981
0.9426508127 0.2526177975 0.2906166941
0.9327461661 0.2514494388 0.5404006522
0.9426139924 0.2510842861 0.7922603518
0.9326430694 0.2517566618 1.0405761026
0.9626773454 0.0010839188 0.2945656656
0.9526769662 0.9997776074 0.537021474
0.9725598999 1.000695371 0.5481172556
0.9626847095 0.9999533494 0.7941639586
0.9527248325 1.0000444748 1.0423618846
0.9625227004 0.2523945401 0.2964481008
0.9725451718 -4.1099446215e-04 1.0455928613
0.9525370492 0.2492995288 0.543631629
0.9725046696 0.2495104191 0.5446349807
0.9626257971 0.2493509496 0.7934929096
0.952511275 0.2511617427 1.043466492
0.972423665 0.2496145625 1.0454824006
0.9824940028 -3.1257896101e-04 0.2961931206
0.992630617 1.0001290913 0.5484265457
0.982527141 1.0008060233 0.7968205395
0.9824387724 0.2487989896 0.2966128714
0.992479654 8.4347772927e-04 1.0490815798
0.9924207416 0.24992504 0.5482157498
0.9824682286 0.2497473453 0.7986864056
0.9924096955 0.2511552338 1.0508121314
0.0123161905 0.7487594988 1.0443225628
0.0224546457 0.5012809637 0.7912054517
0.0024131639 0.4983141789 0.7998048206
0.012441232 0.4994213533 1.0451418133
0.022414033 0.7502825959 0.2940980485
0.0026781961 0.7494754846 0.2949485962
0.0124739652 0.7513826104 0.5475667929
0.0224311912 0.7506731336 0.7920504764
0.0225226159 0.4996608831 0.2917387911
0.002498366 0.4997188129 0.2977828348
0.0026048133 0.750438811 0.7984010486
0.0125643221 0.501040783 0.5467484629
0.0324075269 0.7520920872 1.0395635458
0.0424156384 0.4999739642 0.7910231915
0.0323508237 0.5001913635 1.0389560117
0.0424653457 0.7491435276 0.2930201357
0.0324001628 0.7517210764 0.5389747881
0.0424944337 0.751629951 0.7881125509
0.0424252117 0.5009730898 0.2909701685
0.0323044302 0.4992625346 0.541254882
0.0725353374 0.750601535 1.0372991005
0.0625183891 0.5004497693 0.7895513021
0.052462043 0.7514151552 1.0385233738
0.072438132 0.4999492301 1.0406313329
0.0523810384 0.5034256666 1.0408798696
0.0624550582 0.7510831982 0.2911874079
0.0725485927 0.7500092195 0.5393973005
0.0525172734 0.751792675 0.5377228997
0.0624211836 0.5000058581 0.2885851369
0.0724366592 0.5002909506 0.5435386578
0.0624502716 0.7520074707 0.7885948962
0.0524046034 0.5004536746 0.5366320999
0.0924031749 0.748219255 1.0357158299
0.1023726252 0.501272502 0.784119395
0.0825007375 0.4985908098 0.7854246728
0.0925025896 0.4994929519 1.0366179259
0.1024797721 0.7509595279 0.281693307
0.0824112643 0.7512198864 0.2880365152
0.0924285809 0.751955399 0.5349558581
0.1025095965 0.751629951 0.7812869975
0.1026314715 0.4992137174 0.2821590832
0.0824064777 0.4997162093 0.2873268049
0.0824764361 0.7485772479 0.7853307812
0.0925228407 0.4988140672 0.535539459
0.112506662 0.7498855492 1.0298706155
0.122521033 0.499636149 0.7776427135
0.1126079177 0.4987053675 1.028904084
0.12240284 0.7493713412 0.2767557118
0.1123093055 0.7507577501 0.5270302998
0.122466539 0.4995515325 0.277892537
0.1225037275 0.7499115851 0.7777642203
0.1125151306 0.4985087969 0.5268802572
0.1524743045 0.7511873416 1.0169651187
0.1425273146 0.4988036528 0.7693121324
0.1324429851 0.750438811 1.022948409
0.1522854166 0.499554787 1.0193124095
0.1323778133 0.4984723467 1.0242555278
0.1423686193 0.7476725022 0.2696181068
0.1524485303 0.750093836 0.5159032209
0.1323351018 0.7526648759 0.5238112896
0.1424083852 0.4994154952 0.2708230494
0.1423612553 0.7486553555 0.7714348197
0.1524220198 0.5015250497 0.5177120156
0.1324691275 0.5000494681 0.5248717127
0.1723715982 0.7505234275 1.011055469
0.1623281392 0.500695808 0.768356647
0.1724960506 0.5016090153 1.0154646936
0.1624172442 0.7495340653 0.2647421855
0.1725420759 0.7495535922 0.5124356741
0.1624470686 0.501479487 0.2698178566
0.1623395535 0.7484600866 0.7677261002
0.172407682 0.5005591198 0.5163837251
0.1925133783 0.7502825959 1.0071525227
0.2025413728 0.4984092098 0.7540786754
0.1824121115 0.5017535143 0.7596946837
0.1926363579 0.5015439257 1.0096931198
0.2024865106 0.749234653 0.2563085077
0.1826477611 0.7510311265 0.2648020184
0.1925907008 0.7505754992 0.5077079542
0.2026098584 0.4987593919 0.2570062514
0.2024784102 0.7497163162 0.7560807764
0.1825255179 0.5002968087 0.257691108
0.1825376686 0.752808073 0.7604292476
0.1925196377 0.4993237189 0.5078101304
0.2126231248 0.7499701657 1.0072813936
0.2226437552 0.498225657 0.753501518
0.2125373336 0.4972786031 1.0038663156
0.222374231 0.7484210328 0.2551367034
0.2124846807 0.748909205 0.5069853569
0.2224898466 0.4973397873 0.2535534327
0.2224371936 0.7500027105 0.7551740778
0.2124968314 0.4980076068 0.5024656715
0.2523252933 0.7488376064 1.0026972727
0.2426533507 0.498251042 0.74970443
0.2325796991 0.7470606598 1.0031207056
0.2525480558 0.4991948414 0.9980671266
0.2326783773 0.4966596008 1.0017951766
0.2425638775 0.750425793 0.2533877416
0.2526062318 0.7485056493 0.4995393823
0.2323499407 0.7469044448 0.4999738612
0.2425093835 0.4976645845 0.2476069627
0.2423436924 0.7489547677 0.7510529716
0.2525878217 0.4982940011 0.4975860681
0.2324883849 0.4979080197 0.5012367957
0.2724111067 0.7477571187 0.9974872077
0.2625134559 0.4997656774 0.7458705217
0.2725576513 0.4997917132 0.9934922108
0.2625373891 0.7496186818 0.2486600218
0.2725594923 0.747880789 0.4979432245
0.2624906273 0.4993172099 0.2463237771
0.2624795813 0.7510376354 0.7487130448
0.2726003628 0.4994467383 0.4942087309
0.2925064933 0.7484340508 0.9862018017
0.3024509058 0.4976027494 0.726446
0.2823212764 0.5000117161 0.7368578456
0.2924648864 0.4995313548 0.9858704195
0.3023868386 0.7508879293 0.232861374
0.2824748168 0.7485381941 0.2441394159
0.2923779906 0.7495470832 0.490730138
0.3024324957 0.4984111624 0.2243411687
0.3024295501 0.7493778502 0.7310089492
0.2825274698 0.4981468986 0.2372466655
0.2824862311 0.7482908536 0.7443341969
0.2924523675 0.4998626609 0.4892030182
0.3324988054 0.7496382087 0.972872872
0.322518309 0.4988303396 0.7247715992
0.3124881053 0.7500417643 0.9780000915
0.3325510901 0.5005506582 0.9681598803
0.3124560717 0.4998958566 0.97925198
0.3225632297 0.7492997427 0.2227210778
0.3324925459 0.7495731191 0.471037749
0.3124899463 0.751109234 0.4740468838
0.3225912131 0.5006300675 0.2210061747
0.3225094722 0.7490979649 0.7229186203
0.3324756086 0.4990711712 0.470668626
0.3125709509 0.5002310681 0.476682293
0.3524296055 0.7493127606 0.9736921226
0.3425654611 0.4992573275 0.7204258895
0.352570627 0.4986910478 0.9702218142
0.3424918206 0.7488180795 0.222085008
0.3524277645 0.7515062807 0.4721303899
0.3423898285 0.4991818235 0.2218199022
0.3424969754 0.7508098218 0.7230907549
0.3525275473 0.5016682469 0.4684640137
0.3723898618 0.7514411911 0.9703967104
0.3824381074 0.5010036819 0.716036916
0.3624888972 0.5000169233 0.7189227029
0.3725040045 0.5001340846 0.9671012982
0.3824196973 0.7495210474 0.2167000467
0.362470487 0.7500678001 0.2204796452
0.3724708663 0.7497358431 0.4712255323
0.3824970198 0.4991310536 0.2133714963
0.3825117479 0.7501849615 0.7166159144
0.3624115746 0.500169233 0.2189120231
0.3624999432 0.7496707535 0.7225191206
0.3725371428 0.5001588187 0.4703676205
0.3924458507 0.7519423811 0.9653247213
0.4024977784 0.4980427552 0.708459309
0.3926152239 0.4998672172 0.9641924986
0.4024830503 0.7504713558 0.2104811069
0.3923832563 0.7495666101 0.4651787271
0.4025382806 0.4997435469 0.2084661188
0.402589829 0.7491174917 0.7066836525
0.3925379013 0.4996517705 0.4608753606
0.432620423 0.7479263517 0.9545363887
0.4225869055 0.4973345802 0.7049190422
0.412553388 0.7511613057 0.955779072
0.4326866995 0.4990145432 0.9527414016
0.4125828442 0.4990685676 0.9563958112
0.4226494999 0.7470150971 0.2040743838
0.4325946489 0.7527104386 0.4527638601
0.4125202498 0.7496251907 0.4580208709
0.4225684954 0.4974973042 0.2051329659
0.422653182 0.7494950115 0.7059997164
0.4326241051 0.4996250838 0.4519648607
0.4126528027 0.4980486133 0.4590831351
0.4526138176 0.7508098218 0.951167336
0.4425913461 0.4978064799 0.7032262313
0.4524923107 0.4987496285 0.9482125111
0.4426318484 0.7508814204 0.2000011439
0.4525512231 0.7485447031 0.4483767275
0.4426244843 0.4998633118 0.1988274985
0.4423961988 0.7496967893 0.6992956698
0.4524812647 0.4993412931 0.4488038424
0.4725041154 0.7489417498 0.9468317518
0.4825744531 0.4987138292 0.6936161466
0.4625295103 0.5001158595 0.6997789356
0.4725482997 0.499661534 0.9468041366
0.4824198081 0.7488310974 0.1932575155
0.4625331923 0.7488376064 0.1972810481
0.4724120648 0.7518903094 0.4457689335
0.4825155407 0.5012542769 0.1972156921
0.4827143701 0.7482648178 0.69538628
0.4626289249 0.4999231943 0.1990585455
0.4624742799 0.7517601302 0.6994006075
0.4725703918 0.5002929033 0.4450003108
0.4926447909 0.5015159372 0.9444476408
0.5024500229 0.747542323 0.1973206298
0.4925969246 0.7493322875 0.4468035825
0.5025641656 0.4997708845 0.1946336723
0.5025641656 0.7482517998 0.6964844439
0.4924312335 0.7502435421 0.9459204507
0.4925416942 0.4995463254 0.444947842
0.5025936218 0.5006430854 0.6950346466
0.5125129966 0.7459671543 0.9478719238
0.5124430381 0.4985133531 0.9455890685
0.5125571809 0.7508488756 0.4484512885
0.5124614482 0.4997715354 0.4467732058
0.5224581455 0.5004256861 0.6978762493
0.5324732529 0.7500808181 0.9495012198
0.532491663 0.5008051586 0.9485346883
0.5223992331 0.4993953175 0.2007918587
0.5225060118 0.7492541799 0.1961451434
0.5323848843 0.747718065 0.4528586722
0.5325211192 0.4984905718 0.4486455154
0.5225096938 0.7499766747 0.700365298
0.5423963096 0.4999355613 0.7014966001
0.5524776935 0.7491370186 0.9513790524
0.5622792434 0.5002623112 0.7043050645
0.5523709148 0.500294856 0.9520694321
0.5423300332 0.499466916 0.2008167124
0.5423668534 0.7512654491 0.1967195393
0.5622461052 0.4998659154 0.2048881113
0.5623492019 0.7495145384 0.2063020088
0.552404053 0.500538942 0.4508620943
0.5523377765 0.7512524312 0.4530225223
0.542296895 0.7503607034 0.7005751734
0.5622976535 0.7505820081 0.7057530208
0.5823830987 0.5007329091 0.7078204777
0.5724563599 0.7500417643 0.958595821
0.5723458992 0.5012145723 0.955033462
0.5823020941 0.4981957158 0.2092816873
0.582423601 0.7509269831 0.2104074664
0.5724342677 0.500833798 0.4555594374
0.5722796227 0.7502825959 0.4577207859
0.5824714673 0.7501524166 0.7117777338
0.602343355 0.4996660903 0.7145254448
0.5924902567 0.7501198718 0.9661255616
0.6124799692 0.7488310974 0.9688778752
0.5924202982 0.4998275125 0.9614493902
0.6124836512 0.499718162 0.9671105033
0.6025569124 0.7459476274 0.2143573585
0.6024133135 0.4979679022 0.2148028835
0.5925197129 0.7502370332 0.4691663599
0.5924644825 0.5020490211 0.4628249928
0.6126162041 0.7471387674 0.4685008339
0.6125057434 0.5006788847 0.4668595714
0.6026084608 0.7513500656 0.7175806048
0.6225392609 0.4984925245 0.7192485621
0.6326427369 0.749579628 0.9732042543
0.6325985526 0.4996511197 0.9739774795
0.6225944912 0.7471582943 0.218220723
0.6225429429 0.4979529315 0.2209426598
0.6326464189 0.7481541654 0.474905716
0.6326758751 0.4991668529 0.4739336615
0.6225908092 0.7470736778 0.7201221224
0.6426946645 0.4986572012 0.7265757914
0.6526619055 0.7498204596 0.977318917
0.6626107365 0.4978969545 0.7270664212
0.6526545415 0.5001562151 0.9791231091
0.6427314847 0.747203857 0.2248723007
0.6426431161 0.4972057027 0.2237870239
0.662533414 0.7503281586 0.2260597537
0.6626107365 0.4982549474 0.2293404378
0.6526140392 0.7502175063 0.4736252919
0.6526582235 0.5005851557 0.4794778703
0.6425584296 0.7470476419 0.7229296663
0.6624671375 0.7495145384 0.7239781229
0.6825709928 0.5002304172 0.7309785725
0.6724491067 0.7492541799 0.9770795853
0.6724822449 0.4997702337 0.9797674634
0.6824458039 0.7499636568 0.2333547653
0.6823905736 0.4979718075 0.2310387717
0.6725963877 0.7484015059 0.4783576143
0.6725117011 0.5012132705 0.4793913427
0.6825857209 0.7507837859 0.7311774018
0.7024244704 0.4999329577 0.7403014592
0.6926045103 0.7509204741 0.9850235538
0.7125095362 0.752645349 0.9939892841
0.6924388192 0.5012373536 0.9858243942
0.7125758127 0.5003937922 0.996493061
0.7024539266 0.7499506388 0.2398001497
0.7025054749 0.4989162579 0.2418326273
0.6925824181 0.7501914704 0.4856480233
0.6924240911 0.498896731 0.4887593343
0.7124837621 0.5001347355 0.4941590236
0.7125794947 0.7537713994 0.4951504088
0.702520203 0.7498334775 0.7426174528
0.7225909201 0.4999947928 0.7491226701
0.7326133915 0.7537128187 0.9997516529
0.7425990427 0.5005838539 0.7484313699
0.7326318016 0.4981748871 0.9985273797
0.7225467358 0.7484991404 0.2486498962
0.7224915054 0.4999056201 0.2472203501
0.7425843146 0.7503541945 0.2494709877
0.7425106741 0.4999069218 0.2470049516
0.7325692072 0.5003911886 0.4977296671
0.7325287049 0.7507186963 0.4974866535
0.7225135975 0.7506731336 0.746367595
0.7425474943 0.7492151262 0.7478201538
0.7525368275 0.4988856658 0.4986225581
0.752455823 0.7521571769 1.0012981033
0.7625408889 0.5016005537 0.7499492846
0.7524263668 0.5020802642 0.998573405
0.7624230641 0.7501719435 0.2520401205
0.7625961192 0.5027266041 0.2501503213
0.7525773298 0.7510506534 0.5002592181
0.7624672484 0.7513240298 0.7519872853
0.7725596783 0.502194171 0.5038261796
0.7724528995 0.7537844173 1.002890579
0.7926046211 0.5010492446 0.5099889686
0.7924131558 0.7509074562 1.0095366337
0.7824532788 0.5030253654 0.7568963449
0.7723903051 0.5015751687 1.0017123311
0.7924057918 0.5022872491 1.010622831
0.7825453295 0.753491514 0.2581080973
0.7823649102 0.5037465584 0.2557617271
0.7724492175 0.7525281877 0.5037157189
0.7923616075 0.7541489191 0.5115897289
0.7824532788 0.7519098363 0.7555616109
0.8125280572 0.4997344344 0.5190504316
0.8123770942 0.7506340798 1.0207115789
0.8023251665 0.5045998832 0.7626283369
0.8123181818 0.5031952493 1.0167257871
0.8024393093 0.7506991694 0.2655421054
0.8024098531 0.5012549278 0.2636025988
0.8124728268 0.7506926605 0.5188258281
0.802538724 0.7518707825 0.765614459
0.8326024563 0.5024180793 0.5257903779
0.8325140877 0.7503737213 1.0245592948
0.8225321185 0.4983564872 0.7704627652
0.8425881074 0.503065721 0.775190485
0.8326171844 0.5012933307 1.0248538568
0.8225542106 0.7514346821 0.2742252403
0.8224805701 0.5011371156 0.2728159453
0.8426912041 0.7528666537 0.2809071947
0.8424813287 0.5012529751 0.2749312685
0.832561954 0.7516364599 0.5243295346
0.8226830815 0.7513305387 0.7752862176
0.84266543 0.751616933 0.7777264795
0.8524338417 0.5021368921 0.5267431018
0.8624894513 0.7526713848 0.7781038871
0.8623200782 0.5024460678 0.7777117514
0.852481708 0.7507121874 1.0297049244
0.8524338417 0.5029374944 1.0230312545
0.8624931334 0.7520335066 0.2753114376
0.8623532164 0.5027324621 0.2763617352
0.8524301597 0.7530814494 0.5252113795
0.8723241395 0.5011865837 0.5292652888
0.8824312975 0.7502109973 0.7830746205
0.8924132667 0.4993836013 0.533539199
0.8724861486 0.7529968329 1.0329727214
0.8924942712 0.74856423 1.0362589285
0.8824276155 0.5024083158 0.780696953
0.872394098 0.5005708359 1.0274036589
0.8924353588 0.4993725361 1.03424302
0.8824386616 0.7531986107 0.2825374112
0.8824386616 0.5020763588 0.2827021818
0.8724861486 0.7518187108 0.531300528
0.8925568656 0.7494364309 0.5373878354
0.9124803017 0.5002427843 0.5341872354
0.902719254 0.7504453199 0.7862384003
0.9226205979 0.7489873125 0.7865173137
0.9126091726 0.7478547532 1.0347216832