POSCAR file written by Ovito 3.7.11
1
271.5726747669 0.0 0.0
0.0 15.362470393 0.0
0.0 0.0 10.8629069906
Sr Ti O 
800 800 2400 
Direct
0.0124702839 0.2500545224 0.549230472
0.022300949 0.2504209999 0.79913043
0.0024795512 0.2500369471 0.8011703996
0.0124291531 0.2497863363 1.0488674481
0.0224412797 -8.356600967e-04 0.2971073523
0.0025710553 0.999945634 0.299761338
0.0124474907 8.6517312423e-04 0.54679466
0.0224405064 0.0010001775 0.7956267638
0.0025698033 5.3658013945e-04 0.7999902367
0.0125078429 0.9991319628 1.0495210485
0.0224132946 0.250708714 0.3007923696
0.0024667001 0.2498319019 0.2986520585
0.0324017811 0.2501118048 0.5499227361
0.0423733292 0.2498950428 0.7966366224
0.0323174574 0.2509215704 1.0459768775
0.042554128 0.9993272438 0.2951594391
0.0325181404 1.0286083328e-04 0.5476112002
0.042467595 1.0017617481 0.7951232153
0.032486473 -6.666117644e-04 1.0450286967
0.0423081533 0.2487357241 0.2969775528
0.0724429966 0.2495773856 0.5424210609
0.0524306739 0.2501762476 0.5453677859
0.0623046423 0.2499575328 0.7956065114
0.0723811347 0.2509840604 1.0435742057
0.05244393 0.2492818602 1.047468191
0.0623933846 1.000492421 0.2948482885
0.0723295831 1.0000237464 0.5464264344
0.0523618157 -8.4640055678e-04 0.5468756696
0.0624699756 1.0009545863 0.7948580929
0.0723509402 -1.1533324061e-04 1.0418527512
0.0523772812 1.000896002 1.0467685624
0.0623190031 0.2509072498 0.2946835076
0.0923809377 0.2474403595 0.5392865408
0.1024681087 0.2487194506 0.784926129
0.0823747764 0.2498677035 0.7940001274
0.0924118687 0.2516597329 1.042138126
0.1024537479 0.9987479099 0.2869535325
0.0825327452 0.9996657311 0.2915130855
0.092301401 -0.0013088913 0.5385942768
0.1023793663 -0.0032184605 0.7847245255
0.0824027615 0.9984614977 0.792164523
0.0924240201 0.9980123512 1.0410978888
0.1023801028 0.2482742097 0.2869774672
0.0823850867 0.2495539518 0.2913970944
0.1122835292 0.2493293786 0.5337981389
0.1224874277 0.2472444274 0.7780145353
0.1122982582 0.2480177406 1.0351326348
0.1223813787 3.8295901345e-04 0.2782947085
0.1124934178 0.9974525454 0.5298360318
0.1224251975 0.9993077157 0.7760601781
0.1125265581 -5.3154234217e-04 1.0313215002
0.12237696 0.2486035839 0.2816750191
0.1524528872 0.2492493133 0.5206423602
0.1323937999 0.2506117244 0.5249358702
0.1424445165 0.2489609482 0.7738314929
0.1524602517 0.2523646977 1.0213609988
0.1323477717 0.2489987026 1.0248683473
0.1425258944 0.0017361268 0.2691663969
0.1525118033 0.9994899781 0.5178143879
0.1325760715 6.8473339487e-04 0.5243586767
0.1424684512 3.5021688363e-04 0.7725721615
0.1524709303 0.9999781808 1.0217108131
0.1324398281 -0.0016895592 1.0230272195
0.1424507764 0.2490292966 0.2722631738
0.1725532158 0.2492603793 0.5142389177
0.1624100746 0.2501157104 0.7659882885
0.1724423799 0.2499015522 1.0152760715
0.1626571539 -0.0030701575 0.266761884
0.1724740473 -0.0019014978 0.516093854
0.1625481591 0.999542053 0.7635073688
0.172440907 -0.0029234688 1.0147329388
0.162543004 0.2473563886 0.2634948027
0.1925898414 0.2492402002 0.5121566022
0.2025370866 0.2491568803 0.757163763
0.1823579578 0.2487956103 0.7648946586
0.1924686952 0.2492987845 1.0121829768
0.2023566561 0.0015336854 0.2613636973
0.1825431752 -0.0011927641 0.2611630143
0.1923320835 -9.8765388027e-04 0.5114974784
0.2024811163 0.9980318793 0.7601933388
0.1825251322 0.9977584857 0.7610586689
0.1924429194 3.5002160253e-04 1.0136282621
0.2024391386 0.2514403672 0.2595170461
0.1823634812 0.24757966 0.2644512686
0.2125730742 0.2507588362 0.5087790533
0.2226425704 0.2486751869 0.753258731
0.2124769674 0.2499158728 1.0073500163
0.2224319454 1.0003622336 0.2543913463
0.2126408278 1.0010847737 0.5033578525
0.2225435177 0.9997763904 0.7543707721
0.2123315183 1.0004533648 1.0058679084
0.2225600879 0.2494322266 0.2527076349
0.252606557 0.2506247432 0.4961065706
0.2323895009 0.247672744 0.5007673857
0.2425330104 0.2479461375 0.7520187314
0.252501981 0.2483360488 0.9978313856
0.2325504155 0.2518192125 1.0008876578
0.2424906645 0.997992823 0.2478295669
0.2525170782 4.9843523274e-04 0.4967785823
0.2326560962 -0.0012584437 0.5015968137
0.2426070237 0.9984875351 0.7465340117
0.2524611079 -6.4753931104e-04 0.9933482394
0.2325853969 0.0013907396 0.9988532115
0.2426320631 0.2487656672 0.2488836125
0.2724848456 0.2506716106 0.4875048216
0.2624768431 0.2494302738 0.7415427142
0.2724966288 0.2491562293 0.9890215891
0.2625493836 0.9981620667 0.241146273
0.2724841092 0.0013359307 0.4859941762
0.2625659537 0.9973158486 0.7401314898
0.272607833 4.1850017226e-04 0.9849342854
0.262497832 0.2504899992 0.2434716174
0.2926820175 0.2514638009 0.4830778298
0.3027165322 0.2520952098 0.7333450927
0.2826081027 0.2501235217 0.7332456718
0.2925398825 0.2510478522 0.9807181028
0.3025961225 -0.0020052116 0.2283476731
0.2825337211 0.9987544193 0.2327746649
0.2926459314 0.0013910651 0.4817844375
0.3025909673 0.0011918133 0.7320931258
0.2826637047 0.9979407481 0.73242637
0.2925527704 0.0018287551 0.9825408193
0.3026436236 0.2498221379 0.2308129432
0.282618413 0.2509931735 0.2366723324
0.3324492732 0.2524564798 0.4718865345
0.3126453662 0.2521101813 0.4783010237
0.3224979775 0.2501801532 0.7272914645
0.3325829391 0.2501118048 0.974108454
0.3127440507 0.250141097 0.9792820231
0.3226327481 1.3755577402e-04 0.2252867981
0.3324072955 0.0018832386 0.4711040552
0.3124951302 7.0042097596e-04 0.4782062056
0.3225292767 -0.0013213242 0.7246209087
0.3324654752 -0.0019259795 0.9711258269
0.3125455771 0.9989366817 0.9764650975
0.3225859834 0.2498273454 0.2281267378
0.3525731683 0.2495188012 0.4632838649
0.3425103002 0.2525918747 0.720288735
0.3524163042 0.2507113178 0.9627947237
0.3425371807 6.1820763607e-04 0.2175356501
0.3524800072 -6.7377207112e-04 0.4618514674
0.3424156662 0.9984614977 0.7176688101
0.3525761141 -0.0014110884 0.9635679973
0.3425040404 0.2499816174 0.2179683151
0.3726433024 0.2504860936 0.4601208073
0.382478607 0.2459438554 0.7145628275
0.3624802769 0.2516454123 0.7152771851
0.3724739186 0.2478654213 0.9573818079
0.3823718216 0.9985265914 0.2093509165
0.3625686511 0.9986632881 0.2111754741
0.3724407783 8.3360268096e-04 0.4630546445
0.382449149 -0.0021402875 0.7101929107
0.3626312494 0.9989562098 0.7085966529
0.3724113203 8.5350628661e-05 0.9606313985
0.3825191119 0.2505752719 0.2135974778
0.3625355108 0.2523620939 0.2138800909
0.3925348471 0.2483301903 0.4557380026
0.4025763581 0.2501879644 0.7099066153
0.3924685665 0.2499256368 0.9596556008
0.4025211242 0.9975176391 0.2097145392
0.3925790341 0.9967560428 0.4582971702
0.4024106566 5.7465995247e-04 0.7086684569
0.3925900809 1.0005379866 0.9609351846
0.402532171 0.2473655017 0.2108505151
0.4324468154 0.2486751869 0.4515899417
0.4124632143 0.2518960231 0.4582373336
0.4223242948 0.2484760002 0.7060301207
0.4324541799 0.2511682755 0.9522634727
0.4124263918 0.2467106591 0.9564796553
0.4224679028 1.0012995829 0.2028950019
0.4324099929 0.9995550718 0.4530011661
0.4123822047 0.0034569438 0.4597001096
0.4224016222 0.9990798878 0.7047431724
0.4323731703 1.0034606936 0.9503118772
0.4123932515 3.6004603194e-04 0.9595543387
0.422456856 0.2513381701 0.2063618455
0.4524304165 0.2516714498 0.4468738928
0.4424257281 0.2519507018 0.7004533447
0.4524340988 0.2506214885 0.9472740164
0.4424920087 0.9979863137 0.1994557752
0.4525261552 0.002901304 0.4440698552
0.4424809619 0.0020925799 0.699183887
0.4524635568 1.001267036 0.9440980709
0.4424772796 0.2496541961 0.1981992054
0.4725392143 0.2480008162 0.4425960324
0.4823929303 0.2476597252 0.6888146553
0.4624093292 0.2506807237 0.6909770599
0.4724987095 0.2480691646 0.9433800311
0.4826175478 0.0012047669 0.1953988501
0.4625603016 -5.5764491485e-04 0.1941827852
0.4724361111 0.9990408316 0.4439575464
0.4824813044 0.9996787498 0.6918083291
0.462479292 3.6401674749e-04 0.695876301
0.4725171208 5.1672656173e-04 0.9421740924
0.4823487432 0.2488431287 0.1901838556
0.4624314227 0.2498019588 0.1931268984
0.5124438181 -0.0012648228 0.4358786776
0.5125395568 -0.0011640578 0.9420360078
0.4924233945 0.2486634701 0.4426402195
0.5025459151 0.2465270949 0.6910313732
0.4923534316 0.248477953 0.9383721635
0.5124401359 0.2484890189 0.439234133
0.5124732762 0.2492519171 0.9429841886
0.5025054103 -0.0012178903 0.1907813015
0.4924933573 -0.0026927117 0.4439124388
0.502486999 -9.2236490172e-04 0.6889849596
0.4925007218 -2.3237170864e-04 0.9386483326
0.5025311861 0.2467445079 0.1884495132
0.5225221517 0.9991645096 0.1954642101
0.5325194756 0.0012457109 0.4463915173
0.5224706001 0.9982271604 0.6937497984
0.5325415691 0.999594128 0.9452303645
0.5224190485 0.249076815 0.1932843148
0.5325378869 0.2495656687 0.4440588084
0.5223932727 0.2484154631 0.6911832662
0.5325231579 0.2486055367 0.946390275
0.5425720334 0.0017753132 0.1988132216
0.5625151297 2.0915884123e-04 0.2028508148
0.5524625719 0.0014419033 0.4549279064
0.5425757156 0.9993272438 0.703534472
0.5625151297 0.9996136561 0.7033881024
0.5525104412 0.0016632219 0.9522358558
0.5425499398 0.2515640452 0.1988601703
0.5626550554 0.2505550929 0.2044921802
0.5525104412 0.2500323905 0.4548063919
0.5424321077 0.2526061953 0.6988313111
0.5624378023 0.2499152219 0.7045415689
0.5525104412 0.2520841439 0.9535062339
0.5824655904 -0.0014889404 0.2103709013
0.5725713697 -0.0015888593 0.4593374074
0.5824398147 1.0002841212 0.7085358957
0.5725014068 -0.0018375172 0.9567190019
0.5826423387 0.2498774675 0.2129926673
0.5725676874 0.2487448372 0.4575957005
0.5827159838 0.2508512692 0.7074302984
0.5727186599 0.2494146513 0.9582931662
0.6025191544 0.9982857447 0.2093380286
0.5925365595 0.9975632046 0.4627619051
0.6123691881 3.8055054664e-04 0.4645744954
0.6023755464 -0.0013130573 0.7118269116
0.5924739611 -0.0020030049 0.9612849989
0.6125164783 -7.1582259968e-04 0.9625277601
0.6023865932 0.246907893 0.2137226744
0.5925402417 0.2499946362 0.4605322994
0.6125385719 0.2490175798 0.4648433001
0.6025780705 0.2491952856 0.7105335193
0.5925660175 0.2486387344 0.959241347
0.6123618236 0.2487005735 0.9652158067
0.6222818201 -8.1906120385e-04 0.2204851368
0.6323491069 0.0016937508 0.4673794536
0.6224401571 -0.001014798 0.7156159526
0.6324411633 1.0004728929 0.9671489909
0.6224364749 0.2476844608 0.2156208772
0.6324448456 0.2477020361 0.4678286888
0.6225432603 0.24828137 0.7170943782
0.6323822472 0.249160135 0.9672134304
0.6425231791 0.9983182915 0.2187038457
0.6625251915 3.9090044454e-04 0.223534965
0.6525131386 -1.6122429732e-04 0.4720025255
0.6423869357 0.9982792353 0.7206302642
0.6625288738 0.9981295198 0.7246098619
0.6525536434 0.9995095062 0.9707391901
0.6424568985 0.2485612729 0.2197192277
0.6625951544 0.2511695774 0.2231372814
0.652491045 0.2501287292 0.4693632688
0.6423869357 0.248571037 0.7178455584
0.6625767431 0.2485775464 0.7218840722
0.6524947273 0.2501964266 0.9717241935
0.6825677087 0.9985265914 0.2304815402
0.6726256186 0.999294697 0.4758210246
0.6826339893 -0.0017547831 0.7281236543
0.6725667025 -9.3401667356e-04 0.9755813562
0.6825529797 0.2486758379 0.2274998337
0.6726329831 0.2502914634 0.4760520861
0.682615578 0.2504984614 0.7283188138
0.6725630202 0.2500180699 0.9768333231
0.7026212726 -1.6695254269e-04 0.2345936991
0.6927086406 1.000245065 0.4849815559
0.7126075498 0.9981946135 0.4867297068
0.7026065436 1.0004468554 0.7344258347
0.6926239487 1.0000497839 0.9809758606
0.7127769336 9.7387959899e-04 0.9902275278
0.7027317403 0.2484688399 0.2338112198
0.6926644535 0.2517664866 0.4820164196
0.7126811949 0.2512470389 0.4872461431
0.7026360017 0.2506384128 0.7360846909
0.692627631 0.2503930096 0.9797330994
0.7127290642 0.251555583 0.9905129026
0.722623285 4.4037165461e-04 0.2440607783
0.7424927362 1.0016055233 0.2509033297
0.7327163476 0.0012069801 0.4986252335
0.722479677 0.9992296033 0.7443136116
0.7425958393 0.0012802756 0.753640765
0.7326169267 1.0004077992 0.9985586311
0.7227558462 0.2503103406 0.2436106225
0.7425995216 0.2498006569 0.2550578346
0.7326206089 0.2498162794 0.4985884109
0.7226637898 0.2503851984 0.7426869752
0.7426326619 0.2499725043 0.7529659916
0.7325543283 0.2504952067 0.9987427439
0.7625426179 0.0010357837 0.2590862222
0.7525305649 5.5194225205e-04 0.5035189511
0.7625610291 4.9420414241e-04 0.756688752
0.7524532375 0.9985070633 1.0032627126
0.762472655 0.2503031803 0.2573040105
0.7524679666 0.2512366239 0.5061545256
0.7625278888 0.2492512661 0.7585169919
0.7525158359 0.2509508626 1.0051958968
0.7826661447 0.002705437 0.2630879135
0.7725215305 1.002341082 0.509963819
0.7926082348 1.0024322132 0.5181163329
0.782728743 0.001406948 0.7641223055
0.7725878111 1.0013646766 1.0119344245
0.7926303283 0.0043790611 1.0166937399
0.7824673029 0.2526140066 0.2645985588
0.7724773434 0.2527721842 0.5110243086
0.7926340106 0.2530983037 0.5173743584
0.7824562561 0.2512704726 0.7614342589
0.7725252128 0.2509163629 1.0100932967
0.7926303283 0.2531477749 1.016104579
0.8026166055 1.0026274943 0.2680414678
0.8126360229 0.0043655867 0.5195745061
0.8026939328 0.0029218085 0.7695425857
0.8125881536 1.0015013733 1.0172460782
0.8023698943 0.253673081 0.2680718464
0.8124592747 0.2512821895 0.5184753528
0.8024766797 0.2533814612 0.7629513482
0.8124150876 0.2507022047 1.017328929
0.8223571777 1.0017161825 0.2729397883
0.8425874899 1.0001018588 0.2736495431
0.8324981096 0.0020716848 0.5243844524
0.8223940002 0.0020510501 0.7680880948
0.8425285738 0.0017513587 0.7750236232
0.8324502403 0.0023141588 1.021867309
0.8225560195 0.2520249086 0.2697518755
0.8424291529 0.2509339382 0.278057203
0.8324723338 0.2528952113 0.523110392
0.8224676453 0.2514416691 0.7705165423
0.8424291529 0.2502602185 0.7728262372
0.8325496612 0.2484148121 1.0235795578
0.8626484184 -0.0014776141 0.2848380767
0.8525074865 1.0017617481 0.5305641979
0.8625784555 1.0013907141 0.7844198189
0.8524080656 5.5472621527e-05 1.0312386495
0.8624643056 0.250894882 0.2864214466
0.8526105896 0.2501808041 0.5280271238
0.8624495766 0.2512307655 0.7842430706
0.8525995429 0.2510074941 1.0305206096
0.8824331776 1.0018333512 0.2905299233
0.8725573682 -2.2091521789e-04 0.5379793401
0.8925925208 0.0027899938 0.5378449378
0.8825767856 1.0009741144 0.7880956305
0.872597873 -6.3341397869e-04 1.0375537178
0.8826025614 0.2512958592 0.2860191602
0.8925777918 -8.0825565007e-04 1.0386399832
0.8726236488 0.250306435 0.5372456507
0.8926072498 0.2507406099 0.5364438395
0.8825657388 0.2523829239 0.7873794318
0.8726383778 0.2492122099 1.0351326348
0.8925151935 0.2529837388 1.0377286249
0.9024941061 0.0014463297 0.2890910819
0.9224703427 -3.1362370884e-05 0.2915011182
0.9123993736 7.610232083e-04 0.5397578695
0.9024977884 0.9995680905 0.7872625202
0.9224187911 1.00019299 0.7944097783
0.9124325139 0.9997503529 1.0375629234
0.9025235642 0.2516870723 0.2880941112
0.9224629782 0.2503357271 0.2901635388
0.912461972 0.2520906532 0.5345336694
0.9024278255 0.2506729125 0.7870342204
0.9224372024 0.2514130278 0.7899487257
0.912476701 0.2502803975 1.0402233531
0.9424981308 1.0002906306 0.295115252
0.9324787134 0.9989627191 0.5436334435
0.9423987099 0.9998219559 0.8005563835
0.9325486762 1.0011303393 1.0459400549
0.9424907663 0.2510712859 0.2943677541
0.9324603021 0.2485983764 0.5441765762
0.9424613083 0.2497576951 0.7975489012
0.932371928 0.2528353251 1.0414108805
0.9624743674 9.3033191539e-04 0.3009184868
0.9524733612 1.0007723239 0.5495627956
0.9724901026 1.0031938095 0.5501878585
0.9625332835 1.0002841212 0.8009236885
0.9525138661 1.0006616646 1.0464187481
0.9625774706 0.2498130247 0.2993664161
0.9726042526 0.0022316851 1.0525220868
0.9524402209 0.2504450846 0.5482058844
0.9725416542 0.2514546878 0.5524837449
0.9624780497 0.2511253137 0.7989030507
0.9524917725 0.2476252256 1.0497972176
0.9725269252 0.2496815355 1.0518316639
0.9825426604 0.003593966 0.301374166
0.9926872746 0.9988650786 0.5498362031
0.9825279314 1.0003557243 0.8020274446
0.9825537072 0.2510055413 0.3011403427
0.9927277794 0.0010931963 1.0477351545
0.9925915359 0.2502224641 0.5506389348
0.9825905297 0.2513518398 0.8017503548
0.9925731246 0.2516102617 1.053663586
0.0124883638 0.7503438511 1.0483795492
0.0222601496 0.5008227843 0.8002351067
0.0024777101 0.5017601336 0.7991184626
0.0124165966 0.5019977256 1.0516935793
0.0224398436 0.7493023519 0.2972040115
0.0025807396 0.7527913741 0.3001673067
0.0124085325 0.7516327063 0.5463095228
0.0225536622 0.7476750095 0.7962757613
0.0223987865 0.4997545968 0.2997898755
0.0024344804 0.5000338487 0.3028608767
0.0026880405 0.7527262804 0.8010599319
0.012442667 0.5014092786 0.5511461655
0.0323859474 0.7504414916 1.043795141
0.0424211985 0.5002668842 0.7992510239
0.0323671679 0.4994714392 1.0478364165
0.0424440285 0.7493609362 0.2925579255
0.0324676935 0.7513007284 0.5472797971
0.0424285631 0.7479223655 0.7934450273
0.0424002097 0.4989916986 0.297802378
0.0323855792 0.5001419043 0.5465930565
0.0723207457 0.7519646841 1.0390818539
0.0624246838 0.4997845399 0.7958891245
0.0524593955 0.7496538579 1.0417791061
0.0722772951 0.5002779501 1.046142579
0.0523106324 0.4996615128 1.0465200102
0.0624504596 0.7506107352 0.2908272654
0.0724496247 0.7495757454 0.5432642974
0.052478175 0.7486058493 0.5437429907
0.0623186349 0.5003840528 0.2928773612
0.0723932862 0.4996576072 0.5454082907
0.0624051679 0.7510078068 0.7923919022
0.05244393 0.5001900736 0.5423603037
0.0923897751 0.7496473485 1.0380416167
0.1022814183 0.4984188741 0.7848294698
0.0823703577 0.5002278279 0.7915201282
0.092278571 0.5007563888 1.0399379783
0.1024161889 0.7497384797 0.2845250849
0.0824660963 0.7516001594 0.2911209253
0.0923871976 0.7498556483 0.5396989534
0.1023392297 0.7492632957 0.7849003532
0.1023270783 0.5003091951 0.2885138883
0.0823165967 0.5008527274 0.2908438355
0.0824454757 0.7517108187 0.7911215241
0.0922896178 0.4987957666 0.5390812551
0.1124205091 0.7496603672 1.0334572085
0.1223725413 0.499515052 0.7760638604
0.1122640132 0.4982906395 1.0335308536
0.1224815361 0.7500053638 0.2772949761
0.1123402359 0.7506367727 0.531062223
0.1222786438 0.5020439421 0.2799056953
0.1225073118 0.7466920946 0.7781019889
0.112364907 0.4993991852 0.5317747394
0.1526344224 0.7490680146 1.0199985643
0.1424651371 0.4988615112 0.7744399857
0.1325484546 0.7490159396 1.0224380586
0.1525235865 0.4992553281 1.0198236571
0.1323904859 0.4980895 1.0278417687
0.1424717652 0.7509492224 0.2730023866
0.1525648278 0.7479223655 0.5194934965
0.1325407219 0.751170541 0.521561083
0.1424909129 0.5005285608 0.2721886082
0.1425295766 0.7478182156 0.7723466234
0.1524396311 0.4979716804 0.5222818845
0.1324398281 0.4985653349 0.5274692621
0.1724567407 0.7477270844 1.0139228425
0.1625312208 0.4998118792 0.7676719999
0.1723849367 0.4981682634 1.0138768144
0.1624119157 0.7473365222 0.268209931
0.172331544 0.7498165921 0.5173522648
0.1624196484 0.4969731431 0.2683434128
0.1624763552 0.7496473485 0.7667495949
0.1723716806 0.4995606175 0.5141956512
0.1923994688 0.7479679311 1.0118331625
0.2024133628 0.5005344193 0.7616266568
0.1823579578 0.4985868158 0.7625647114
0.1924410783 0.4989689158 1.011004655
0.2024229367 0.7495106517 0.2571060893
0.1823307091 0.7513397846 0.2627519076
0.1924650129 0.7478702906 0.5100706044
0.2025194118 0.5014567969 0.2591294887
0.2024899538 0.750519604 0.7555840754
0.1823888887 0.4979156998 0.2613443654
0.1822776846 0.7471607693 0.7638525803
0.1923085171 0.5017126152 0.5133781905
0.2124732851 0.7508906381 1.0058402915
0.2225033811 0.5015316547 0.7552904155
0.2125270461 0.5009366983 1.003686172
0.2224938073 0.7497645172 0.2512733964
0.2125097395 0.7514569533 0.5028303693
0.2225899141 0.5020172537 0.2558200615
0.2224625081 0.7501030044 0.7536315593
0.2125959042 0.5012139975 0.5012064946
0.2527523744 0.7482283059 0.9929892195
0.2426685174 0.5001633852 0.7452811242
0.2326513093 0.7497319703 0.9975183939
0.2525406447 0.4979352279 0.9950236657
0.2324970228 0.5002532145 1.0007863957
0.242618807 0.7486904711 0.2473766494
0.2526150262 0.7478182156 0.4931745746
0.2326999151 0.7495562173 0.4994859607
0.2426490015 0.5008253881 0.2481784606
0.2426942932 0.7497254609 0.7480529421
0.2525089773 0.4969978787 0.4983002744
0.2325540978 0.4974528836 0.5016014165
0.2726328723 0.749972817 0.9833048873
0.2626101408 0.5001334421 0.7411744887
0.2726343452 0.4969269265 0.9890676173
0.2624886264 0.7489638647 0.2374980782
0.2725923675 0.7490029209 0.4845267974
0.26255012 0.4999973963 0.2413405119
0.26257295 0.7470956756 0.7397605025
0.2724616474 0.4989025203 0.4880387486
0.2926124229 0.7501030044 0.9800829137
0.3026852331 0.5019052925 0.7286796749
0.2826268822 0.5001360458 0.7307877662
0.292628993 0.4990938957 0.9831207745
0.3026944387 0.7506693195 0.2280779479
0.2826986862 0.7492698051 0.2332938629
0.2927781244 0.7502006449 0.4805849428
0.3025935449 0.5015589941 0.2272420758
0.3025662962 0.7505391322 0.7295763041
0.2825127323 0.5016227859 0.2307567888
0.2827115741 0.7501030044 0.7310989168
0.2927457206 0.4993021956 0.4805030126
0.3325509035 0.7511184661 0.9739703694
0.3225311178 0.499845077 0.7226904862
0.3126549401 0.7486839618 0.9750290179
0.3326761002 0.4996192019 0.9690177356
0.3124557301 0.4980712737 0.9788677693
0.3226132321 0.7500053638 0.2267228778
0.3324842547 0.7499858357 0.47009972
0.3125720893 0.7494260299 0.4773979505
0.3224769886 0.5009965845 0.2279039613
0.3225252262 0.7492177301 0.7230669968
0.3325660007 0.4994096002 0.4719344038
0.3125463135 0.4990314058 0.4796220329
0.3525676449 0.7509036569 0.9621687402
0.3424421785 0.5003033366 0.7135483661
0.3525186709 0.4990008117 0.9614507004
0.3425570648 0.7520818528 0.2134152061
0.3526284021 0.7502462105 0.4606289586
0.3425854182 0.4996068341 0.2136140479
0.3425979379 0.7504024354 0.7157061679
0.3525551252 0.497562241 0.4638122685
0.3726359379 0.7494325393 0.9547489952
0.3825669812 0.4987436916 0.7084880264
0.362539193 0.4990047174 0.7092548561
0.372536517 0.4979541051 0.9601987335
0.3826811311 0.7496994235 0.2065496406
0.362524464 0.7495887642 0.2092091497
0.3726285733 0.7508515819 0.4570046985
0.3825596167 0.5008201806 0.2079792763
0.3824859716 0.747473219 0.7062179158
0.3625318285 0.4997096821 0.2088400035
0.3625502398 0.7496603672 0.7097961477
0.3725070589 0.4976722494 0.4609898196
0.3925090713 0.7485407556 0.955365773
0.4022891421 0.4993230255 0.7071329563
0.3924796132 0.4991309991 0.9598305079
0.4025395355 0.7473169941 0.2068138424
0.3925164358 0.748423587 0.4552547065
0.4024585259 0.5004393825 0.206916025
0.4026573677 0.7489768834 0.7056490073
0.3925348471 0.4987261163 0.4604917946
0.4326309282 0.7527002429 0.9473752784
0.4223979399 0.4989780289 0.7036661127
0.4124779433 0.7496148016 0.9530183351
0.4324873202 0.5011013854 0.9514533764
0.4125847288 0.4983186298 0.9597292459
0.4225157721 0.7525179806 0.2031352691
0.432498367 0.7478051969 0.4517556432
0.4125000369 0.7515350657 0.454907654
0.4225084076 0.5003606191 0.2038100424
0.4224936786 0.7512291253 0.7002793581
0.4326125169 0.4992279887 0.4506988358
0.4125110836 0.5010349898 0.457328737
0.4526071648 0.7490940521 0.9457919085
0.4425509248 0.5000872256 0.6984787351
0.4525445664 0.501807652 0.9441625104
0.4426282521 0.7481436841 0.195534173
0.4525629777 0.7514374252 0.4482004254
0.4423447184 0.4995293726 0.2013806743
0.4426282521 0.7500574388 0.6969386317
0.4525740245 0.500165338 0.4446875536
0.4725171208 0.7500574388 0.9481945802
0.4826396414 0.498936369 0.6926138225
0.4626486758 0.4984520719 0.6913397621
0.4725723546 0.4994493073 0.9427264307
0.4825917721 0.7489443366 0.1928295562
0.462494021 0.7507604507 0.1918086509
0.4724987095 0.7488271679 0.4385971028
0.4826506881 0.4972771306 0.1917267207
0.4824849866 0.7488206585 0.6909420785
0.4625750307 0.4996934087 0.1944819684
0.4625676661 0.7512746909 0.6929424638
0.4724729337 0.500134744 0.439622611
0.4925117686 0.4989604537 0.9381328168
0.5024685877 0.7466595478 0.1887164767
0.4925338621 0.749549708 0.4436804567
0.5023986249 0.4984143175 0.1905999505
0.5023949426 0.7482152872 0.6914677204
0.4924786283 0.7497384797 0.9410786213
0.4925485912 0.4975479204 0.4406619276
0.5024685877 0.4993191199 0.6897407426
0.5124732762 0.748247834 0.9425331123
0.5124769584 0.4981213959 0.9416861935
0.5121639667 0.7478312343 0.444139818
0.5124217246 0.4990626508 0.4393538063
0.522411684 0.4968123616 0.696007021
0.5323869144 0.7498881952 0.9443742401
0.5325378869 0.5006170883 0.9425239066
0.5224853291 0.500113914 0.1937151387
0.5223269921 0.7500444201 0.1934601425
0.5324126902 0.7514374252 0.4465562983
0.5324605595 0.5030275079 0.446033418
0.5222570293 0.7495236705 0.6877053758
0.5424357899 0.4998294545 0.7026240343
0.5524110203 0.7498881952 0.952613287
0.5625740457 0.4982261967 0.7058892745
0.5526098621 0.5010473576 0.9523923516
0.5424173786 0.4972881966 0.1982387897
0.5424247431 0.7521794933 0.2016734136
0.5624783071 0.4976481647 0.2043936799
0.5624525313 0.7510924286 0.2045326851
0.5525472638 0.4999720097 0.4542181516
0.5524073381 0.7492958425 0.4508323176
0.5424357899 0.7505456415 0.6984501976
0.5623715217 0.7495562173 0.7027565955
0.5824250856 0.4991127729 0.7139184328
0.5724719488 0.748775093 0.9553105392
0.5724424907 0.4999355572 0.9572161064
0.5824545437 0.4993679402 0.2100846059
0.5824434969 0.7494130112 0.207384592
0.572475631 0.497593486 0.4591744676
0.5723835746 0.7494781049 0.4547170972
0.582358805 0.7485342463 0.7061553174
0.6024050045 0.4994128548 0.7150175861
0.5923119419 0.7498556483 0.9565440948
0.6122255801 0.7481762309 0.9654091251
0.5924481854 0.5006997572 0.9611008861
0.6123618236 0.4987749366 0.9649212263
0.6023460884 0.7514178971 0.2121264166
0.6024381448 0.4993360443 0.2125802546
0.5923413999 0.7492632957 0.4585659749
0.5924371386 0.4993477612 0.4598556849
0.6122108511 0.7497775359 0.4643029291
0.6123986461 0.4974379121 0.4624028852
0.602254032 0.751170541 0.7112082927
0.6222044928 0.4985445049 0.717329122
0.6322828263 0.7466660572 0.9654551533
0.6323527892 0.5000169244 0.9660535199
0.6222008105 0.7496148016 0.2130258076
0.6222634089 0.4983114695 0.2169888352
0.6322423215 0.7473625597 0.4661026315
0.6322791441 0.4975954388 0.4660455566
0.6222855024 0.7504089448 0.7160596644
0.6422249164 0.4984182232 0.7154355221
0.6522222404 0.7484691526 0.9714112017
0.662344761 0.4987456444 0.7201184306
0.6523695306 0.5001106593 0.9723777938
0.6422654212 0.7482803809 0.2170615597
0.6423059261 0.5006567954 0.2177151601
0.6623042562 0.748423587 0.2210558865
0.6623705368 0.498419525 0.224478543
0.6524100354 0.7473365222 0.468379186
0.652491045 0.4987430407 0.4688845756
0.6423537954 0.7477205751 0.7166764422
0.6623189852 0.7495106517 0.7227125797
0.6825419329 0.4990261983 0.7284016646
0.6724341413 0.748547265 0.97686094
0.6725077864 0.5003111479 0.9783706648
0.6824461942 0.751098938 0.2257120986
0.682600849 0.4995710325 0.2282648223
0.6725225154 0.748299909 0.4744401787
0.6725188332 0.5006470314 0.4753736305
0.6824314652 0.7506302633 0.727421264
0.7026028614 0.5008299446 0.7352101552
0.692469294 0.7492372582 0.9816110497
0.7124418483 0.7508125257 0.9896659838
0.6925208455 0.4984618359 0.9826604926
0.7125007644 0.5002336864 0.9860573734
0.702510805 0.7495301798 0.2338443601
0.7025734033 0.502003584 0.233627107
0.6924877052 0.7510729005 0.4799902585
0.6924729762 0.4989220484 0.4821139994
0.7125375869 0.499328233 0.4862620603
0.7125191757 0.7468418101 0.4863964626
0.702367197 0.7508646006 0.7354402962
0.7226048737 0.5021259602 0.7419947111
0.7325248703 0.7489899022 0.9955944153
0.7425369232 0.5034935787 0.7503589547
0.7325285525 0.5004654199 0.9947382909
0.7225717334 0.7486969805 0.2414141571
0.7224907238 0.5032820242 0.2417170226
0.7424853717 0.750519604 0.2496191431
0.7426179329 0.5033653442 0.2480900864
0.7325175058 0.4999030104 0.4968669564
0.7325322348 0.7519907216 0.4945977664
0.7225901447 0.7480916091 0.7424586753
0.7425001007 0.7503633792 0.7529125989
0.7524569198 0.5012244124 0.5048040583
0.75260421 0.7511770504 1.0035757043
0.7624542437 0.5024123724 0.7568314394
0.7524937424 0.5004426371 1.0028576645
0.7626199452 0.7511445035 0.2555420512
0.7625021131 0.5008716046 0.2582632381
0.7525379294 0.7516522344 0.5035465681
0.7625389356 0.7507344132 0.7579002141
0.7724184274 0.499442147 0.5098643981
0.7727351013 0.7513137472 1.0095409584
0.7925566832 0.5003371854 0.5181549966
0.7927187024 0.7547181475 1.0181298196
0.782540948 0.5007648509 0.7623603462
0.7726135869 0.5003658266 1.0108021309
0.7926045525 0.5009829148 1.0169514978
0.7825740883 0.7502331918 0.2646998208
0.7825483125 0.5003033366 0.2652963463
0.7725473063 0.7518149686 0.5093249476
0.7926818799 0.752244587 0.515215636
0.7827176962 0.7516066688 0.7636896405
0.8124887327 0.5041842229 0.5156372543
0.8124077231 0.7532209925 1.0174117797
0.8025540071 0.5030131873 0.765706596
0.8126286584 0.5021103377 1.0204772575
0.8027344376 0.7525700555 0.2696892772
0.8025540071 0.5031017147 0.2676014382
0.8123966763 0.7532991049 0.5171101565
0.8026902506 0.7533056143 0.7679454074
0.8324281467 0.5022626569 0.5197171935
0.8324355112 0.7523877932 1.0193265526
0.8222982616 0.5027306806 0.7712796898
0.8425285738 0.5006730688 0.7743902752
0.8323655484 0.5025340976 1.0237912875
0.8224271405 0.7525505274 0.2698328851
0.8224750099 0.5020680268 0.2694582156
0.8424549287 0.7523422276 0.2777920806
0.8424475642 0.5010056976 0.2730125128
0.8322771742 0.7507604507 0.5213134513
0.8225044679 0.7535594797 0.7706500241
0.8424033771 0.752068834 0.7788752625
0.8524669816 0.5009119627 0.5285730182
0.8626189603 0.7497580078 0.7870599962
0.86258582 0.4998379167 0.786726752
0.8526290009 0.7513072378 1.02663583
0.8525258977 0.5017685958 1.0328036081
0.8625305862 0.7487685836 0.281744982
0.8626042313 0.499587306 0.2830687529
0.8525479913 0.7509557318 0.5335965354
0.8726972939 0.5005637114 0.537272347
0.8827019823 0.7508841288 0.7868786451
0.8925188757 0.5005611077 0.5402724648
0.8725684149 0.7512551628 1.0401865305
0.8924967822 0.7512030879 1.0393027892
0.8825325985 0.502044593 0.7892058306
0.8726825648 0.4996888521 1.0355100659
0.8926035676 0.5017171717 1.0374064276
0.8825767856 0.7491200895 0.2899867906
0.8826283372 0.5015375131 0.2865871481
0.8726383778 0.7501615887 0.537069823
0.8924268193 0.7512551628 0.5382324952
0.9125724397 0.5008442653 0.540246689
0.9025235642 0.7498361202 0.7888956006
0.9225513523 0.7521339277 0.7932609146
0.9124693365 0.7508450725 1.0416778441
0.9025125174 0.4996035794 0.7879529431