POSCAR file written by Ovito 3.7.11
1
271.5700901157 0.0 0.0
0.0 15.3623241831 0.0
0.0 0.0 10.8628036046
Sr Ti O 
800 800 2400 
Direct
0.0224664875 0.5022099521 0.8061719755
0.012504087 0.2510760771 0.5592348037
0.0223494643 0.2528485954 0.8047073444
0.0024713547 0.2502747661 0.8114275248
0.0125114148 0.2498965681 0.0597281204
0.0224097066 -2.1044396858e-04 0.3044994609
0.0024263203 0.0010390414 0.3149645309
0.0024435903 0.5002128584 0.3140457994
0.0124450967 0.5011899241 0.5621741922
0.0124132817 3.8106808987e-04 0.5620315034
0.0223864345 -2.0679868682e-04 0.8079357927
0.0024694031 6.1194616203e-05 0.8157045054
0.0224520161 0.2509081338 0.3053979398
0.0025317443 0.25140936 0.3099437276
0.0323582985 0.5017132824 0.0506869001
0.0423214722 0.4992891701 0.2968651518
0.0323689771 0.5003228678 0.5533173626
0.0325033807 0.2503092661 0.5515268488
0.0424613993 0.2512394639 0.7989961116
0.0324289984 0.2509068319 0.0499976674
0.0525011647 0.5010760091 0.043563693
0.0424131613 0.0012135593 0.7990356962
0.0424463019 0.2503938887 0.2946843152
0.0524834897 0.2499128417 0.5448554587
0.0524381975 0.2518155486 0.0439979271
0.0623328807 0.2494604362 0.2914236468
0.0624264109 0.5010896789 0.7930096276
0.0724661763 0.5013578675 0.0396697627
0.0624381942 0.5000703019 0.2930650279
0.0724481331 0.5018968484 0.5403943636
0.0725052086 0.251765426 0.5447965421
0.0623409817 0.2500788322 0.7905277637
0.0724643352 0.2494239834 0.0414437062
0.0924893681 0.2513305959 0.5386517196
0.1024175601 0.2520075768 0.7884997421
0.0824341371 0.2509875489 0.7895758916
0.0924577004 0.2502734642 0.0357795147
0.1024856825 -3.7526277918e-04 0.2834137441
0.0924588051 4.7252560523e-04 0.5386369904
0.1024882601 0.2514490676 0.2873050048
0.0823453939 0.252577803 0.2917753056
0.1022654815 0.5027743198 0.7891745219
0.0823468668 0.4999290472 0.791158356
0.102335445 0.5029728575 0.2864525545
0.082374484 0.5014144995 0.2909007616
0.1223288103 0.2529872463 0.277425419
0.1123571672 0.505074753 0.0344524172
0.1124020912 0.2516690864 0.5298860267
0.1224716832 0.5022717917 0.2795436567
0.1123880985 0.5021617823 0.5354941554
0.1224274957 0.2511548413 0.7792627161
0.1124565891 0.2521091239 0.0318622939
0.1225707368 9.7310090285e-04 0.2795740356
0.1524668862 0.2497865587 0.5157598393
0.1325773616 0.2487391912 0.5241490179
0.1424304349 0.2521377654 0.7683207895
0.1525541565 0.2493094174 0.0149315819
0.1325482715 0.2489956628 0.0237052837
0.1426587369 -0.0015213784 0.2706214665
0.1423873521 0.2519144919 0.2690297963
0.1424812505 0.4995697266 0.7730773884
0.1525132831 0.4986733778 0.0172092627
0.1324355934 0.4988009627 0.0282386438
0.1524355868 0.5000722547 0.517688439
0.1325081345 0.5009751129 0.5249130932
0.1824897065 0.2497631248 0.262386944
0.17254789 0.5002245754 0.5157451101
0.182514746 0.4998639529 0.7650380274
0.1723987572 0.2487743421 0.5137806081
0.1625224855 0.2490249552 0.7659981846
0.1724550963 0.2461777298 0.014340298
0.1826005434 0.5000663962 0.2640191193
0.1624834532 -0.0023059147 0.7645123804
0.1625861891 0.2492703608 0.2651311711
0.1825254247 0.2475967859 0.7628811256
0.1825710851 -0.0023791783 0.2606102388
0.1925523021 -0.0010664993 0.0099700635
0.2025629774 0.2493380589 0.2604841203
0.2026303633 0.5012953769 0.7605401093
0.1926296302 0.5006978111 0.0109777223
0.2025059019 0.5009386601 0.2601950605
0.1925471469 0.5002167641 0.5116338326
0.1924436745 0.2474412105 0.5103735687
0.202433729 0.2523109163 0.7616365114
0.1924944901 0.2511340111 0.0120031482
0.2026682909 -0.001972469 0.2544442431
0.2123711268 0.2517113977 0.5031111709
0.2223770151 0.2483004555 0.7527713967
0.2124296752 0.2507473508 0.006167454
0.2224326177 0.0012298329 0.7498669899
0.2223228854 0.2490418797 0.2549477964
0.2323983691 0.2491590495 0.4991665171
0.2324635456 0.2488335779 1.0016196773
0.2324094159 5.5291708671e-04 0.5038835314
0.2224731229 0.4997122831 0.7511217305
0.2124944835 0.4999596415 0.0066179822
0.2126204178 0.500091132 0.5071322323
0.24249521 0.4993672832 0.7494444471
0.2623990956 0.2483297479 0.7410525067
0.2625445461 -8.9601731506e-04 0.2356258968
0.2625927841 -6.6701550791e-04 0.7378931014
0.2524565426 0.2494669456 0.4934460786
0.2423961564 0.2487020874 0.7460282019
0.2524613296 0.2500658133 0.9918892243
0.2624583805 0.2494174739 0.2353653748
0.2425695923 -3.1088449968e-04 0.2481061004
0.2624105107 0.4982971327 0.2371264302
0.2524723765 -0.0015878397 0.4926405775
0.2425754839 -0.0014195709 0.7431283981
0.2525003619 -0.0013955511 0.9944023877
0.2423493913 0.2484176252 0.2485295638
0.2723946735 0.2495001437 0.4828024175
0.2723372298 0.2499362756 0.9828215836
0.272416399 4.1739071875e-04 0.4835213848
0.2725585354 -1.8466661905e-04 0.9819930682
0.2824406988 0.250848898 0.732471849
0.2725821021 0.5003645282 0.4827655946
0.2825003519 0.2503593887 0.2311519137
0.3124012884 0.0017847619 0.4761531212
0.2924322262 0.4984891609 0.4790114993
0.2924193382 0.2484814177 0.4805939637
0.3024745693 0.2506523131 0.7245650504
0.2924664715 0.2488478987 0.9776295538
0.292484883 -2.1994773886e-04 0.4770313475
0.3025500562 9.5181506119e-04 0.7267164287
0.3124811941 0.5021240276 0.4761853412
0.3023917177 0.2482705121 0.2259736925
0.3124031295 0.2502018605 0.476612487
0.3125150711 0.2480472386 0.9770311816
0.3223431048 0.0016517743 0.2259000467
0.3323799244 -7.3355337005e-05 0.4757996213
0.3224841366 -3.4369203544e-04 0.7229678568
0.332475664 0.001874527 0.9728978104
0.3224325845 0.2520323126 0.2299183463
0.3224627793 0.4990196796 0.7235155976
0.322406072 0.5004374338 0.2233528221
0.332440314 0.2493198325 0.4690840437
0.3224281658 0.2478675782 0.7235119153
0.3325242702 0.2514907279 0.9722534095
0.3624237337 0.2476768519 0.2137457259
0.3524576141 0.5004862545 0.4680677315
0.3524763938 0.2510441809 0.4659752699
0.3424686643 0.252177473 0.7212371802
0.3625194733 0.498751491 0.7116954446
0.3524211595 0.2499616624 0.967724192
0.3625562962 0.501122226 0.208756222
0.3424531987 -0.0017441963 0.2206012304
0.3425434148 0.2511307564 0.2207733775
0.3623832285 0.2486070497 0.7135715717
0.342373293 0.5008240941 0.7185840898
0.3422631925 0.5024534048 0.2191319965
0.3825290406 0.2497559644 0.2043181412
0.3925743295 0.2501465303 0.4539378618
0.3925964232 0.2504003981 0.9484474005
0.3926479753 -8.930880708e-04 0.9511354727
0.3825621812 0.4988940476 0.7049513293
0.3927768555 0.5 0.9513656159
0.3724837518 0.2490575024 0.4582240481
0.3825437698 0.2511593979 0.7014798498
0.3724727049 0.2492202382 0.9535013444
0.392732668 0.498510642 0.4529795456
0.3724763872 -2.9239771366e-04 0.4581071354
0.4126317666 0.5023720369 0.947959497
0.4026233006 0.2516840581 0.7015221962
0.4026932641 -0.0032051666 0.7000566445
0.4026527589 0.2504908792 0.2007840628
0.4126207197 0.2494038041 0.4473217061
0.4126722718 0.2515955298 0.9441667377
0.4125838968 -9.58638048e-04 0.4487136119
0.4125139333 0.0013020225 0.9481344058
0.4425282842 6.3472917298e-05 0.689135891
0.4425614249 0.2491258514 0.1924215808
0.4226070919 0.5023492539 0.6921599722
0.4325198183 0.5022112539 0.9423255923
0.4326081933 0.5028934424 0.4439358398
0.4425098728 0.5016214994 0.6902359754
0.4426166592 0.5020888766 0.1914614235
0.4325640058 0.2509536998 0.4409623902
0.4225113523 0.2520433787 0.6948029363
0.4324793131 0.2506067471 0.9413037567
0.4226328679 0.0010935254 0.1955275929
0.4325455943 0.0013083366 0.9444429095
0.4225076701 0.2509888507 0.1979744751
0.4425466957 0.2479814933 0.6913645974
0.4725831404 0.2529462369 0.4390752162
0.462618862 0.2493256909 0.6860952395
0.4724468957 0.2479085877 0.9364891617
0.4725941873 -9.7517200452e-04 0.9367285106
0.4625783568 0.2496680871 0.187121844
0.4525183387 0.5017660088 0.9410552021
0.4526324898 0.5012543675 0.4390577253
0.4625120755 0.5014281693 0.6900371317
0.4726089165 0.4997773774 0.9372440313
0.4624605235 0.5004849527 0.186400115
0.4524741513 0.2491955023 0.4408022105
0.4524299638 0.2507239169 0.9400793951
0.4526398543 -5.057232606e-05 0.4374678963
0.4824664085 0.2494343985 0.6807494741
0.4825695126 -7.1160511504e-04 0.6868224919
0.4925153796 0.5010154713 0.9324202305
0.492368088 0.5006229526 0.434638056
0.4824406325 0.2505104075 0.1823192164
0.4923128537 0.2484286913 0.4316296245
0.4924380515 0.2504550773 0.9340312327
0.4824074918 0.5015876504 0.1875084845
0.5023029081 0.2510383224 0.6841859719
0.5123923845 0.2504570302 0.4357501078
0.5122966449 0.2485946818 0.9355041489
0.5024870227 -5.9098534567e-04 0.6863603645
0.5023544602 0.2511886903 0.1854813835
0.5225260483 0.2511359639 0.1929923358
0.5224560848 0.2493230872 0.6879409877
0.5125212647 0.5011756034 0.4363070542
0.5224229442 0.5007987073 0.691244923
0.5424803813 0.4993972266 0.6929857259
0.5523562848 0.5000156226 0.9455568024
0.5425356156 0.5002545188 0.1925642695
0.552422566 0.5018031126 0.4489566431
0.53230253 8.0027549125e-04 0.4420670773
0.5325676549 0.2526318313 0.4414456908
0.5324387747 0.2514256336 0.9428319073
0.532530832 0.4998431227 0.9431264906
0.5524998941 -0.0018001774 0.9467167239
0.5424877459 0.2503170774 0.1982883903
0.5523894254 0.2507317282 0.4482441199
0.5424214646 0.2497201625 0.6964866637
0.5523526025 0.2494845211 0.945299042
0.5724174042 0.2519457372 0.4526352515
0.5724689562 0.2505436056 0.9527188577
0.5625046778 0.5017328107 0.697642903
0.5623463393 0.5008071695 0.1985378655
0.5724321333 0.500870311 0.951025004
0.572428451 0.5016501409 0.453357901
0.5625304538 0.2492163325 0.1990377365
0.5625341361 0.2516118034 0.6997280001
0.6025238124 0.5007349148 0.7088545574
0.5925263933 0.5004289715 0.9555081928
0.5925521694 0.4981252837 0.4588408318
0.5825105628 0.2491102288 0.7066691179
0.6024133437 0.2510266055 0.2103745888
0.5924895704 0.2496199173 0.4551769526
0.6025090832 0.2501491341 0.7124319028
0.5924858881 0.249645304 0.9558027761
0.5825068805 0.4993744436 0.703502348
0.5823853649 0.5003449999 0.2031959632
0.5823154014 0.2507707848 0.2064778047
0.6125543721 0.4999283963 0.9614090636
0.6126059242 0.5007264526 0.4603017806
0.6224965568 0.5010610374 0.714309871
0.6123039763 3.9942468726e-04 0.4630929569
0.6224670985 0.4999941415 0.214051356
0.6124070805 0.2507148037 0.4611330577
0.6124144451 0.2517543599 0.9628359512
0.6224450047 -0.001106988 0.7150859137
0.6224597339 0.2511131809 0.216401578
0.6224818277 0.2502148793 0.7176055211
0.6424103846 -2.4188452368e-04 0.2258724295
0.6525477307 -0.0012034578 0.4729191494
0.6324534707 0.5004940659 0.4720280351
0.6424140669 0.2493881815 0.2253431002
0.6523267933 0.2500456341 0.4751570616
0.6425282179 0.249909587 0.7252002455
0.6323982363 -3.5260995687e-04 0.4726844034
0.6522862881 0.2500339171 0.9764051922
0.6424398429 0.5003625753 0.7217306072
0.652348887 0.4993653304 0.4732450322
0.6322840853 0.2507896621 0.4726254868
0.632394554 0.2497572663 0.970688436
0.6824810713 0.4998580944 0.727810069
0.6624788685 -0.0013798634 0.2263161455
0.6824810713 0.4982073025 0.2314925256
0.6624383634 -8.8950788336e-04 0.724135143
0.6723621366 0.4987677646 0.4762249259
0.6623463061 0.2500859926 0.2236823871
0.6624273165 0.2486395968 0.7255758392
0.6725204751 -1.7548832035e-04 0.9781266631
0.6624678217 0.4995788398 0.7226732736
0.662383129 0.5014763391 0.2222205178
0.682503165 0.2504674453 0.2279050539
0.6725204751 0.2499024266 0.4757305783
0.6825289411 0.2483590403 0.7288337458
0.6724910168 0.251020747 0.9765248666
0.7025385084 0.2499955115 0.2387935873
0.6924674435 0.2499356247 0.4809778425
0.702571649 0.2499011247 0.7392730398
0.6925595008 0.2486851629 0.9806490321
0.6925447716 0.4999212359 0.9789091498
0.6924858549 0.5017263013 0.4820254542
0.7325123542 0.4987313118 0.996915551
0.7325270833 0.4981604346 0.4953903281
0.7125101514 0.2468924654 0.4906364908
0.7125248806 0.2507063414 0.9922574534
0.7226364507 -1.8388548725e-04 0.2458286036
0.7326301875 -0.0017152944 0.4961405948
0.732788526 1.1287950389e-04 0.9964644704
0.7125690681 0.4984435949 0.9875533271
0.7226474975 0.2501471812 0.2434885079
0.7325823177 0.250309917 0.4969488576
0.7226843205 0.2491017665 0.7442404498
0.7325454948 0.249096559 0.9975047175
0.7124733285 0.496826652 0.4919335777
0.7127274066 -2.8250337748e-04 0.4930437883
0.7126795368 0.0016229375 0.993113586
0.7524740517 0.5017243485 8.815257642e-04
0.7426349711 -4.5519860044e-04 0.2485387695
0.742620242 -4.6314010711e-04 0.7495447895
0.742646018 0.2518650203 0.2485930833
0.7425797368 0.2513579355 0.7482412586
0.7625303874 -9.659286115e-04 0.2594512378
0.7526692131 0.0020759288 0.5036478648
0.7624677885 5.6176991382e-04 0.7541835551
0.7527207652 6.4502554524e-04 0.0032864298
0.7625340697 0.253403199 0.2547397469
0.7526471194 0.2487463515 0.502117873
0.762626127 0.2537566611 0.7577415685
0.7526139787 0.2498620681 0.0047077019
0.7825252256 2.9813793003e-04 0.2611469326
0.7825215433 -5.570061122e-04 0.7611541313
0.7724946659 0.0023034335 0.0082094682
0.782429486 0.2509042281 0.2611128715
0.7725278065 0.2495183701 0.5079358923
0.7824258037 0.2500918511 0.7631812323
0.7724283847 0.2502578416 0.0095119865
0.7923679885 6.2243781725e-04 0.513589129
0.7924563634 6.8225949456e-04 0.0142006472
0.8124217433 0.5008253959 0.0194015145
0.7925373738 0.2490132382 0.5135237683
0.7925226447 0.2503235868 0.0163472385
0.8025200637 2.6266152727e-04 0.2679794229
0.8123959672 -4.6795708657e-04 0.5199953941
0.8025163815 -3.2813449368e-04 0.7673035567
0.8125763995 -9.4887390045e-04 0.0197361426
0.8024832408 0.2507772942 0.2675633241
0.8124880245 0.2532892839 0.5215704939
0.8025053346 0.2519190485 0.7678163156
0.8124585662 0.2518370297 0.0200506102
0.8324718158 -0.0013106681 0.5264283558
0.8224707144 -8.2727771633e-04 0.7759219579
0.8325454616 -6.6760135676e-04 0.0298894147
0.8225590894 0.2498073889 0.2687747977
0.8323797585 0.2497533606 0.5286828383
0.822478079 0.2496042946 0.7711957379
0.832512321 0.2521332088 0.0259042556
0.8224633498 -0.0025991385 0.272408298
0.842458188 -0.0016481171 0.7805911024
0.8425097401 0.2474522765 0.2790907349
0.8424692349 0.2499239077 0.7791412005
0.8626481876 5.8591990542e-04 0.2858431354
0.8425907505 0.5031980838 0.7784360418
0.8525145237 -4.7147217969e-04 0.5285300232
0.8625229897 -0.0034632916 0.7840653437
0.8524666539 6.0629442664e-04 0.0343292445
0.8623683335 0.2478649745 0.2843453637
0.842458188 -0.0012630191 0.2760556069
0.8525771227 0.2501393699 0.5312852972
0.8625082605 0.246518824 0.7855953354
0.8524813831 0.2502194359 0.0316176978
0.8725682785 -5.7152214489e-04 0.5402074874
0.892566799 7.0471703392e-04 0.5402875772
0.8725498671 -0.0010221701 0.0381617726
0.8825656976 0.2471001163 0.2899203517
0.8925594344 0.0013387357 0.038983844
0.8724614921 0.2493263419 0.5385615035
0.8925299761 0.2492612476 0.5397978326
0.8825693799 0.248626578 0.7915146176
0.8725351379 0.248545861 0.038183222
0.8925962573 0.2490783325 0.0389784126
0.9026341816 -0.0044808655 0.2882955409
0.9125432257 -0.0025693774 0.5401034627
0.9026894159 -0.0010215192 0.7897949879
0.9025421243 0.2478369839 0.2919888784
0.912546908 0.2489318703 0.5449742126
0.9025310774 0.2490470873 0.7907312103
0.9024942545 0.5004022829 0.7910911542
0.9124916736 0.2504921811 0.048100183
0.9225958791 3.9135299195e-04 0.2998938359
0.9225075041 -0.0018534896 0.7966053844
0.9225553739 0.2498907096 0.3003347902
0.9226290197 0.2510995111 0.7977791146
0.9426275402 -0.0023644865 0.3014063367
0.9326816732 -4.88787268e-04 0.5455909963
0.9426717277 -4.6138256055e-04 0.8011023819
0.9325159701 -0.0014816709 0.0495360002
0.9425060246 0.2489383798 0.3026555538
0.9326632617 0.2511040677 0.5530310645
0.9426091287 0.248718361 0.8022512565
0.9326743086 0.2504218792 0.051424555
0.9525844541 -0.003207165 0.5569941298
0.9525218551 -6.4807306167e-04 0.0529760881
0.9624308992 0.2508931621 0.3126465289
0.9526691467 0.2479710782 0.5557633242
0.9725829745 0.2481325121 0.5614911273
0.9624345815 0.248672795 0.8089336935
0.9525181728 0.2490288609 0.0557824539
0.9726639849 0.2516716901 0.0624189543
0.9625966023 1.3104081833e-04 0.3092514569
0.9825767113 0.4998314057 0.820147189
0.9827203206 0.4983876138 0.3154284995
0.9827203206 -0.0027244711 0.3155757911
0.9925373075 0.0022897637 0.5660092979
0.982573029 0.2501016152 0.3158712949
0.9925520366 0.002073325 0.0636159749
0.992544672 0.2513761619 0.5660313916
0.982547253 0.2508189546 0.8169721339
0.9924526148 0.2485894742 0.06659817
0.0123408142 0.7506717053 0.0620188734
0.0023086711 0.5013116505 0.8142251451
0.0123375738 0.4999980472 0.0608477208
0.0223566816 0.7491224605 0.3098875727
0.0023895711 0.7512315164 0.3158887858
0.0123776371 0.7505870827 0.5617608551
0.0223828258 0.7517197238 0.8118749231
0.0225059616 0.5019736597 0.3042389388
0.0024940008 0.7513226484 0.8157045054
0.0123723346 1.000536241 0.0628873416
0.0524076345 1.0005687882 0.5415091771
0.0523531366 1.0003604864 0.0434075639
0.0324120599 0.7507367996 0.0519441262
0.0423689738 0.4985373307 0.7942201807
0.0424407785 0.7488360455 0.2995016719
0.0323807604 0.7498515169 0.5507268712
0.0424146342 0.7516090634 0.8006743156
0.0523958512 0.7493437812 0.0471368958
0.0524330423 0.7510167052 0.5466100702
0.0523306747 0.4999342547 0.5449871006
0.0422758118 1.0012652974 0.2993212397
0.0323711865 1.0012783162 0.5529307221
0.0324028542 1.0030098251 0.0526843587
0.0723229352 1.000113128 0.5368372709
0.0624164687 1.0011611465 0.7944346741
0.0722861123 1.0014866181 0.0423540605
0.0723542347 0.7474885932 0.0414106577
0.0624002666 0.7513486862 0.2924823054
0.0724289852 0.7509125543 0.5430511363
0.0625133129 0.7499491584 0.7905526192
0.0624926921 1.0018120896 0.2945434676
0.0823700652 0.999917845 0.2906899504
0.1023280805 1.0003019015 0.7859626439
0.082440397 1.0009333164 0.7891956951
0.0924444442 1.0010049201 0.0397735112
0.0922606979 0.7505675544 0.0393779412
0.0923549645 0.5020296408 0.0411457168
0.1023494377 0.7496301962 0.2882182128
0.0823501808 0.7519215162 0.2926277559
0.0922724812 0.7491940643 0.5389076388
0.1023472284 0.7511078372 0.7894239971
0.0823685923 0.7496822717 0.7906207416
0.0923707983 0.502485301 0.5405867633
0.1125733177 1.0006469014 0.030637472
0.1124087193 0.7514267994 0.0379610878
0.1223851493 0.502302386 0.7816414758
0.122333229 0.7487969889 0.2825594527
0.1123571672 0.751179441 0.5342108771
0.1223671061 0.7503787809 0.7820815096
0.1123752105 1.0012978445 0.5339908602
0.1225618993 1.0019357688 0.7777253597
0.1525291169 0.9978934118 0.518328237
0.1323623158 0.9993189773 0.5243377353
0.1426823035 1.0000610525 0.7687470146
0.152590243 0.9991367132 0.0150430632
0.1324610012 0.9987005813 0.0244978047
0.1525530518 0.7473128385 0.0215510516
0.1325663147 0.7488620833 0.0282254796
0.1425096041 0.7496432151 0.2719378854
0.1525107055 0.7506001015 0.5193509932
0.1324654199 0.7503397243 0.5269134976
0.1424952432 0.4989187834 0.2718973802
0.1425707301 0.7503917997 0.7753033331
0.1725048072 0.7473323668 0.0154491278
0.1625110704 0.4986538495 0.7678697089
0.1725003884 0.4977516423 0.0153065311
0.162650261 0.7502030262 0.2645576543
0.1824569341 0.9992018075 0.7610685181
0.1724712983 0.7481720835 0.5148641221
0.1625423699 0.5005324715 0.268132238
0.1625828751 0.7478140648 0.7674499277
0.1826973877 0.7472737819 0.2627257148
0.1825265294 0.7503917997 0.763405852
0.1626038641 0.999872279 0.2659854625
0.172710279 0.9988242605 0.5125451996
0.1726988639 0.9987005813 0.0131092162
0.1925235802 0.9984532229 0.5094161731
0.202565555 1.0007380334 0.7570805973
0.1926642437 0.7522860443 0.009491826
0.2026277857 0.7508279316 0.2609296775
0.1925692406 0.750697743 0.5104518173
0.2026322045 0.750411328 0.7573908303
0.2325519206 0.7531778365 0.9978729466
0.2325850612 0.4990340003 1.0004965787
0.2325467654 0.7491029322 0.4987605446
0.2325515524 0.4976012744 0.5007913278
0.2225916926 0.9997225621 0.2487587864
0.2124462455 1.0006989768 0.5086014663
0.2124628158 1.0006924674 0.0052763396
0.212617472 0.7499882149 0.0068076202
0.2324878487 1.0000740714 1.0050257962
0.2225710718 0.7500467998 0.2507914108
0.2126366199 0.7495651019 0.5042637279
0.2225301984 0.5006470375 0.2518859717
0.2224779099 0.7494869887 0.7521831507
0.252598679 0.7490313285 0.9943103304
0.2524322395 0.5003606225 0.9920088988
0.2424889501 0.7494349133 0.2476504169
0.2525802676 0.7515049125 0.4925816609
0.2424329793 0.4980120196 0.2521262412
0.2423950517 0.748888121 0.749354231
0.2524745858 0.5015368768 0.4904045065
0.2624009367 0.4986317175 0.7406299639
0.2624871023 0.7498970829 0.2381169664
0.2625423367 0.7486863286 0.7377798709
0.2822900931 0.4966229068 0.7300802012
0.2825817306 0.7495260453 0.2317521271
0.2823979842 0.4979879347 0.2308315544
0.2824403306 0.7491680266 0.7306445122
0.2724458573 0.7496627434 0.985702976
0.2725563261 0.5004882074 0.9820759198
0.2724727381 0.7497603848 0.4843499002
0.282556691 1.0009593541 0.2295197384
0.2825279691 1.0003149203 0.7306785734
0.3122724082 0.9973986949 0.9771232389
0.2925651569 0.7518824596 0.9780438115
0.3024410604 0.4987495382 0.7301455619
0.2924038726 0.4990333494 0.9751716248
0.3024097609 0.750743309 0.2283984809
0.2925298069 0.752129818 0.4787629447
0.302519125 0.4967452842 0.2283147088
0.3024738328 0.7509581203 0.7279960247
0.3025209661 1.0002302977 0.228165576
0.3125854029 0.7503852903 0.9785961551
0.3124539451 0.4983068968 0.9759449059
0.312468306 0.7523967047 0.4753338115
0.2924572658 0.9990455812 0.9766997754
0.3324601984 0.7496562339 0.9717470945
0.3324288989 0.5005708772 0.9744996068
0.3223482601 0.7510557617 0.2248174532
0.3324351588 0.7511729315 0.4721302187
0.3223990757 0.7500272715 0.7275587527
0.3325058588 0.5005005753 0.4762028321
0.3523651886 0.9997290715 0.4687480347
0.3425783966 1.0000415242 0.71933988
0.3623279942 0.7520386859 0.2122286221
0.3522348355 0.9996184112 0.9689761708
0.362375864 0.7500467998 0.7120599914
0.3625783899 0.9997551092 0.2115731744
0.3524248417 0.7497408565 0.9653214974
0.3624163692 0.9986094492 0.7114809512
0.3524182136 0.4982945289 0.9667115621
0.3423847081 0.7503332148 0.2188328104
0.3524804443 0.750984158 0.4654358143
0.3424694008 0.7511729315 0.7221522295
0.3926001055 1.0013369011 0.4511310357
0.3725389861 0.7487644418 0.9590431918
0.3725021632 0.4974443971 0.9583619681
0.3824811708 0.7506326487 0.2034712144
0.3724763872 0.7483413287 0.4567317998
0.3825437698 0.4982561232 0.2047867127
0.3825253583 0.7493437812 0.7025366672
0.3825584989 0.9996379395 0.2028212901
0.3827131551 0.9999243544 0.7024105488
0.3725168924 1.0003149203 0.956143388
0.3724248351 0.4991140663 0.4560892401
0.3925485534 0.750984158 0.9501504599
0.3926001055 0.748842555 0.4536653723
0.4126796363 0.750743309 0.9476741195
0.4126133551 0.7497734037 0.4484190287
0.4127017301 0.4978870385 0.4474229691
0.4026453944 0.9995923734 0.1983555921
0.4026858996 0.4990170758 0.6991821005
0.4026085715 0.7497538754 0.1993903158
0.4026601235 0.4971690482 0.1983500687
0.4025938423 0.7491419888 0.6997620612
0.4327223443 0.7509125543 0.9437156571
0.4224413888 0.7499296301 0.2018141836
0.4325566412 0.7516936861 0.4411142846
0.4226807377 0.5005246602 0.1937186677
0.4225297638 0.750893026 0.697985356
0.4426129769 0.7509060448 0.1908197843
0.4426718936 0.7507367996 0.6908251419
0.4323872558 1.0016949199 0.4423018234
0.4225776336 1.0011741653 0.6912237498
0.4424693676 1.0029317119 0.1906752544
0.4525956668 1.0020919952 0.9394902286
0.4624605235 0.9985052983 0.1887024672
0.4726052342 1.0024304856 0.4351848761
0.4625378516 1.001441052 0.6908260624
0.4526214429 0.7515179314 0.9396283145
0.4525477971 0.7479442534 0.4403621768
0.4725757758 0.7480223666 0.9365904247
0.4626335911 0.7495000076 0.1880055937
0.47250213 0.7493958567 0.4392169844
0.4626520026 0.7508734977 0.6883644512
0.4726715154 0.500400981 0.436792196
0.4825695126 0.9992799207 0.1841078891
0.4924932859 1.0010244484 0.4385652189
0.4924490984 1.0010960522 0.93627743
0.4825400543 0.4974248688 0.6837127975
0.4925190619 0.7471305744 0.4315845165
0.4825400543 0.7501769885 0.1859996659
0.492368088 0.7496692528 0.9300911817
0.4825326897 0.750365762 0.684631529
0.5125433584 1.0016037878 0.439902811
0.5124107959 0.9990065246 0.9361485498
0.5024096946 0.9994882225 0.1841180154
0.5226328348 0.7485235928 0.6883285488
0.5224929077 0.9995012414 0.1925476992
0.5225812827 0.9973140723 0.6904900534
0.5024575644 0.7504894412 0.184017673
0.5023728717 0.5004074904 0.1862021919
0.5023912831 0.7508344411 0.6845919444
0.5024796581 0.5035567535 0.6836308665
0.5124697126 0.7490573662 0.9369310366
0.5125580876 0.5012654335 0.9363050472
0.5123334678 0.7517783087 0.4365997963
0.52249659 0.4990515758 0.1907093156
0.5224303088 0.7500142527 0.1913804131
0.5324314101 0.7508865165 0.441783541
0.5323835404 0.5003944716 0.4422327804
0.5324498216 1.0027429384 0.9429147588
0.5424840636 0.9983100154 0.1901836686
0.5523857431 1.0013108634 0.4454354527
0.552448342 0.7490768945 0.9464589636
0.5423183605 0.9992148264 0.6947596694
0.5424803813 0.7489727436 0.1963450614
0.5524925295 0.7507107619 0.4468632609
0.5424067355 0.7506326487 0.6959205115
0.532619207 0.751270573 0.9436143941
0.5624531257 0.9987005813 0.1982377588
0.5625230892 1.0002758638 0.7007940232
0.562456808 0.7491224605 0.2002703833
0.5624015736 0.7510557617 0.6977321985
0.5724063573 0.9997681281 0.4542665062
0.5723621698 0.998726619 0.9529029722
0.5724763208 0.7486798192 0.952976618
0.5725978364 0.7491159511 0.4500769801
0.6024943541 1.0001652034 0.205557232
0.5924343361 0.7498775546 0.9534921387
0.5924011954 1.0001782223 0.4570991083
0.6024059791 0.9990716189 0.7082340914
0.5923128205 0.9985313361 0.9592917465
0.6024759426 0.7502095356 0.2069482173
0.6025348593 0.5006782828 0.2059291434
0.5923901486 0.7499947244 0.4518859053
0.6026085051 0.7517001955 0.7090570834
0.5823080368 0.9998006752 0.2024714725
0.5825400211 0.9987396379 0.7071975266
0.5824590107 0.7499621772 0.2052046527
0.5825805263 0.7511924598 0.7068937376
0.6125249138 0.751797837 0.9592181006
0.6125580544 0.7499166112 0.4604711659
0.61250282 1.0017535048 0.966545859
0.6222940308 1.0009072786 0.2160011289
0.6227469526 0.7519996293 0.2154184064
0.6225260151 0.7513551956 0.7169979431
0.6423698794 0.9995663357 0.7251956427
0.6524114859 0.9987982228 0.9742602579
0.6323319551 1.0003930335 0.9722994381
0.6325602571 0.7495585925 0.9693812228
0.6325234342 0.4969587935 0.9702373554
0.6324902936 0.7483543476 0.4688060308
0.6524777672 0.7484845362 0.9728886046
0.6524078037 0.4995729813 0.975097979
0.6424987596 0.7487449135 0.2237054015
0.6424840304 0.496827303 0.2217593108
0.6525109078 0.7466684048 0.4716377123
0.6424987596 0.7491680266 0.7227091759
0.6726272615 0.7492005737 0.9753741508
0.6723842304 0.5000611887 0.9739840861
0.6826283629 1.001590769 0.2292582957
0.6724983814 1.0006664297 0.4789673118
0.6826246806 1.0019748254 0.728613729
0.6825768108 0.7492005737 0.2284969821
0.6726088501 0.7492591586 0.4759211369
0.6826320452 0.7498580263 0.728430535
0.6626224779 0.7512966107 0.2259755336
0.6626151133 0.7485756683 0.7250750477
0.7025790136 1.0022742593 0.2371089394
0.7025569198 0.4994239153 0.7358052426
0.6925705476 0.7496106679 0.9815051647
0.6926699695 1.0007250145 0.480914323
0.7026416125 1.0004060524 0.7401328546
0.692714157 1.0015256746 0.9857490047
0.7027299875 0.750606611 0.2392152096
0.7025200969 0.4988055193 0.2381105224
0.6925779122 0.7494414227 0.4823936833
0.7027410344 0.748074442 0.7358641592
0.7225812163 0.4983003874 0.7455126813
0.732586 0.7508018939 0.9971272827
0.7225333465 0.7503071771 0.2459142169
0.7224707476 0.4983980289 0.243425909
0.7325639062 0.7489597247 0.4962427783
0.7225701694 0.7484845362 0.7429516481
0.7226732736 0.999872279 0.7448728833
0.7124328233 0.7490248191 0.9906280398
0.712543292 0.751980101 0.4930032831
0.7424987264 0.4986909533 0.7479853394
0.7425097732 0.7503267054 0.2460872845
0.7425723722 0.50269165 0.2477139364
0.7424950441 0.7508018939 0.7476364424
0.7525329684 0.5017236975 0.4999407187
0.75250351 0.7502485922 8.939534951e-04
0.7624567416 0.5002258773 0.754162382
0.7625082937 0.7505350072 0.2523352112
0.7624530593 0.499186321 0.2556244173
0.7525955673 0.7493893472 0.5004424308
0.7623610021 0.7505154789 0.7549347424
0.7823595225 0.7518368936 0.2611662647
0.7824368506 0.5006750281 0.2570218466
0.772432067 0.7493372718 0.5081061982
0.7825399548 0.7493502906 0.7600770613
0.7725646294 0.9993775622 0.5109811466
0.7725167596 0.5002304339 0.5075483312
0.7724099732 0.7498450075 0.0075138835
0.7824368506 0.4990554815 0.7580628483
0.7723915618 0.500778528 0.0059593125
0.792463728 0.7526570819 0.5123527999
0.8126058578 0.5014600655 0.5191364998
0.8122744516 0.7508995354 0.0172256489
0.8024390534 0.5022887162 0.7648115665
0.802358043 0.7502160451 0.2659201019
0.8023764544 0.5025549519 0.2639454735
0.7923643062 0.5014672259 0.511796774
0.7923422124 0.7512966107 0.0102610565
0.8123922849 0.7508734977 0.51780259
0.7924305874 0.5011046506 0.0109387821
0.8023690898 0.7514528371 0.7645547267
0.8324607689 0.4996979624 0.5263316957
0.8323944877 0.7480223666 0.0249381146
0.8224854436 0.5010258864 0.7713853758
0.8324975918 0.498338793 0.0232655261
0.8224412561 0.7514007616 0.2741095163
0.8223307874 0.5007179903 0.2709850927
0.8324865449 0.7521558557 0.5263620746
0.8224559853 0.7517522709 0.7729752048
0.8626371407 0.7505219883 0.7839834127
0.8625156251 0.4984859062 0.7834411954
0.8524592894 0.7494739698 0.0304807905
0.8524629716 0.5007772261 0.0292932518
0.862666599 0.7503722714 0.2866523187
0.8625303542 0.4990795664 0.2838178755
0.8524445602 0.7494349133 0.5317299338
0.8425870682 0.750697743 0.2797784027
0.8425097401 0.5012296316 0.2799735641
0.8424066359 0.7510883089 0.7782114221
0.8525108414 0.5023186596 0.5301925774
0.872498315 0.4986206514 0.540165141
0.8825841091 0.7482827438 0.7916481006
0.8926478094 0.4993913681 0.543090721
0.8725461848 0.7482046307 0.0377338905
0.8925631167 0.7478596308 0.0397832693
0.8825656976 0.4985555571 0.7887363293
0.8724762213 0.4994857549 0.0401578503
0.8926293979 0.4993991795 0.0403725279
0.8826098851 0.7493698189 0.2921840398
0.8824736403 0.499690802 0.290779246
0.8725388202 0.7506651958 0.5366549975
0.8926625385 0.7485431211 0.5385136337
0.8825436039 0.9973661478 0.2878674746
0.8826835309 0.9970341668 0.7869752738
0.9125616371 0.7489857625 0.543034566
0.9126131892 1.0006403919 0.0391853574
0.9125947777 0.5012589241 0.5447228963
0.9025715826 0.7496822717 0.7897572444
0.912572684 0.7476643478 0.0439630374