POSCAR file written by Ovito 3.7.11
1
271.6952379398 0.0 0.0
0.0 15.3694036131 0.0
0.0 0.0 10.8678095176
Sr Ti O 
800 800 2400 
Direct
0.0124034929 0.2505069099 0.5033360944
0.0224984434 0.2505166696 0.7518986034
0.0023691617 0.2502596655 0.7550464318
0.0124416238 0.2508628118 1.0008181299
0.0224377872 1.1606218301e-04 0.2522201731
0.0025569456 1.0009107831 0.250628316
0.0124770679 2.2369542994e-05 0.5024435503
0.0224389282 7.806292838e-04 0.7516032356
0.0025131465 -3.3554935474e-04 0.7530671921
0.0125484347 1.0015158814 1.0043146947
0.022398 0.2502538097 0.2510709075
0.0025311814 0.2511211172 0.2548223534
0.0324430417 0.251303948 0.4996748231
0.0425429611 0.2521562908 0.7492310925
0.0323789994 0.2513013454 0.9982325123
0.0424016263 1.0002015819 0.2475209741
0.032438257 1.0083712901e-04 0.4983378471
0.0424196612 1.0027130652 0.7479502456
0.0324864727 -6.0257337879e-04 1.0044159111
0.0423541466 0.2492823992 0.2481107893
0.0724871738 0.2504151692 0.4975934469
0.0523926001 0.24900002 0.4976431349
0.0624737484 0.2515232148 0.7482262902
0.0724142981 0.2488607823 0.9960793645
0.05246658 0.2507424428 0.9970179161
0.062378421 0.9990434368 0.2465520576
0.072500792 0.9995899772 0.4977001841
0.0523664679 -0.0010202213 0.4951072053
0.0624446717 1.0009107831 0.7476953644
0.0724124578 4.0977942331e-05 0.9974595874
0.0524198365 1.0006114872 0.9986465792
0.0624616025 0.2497736349 0.2465419359
0.0924823715 0.250067075 0.4985550022
0.1024762898 0.2510527997 0.7463197422
0.0825230509 0.2494405055 0.7458743903
0.0925445736 0.2499551644 0.9975608038
0.1024188725 1.0015158814 0.2463983927
0.082387605 0.9999998825 0.247594586
0.0924503504 -5.1337017777e-04 0.4969484227
0.1025550545 -8.435716695e-04 0.7453167802
0.0824858769 0.9998046895 0.7478057823
0.0923877803 1.001659023 0.9965762448
0.1023824347 0.2514887307 0.2460726601
0.0825348288 0.2508146642 0.2475936658
0.1124253048 0.2505439966 0.4981851024
0.1224505081 0.2499245841 0.7475472205
0.1124602705 0.2502310372 0.9983337286
0.1224700153 -5.1733910211e-04 0.2484310011
0.112476097 1.0019192803 0.4969806279
0.1224199592 1.0006375129 0.745890953
0.1124087421 5.3397039609e-04 0.9949843876
0.1225108699 0.2497892503 0.2474657651
0.1524642841 0.252037223 0.4966871005
0.1324576765 0.2522376212 0.4960724412
0.1424729422 0.2497977087 0.7455210532
0.1525113957 0.2484391654 0.996392215
0.1324874894 0.2504132173 0.9973767741
0.1424758867 -0.001320298 0.2465658598
0.1524495617 1.0011059761 0.4977323893
0.132534601 3.3565430805e-04 0.4963300828
0.1425079079 -1.7132697738e-04 0.7478839949
0.1525463613 0.998627025 0.9973491696
0.1324414819 -9.9946581219e-04 0.9971191324
0.1424320876 0.2502303865 0.2476516352
0.1724970239 0.2492602773 0.4983875351
0.1624972167 0.2486193936 0.7491510396
0.1725051212 0.2463174175 0.99673267
0.1625185641 -0.0017546675 0.2487705359
0.1725647468 -8.1878215849e-04 0.4996748231
0.1624758692 0.9997005865 0.7483357879
0.172491503 -0.0022565608 0.9966682596
0.1625259253 0.2481815107 0.2469808468
0.1925676738 0.249919379 0.4979605862
0.2025060151 0.2502160724 0.7477625353
0.1826028322 0.2475601463 0.7477266495
0.1925231386 0.2505784807 0.9953248426
0.2025012303 -0.0021062296 0.2490723446
0.1825001436 -0.0022065979 0.2475715822
0.1925312359 -8.3114438183e-04 0.4974038962
0.2025523905 0.9995053935 0.7495660266
0.182490206 0.9994923807 0.7471506364
0.1925481666 -8.5320119083e-04 0.9966130507
0.2025509183 0.2474820691 0.2458159387
0.1824710669 0.2498861962 0.2479966909
0.2125952607 0.2503318869 0.4991448175
0.2224574137 0.2500618699 0.7454179966
0.2124767456 0.249390406 0.9955916857
0.2225910193 1.0010604311 0.2479055962
0.2125337948 1.0000128953 0.4987463931
0.2224747125 1.0001625433 0.7474929317
0.2124682802 1.0002406205 0.999437907
0.2226024291 0.2503351401 0.2445636164
0.2525805033 0.2489024235 0.4971158897
0.2325680068 0.2492244919 0.4968076399
0.2426517316 0.2510118092 0.7467568128
0.2526732543 0.250997495 0.9980668855
0.2325577011 0.2490019719 0.9976252142
0.2424691741 1.0007025773 0.2483803929
0.252535232 3.2556933638e-04 0.4970459584
0.2325422426 8.6392847006e-05 0.4977130662
0.242580328 1.0006960708 0.7463657497
0.252554003 6.0846905777e-04 0.9977908409
0.2325002839 -5.8793390379e-04 0.9985729673
0.2425420498 0.2499675266 0.2483325452
0.272637535 0.2488087308 0.4983139232
0.262577366 0.252400282 0.7485483422
0.2725779094 0.2509142127 0.9969351027
0.2625519699 1.0010409118 0.2505151377
0.2725223324 -2.7848793439e-04 0.4997640775
0.2625188446 1.0025699236 0.7487314518
0.272488839 2.5249213237e-06 0.997735632
0.2625589631 0.2510124598 0.2473268227
0.2925363011 0.2509207191 0.4980038332
0.3026590402 0.2509096582 0.7478011815
0.2825872861 0.2500755334 0.7468028203
0.2925697945 0.2485504254 0.9938894108
0.3025368445 9.640456395e-04 0.2469790065
0.2825199312 1.0005659422 0.246604506
0.2925896698 0.0018583549 0.49538417
0.3026925336 5.4952077176e-04 0.7465838249
0.2826535368 1.0009107831 0.746101667
0.2926629136 -5.3080741911e-04 0.995104007
0.3025821158 0.2515310225 0.2469550827
0.2825644664 0.2508602093 0.2458711476
0.3325955237 0.2489258466 0.4941557716
0.3126400764 0.2510658126 0.49761277
0.3225607508 0.2506097116 0.7474045975
0.3325918431 0.2492075752 0.9983061242
0.3126835074 0.2496838461 0.9983797361
0.3225467646 -3.4674042007e-04 0.2480445386
0.3326073016 9.3029409007e-05 0.4971103688
0.3125683048 0.0014978985 0.5000944108
0.3226303141 -2.6038321015e-05 0.7479290822
0.332616135 -8.1520362016e-04 0.9969351027
0.3125392281 1.0008977703 0.9979656692
0.3226958286 0.2495608745 0.2483868339
0.3525193179 0.2504236276 0.49625095
0.3426093171 0.2497267886 0.7445852621
0.3525369847 0.2504405443 0.9966866626
0.3425283441 -0.0010273133 0.248585586
0.3524913453 0.0010336645 0.4988476094
0.3425695667 1.0007351094 0.7454925286
0.3525310958 8.2500315914e-04 0.9973675726
0.3425552124 0.2505342369 0.2489352425
0.3725388075 0.24853481 0.497544679
0.3825941917 0.2494626274 0.7484554072
0.3625754382 0.2474671043 0.747451525
0.3725240851 0.2484463225 0.9948831713
0.3826015529 1.0008261995 0.2467038821
0.3625938411 1.0007220966 0.2490217365
0.3725866552 -0.0015600601 0.4979237802
0.3825721081 -9.3192903418e-04 0.7476935241
0.362431895 0.9994012906 0.7471359141
0.3725240851 -0.0014934342 0.9985269598
0.382627317 0.2497417534 0.2449123527
0.3625018263 0.2490136835 0.2449776833
0.3925722834 0.2487748974 0.497773796
0.4023957901 0.249435951 0.7482824192
0.3925649222 0.2487124356 0.9968890953
0.4025466945 0.9994208099 0.2475623808
0.3924986715 0.9991085011 0.4986332148
0.4025172497 -0.0023664544 0.7468515881
0.3925207551 0.9985944929 0.9967418715
0.4025650975 0.2483884152 0.2483803929
0.4324220801 0.2485569319 0.4963751701
0.412535828 0.2489082793 0.4973864134
0.422447669 0.2483266041 0.7462654535
0.4324883308 0.2493754412 0.9959689467
0.4124548549 0.2508289784 0.9978552513
0.4225691286 0.999167059 0.2458702274
0.432514095 1.0007936673 0.4955755609
0.4125321474 -0.0015015673 0.4969806279
0.4225065585 0.9999998825 0.7457253262
0.4323926353 0.9988872824 0.9965486403
0.4125284668 -5.4160809844e-04 0.9983705346
0.4224697526 0.2498230838 0.2462171235
0.452573335 0.2489486191 0.4981841823
0.4424517001 0.2491815495 0.7464430421
0.4524665978 0.249519884 0.995766514
0.4424148942 1.0001950755 0.2472918571
0.4525181261 -0.0021664662 0.4956611348
0.442506909 -0.0017894769 0.7449763252
0.4524923619 0.9995899772 0.9974687889
0.4424958673 0.2481671965 0.2468161402
0.4725663244 0.2492309984 0.4903389951
0.4824892072 0.2508504496 0.7435767792
0.4624778148 0.2488744458 0.7458109
0.4724448648 0.2512531978 0.9934569409
0.4824524012 5.1778621666e-05 0.2403797006
0.4625367043 -6.0803878279e-04 0.2445065672
0.472551602 1.0005529293 0.4929411754
0.4824708042 1.0012816498 0.7390551688
0.4624998984 -1.9748283938e-04 0.7447683716
0.4723933364 7.2239670546e-04 0.9931716948
0.4824892072 0.2499180777 0.2412878873
0.4625955939 0.2491399083 0.2461563937
0.5124566076 0.0018290109 0.4938558031
0.5124750106 7.3098519746e-04 0.990411249
0.4924967436 0.2506116635 0.491458816
0.5023754593 0.2504789323 0.741687714
0.4924120899 0.2495153295 0.9903284356
0.5124970942 0.2505901923 0.4915480704
0.5124234823 0.2500891969 0.9906780921
0.5024527518 4.8497695308e-04 0.2391669447
0.4924636183 0.001717881 0.492257505
0.5025153219 -5.5143281278e-04 0.7396965124
0.4924525765 7.812148628e-04 0.9910921589
0.5024858771 0.2512167618 0.2426993953
0.5224567829 1.0013922592 0.2427076766
0.5324643194 -4.0653454242e-04 0.496201262
0.5223942128 1.0000649468 0.7412202785
0.5324201522 1.000878251 0.9954904694
0.5225046306 0.2505648172 0.2451755152
0.5324790417 0.2499278374 0.4934978653
0.5224678247 0.2517639528 0.7428102954
0.5324606388 0.2490026225 0.995711305
0.5424313693 -2.909802864e-04 0.2430490517
0.5624464422 -0.0012672706 0.2449795236
0.5525198788 -8.3465785583e-04 0.4950280725
0.5424865782 1.0003056848 0.7455919047
0.5625163735 1.0017240873 0.7462958184
0.5524941147 -8.591871095e-04 0.9963646106
0.5424939394 0.2511445404 0.2477022433
0.5625016511 0.2501952518 0.2465658598
0.5524389057 0.2508367861 0.4939248143
0.5423319932 0.2493695854 0.7450039297
0.5623286632 0.2514737659 0.7451493132
0.5524241834 0.2485751499 0.9956837006
0.5824615151 -9.2008732551e-04 0.2466091068
0.5724760622 3.3057929005e-04 0.4958580466
0.5824283898 1.0009433153 0.7470770245
0.5724355757 -9.1898123185e-04 0.9964474239
0.5824063062 0.2492368541 0.2469790065
0.5723987697 0.2514405831 0.4965067513
0.5824983211 0.2491822001 0.7447987365
0.5724981458 0.2506552566 0.9949475817
0.6025170746 1.0009042767 0.2440823786
0.59258315 0.9999218053 0.4967441497
0.6125135693 4.1717991773e-04 0.4984951925
0.602531797 0.0017517795 0.7489164017
0.5924212039 -6.3517060979e-04 0.9978736543
0.6124620409 0.0014971177 0.9961437749
0.6024213791 0.251982569 0.2470572192
0.5924138427 0.25013279 0.4956050057
0.6124289156 0.2515095513 0.4953740484
0.6024913104 0.2506207725 0.7458642687
0.5924248845 0.2506923433 0.9963462076
0.6124546798 0.2502004569 0.9963094017
0.6223959655 0.0012523457 0.2462686518
0.6325286422 0.0018213333 0.4950703993
0.6225321475 0.0015635484 0.7453756697
0.6324881556 1.000923796 0.9980300796
0.622473258 0.2507541544 0.2454929665
0.6324918362 0.2512297747 0.4954835461
0.6224585356 0.250384589 0.7461688379
0.6324881556 0.2492641812 0.9949383802
0.6425214563 1.0002666462 0.245025531
0.6624813203 -1.5642724504e-04 0.2487953799
0.652499548 -2.9942181016e-05 0.4957568302
0.6423852743 0.9994858742 0.7454732055
0.6624923621 0.9996225093 0.7465608212
0.652462742 1.0004293071 0.9978552513
0.6425140951 0.2495986118 0.2451966786
0.6624150696 0.2494346497 0.2460054893
0.6523928107 0.2508712702 0.4951412508
0.6424883309 0.2508263758 0.7471533969
0.6624960427 0.250039748 0.7476419958
0.6523928107 0.2508758247 0.9953524471
0.6826104916 1.0001820626 0.2461793974
0.6724630926 1.0001300111 0.4957126631
0.6824264619 -6.9717691947e-04 0.7449717245
0.6725256627 4.9831514142e-04 0.9971191324
0.6825552827 0.2493370532 0.2485138144
0.672459412 0.2486343584 0.4969410615
0.6824522261 0.2482433218 0.7473162632
0.6725293433 0.2500390974 0.9965946477
0.7024157707 -5.4479625078e-04 0.2453236591
0.6924965685 0.9998567409 0.4967257467
0.7125190026 1.0012230919 0.4973808925
0.7025593138 1.0006895644 0.7470383783
0.6925701804 1.0005724486 0.997109931
0.7124601131 2.3597574937e-04 0.9984993554
0.7025482721 0.2507053561 0.2477031635
0.6925223326 0.2492355529 0.4963383641
0.7125852533 0.2495888522 0.4986442566
0.7025335497 0.249390406 0.7484278027
0.6925076103 0.2513742175 0.9979932736
0.7125705309 0.2510443413 0.9992538773
0.7225007749 -3.8447773341e-04 0.2488128627
0.7425710567 1.0006960708 0.2473700697
0.7324788666 -1.245457217e-04 0.4988485296
0.7225118167 1.0009823539 0.7483063431
0.7424017494 -6.7271273013e-04 0.7485768668
0.7324457412 1.0013206884 0.9966498566
0.722544942 0.2492557228 0.246777494
0.742541612 0.2507190197 0.2468934327
0.7324641442 0.2512824768 0.4972272277
0.7225302196 0.2506838849 0.747717448
0.7424606389 0.2499415009 0.747240811
0.7324899084 0.2504633168 0.99605176
0.7625346013 0.0011814906 0.2486343539
0.7524203276 -2.892235494e-04 0.4980544413
0.7625235595 -8.7312083451e-06 0.7498172272
0.7525675514 1.0009303024 0.9990054371
0.7625971714 0.2501464535 0.2486628785
0.7524608142 0.2497814426 0.4981740606
0.762582449 0.2495452591 0.7494160424
0.7525307455 0.2505927948 0.9983429301
0.7826122443 -2.3203200039e-04 0.2499059993
0.7725679019 0.9996160029 0.4987942408
0.7924541541 0.9995444321 0.497644055
0.78246134 2.4554020637e-04 0.7499902151
0.7725642213 1.0000779597 1.0001280185
0.7925498495 -0.0016132827 1.0000268021
0.7825386325 0.248283011 0.2489186798
0.7725200542 0.2498757859 0.5005139986
0.7925498495 0.2500091678 0.497024795
0.7824760624 0.2518810686 0.7498310294
0.7725421378 0.2507482986 0.9978920573
0.7925792943 0.2508276771 0.9993274891
0.8025721084 1.0009498217 0.24910547
0.8123808927 1.2886989901e-06 0.497699264
0.802421204 -9.2724440218e-04 0.7494151222
0.8125060329 1.001268637 0.9995391233
0.8025868307 0.2498608211 0.2492131274
0.8124655464 0.2490976165 0.4993049233
0.8026015531 0.2494775922 0.7500472643
0.8125759642 0.2496870993 1.0004132645
0.822498847 0.9998827667 0.2497845397
0.8425728094 1.0010409118 0.2484714876
0.8324990223 -2.1548882014e-05 0.4993601322
0.8225098888 3.1216608371e-04 0.7486247145
0.8424623916 -5.9756342512e-04 0.7523145105
0.8325431894 -1.3144254103e-04 1.0033117327
0.82251725 0.2499974562 0.2476746389
0.8425028781 0.2500072158 0.2493888758
0.8325321476 0.2490982671 0.5003124861
0.8224215545 0.2511308769 0.7480118956
0.8426096154 0.2514841762 0.7501448001
0.83254687 0.2503071624 0.9974043785
0.8625842018 -1.7048114104e-04 0.2482276482
0.8525509011 1.0003902685 0.4974471432
0.86257316 1.001073444 0.748033059
0.8525545817 -0.0015301305 1.0009377492
0.862554757 0.2493539699 0.2448755468
0.8525545817 0.2500403987 0.4993224061
0.8625437152 0.2486174417 0.7465663421
0.8525177758 0.2488614329 0.996410618
0.882533024 1.001359727 0.2456043045
0.8725586129 -0.0019742076 0.4979090578
0.8924853515 -0.0021198736 0.4970201943
0.8824520509 1.0006765515 0.7460786633
0.872584377 -0.0010109171 0.9948739698
0.8825109404 0.2498816417 0.2457349656
0.8925847276 -5.0126821177e-04 0.9965762448
0.8725365293 0.2496526152 0.4974738275
0.8924595874 0.2494353004 0.4964947894
0.8826471224 0.2513755188 0.7473788333
0.8725696547 0.2486011756 0.9963830135
0.8925920888 0.2505680704 0.997395177
0.9025996252 -5.2259247353e-05 0.246387351
0.9224269878 -0.0011971963 0.2448313796
0.912640287 -3.9462776942e-04 0.4978593698
0.9026180282 0.9991345268 0.7488740748
0.9225668504 0.9993036941 0.7464412018
0.9124820215 1.0004748521 0.9958401259
0.9024376791 0.25106321 0.2476746389
0.9225079609 0.2516390293 0.2466367112
0.912522508 0.2502037101 0.4949176547
0.9025775417 0.2496428556 0.7454161563
0.9224858774 0.2507554557 0.745173237
0.9125077856 0.2496890513 0.9977448335
0.9426113681 1.0002666462 0.2487788172
0.9325044556 0.9997266123 0.4957255452
0.9424346996 0.9993687584 0.7466638778
0.9325375809 1.0008457188 0.9963094017
0.9425230338 0.2492049726 0.2469458812
0.932519178 0.2501314887 0.4969116167
0.9423794907 0.2481867158 0.7474837302
0.932482372 0.2496187818 0.9963554091
0.9626816499 -0.001315158 0.2490272574
0.9525342509 0.9983927934 0.4986617394
0.972575088 0.9991150075 0.4993840561
0.9626153992 1.0005919679 0.7473199438
0.9525600151 1.0010929633 0.9955548798
0.9625859545 0.2497508624 0.2505804682
0.9726045327 -0.001411258 1.0022903677
0.9525048061 0.2480084395 0.4983516493
0.9724867537 0.2493481142 0.5005139986
0.9623982442 0.2506480995 0.7486513988
0.9525710568 0.2497098718 1.0007537195
0.9724720313 0.2497176796 0.9999347872
0.9825973468 -8.384966515e-04 0.2493520698
0.9925643967 1.002244602 0.5046887129
0.9825200543 1.0012946627 0.7518148698
0.9824538036 0.2507710711 0.2521585231
0.9924650207 2.3961935203e-04 1.0055476939
0.9924944654 0.2514002432 0.5014415084
0.9824758872 0.2512961403 0.7543084726
0.992534952 0.2496025157 1.0019315098
0.0124208285 0.7499641558 1.0008089284
0.0224661646 0.4986538189 0.7495329012
0.002329264 0.499627832 0.7502819022
0.0123663189 0.5001171158 1.0020419276
0.0224163662 0.7510637431 0.2532673022
0.0024651884 0.7503480354 0.2517683801
0.0123768822 0.7510247045 0.5019531111
0.0224126856 0.7489426458 0.7532512218
0.0223883937 0.5008471376 0.2515153393
0.0023896626 0.5008425831 0.2515585862
0.0024988658 0.7505757606 0.7533671606
0.0123937393 0.4991892984 0.5041126999
0.0323087 0.7496843792 1.0005696898
0.0424590436 0.5013670016 0.7465626615
0.0324327361 0.5006031464 0.9982877212
0.0423968415 0.7488971008 0.2487456919
0.0323480824 0.7504261126 0.5014083831
0.0424303349 0.7524235876 0.7497758205
0.042312924 0.500047497 0.2506991674
0.0324596044 0.5005660597 0.501320969
0.0724131939 0.7491573581 0.9975608038
0.0623997685 0.5010800679 0.7486734824
0.0524275657 0.7502179067 0.997395177
0.0724062008 0.4994391454 0.9966222522
0.0524559063 0.5008146055 0.9967786775
0.0624288452 0.7490402423 0.2457662506
0.0724477915 0.7497299242 0.4972125053
0.0523539538 0.7502439325 0.4970588405
0.0624189076 0.4989017141 0.2475246547
0.072507049 0.5002570041 0.4963346835
0.0624612344 0.7506408249 0.7490470628
0.0524577466 0.4983577762 0.498733511
0.0924448295 0.7494436412 0.9965210358
0.1024748176 0.5007645059 0.7483992781
0.0824958145 0.5014828162 0.7459240783
0.0924937814 0.4989153776 0.9976620201
0.1024144558 0.7520657338 0.2467259657
0.0824192581 0.7513240004 0.2459990482
0.0925154969 0.7491768774 0.4956970205
0.1024770259 0.7498145079 0.7450462565
0.1024799704 0.5007397815 0.2472449295
0.082548815 0.5013409759 0.2458821894
0.0823990148 0.7508815629 0.7452275258
0.092441517 0.4990825929 0.4963981738
0.1124120547 0.7518835537 0.9980208781
0.1224611819 0.5002960427 0.7480947089
0.1124311938 0.5009733624 0.9971283339
0.1223927228 0.7504846705 0.2497192091
0.1124856666 0.7524366005 0.4980480003
0.1224777445 0.499525681 0.2498259464
0.1224586054 0.749261461 0.7480634239
0.112401381 0.5005536975 0.4973891739
0.1524355755 0.748871075 0.9980300796
0.1425351443 0.4998457975 0.7476944443
0.1324411139 0.7501723617 0.9989042208
0.1525117638 0.4984469144 0.9985269598
0.1324477389 0.4994040107 0.9983705346
0.1424920813 0.7475893077 0.2477270874
0.1524583951 0.7509336144 0.4983038016
0.132522455 0.7508620436 0.499940746
0.1424276709 0.4994736295 0.2487806575
0.1424471781 0.7511613396 0.7487461742
0.1525743339 0.5005231172 0.4973376455
0.1324330166 0.5014515853 0.4980866465
0.1723958075 0.7493720704 0.9992354743
0.1624950083 0.4991086186 0.7511127964
0.1723704114 0.4983733917 1.0023547781
0.1624648274 0.7467629906 0.248133793
0.1724966558 0.7480772902 0.4970385972
0.1625123071 0.4975997767 0.2488754328
0.1624637232 0.7491768774 0.748441605
0.1725875665 0.4982146347 0.4966272908
0.1924462141 0.748871075 0.9969719087
0.2025417168 0.4992406992 0.7489789718
0.1825185466 0.4988405536 0.7486017108
0.1925363887 0.5005003447 0.9983705346
0.2024640563 0.7483310411 0.2488202239
0.1825122896 0.7485457534 0.2483123019
0.1925433818 0.7490337359 0.4980489204
0.2024923969 0.49711765 0.2483702712
0.2025078553 0.7489686715 0.7482989819
0.1825167063 0.4990481088 0.2474418413
0.1824427263 0.7501333231 0.7481002298
0.1925411735 0.4986596747 0.4961405322
0.2125172321 0.7496323277 0.9983337286
0.2225854984 0.5005296237 0.7480017739
0.2125426282 0.4988353484 0.9979104603
0.222490171 0.7517143864 0.2479368812
0.2124830026 0.7491638645 0.4989552668
0.222546116 0.4990201311 0.2454331568
0.2224618304 0.7511092881 0.7476649995
0.2126077747 0.49931227 0.495452261
0.2524071473 0.7494046026 0.9991342579
0.2424982508 0.5001223209 0.7476281936
0.2324259358 0.7508164986 0.999741556
0.2524973219 0.5014912745 0.9990054371
0.232414526 0.4992498082 0.9982233108
0.2424573962 0.750582267 0.2476829202
0.2524929052 0.7487279335 0.497414938
0.2325797847 0.7496778728 0.500181825
0.2423859926 0.5008744646 0.2506513197
0.242518494 0.7512524296 0.7506435206
0.2524825995 0.4987065211 0.4991291749
0.2325087492 0.500614858 0.5003198472
0.2724678596 0.7495347312 1.0009193463
0.2625254697 0.5017307113 0.7489532076
0.2725499369 0.5015875697 0.9991710639
0.2624827748 0.7508295115 0.247242169
0.2724137549 0.748871075 0.4999020998
0.2625873036 0.5017307113 0.2490106947
0.2623808223 0.7511613396 0.7492044082
0.2725988888 0.498921884 0.4980746846
0.2925826766 0.7501723617 0.9980852885
0.3025228582 0.5004678126 0.749451008
0.2826373422 0.501311697 0.748268617
0.2926827888 0.4993825395 0.9998427724
0.3024893648 0.7509531337 0.2476645172
0.2824120898 0.751317494 0.2511951275
0.2924531197 0.7523975619 0.4998441304
0.3026259149 0.5008913814 0.2477059239
0.3026016229 0.7499186108 0.7483643125
0.282592439 0.5005328769 0.2498940374
0.2825280286 0.7506928764 0.7485142967
0.2925429262 0.5014574411 0.4999076207
0.3324217996 0.7488971008 0.998076087
0.3224974446 0.5010371255 0.7500500248
0.3125465893 0.7488905943 0.9987201911
0.332485842 0.4996785822 0.9975424008
0.3126345555 0.49860437 0.9981589004
0.3225221046 0.7488450493 0.2482892982
0.3325712318 0.7496388342 0.4949158144
0.3124899081 0.751558232 0.4977526326
0.3225879872 0.49931227 0.2473433854
0.3224911876 0.7494826798 0.7478444285
0.3325024046 0.5001236222 0.4974499037
0.3125583672 0.502008536 0.4997686782
0.3524431295 0.749456654 0.9955180738
0.3424712949 0.5005985919 0.7444067532
0.352557228 0.4999759262 0.9973767741
0.3424735032 0.7503480354 0.248084105
0.3524508588 0.7497884821 0.4990518824
0.342533865 0.5011392765 0.2497587755
0.3424517877 0.7510572366 0.7469859298
0.3525796796 0.5008725127 0.4970330764
0.372498321 0.7493004996 0.998398139
0.3824396067 0.5003129594 0.7479428844
0.3625938411 0.4985737898 0.7469288806
0.3725461687 0.4989205827 0.998416542
0.3825205798 0.7503350225 0.2473084197
0.3624723815 0.751018198 0.2466100269
0.3724909598 0.7499901816 0.4988328871
0.3825537051 0.5001626608 0.2457230036
0.382410162 0.749365564 0.7490130173
0.3624907845 0.5002075552 0.2448120565
0.3624871039 0.7492289289 0.7500813098
0.3725093627 0.5002056033 0.4960567987
0.3925207551 0.7507644471 0.9969903116
0.4024325961 0.5004827774 0.7478113032
0.3924765879 0.4994157223 0.9967602745
0.4025577363 0.7483570668 0.2476976426
0.3925023521 0.7493330318 0.4971186502
0.4024914856 0.4993356932 0.2454064725
0.4024951662 0.7498795722 0.7472638147
0.3925649222 0.4989374994 0.4976090894
0.4324294413 0.7481358481 0.9978460499
0.4223519735 0.4986577228 0.7463427459
0.4124806191 0.7493720704 0.9988582133
0.4324993726 0.4988887012 0.9957389095
0.4123554789 0.5005914348 0.9978092439
0.4224881555 0.7483570668 0.2489361627
0.4325472203 0.7492809803 0.496158015
0.4125689533 0.7490337359 0.496573002
0.4224329466 0.4985855014 0.2477408896
0.4224219048 0.7484871955 0.7477735771
0.4324993726 0.4983109299 0.4975391581
0.4123444371 0.4991769362 0.4963291627
0.4523966665 0.7492679675 0.9964658269
0.4424737837 0.4996603642 0.7480855074
0.4524592366 0.4999583588 0.9978736543
0.4424517001 0.7486888949 0.245229804
0.4524813202 0.7486693756 0.4959114152
0.4425510762 0.4989505123 0.2458757483
0.4424774643 0.7487995043 0.7468534284
0.4525107649 0.4981443652 0.4954007327
0.472551602 0.7509206015 0.9918374793
0.4824155953 0.4986264919 0.7391573053
0.4624520507 0.5000995484 0.7471423551
0.4724043782 0.5006571498 0.9934569409
0.4825186519 0.7491378388 0.2442065987
0.4624778148 0.7490857873 0.2450384131
0.4724743095 0.750146336 0.4921995356
0.4824892072 0.4996837873 0.2420497703
0.4825407355 0.7513955712 0.7421183436
0.4624778148 0.49975731 0.2429294324
0.462485176 0.7499641558 0.7457262464
0.4724779901 0.499627832 0.4955774012
0.4924967436 0.5000266764 0.9931164859
0.5024085846 0.7508099922 0.2428558205
0.4924599377 0.7507579407 0.4908837231
0.5024895577 0.500844535 0.2418298548
0.502423307 0.7507514343 0.7416895543
0.4924268123 0.7499316237 0.9917638674
0.4924415347 0.5006291721 0.4937674689
0.5024122652 0.5000188687 0.7401473852
0.5125154971 0.7503155032 0.9918190764
0.5124382047 0.5019128914 0.9921871358
0.5123903569 0.7510572366 0.4901742885
0.5124050793 0.5015647972 0.4910226655
0.522364768 0.5019317601 0.742071416
0.5324790417 0.7488320364 0.9944138955
0.5323465403 0.4993643215 0.9946347312
0.5224052546 0.5000507502 0.2418500981
0.5225046306 0.7512068846 0.2426377453
0.5324900835 0.7510247045 0.4940968821
0.5323796657 0.5009239135 0.4954669834
0.5224567829 0.7502634518 0.7439982072
0.5424092857 0.4998015538 0.7474901713
0.5523505715 0.7491768774 0.9981312959
0.5624464422 0.5005927361 0.7474524452
0.5524609893 0.4999310318 0.9974411845
0.5424681752 0.5017209516 0.2439986451
0.5424276887 0.750927108 0.2467112433
0.5624464422 0.5012232095 0.2491846028
0.5624427616 0.7496258213 0.2479700066
0.552391058 0.5011607477 0.499185304
0.5525014759 0.7500942845 0.4952838738
0.542479217 0.7497299242 0.7466132696
0.5624648452 0.750432619 0.7482400924
0.5824835987 0.4997969993 0.7474524452
0.5726012024 0.7493004996 0.9986557807
0.5724760622 0.5005361301 0.9987846015
0.5824541539 0.4994541102 0.2485082935
0.5826161001 0.7495867827 0.2504682101
0.5725165488 0.5015485311 0.4989479056
0.572505507 0.7501528424 0.4971434942
0.5825903359 0.751018198 0.7461780393
0.6024986716 0.5018361155 0.7449091544
0.5925610665 0.7514801548 0.9982601167
0.6124878051 0.7514150905 0.9971651399
0.5925573859 0.4996421462 0.9941102464
0.6125871812 0.5001906385 0.9949383802
0.6025612417 0.7496778728 0.2477132851
0.602531797 0.5010299684 0.2444237538
0.5925868306 0.7496713663 0.4969401413
0.5924727322 0.5002706676 0.4964883484
0.612660793 0.7498145079 0.4992313114
0.6125319722 0.5014632969 0.4956408915
0.6025244358 0.7524561198 0.7479373635
0.6224511744 0.5001320806 0.743909873
0.6324660721 0.7502569453 0.997772438
0.632539684 0.4993949017 0.9969443042
0.6226168012 0.7507123957 0.2473571876
0.6224990222 0.4995263317 0.2461665153
0.6324697527 0.7515517256 0.496021833
0.6324734333 0.5012264627 0.4995091963
0.6226168012 0.7504846705 0.7492817007
0.6425214563 0.4990429037 0.7474855705
0.6525694793 0.7494176154 0.9999163843
0.6625070844 0.5002667638 0.7486918854
0.6525437151 0.5003786744 0.9986833851
0.6424183996 0.7497364307 0.2480942267
0.6424368026 0.4989095218 0.2476350725
0.6626285441 0.75077746 0.2500237783
0.662547571 0.5002804273 0.2481678385
0.652499548 0.7496258213 0.4970468786
0.6525142704 0.5006252682 0.4985982492
0.6424552056 0.7484546633 0.7464577645
0.6625034038 0.7504065933 0.7482778185
0.6825111156 0.4998510027 0.7471515566
0.672558788 0.7513240004 0.9962265883
0.6725293433 0.4996740277 0.9979932736
0.682525838 0.7492809803 0.2481926826
0.6824669484 0.4987253897 0.247396754
0.6725551074 0.7500552459 0.5003594136
0.6725330239 0.4997807332 0.4990850078
0.6825552827 0.7492939932 0.7493488715
0.702448896 0.5003227191 0.7462801758
0.6925480968 0.7505887734 0.9972295503
0.7124895578 0.7493395382 0.997754035
0.6925112908 0.5008302209 0.9976896246
0.7126183786 0.4996388929 1.0006709061
0.7024709796 0.7484676762 0.2459990482
0.7026182034 0.4989049673 0.2498921971
0.6925002491 0.7486433499 0.4980507607
0.6925407356 0.4981560768 0.4989515862
0.7125263638 0.500065715 0.5000419624
0.7125778921 0.7502179067 0.497160977
0.702485702 0.7502309196 0.7476033496
0.722563345 0.5010501383 0.7517237751
0.732574562 0.7518770472 0.9997875635
0.7425158478 0.5004808254 0.7491096329
0.7325966456 0.5020488759 0.9994287055
0.722544942 0.7509791594 0.2498259464
0.722563345 0.5002758728 0.2483840735
0.7425784179 0.7496908856 0.2501360365
0.7425710567 0.5014795629 0.2482607736
0.7325340755 0.5006096528 0.4982347905
0.7325119919 0.7494241219 0.49959385
0.7225412614 0.7490337359 0.7488915576
0.7424385553 0.7492484482 0.7483992781
0.7524976201 0.4987858995 0.4980443197
0.7525601902 0.7509986787 0.9996679441
0.762483073 0.4995497548 0.7485575437
0.7525859544 0.5006434863 0.9982877212
0.7625346013 0.7503024904 0.2495729055
0.7625125178 0.4992159748 0.2502151692
0.7525086619 0.7497819757 0.5018261305
0.7624941148 0.7493915897 0.7480468612
0.7725274154 0.4993708279 0.5014212652
0.7725053318 0.7514736484 0.9998979813
0.7925204048 0.4995608157 0.5008047656
0.7925388077 0.7482789896 1.0000268021
0.7824797429 0.4991372469 0.7477468927
0.7725679019 0.5012694051 1.0000452051
0.7924431123 0.4989179801 0.9969351027
0.7825459936 0.7500942845 0.2498369882
0.7825349519 0.5006272202 0.2503669938
0.7724722065 0.7505887734 0.4997787999
0.7924688764 0.7488515557 0.4973983754
0.7825055071 0.7489686715 0.7490516635
0.8125317971 0.4985828988 0.497637614
0.8125060329 0.7495672634 0.9988766163
0.8025868307 0.4997143676 0.7502404955
0.8125538807 0.4995790338 0.9972203488
0.8025537054 0.7507904729 0.2507249316
0.8024616905 0.4985484147 0.2485285368
0.8125575612 0.7499641558 0.5003115659
0.8024727323 0.7485067148 0.7470871462
0.8325579118 0.4995699248 0.4985853671
0.8324732581 0.7487995043 0.9995667278
0.8224657217 0.4998854868 0.7451833587
0.8425544065 0.5006109541 0.7466509957
0.8324511746 0.5001320806 0.995729708
0.8224841246 0.749651847 0.2479534439
0.8224436381 0.5002342316 0.2481015878
0.8425323229 0.7493525511 0.248585586
0.84257649 0.4990982083 0.2465060501
0.8324842999 0.7517859572 0.4968370847
0.8225945425 0.7501593488 0.747723889
0.8423814185 0.7502114003 0.7484213617
0.8525729847 0.5007820733 0.4969152973
0.8625069093 0.7504130997 0.7488529114
0.8625400346 0.5004814761 0.745556939
0.8525288176 0.7499251172 0.9973767741
0.8525950683 0.4975783055 0.997091528
0.8624811451 0.7499706623 0.2481475953
0.862554757 0.4989518136 0.246913676
0.8524552057 0.750582267 0.4984878313
0.8725438905 0.5006486914 0.4960475972
0.8824925375 0.7492809803 0.7452772138
0.892463268 0.4997098131 0.4953050372
0.8725365293 0.7484676762 0.9990422431
0.8924559068 0.7493590575 0.9955088723
0.8825072598 0.5007280699 0.7479014777
0.8725549323 0.4995334887 0.9976252142
0.8925405605 0.4988158291 0.9938526048
0.8825882329 0.7507123957 0.2478936343
0.882533024 0.5011653022 0.2475596203
0.8724997234 0.7495802763 0.4990638444
0.8925368799 0.7493460447 0.4956151273
0.912404729 0.5000487983 0.4946682944
0.9025223328 0.7496453406 0.7480689448
0.9225668504 0.74882553 0.7439209148