POSCAR file written by Ovito 3.7.11
1
271.6597846137 0.0 0.0
0.0 15.3673980701 0.0
0.0 0.0 10.8663913845
Sr Ti O 
800 800 2400 
Direct
0.0225932347 0.4979899004 0.7655928667
0.0124889788 0.251050244 0.5141257602
0.0225367302 0.2504483204 0.7631642776
0.0025584327 0.2511589156 0.766689827
0.0125965398 0.2476749166 0.0168612306
0.0225103737 5.7973607519e-04 0.2615662947
0.0026652575 -1.917673339e-04 0.2681112458
0.0025814394 0.4970788809 0.2678931421
0.0124851873 0.4986555954 0.518638758
0.0124847455 -0.0010797511 0.5176430272
0.0224999931 -0.0019167698 0.7657023787
0.0026786934 8.0237073148e-05 0.7659048378
0.0227064278 0.2521486733 0.2642479577
0.0024897439 0.249419519 0.266916737
0.0325679169 0.4973638999 0.0138560011
0.042469272 0.4979827424 0.2609754822
0.0326179795 0.4985000714 0.514655835
0.0325774877 0.2502374844 0.5149521615
0.0425016654 0.2464879883 0.7628651903
0.0326632567 0.2478577712 0.0146676781
0.0525730862 0.4985020236 0.0119224245
0.0424862049 -4.0839476718e-04 0.7655689398
0.0425079233 0.2506207634 0.2634638888
0.0524545556 0.249912771 0.5113014555
0.0524556599 0.2496609392 0.011468456
0.0624431522 0.2522215548 0.2617623119
0.0623971388 0.4987551569 0.7590948494
0.0724236504 0.5010385623 0.0075377122
0.0624398392 0.4999134531 0.2584318595
0.0723180036 0.4995861368 0.5082710107
0.072247327 0.2515864441 0.5082627282
0.0623710031 0.2487733459 0.7593755313
0.0724560439 0.250039663 0.0079386733
0.0923055038 0.2494182176 0.5049589636
0.1023478441 0.250123607 0.7494918454
0.0822973975 0.2495086688 0.7556659281
0.0922808406 0.2503468068 0.0039152585
0.1025639232 5.8637350331e-04 0.2508626493
0.0922944606 -2.0170295293e-05 0.50515222
0.1023618322 0.2504808568 0.2541691748
0.0823908968 0.2474263384 0.255457551
0.1022915236 0.4999485925 0.7534269144
0.0823290547 0.4980972706 0.7550530292
0.1024873568 0.4983276284 0.2532093345
0.0824387508 0.5003982457 0.2573901153
0.1222054023 0.2515838412 0.2503104881
0.112450554 0.5038516605 -0.0011000403
0.1124185287 0.2492848183 0.5037156805
0.1224947348 0.500426227 0.2523406009
0.1125050339 0.5007125474 0.4989284427
0.122269453 0.2502439917 0.7524827187
0.1123257656 0.2502387859 0.0020853042
0.1224446722 -0.0010960844 0.251631994
0.1522381877 0.2491331986 0.4933948669
0.1323261495 0.2492093338 0.4989698548
0.1422319219 0.2489562005 0.749117296
0.1523250611 0.2487134789 -0.0072608897
0.1322819766 0.25129687 -0.0039840797
0.1423791649 1.7042800812e-04 0.2444207683
0.1423147461 0.2501672058 0.2453336749
0.1423975703 0.5032770674 0.7464301114
0.1524281312 0.5003051915 -0.0067130537
0.1324075013 0.5015435274 -0.00122216
0.1525348823 0.5011927849 0.4950292642
0.1324259067 0.5020536983 0.4984489827
0.1824292593 0.2489685643 0.2396546967
0.1724307238 0.4985306556 0.4924626347
0.1824075409 0.5004613663 0.7396440499
0.1723744033 0.2496479246 0.4877757062
0.1622142686 0.2500735009 0.7402146165
0.1722890024 0.2496602885 -0.0134691512
0.1824414068 0.5023868712 0.2383138652
0.1624642136 -2.4994243915e-04 0.7440401735
0.1622923074 0.2488169447 0.2398231058
0.1823688896 0.2522332679 0.7373332551
0.1824870521 -0.0021001255 0.2426768591
0.1924646055 2.0296442045e-04 -0.0101699511
0.2024086611 0.2502993036 0.2413139412
0.2023147937 0.4984825017 0.7407704588
0.1924682866 0.4978454388 -0.0099960019
0.20243222 0.4990375729 0.2429667438
0.1924034997 0.4992913569 0.4880324612
0.1923582225 0.2501646029 0.4917181373
0.2023442423 0.2479989792 0.7415766142
0.1923100004 0.2486165204 -0.0082039852
0.2024797059 0.0010967397 0.2427992549
0.2122323456 0.2491846061 0.495867629
0.2223976337 0.250659807 0.7464475965
0.2122463336 0.2513925271 -0.0057641278
0.2223571419 -0.0010543076 0.74943939
0.2225404594 0.249771563 0.2481101256
0.2324631648 0.2514842797 0.4978627715
0.2323998503 0.2500429167 1.0024847574
0.2324973988 -1.3534919493e-04 0.5030319209
0.2223707619 0.502384919 0.7452070742
0.2123840058 0.4996212762 -0.0077695277
0.2123600788 0.4979007507 0.4933902656
0.2424650133 0.5037579556 0.7512652032
0.2623612228 0.2517738538 0.7554505853
0.2625272393 0.0019199109 0.2532258994
0.2626038056 0.0024787563 0.7545119112
0.252413118 0.2509780132 0.50241258
0.2425110267 0.2497195047 0.7539155771
0.2525239184 0.2513756081 1.001380435
0.2623682169 0.252539761 0.2531329522
0.2425117629 -0.0012410016 0.2534458436
0.2623718979 0.5014049223 0.2533041222
0.2523660003 0.0011629187 0.500761618
0.2425482056 -0.0010764324 0.7552812558
0.2524661255 0.0031501126 1.0009939221
0.2424171593 0.2502179626 0.2537605755
0.2724241771 0.2510743209 0.5062123695
0.2725103143 0.2524694823 1.0051811448
0.2725224618 0.0028131656 0.5033052407
0.2724322755 0.0014458554 1.0050339018
0.2826406323 0.2524310893 0.7554432231
0.2724941175 0.501606648 0.5050675553
0.2826163372 0.2526191498 0.2586766509
0.3125258065 8.3521198478e-04 0.4971283971
0.2925868965 0.502765595 0.5094323898
0.2926483704 0.2515337351 0.5068887671
0.3025250624 0.251715939 0.7521090896
0.2926196581 0.2524388981 1.007380587
0.292373026 0.0016890976 0.5059915051
0.3024385571 0.0016424404 0.7517336199
0.312465805 0.5016587063 0.4999333761
0.3026384395 0.2521857648 0.2546504753
0.3125729243 0.2511354894 0.4995533052
0.3125368497 0.2527421374 1.001997015
0.3225000469 4.1855068852e-04 0.2477052074
0.3325611607 0.001519713 0.4940758658
0.3225942824 0.0013540376 0.7483783202
0.332562265 0.0031523902 0.9944784196
0.3225434836 0.254139251 0.2486236355
0.3225946505 0.5003644078 0.7529198463
0.3225011512 0.4992132695 0.250673074
0.3325140429 0.2493856811 0.4953449163
0.3225258144 0.2509259549 0.7464862477
0.3326572367 0.2529080731 0.9954631072
0.3625096494 0.2494956542 0.2468668426
0.352514795 0.5016645629 0.4973326968
0.3525957786 0.2505739109 0.4964906509
0.3426082864 0.2509773624 0.7485780185
0.3625096494 0.5024805761 0.745932246
0.3525814224 0.2526594949 0.9949937701
0.3625354169 0.5042843948 0.2442413159
0.342600188 7.138511668e-04 0.2457441147
0.3426318452 0.2512435103 0.2461968869
0.362686341 0.2516625793 0.744688963
0.3425530702 0.5030011587 0.7491090136
0.3425843594 0.5018259435 0.2469735937
0.3827629232 0.2514920885 0.238970937
0.3926061174 0.2513515312 0.4884079308
0.3925913931 0.2491579263 0.9859659341
0.3925803498 3.8790138811e-04 0.9874199586
0.3825126101 0.5003871833 0.7403821054
0.3924993662 0.5000774367 0.9891040504
0.3727540807 0.2529516719 0.4902641128
0.382652491 0.2514914377 0.7418849042
0.37271727 0.2492210469 0.988791159
0.3926539713 0.4997885133 0.4885202036
0.3726546917 0.0019633145 0.4934905749
0.4124876026 0.4998340643 0.9862512174
0.4026039166 0.2514784232 0.738051985
0.4025855113 -0.0029558852 0.7351595804
0.4024898033 0.2506637114 0.2388089697
0.4126017159 0.2497962907 0.481326463
0.4125759484 0.2501118939 0.9821928323
0.4125244134 0.0018589377 0.4859876241
0.4126164402 -3.9496924215e-05 0.9854689889
0.4425325355 0.0020112081 0.7273934328
0.4425251734 0.2505342165 0.2286436815
0.4225074883 0.5001965199 0.7355571365
0.4326194009 0.5002622435 0.9867113517
0.4325973145 0.4995165089 0.4811019175
0.4423337575 0.5036427767 0.7293195552
0.4424184222 0.5021818918 0.2317900803
0.4325936334 0.2495470617 0.4846845236
0.4226952232 0.2501483346 0.7382645671
0.4324795201 0.2511927535 0.9801314304
0.4226031963 0.0021390762 0.2349824924
0.4326083577 0.0010250945 0.9834812085
0.422687861 0.2509109881 0.2350386288
0.4426208813 0.2511088095 0.7286394766
0.4724523119 0.2485800796 0.4756704915
0.4625539016 0.2509031794 0.7279446737
0.4726216413 0.2510391816 0.9773890297
0.4724449497 6.2984215017e-04 0.9786958112
0.4626864203 0.250997535 0.2309195061
0.4523131514 0.5015194505 0.9759626132
0.4523610053 0.5018493697 0.4793064732
0.4624986855 0.5028104953 0.7288299722
0.4724375876 0.4997585798 0.9766896254
0.4623808911 0.5025820897 0.2277077683
0.4525929131 0.2510326743 0.4762585433
0.4525192916 0.2501346694 0.9784565414
0.452493524 0.0030881633 0.4752784571
0.4825936731 0.2513079324 0.7307073204
0.4824280247 0.0031733436 0.7319414008
0.4923448403 0.500993662 0.9778307586
0.4925141698 0.4986458345 0.4795107729
0.4825053273 0.2509357158 0.2314587835
0.4924884023 0.2513684501 0.481730461
0.4923853322 0.2482495096 0.9825517371
0.4824501111 0.4999238648 0.2316759669
0.5023978557 0.2490668243 0.7341500457
0.512443509 0.2476892326 0.4877398157
0.5123662064 0.2504750002 0.9861683932
0.5023720882 -0.0042418153 0.7347206123
0.5024714772 0.2512832047 0.2339573131
0.5223492814 0.2504893162 0.2416553609
0.5225186109 0.2513404688 0.736480166
0.5125281737 0.4990082902 0.484963365
0.5225627837 0.501427047 0.7337386856
0.5425804688 0.4997182347 0.7397241133
0.5524899223 0.5021064073 0.9939170557
0.5424479501 0.500701485 0.2399593056
0.552626122 0.5005277406 0.4962007662
0.5323360375 0.0015353956 0.4909165833
0.5322955456 0.2511563127 0.4902088967
0.5324943237 0.2500624385 0.991027412
0.5325237723 0.5017725837 0.9907973448
0.552478879 7.4131189881e-04 0.9915795732
0.5423816907 0.2523790311 0.24182377
0.5525304141 0.2494149639 0.4937703366
0.5424221825 0.250113846 0.7431530345
0.552427344 0.2524213284 0.9910090066
0.5724118993 0.250049424 0.4950467493
0.5725665045 0.2489991486 0.9970919828
0.5625171701 0.4993408123 0.7428217377
0.5625392566 0.4992757395 0.2414124099
0.5725076073 0.4994722594 0.9953434722
0.5724523911 0.4989249969 0.4974780992
0.5624582729 0.2492802632 0.2439891623
0.5625355755 0.2502023451 0.7457242653
0.6025746266 0.4992301885 0.7543499439
0.5925731463 0.5017400473 1.0013068135
0.5925768273 0.4987109073 0.5017426244
0.5825164498 0.2487889633 0.7475620419
0.6026703346 0.2499322929 0.2472018204
0.5924590329 0.2485364808 0.4999609842
0.6026592913 0.2501079895 0.7503375723
0.5924884815 0.2493772217 1.0005705985
0.5824980444 0.4975350414 0.7479559169
0.5826011145 0.4998887255 0.247269
0.5823912932 0.2481395365 0.2481220891
0.6126828581 0.4979352393 1.0036903094
0.6125981934 0.4997774509 0.5008297179
0.6225334144 0.4976482681 0.7545450409
0.6125687448 2.9979278353e-04 0.5037258035
0.6223824904 0.4981096344 0.2541746964
0.6124104586 0.2481037465 0.50467276
0.6123920532 0.2473580119 0.9997239513
0.6224524308 -0.0020975486 0.7536266127
0.6224266633 0.2484733601 0.2517948815
0.6225481387 0.2488846204 0.7515136757
0.6424553915 -5.3125226012e-04 0.2556112359
0.6524458286 -0.0014918573 0.4984609462
0.6324207815 0.4979105116 0.5048374881
0.6424958833 0.2509422231 0.2537881835
0.652364845 0.2493642071 0.5037396075
0.6425216509 0.250353314 0.7541833753
0.6325164894 7.3116053816e-04 0.5022533736
0.6523280342 0.2490024022 1.004674997
0.64238177 0.4983562604 0.7539781553
0.6525378555 0.5000227755 0.5024926434
0.6323766086 0.2494611656 0.5031616788
0.6325017651 0.2488605434 1.0018773801
0.6823435185 0.4996596691 0.7417799936
0.6624657144 -0.0024268301 0.2451440995
0.6823619239 0.4990082902 0.2438768895
0.6623442389 4.7809232308e-04 0.7473236923
0.6724745569 0.5003058423 0.4932328996
0.6623331957 0.249539253 0.2472147041
0.6624141793 0.2478642785 0.7441763733
0.6723862111 -0.0014538548 0.9935121375
0.6625282926 0.4994039329 0.7459874621
0.6624657144 0.499693507 0.2458149754
0.6823876914 0.2491305957 0.2440186109
0.6723015464 0.249817114 0.4933838237
0.682413459 0.249472228 0.7436288134
0.6723236328 0.2490121631 0.9912482765
0.7025231709 0.2456947505 0.2390970138
0.6923781286 0.2488742087 0.4912451192
0.7024716358 0.2481043972 0.7403094042
0.6924112582 0.2494611656 0.9927299091
0.6924443879 0.4991625127 0.9903740212
0.6924554311 0.4974738729 0.4898739188
0.732531293 0.4971322406 0.983702073
0.7325202498 0.4982768716 0.4820709604
0.7125540998 0.2486366929 0.4877895102
0.7124988837 0.2464808302 0.9858186911
0.7224561911 -0.0046902062 0.2343484273
0.7324760769 -9.9300902387e-04 0.4825633042
0.7325607416 -0.0011067563 0.9807756185
0.7126461267 0.4955691914 0.9829566554
0.722596072 0.2481375844 0.233631538
0.7325975524 0.2456980042 0.4849725677
0.7224819587 0.2467762609 0.7332408202
0.7325681038 0.2469838432 0.9814658201
0.7123847704 0.4956453266 0.4826148392
0.7125025648 -0.0031628233 0.4854455858
0.7124399865 -0.0018234098 0.9834536005
0.7525673834 0.4999082473 -0.0144136138
0.7424849194 -0.0029590673 0.2324195441
0.7425953516 5.2396866446e-04 0.7326012334
0.7424628329 0.247101625 0.2346502754
0.7424959626 0.248895032 0.7334865319
0.7626130367 0.0014624489 0.2344284907
0.7524900808 0.001389242 0.4810264554
0.7626866581 -0.0011659075 0.732431904
0.7525637023 -1.9820954355e-04 -0.0148995617
0.7625946313 0.2506123039 0.2328999243
0.7524459079 0.2515142132 0.4861578738
0.7625909502 0.2497253613 0.7341454443
0.7525526591 0.2491741945 -0.0137721221
0.7826049541 -2.3842454918e-04 0.2334990193
0.7825865488 -3.0492897598e-04 0.7343442224
0.7726881385 -6.1584693217e-04 -0.0171048108
0.7825534191 0.2506409359 0.2360104326
0.7725703441 0.2514192069 0.4848575341
0.7825202894 0.2495477125 0.7363145177
0.7725114469 0.2497728644 -0.0144578511
0.7926726938 -9.2943287418e-04 0.490350618
0.7926432453 -0.0011772953 -0.013882223
0.8125468169 0.5003169047 -0.0082450197
0.7925548995 0.2477582098 0.4871729302
0.7926469263 0.2483685929 -0.0110426603
0.8025784663 -4.3791730642e-05 0.2395175766
0.8125210494 7.9968222252e-04 0.4932807536
0.8025342934 -2.387499133e-04 0.7391655101
0.812502644 -0.0012318914 -0.0074953907
0.8024790772 0.2491188826 0.2407553381
0.8126167574 0.2487362543 0.4931233877
0.8025711041 0.2502147089 0.7394544745
0.8125762655 0.2492509804 -0.0088753934
0.8327743232 -0.0022741433 0.4971311579
0.8225519784 -1.6502240297e-04 0.7430518049
0.8326086749 -0.0013498684 -0.0067939545
0.8224231408 0.2490687765 0.2454947219
0.8326049938 0.2492418702 0.4950669952
0.8225151676 0.2474191804 0.7425024045
0.8324135779 0.248246256 -0.0038918595
0.8225078055 -0.0011059754 0.244981212
0.8425291716 -0.0014267194 0.7445490821
0.8425659823 0.247654744 0.2461545546
0.8425733445 0.248933425 0.7444174837
0.8626720131 9.1583721453e-04 0.2515951832
0.8425328526 0.4987375872 0.7477368929
0.852681576 -0.0019305067 0.5004551685
0.8626536078 -0.0012972245 0.7482743299
0.8525564195 -7.1163413006e-04 -0.0038658067
0.8625468566 0.2509838697 0.2541700951
0.8426211984 -6.961467978e-04 0.2449315175
0.8525196087 0.2493030387 0.4990499182
0.8624879594 0.2495190804 0.7525655429
0.8524496683 0.2486256305 0.0017647746
0.872599872 0.0023331233 0.503775498
0.8925917895 0.0040903499 0.5061912034
0.8725925098 0.0040090739 0.0053158155
0.8825166876 0.2501938856 0.2550977259
0.8924298222 0.0026327186 0.0050518824
0.8726109152 0.2507216262 0.507525593
0.8925218491 0.2485058965 0.5107180052
0.8824577904 0.2509604435 0.7590083441
0.8726293206 0.2494149639 0.0060341772
0.892518168 0.2484629485 0.0090054488
0.9024828376 -3.5998058563e-04 0.2590622435
0.9123849289 -0.0021745949 0.510810032
0.9024938808 0.0014488487 0.7606399805
0.9025748645 0.2512623814 0.2606294612
0.9125873881 0.2484635992 0.5132634684
0.9023908107 0.2488781131 0.7601549989
0.9024828376 0.4991774795 0.76077526
0.912484318 0.2491338493 0.0149647409
0.9224784362 -7.6746661362e-04 0.2621663099
0.9225005226 -4.698029905e-05 0.7624170194
0.922419539 0.2491032651 0.2615874609
0.9224158579 0.2518389266 0.7627354324
0.9424519483 -0.0018228828 0.2632172568
0.9325388137 -0.0013800622 0.5158558654
0.9426544074 0.0018843161 0.7628099742
0.9325388137 -0.0032476913 0.0149191876
0.9425881481 0.250511441 0.2646271084
0.9324615112 0.2489705165 0.516193604
0.9425329319 0.2496557334 0.7616605585
0.9325351326 0.2504073245 0.0156689305
0.9526706121 -0.0018013046 0.5120330692
0.9526742931 -0.0014112321 0.0124577448
0.9626095141 0.2495965171 0.2650485915
0.952666931 0.2484583934 0.5165276615
0.9726441242 0.2483301999 0.5156211969
0.9626941789 0.248454489 0.7644094012
0.9524828772 0.2487655371 0.0151840409
0.9725520973 0.2506070981 0.0166246295
0.9625469359 7.1157361794e-04 0.2676704371
0.982571983 0.4992796438 0.766652096
0.9826308802 0.5016118539 0.2670004814
0.982667691 2.6693100708e-04 0.2649492025
0.9925072041 0.001229293 0.5181896668
0.9825940695 0.2501125446 0.2703925919
0.9925182473 -0.0013976318 0.0166122059
0.9926912578 0.2519157126 0.5180461049
0.9826014316 0.2483601334 0.767412238
0.9926838956 0.2493629057 0.0156250337
0.0124797393 0.7495087316 0.0177964077
0.0025953171 0.4999524968 0.770080097
0.0126307738 0.4994729101 0.016400176
0.0227016792 0.7493916005 0.2669204181
0.002669638 0.7459882918 0.267594975
0.012548833 0.7506279842 0.5157748817
0.0224604952 0.7495282534 0.7680205356
0.0224875143 0.5012071009 0.2654323436
0.0025950226 0.7495607898 0.769377932
0.0125527718 0.9984903733 0.0157651906
0.0525119804 1.0008720386 0.5100397671
0.0525215512 1.0008395022 0.011321121
0.032499817 0.7517797732 0.0165591064
0.0424313569 0.4996141181 0.7612381552
0.0426570068 0.7503416637 0.2648544148
0.0324968721 0.7502570691 0.5161006569
0.0425660843 0.7505889405 0.7650572704
0.0524541875 0.7489491053 0.0119867513
0.0525182382 0.7507451152 0.5134953761
0.0526146824 0.4995620599 0.5127968922
0.0425797042 0.9988938248 0.2641798578
0.0325704936 0.9990499996 0.5134521235
0.032664361 0.9996161331 0.012386424
0.0724074537 1.0000195846 0.5078863383
0.0623283027 0.999082536 0.7605534753
0.0724998487 1.0012689829 0.010636349
0.0723577592 0.7510184211 0.0104118955
0.0625300256 0.7494761952 0.2610757915
0.0724715044 0.7503221419 0.5101253521
0.0624578765 0.7504522875 0.760528628
0.0623805739 0.9999284827 0.2585791025
0.0824571562 0.9988092301 0.2563051185
0.102481099 0.999889439 0.7520833221
0.0823978908 1.0006182546 0.7547198919
0.0924479614 0.9995315385 0.005249096
0.0924781462 0.7514674236 0.0034749099
0.0925267364 0.501592332 0.0039231728
0.1025053941 0.7503872147 0.2544323716
0.0825410847 0.7487929305 0.2581539383
0.0924575322 0.7489946563 0.5030622897
0.1026195074 0.7503676929 0.7532916349
0.0825005928 0.7501854889 0.7566165657
0.0924310284 0.5031052752 0.4988456185
0.1123496926 1.0000000628 0.0026516375
0.1125160771 0.7500683579 0.0032838621
0.1222937481 0.5017133675 0.7520916045
0.1225462699 0.7489360907 0.2519191178
0.1125175496 0.7500683579 0.5043552673
0.1224045485 0.7505629113 0.7505611976
0.1122642916 0.9996226404 0.5019579673
0.1224708078 1.002238568 0.7527321115
0.1523581907 0.9997527861 0.4952271219
0.1323095847 0.999889439 0.5021171738
0.1424016195 1.0016529125 0.7451251703
0.1522849373 1.0006898347 -0.0038112624
0.1323438187 0.9974492081 -5.562719561e-04
0.1525772147 0.7502700836 -0.0049250544
0.1324671347 0.7502896055 3.9947311442e-04
0.1425709489 0.7519164261 0.2464002663
0.1524575798 0.749795052 0.4944338503
0.1325374432 0.7495998335 0.4977210501
0.1422900829 0.5016346294 0.2467453671
0.1425208863 0.7495087316 0.7478206374
0.1724476567 0.7505433895 -0.0107820494
0.1623883835 0.500739878 0.7410686258
0.1724038519 0.4972838603 -0.0114797419
0.1624299796 0.7530421859 0.2414344964
0.1824535544 1.0007549076 0.7395915946
0.1724458162 0.7511420595 0.4902346642
0.162376604 0.4986425809 0.2417777566
0.162424458 0.7520205426 0.743500896
0.1823081519 0.7490011635 0.2402086984
0.1823847183 0.7500423287 0.7381320484
0.1623475236 1.0005596891 0.2452011562
0.1723232364 1.0014056358 0.486353891
0.1723276537 1.001086779 -0.0108236732
0.1924208007 1.0028502525 0.488295658
0.2023125851 0.9991215797 0.739959702
0.1925448529 0.7485326392 -0.0095493495
0.202401299 0.7519424552 0.240861169
0.192442151 0.7490922655 0.4891919997
0.2022875537 0.7491182946 0.7409370274
0.2325375225 0.7489946563 1.0018773801
0.2323343272 0.4983269777 0.9988036826
0.2324558027 0.7498601248 0.4979216687
0.2323490515 0.499722139 0.5021079711
0.2224937098 0.9981975455 0.2467665333
0.2124705111 0.9989393758 0.4957663994
0.2124583635 1.002355699 -0.0062607784
0.212422289 0.7501529525 -0.0035688912
0.232367825 0.9995770894 1.0001932883
0.2225139557 0.7489295834 0.2463045584
0.2125154202 0.7476086051 0.491788998
0.2224300272 0.5002446738 0.2443416252
0.2224664698 0.7493330349 0.746497291
0.2525618335 0.7514283799 0.9943679874
0.2523560614 0.4998047815 1.0033682154
0.2423497956 0.7493200204 0.2519844569
0.252378884 0.7517147003 0.4985106407
0.2424046436 0.5007158011 0.2514801496
0.242399122 0.7488710179 0.7494817224
0.2523461225 0.5010385623 0.5012208321
0.2624024509 0.4988091673 0.7525195294
0.2625103063 0.750693057 0.2507890278
0.2624488324 0.7502115181 0.7481096018
0.2825048006 0.5007047387 0.7564674822
0.2826825965 0.7498536175 0.2535792826
0.2824937574 0.5016587063 0.2553940525
0.2825537589 0.7521116446 0.7550539495
0.2724668776 0.7515585255 1.0013620296
0.2724771846 0.5010229448 1.0062854672
0.2725029521 0.7523849504 0.5063605328
0.2825338811 1.001340563 0.2575686474
0.2825699556 1.0033382987 0.7565300605
0.3125942745 1.0015618106 0.9990797632
0.2926016208 0.7525476325 1.0085769363
0.3025843277 0.5002960814 0.7562576609
0.2925419874 0.5014042716 1.008586139
0.3025523023 0.7510900012 0.259269304
0.2925585522 0.7505108531 0.5078863383
0.3024628522 0.4974855861 0.261015974
0.3026108314 0.750693057 0.7545330774
0.3025088656 1.0018351164 0.2550112207
0.3123608943 0.752053079 1.0073897897
0.3125011433 0.5000422973 1.003322202
0.3124647007 0.7500293142 0.5044325699
0.2925607609 1.0026745559 1.0053191851
0.3325733082 0.7515715401 0.9985644127
0.3326126957 0.502669938 1.0007178415
0.322596123 0.7484935955 0.250834121
0.3325902412 0.7527949092 0.498059709
0.3224544016 0.7538230598 0.7509615145
0.3325261905 0.5015116417 0.5019699308
0.3525508695 1.0027721651 0.4961611947
0.3425600643 1.0025509175 0.7451638216
0.3624360279 0.7528729966 0.2459879859
0.3526392153 1.0035595463 0.994791311
0.3624802008 0.7513372779 0.7444358891
0.3625943141 1.001340563 0.2478460085
0.3524912361 0.7525411252 0.999291425
0.362634806 1.0018416237 0.7462745859
0.3526487861 0.5013971135 0.9976533467
0.3425854637 0.7512722051 0.2474806618
0.3525460841 0.7516691493 0.4981756629
0.3425210449 0.7530226641 0.7477451753
0.3925656255 1.0022515825 0.4874904229
0.3724522326 0.7527753874 0.9938894477
0.3725847513 0.4999622578 0.9928955575
0.3826083181 0.7508622463 0.2371350009
0.3724595947 0.7516951785 0.4926172399
0.3826340856 0.4995334278 0.238529208
0.3826156802 0.7490922655 0.7403075636
0.3827261125 1.0001627449 0.2374248856
0.3825604641 0.9986660699 0.7418434921
0.3725884323 1.002238568 0.9916808028
0.3727835293 0.5028332708 0.4922178433
0.3924625554 0.7503351564 0.988321822
0.3925582634 0.747146588 0.4893677711
0.412406619 0.7471400808 0.986380055
0.4124949648 0.7492939912 0.4862140102
0.4125685863 0.5001835054 0.4848787003
0.4025597437 0.9996746987 0.2343889191
0.4024787601 0.5019521847 0.7359095994
0.4025450194 0.7503676929 0.2368764054
0.402522933 0.4987200175 0.2373623073
0.4026554517 0.7518643678 0.7388434161
0.4324979255 0.753458652 0.9848432062
0.4223970561 0.7511876104 0.2370043228
0.4324868822 0.7520465717 0.4791067749
0.422588472 0.5027922749 0.2361033797
0.4225185316 0.7512982342 0.7363927405
0.4424184222 0.7517407295 0.2322364106
0.4423852925 0.752905533 0.7341472849
0.4324942444 1.0016464053 0.4835323472
0.4225295748 0.998483866 0.7336761073
0.4424699572 1.0012819974 0.2292004441
0.4524567133 1.0014511868 0.979496445
0.4625134098 1.0013535775 0.2265058973
0.4724449497 1.0005531818 0.4764343146
0.4623956154 1.003390357 0.7257203843
0.452493524 0.7532699408 0.9814106039
0.4524751187 0.7525736616 0.4797297968
0.4724486308 0.7508101881 0.9797541202
0.4624140208 0.751246176 0.2263503719
0.4723639661 0.7480641149 0.4793138354
0.462325675 0.7529185476 0.7279409927
0.4724854415 0.5000390437 0.4771401607
0.4826304838 0.9999414973 0.231456943
0.4925288941 0.9995966113 0.4818832256
0.492473678 1.0007679221 0.9805087406
0.4822366088 0.5021285321 0.7293444025
0.4923522025 0.7492224111 0.4783944869
0.4824721976 0.7496844282 0.2271013112
0.4923374782 0.7490662364 0.9778859748
0.4824648354 0.7506214769 0.7280431425
0.5124582333 0.9978136159 0.4848280855
0.5124398279 1.0001952813 0.9854137728
0.5024199422 0.9990304777 0.2334714112
0.522474438 0.750647506 0.7399477386
0.5223382382 0.99993499 0.2366150491
0.5225627837 0.9987051136 0.7369669882
0.5024714772 0.7495998335 0.233545953
0.502408899 0.4996707315 0.2334198762
0.5023720882 0.7464763379 0.7320398695
0.5023794504 0.4982241626 0.7291631095
0.51234412 0.7504132438 0.9825885479
0.5123919739 0.5003780731 0.9853125433
0.5124287847 0.7497104573 0.4827326336
0.5223934543 0.4994969871 0.2335652786
0.5225811891 0.7485781902 0.2388513021
0.5324795994 0.7499056758 0.4872815219
0.5325237723 0.5029517033 0.4927911707
0.5323360375 0.9991280869 0.9905212642
0.5424884419 1.0014967378 0.2413590343
0.5523942143 0.9993167981 0.4921387001
0.5525120087 0.7507516225 0.9933648945
0.5423743286 1.0005401672 0.7389584497
0.5425583823 0.7501008943 0.2437314871
0.5524972844 0.7500228069 0.4950798789
0.5424773987 0.7511420595 0.7438505982
0.5325311344 0.7504783167 0.9909721958
0.5625282134 1.0008199804 0.2444446953
0.562557662 0.9992191889 0.7432984369
0.5625834295 0.749287484 0.2431517178
0.5625024458 0.7498471103 0.7440567384
0.5724744776 0.9991931598 0.4954433851
0.5724560722 0.9988157374 0.997027564
0.572544418 0.7478428673 0.9919476807
0.5724781587 0.7485066101 0.4979916091
0.6026040752 1.0006638056 0.2535332691
0.5924516708 0.7496649063 1.0037823363
0.5925694652 1.0000651356 0.5014076466
0.6026482481 0.9996291477 0.7504065925
0.5925363355 1.001041228 1.0035338638
0.6024862808 0.7504783167 0.2546403524
0.6025230916 0.4996492575 0.2520488757
0.5924516708 0.7483699571 0.5006981194
0.6027181885 0.7514739309 0.7565116551
0.5825127687 0.9976053828 0.2473232958
0.5826011145 0.9982691257 0.748329546
0.582527493 0.7490857582 0.2500712182
0.5825716659 0.7522678193 0.7510599832
0.612476718 0.7496193554 1.0082640449
0.6125061666 0.7495022243 0.5077390953
0.612627642 0.9991345942 1.00543882
0.6223972147 0.9980869217 0.2563879427
0.6225739063 0.750601955 0.2520185068
0.6225444577 0.7496258627 0.7556153134
0.6424369861 1.0010477353 0.7504654897
0.6526041149 0.9984448223 1.0019233935
0.6325201705 0.9981129509 1.002908081
0.632494403 0.7492939912 1.0059909812
0.6325164894 0.4982918384 1.007675073
0.6324907219 0.74723769 0.5048190827
0.6524090179 0.7478558818 0.9980582649
0.6525047258 0.4995685672 1.0014172457
0.6425069266 0.7492028893 0.2518712638
0.6423744079 0.5001926156 0.2570045227
0.6524789583 0.746294134 0.5014490587
0.642481159 0.7474654449 0.7555444527
0.67238253 0.7490141781 0.9954170937
0.6725150487 0.5000839439 0.9934753267
0.6822772592 0.9981064436 0.2446324301
0.6724635137 1.000488109 0.4964188699
0.6823619239 0.9991671306 0.7435027366
0.6824392265 0.7490532218 0.2448229258
0.67238253 0.748988149 0.4920485138
0.682413459 0.7483244062 0.7438018239
0.6625356548 0.7486367557 0.2479039854
0.6625319737 0.7503156346 0.7488633018
0.7024716358 0.9974557153 0.2394559186
0.7024974033 0.4963572233 0.7384467803
0.6924259825 0.748988149 0.9928679494
0.6924517501 0.9977094994 0.4927350343
0.7023943332 0.9985489388 0.739504169
0.6924591122 0.9971628876 0.9933925026
0.7024937223 0.7469318477 0.2371350009
0.70238329 0.497330062 0.2389792194
0.6924333447 0.7490271927 0.4922058798
0.7025452573 0.748389479 0.7387118177
0.7224377858 0.4999960956 0.7330797732
0.7324061365 0.749541268 0.9847971928
0.7225077262 0.7455067529 0.2313787202
0.7224709154 0.4995562033 0.233155759
0.7323877311 0.7471726172 0.4840679435
0.7224230615 0.7494111223 0.7339475866
0.7225298126 0.9987506646 0.7336429776
0.7124105379 0.7473287919 0.9839505456
0.7125283323 0.7504327657 0.482182313
0.7425254112 0.5015448289 0.7343166143
0.742562222 0.7498796467 0.2332661913
0.7425990327 0.4985749051 0.2310474234
0.7425769463 0.7502570691 0.7314554989
0.7524459079 0.4987694729 0.4850747175
0.752596832 0.7513958435 -0.0159275939
0.7625762259 0.5005134246 0.7319910953
0.7626203988 0.7510054065 0.2358834355
0.7626572095 0.5022716923 0.2347643887
0.752548978 0.7518773824 0.485514606
0.7625872691 0.7499447195 0.7354062125
0.782645446 0.7475044886 0.2374055599
0.7825092462 0.5003429338 0.2355346537
0.7725850684 0.749495717 0.4849035475
0.782645446 0.7472441973 0.7362132881
0.7726697331 0.9978331377 0.4853968116
0.7726292413 0.5016183611 0.4872566746
0.7726218792 0.749196382 -0.0166890058
0.7825755055 0.5002869712 0.7335647548
0.7725813873 0.5010769552 -0.0177387563
0.7926506074 0.7486172339 0.4878594506
0.8125468169 0.4978512953 0.4904960205
0.8126167574 0.7491638456 -0.0125174553
0.8024606719 0.5000891498 0.7389685726
0.8025821473 0.7471400808 0.2387031388
0.8025306123 0.498309408 0.2406228194
0.7924591915 0.4987805353 0.4850581527
0.7925917102 0.7513177561 -0.0151008245
0.8125873088 0.7490011635 0.4904398841
0.7924518294 0.5000299335 -0.0125496739
0.8026852174 0.7480576076 0.7383022981
0.8324430265 0.5001555241 0.4909938859
0.8325203291 0.7490597291 -0.0084096004
0.822581427 0.5007073416 0.7458061692
0.8325497777 0.4988215311 -0.0061838808
0.8227139457 0.7498601248 0.2423915758
0.8224562704 0.5006559341 0.2392368947
0.8325534587 0.7479599983 0.4917659913
0.8227213078 0.7503872147 0.7409471504
0.8625431755 0.7509728701 0.7535244629
0.8626057538 0.5001041165 0.7548873808
0.852630041 0.7507125788 6.37638657e-04
0.8526005924 0.5004014993 8.0305695792e-04
0.8625947106 0.7485716829 0.2537449309
0.8624511486 0.5012585084 0.2532645507
0.8525306519 0.7495217461 0.4974891424
0.8426138363 0.7495087316 0.2413958451
0.8425070851 0.4986549447 0.2478230018
0.8426101552 0.7485781902 0.7444211648
0.8526374031 0.4986673086 0.4999655855
0.8725078451 0.5015161968 0.5096063206
0.8825645416 0.7502050108 0.757908623
0.8924960815 0.5010899698 0.5105422338
0.8725667423 0.7501074016 8.3906707261e-04
0.8924040547 0.751545511 0.0049324315
0.8825166876 0.499312831 0.7552499667
0.8726145963 0.5031579842 0.0076890044
0.8924150979 0.5013144711 0.0070282515
0.8826455253 0.7506214769 0.2562130916
0.8824909201 0.4995835339 0.2606211787
0.8726366827 0.7513502925 0.5024116598
0.8923414764 0.7522092538 0.5049838108
0.8824909201 1.0030780074 0.2589656153
0.8825682227 1.0009761552 0.7541327605
0.9125211287 0.7508101881 0.5107943875
0.9125064044 1.0002993978 0.012009666
0.9125468962 0.5008023479 0.5123910537
0.9025122862 0.7511225376 0.7610706663
0.9125064044 0.7498340957 0.0112775002
0.9124143775 0.4982671107 0.0105582182
0.9024754755 0.7508362172 0.2604205602