POSCAR file written by Ovito 3.7.11
1
271.6108032055 0.0 0.0
0.0 15.3646272632 0.0
0.0 0.0 10.8644321282
Sr Ti O 
800 800 2400 
Direct
0.022680072 0.4985180246 0.7662031485
0.0124777164 0.25082897 0.5191676874
0.0225921153 0.2470950689 0.7699299885
0.0024383514 0.2501273585 0.7727603251
0.0126195738 0.2515130088 0.0178752189
0.0224189999 0.0010681438 0.2655538798
0.0023990672 -0.0017597803 0.2665442675
0.0025098507 0.4982830693 0.2693764449
0.0125669618 0.4988603694 0.5205842364
0.0125785224 0.0010281819 0.5190848483
0.0223626325 0.0016757082 0.7688843747
0.0024003558 0.0019847297 0.7712508122
0.0225154615 0.2509949357 0.2713259256
0.0023720064 0.2485835527 0.2702241653
0.0324158777 0.5010680376 0.017320473
0.042470706 0.4991994599 0.2659192923
0.032492826 0.4994246525 0.5160437321
0.0327111531 0.251233796 0.5172973642
0.0426050895 0.2503440901 0.7649624025
0.0325642518 0.2491322156 0.0130341928
0.0525063893 0.4995086116 0.0127918424
0.0424692333 6.0923258638e-04 0.7642039644
0.0425207777 0.2492083645 0.2640756617
0.0524437998 0.2485920137 0.5093834669
0.0523480746 0.2491211512 0.0093584369
0.0624636516 0.2483082451 0.2558322488
0.062358722 0.4978365892 0.7614389786
0.0725306296 0.5007569334 0.0086001829
0.062492001 0.4983683301 0.2600008974
0.0724485269 0.4994728151 0.5074882919
0.0724941804 0.2489740601 0.5054338817
0.062542809 0.2486538441 0.7566978196
0.0724930759 0.2497687426 0.0058906073
0.0924403679 0.2499242947 0.5068246585
0.1024303976 0.2488009352 0.759792321
0.0823888531 0.2485672816 0.7561547632
0.0925478747 0.2501911414 0.0079204419
0.1023390905 -5.4434668633e-05 0.2585917119
0.0924981712 -0.0013270981 0.5080129396
0.1024105163 0.2496105871 0.2603635487
0.0825022507 0.2509662985 0.2547415337
0.1025703037 0.498575299 0.759101995
0.0824617516 0.4984880857 0.7576145726
0.1024484382 0.5015815548 0.2590721788
0.0823943757 0.4974187464 0.2586230067
0.1223544947 0.2507990312 0.2566136978
0.1124601902 0.4982973879 0.0081021357
0.1124395724 0.2509981899 0.5076594927
0.1224620015 0.5014494331 0.2595388392
0.1124244773 0.4998444479 0.5096052916
0.1225275364 0.2505940148 0.7573678961
0.1124631355 0.2488002843 0.0081577299
0.1224480108 2.3903161094e-04 0.2582207767
0.1524851077 0.2497238342 0.5021286008
0.1322797258 0.2500804976 0.5079512705
0.1424663604 0.2530685297 0.7545614908
0.1524589673 0.2484618446 0.0023819103
0.1324310453 0.24852758 0.0081039765
0.1424586287 8.8349892085e-04 0.254081582
0.1423135682 0.2500922128 0.2527699626
0.1423724761 0.5002414637 0.7512589712
0.1526080778 0.500628066 -0.001264769
0.1324943712 0.5014819754 0.0050691193
0.1524556538 0.501273054 0.500180961
0.1324483494 0.5024328608 0.5025639664
0.1823782486 0.2488517011 0.2488995348
0.1724927802 0.500282467 0.4953192251
0.1823123454 0.5019948418 0.7514172859
0.1724036821 0.2488673214 0.5008271062
0.1624151251 0.249994586 0.7535232405
0.172439395 0.2501058806 0.0041518142
0.1824570378 0.5004621004 0.2525306496
0.1624195432 1.0085709075e-04 0.7478588855
0.1624574651 0.2512917213 0.2506078616
0.1824275838 0.2522465118 0.7494880549
0.1824007072 -5.9652396617e-04 0.2482736393
0.1923414016 4.8283837149e-04 -0.0021039385
0.2024573468 0.2513717753 0.2491600179
0.202449247 0.5003618702 0.7469743478
0.1924338132 0.5016453377 -9.9970222354e-04
0.2024562423 0.5024719116 0.2466601173
0.1924518538 0.5038028908 0.4979940083
0.1924378631 0.2499451217 0.4982397643
0.202502264 0.2489655991 0.7492947636
0.1924643717 0.2491139919 0.0014298127
0.2024039616 0.0029949071 0.2458851113
0.2123928868 0.2491172461 0.4989356129
0.2224153158 0.2502119684 0.7492082427
0.2124002503 0.2515065003 4.3725277014e-04
0.2224005889 7.3048512105e-04 0.7466135374
0.2225445449 0.2502607818 0.2497822317
0.232514325 0.2490749412 0.5044821523
0.2323747871 0.2519790142 1.0047199867
0.2325706556 -0.0014519303 0.5015754196
0.22234794 0.4994174932 0.7503928422
0.2125482562 0.5011305188 -0.0028772141
0.2125957506 0.4988707829 0.4975264275
0.2426188568 0.4982401135 0.7530565801
0.2624218247 0.2497609324 0.7525365345
0.2626250566 0.0015037548 0.2463701804
0.2625322768 -0.0010281648 0.7490729388
0.2525562377 0.2514973885 0.502690066
0.2423640805 0.2502881174 0.7533382331
0.2524579353 0.2508224616 1.0040572737
0.262473369 0.2531420753 0.2517584049
0.2424671692 -2.8314181133e-04 0.2502157564
0.2626361019 0.5019603469 0.2481153245
0.2524623534 8.5219324764e-04 0.5008722075
0.2425120864 0.0023225836 0.7484074646
0.2524800257 9.2697540671e-04 1.0008081393
0.2425146636 0.2482717977 0.2512098259
0.2726349678 0.2502386531 0.4981615274
0.2725690646 0.251870323 0.9975405962
0.2727314293 9.0374021891e-04 0.4982011061
0.2725513923 8.1978113692e-04 0.9979824049
0.2827542265 0.2529897774 0.7464165644
0.2725801099 0.5013173115 0.4980363483
0.2825425266 0.2513079924 0.2485755418
0.3125461196 0.0028397455 0.5002398689
0.2926783531 0.5024940403 0.4974389862
0.2927136978 0.2535592673 0.4977068326
0.3026061615 0.2497902205 0.7486983219
0.2926938164 0.2498084442 0.9985806874
0.2926628898 0.0020541098 0.5009301949
0.3025660305 4.6357334182e-04 0.7480687446
0.3126352176 0.5026866906 0.496286602
0.3026543923 0.2523623623 0.2483086158
0.3125947185 0.2521176443 0.4951857621
0.3125674737 0.2523246132 0.9974761658
0.3225865891 0.002194302 0.2453291688
0.3325626283 0.0039133804 0.4980934152
0.3225022773 0.003521246 0.7499869305
0.3325390651 0.0025919686 0.9986727309
0.322565235 0.250377934 0.2424776622
0.3225170043 0.503987731 0.744251702
0.3223977159 0.5032529263 0.2435729794
0.332549374 0.2524977382 0.4943325191
0.3225895345 0.2515019444 0.7453267697
0.3324812618 0.251162203 0.9951014444
0.3626431696 0.2510040475 0.2431468182
0.3525736143 0.4987881255 0.4890464628
0.3525585192 0.2508719259 0.4952566356
0.3426196656 0.2504534321 0.7468887474
0.3626726235 0.4987106749 0.7427339053
0.3525426877 0.2514798156 0.9910515318
0.3626983957 0.4987236918 0.2427169752
0.3425003773 0.0036377473 0.2458501348
0.3425276222 0.2508126989 0.2464493378
0.3626394879 0.2488503994 0.7443851651
0.3425574442 0.5016655139 0.7387741953
0.3425821119 0.5002831178 0.2423874596
0.3825208767 0.2507840617 0.2347911122
0.3923621642 0.2492174764 0.4857218528
0.3924247538 0.2511107862 0.9842403153
0.3926972025 0.0037235939 0.9857406238
0.3824693324 0.4988388915 0.7365007217
0.3924026634 0.5013140573 0.9847465543
0.3725249562 0.2500180164 0.4889654646
0.3825024681 0.2481696149 0.7387392188
0.3725028658 0.2482711469 0.9920179882
0.3924910251 0.501386952 0.4856362524
0.3726206814 -6.4197352584e-05 0.4885015655
0.4123834592 0.5027003584 0.9873605888
0.4023985839 0.2530385908 0.7362678517
0.4024795821 0.0030139769 0.7352894297
0.4024759004 0.2530763399 0.2383126953
0.4123466418 0.2529897774 0.4858737245
0.4124681392 0.2525790939 0.9845992848
0.4124865479 0.0012544158 0.4861995584
0.4124202766 0.0039437098 0.9853356325
0.4425074451 0.0011690249 0.7282122075
0.4424927181 0.2492194289 0.2293329346
0.4223536075 0.5014468298 0.7355351857
0.4324378898 0.5003319313 0.9822061546
0.4323973906 0.4996264146 0.4822508937
0.442536899 0.4960845129 0.7314760688
0.4423822659 0.4994415745 0.2320583417
0.432349528 0.2509383121 0.4830940118
0.4224824684 0.2510183661 0.7311861319
0.4324157993 0.2505302319 0.9797485941
0.4224493327 -4.4802153801e-05 0.2336470119
0.4324894341 -2.8047334438e-04 0.9830253415
0.4225597849 0.2530652755 0.2336525345
0.4425184903 0.2490554158 0.729521986
0.4724804796 0.2506617027 0.4747843276
0.4624624687 0.2532820071 0.7261228208
0.4724988883 0.2498058408 0.9728821514
0.472601977 -1.1906363639e-04 0.9796013245
0.46252874 0.2502640361 0.2312152235
0.4524334125 0.5004471309 0.9767755901
0.4525180925 0.4983989198 0.4797878105
0.4625397852 0.5020827059 0.7243924036
0.4724988883 0.5017273442 0.9787085029
0.4624845591 0.5016180022 0.2265035185
0.4524076404 0.2484078244 0.4773265682
0.4524518212 0.2509877764 0.9769504727
0.4525917273 -0.0010256265 0.4798752518
0.4823438576 0.2506486858 0.7282306162
0.482365948 9.3517606123e-04 0.7247163966
0.4924723207 0.5025851587 0.980411307
0.4924097311 0.501310803 0.4817860742
0.4824248558 0.2524664976 0.226798978
0.4924428668 0.2498396847 0.4741694773
0.4923287329 0.2499366607 0.978285103
0.4824248558 0.5008090011 0.2259558598
0.5024719229 0.2503584087 0.7307277554
0.5124347078 0.2497394545 0.4812973234
0.5124678434 0.2482906722 0.9816446895
0.5024166969 -5.9092669404e-04 0.7288390235
0.5023651525 0.2512650366 0.2284566808
0.522463764 0.2480902118 0.2352688178
0.5225742161 0.2490703852 0.7338259385
0.5124015722 0.5009092313 0.4854116663
0.5223754022 0.4981613612 0.7331807138
0.542440878 0.5005694899 0.7381124028
0.5523447551 0.4991376296 0.9862008411
0.5423672433 0.4999310104 0.2375514958
0.5524515255 0.5008493535 0.4867122405
0.5324118219 7.7207415468e-04 0.4865990271
0.5325590914 0.2490690836 0.4866238788
0.5325627732 0.2478507006 0.9892658886
0.5324965019 0.4994682591 0.9875538801
0.5523778907 0.0011308202 0.989091006
0.5425292398 0.2491087851 0.2396178716
0.5525141151 0.2494595909 0.4878029556
0.5424298328 0.2495188179 0.7386342892
0.5524957064 0.2503532019 0.9894039538
0.5724875474 0.2507847125 0.4880597569
0.5726974065 0.2486759728 0.9907477884
0.5625910338 0.5011324713 0.7386793905
0.562462173 0.4993869034 0.2368528859
0.572465457 0.4997181839 0.9893119103
0.5724102309 0.5011669662 0.4854033824
0.5623959017 0.2526344157 0.2392276073
0.5623848565 0.2493144523 0.7389904975
0.6024973994 0.4989788233 0.7402100734
0.5925125241 0.4999674577 0.9867899193
0.5925751136 0.499177982 0.4873841578
0.5824392871 0.2510678304 0.7384189075
0.6023317211 0.2499581386 0.2421545896
0.5925677502 0.248852352 0.4889829528
0.6023869472 0.2510600202 0.7417149841
0.5924057537 0.2506786247 0.9910699405
0.5824613775 0.499409683 0.7361307069
0.5825423757 0.4983618216 0.2360539486
0.5824576958 0.2516444796 0.2395313508
0.612463866 0.5007614893 0.9943835053
0.6124822747 0.5000091118 0.4903571618
0.6223898335 0.5008291773 0.7460032892
0.6125006834 -4.4411646443e-05 0.4926490441
0.62229779 0.5007256928 0.2451607292
0.6122908243 0.2501553449 0.4923103242
0.6122576886 0.2498162543 0.9912632318
0.6224781952 1.0925299895e-04 0.7420757945
0.6223566978 0.2501781245 0.2442310902
0.6223751065 0.2500824501 0.7456581262
0.6424847632 -7.7440006776e-04 0.2454626318
0.6525359098 -3.1867798091e-04 0.492714395
0.6322789836 0.4993764899 0.4957840446
0.6424405823 0.2497381528 0.2451515249
0.6523186872 0.2492161747 0.4954103481
0.6423301302 0.2513594092 0.7467295122
0.632385754 -0.0011883379 0.4930899323
0.6524401846 0.2487189286 0.9966661833
0.6424553093 0.4996003808 0.746055754
0.6525580002 0.4979700126 0.4963178967
0.632455707 0.2497368511 0.4958006124
0.6325182966 0.2502191277 0.9959574486
0.6824132192 0.4987399629 0.7460824466
0.662550239 -0.001572532 0.2440617302
0.6823764018 0.4991115958 0.2463361243
0.6623735155 -7.3170459661e-04 0.7440363203
0.6723289369 0.4976465423 0.4969023727
0.6625097399 0.24901246 0.2468975894
0.6624434686 0.2509064207 0.742625294
0.6724762065 -8.3915920464e-04 0.9914565231
0.6624103329 0.4982720049 0.745977517
0.662465559 0.4965934741 0.2453604635
0.6823764018 0.2500648773 0.2446011049
0.6724467526 0.2479457241 0.4949114726
0.6824574 0.2506272079 0.7463935535
0.6723510274 0.2480069035 0.9921652578
0.7025817837 0.2516965472 0.2436622616
0.6924643658 0.2504072221 0.4942386348
0.7025523297 0.2502659886 0.7432143722
0.6924238666 0.2509474239 0.9965741398
0.6924128214 0.4984269062 0.9966753877
0.6924570023 0.4989397725 0.491630123
0.7326210895 0.5002896263 0.9958009747
0.7327020878 0.500345599 0.4958926559
0.712481979 0.2514921817 0.4959883811
0.7125335233 0.249501245 0.9932421663
0.7225073534 0.0012756985 0.2447180001
0.7326210895 5.3379958171e-04 0.4924842863
0.7325805904 -2.8821840699e-04 0.991161984
0.712721292 0.5004197954 0.9989212483
0.7227393029 0.2518859433 0.242564183
0.7325585 0.2511745691 0.4954526881
0.7226951221 0.2476281114 0.7428323918
0.7325327278 0.25109061 0.9962980094
0.7126329303 0.5012040644 0.4965783797
0.7126071581 -5.5988135907e-04 0.4953956212
0.7126071581 5.2188910729e-04 0.9957733617
0.7526865653 0.501660958 -0.0035344044
0.7424550136 0.0021378086 0.2413354027
0.7425286483 -2.1968436565e-04 0.7437408608
0.7426170101 0.2495546144 0.2442660667
0.7426501457 0.2510112068 0.7439663673
0.7625830789 8.653403287e-04 0.2412663701
0.7525687497 -0.0020595923 0.4935142527
0.7625094441 -2.8802315331e-04 0.7411139402
0.752565068 -8.2249755736e-04 -0.0075943258
0.7625793972 0.2518299706 0.2454451435
0.752649748 0.2509819188 0.4969115771
0.7626309415 0.2481774251 0.7424577749
0.7526902471 0.2509233427 -0.0037599753
0.78257492 0.0012744619 0.2402787437
0.7825970104 -0.0012177561 0.7426372596
0.772626862 -8.0590099464e-04 -0.0085873818
0.7826669634 0.2497817595 0.2449637562
0.7727041785 0.248515214 0.4921188738
0.7826669634 0.2491478359 0.7462812605
0.7726857699 0.2495552652 -0.0092231932
0.7926076579 -0.0012591499 0.4956754333
0.792478797 0.0013066787 -0.002755008
0.8124669563 0.4984490349 -0.0043104873
0.7926260665 0.2511101353 0.4969437923
0.7926849744 0.2488842434 -0.0026186087
0.8024342184 -0.0018922144 0.2469979168
0.8126068624 3.4908960135e-04 0.497519064
0.8024599906 -0.0012496475 0.7481607881
0.8125847719 -0.001072227 -0.0049534293
0.8026035784 0.2489024671 0.2460029269
0.8125185006 0.2481578997 0.4971297201
0.8024857627 0.2475064033 0.7458523379
0.8124927285 0.2483036891 -0.0016051181
0.8325250686 -0.0017617979 0.4936688858
0.8225144211 -0.0012374116 0.7437887234
0.8324367069 -0.0019609827 -0.0050679222
0.8225475568 0.2495533127 0.2459302126
0.8326207938 0.2511882368 0.4980207009
0.8224996942 0.2491836324 0.7467552843
0.8325729312 0.2469616455 -0.0012660944
0.8224555133 -0.0016869507 0.2467687286
0.8424731265 -0.0010275139 0.7485243598
0.842495217 0.2488914027 0.2505130568
0.8424694448 0.2484709565 0.7465647544
0.8626048736 -0.0026437002 0.24950334
0.8426682587 0.4997448685 0.7502897535
0.852553727 -0.001898827 0.498518656
0.8625165119 -0.0012791308 0.7506441208
0.8525169096 -0.0028509295 -0.0013377871
0.8626785084 0.2483284213 0.2522987001
0.8425246709 -0.0033892764 0.2516737249
0.8526825879 0.2482796078 0.5010323631
0.8626048736 0.2489206908 0.7513740255
0.852638407 0.2470618757 0.0027301108
0.872575022 -5.0334341373e-05 0.5061021173
0.8924932282 -6.7321411449e-05 0.5059843016
0.8726560202 9.7667947328e-05 0.0024790162
0.8825562155 0.2497485664 0.2548492245
0.8925042735 -0.0011970592 0.0061878156
0.8726817924 0.2487091659 0.5041360688
0.8925926352 0.2489193891 0.5074606788
0.8825930329 0.2483160552 0.7535002296
0.8726339298 0.2483909024 0.0041764818
0.89258159 0.2510743388 0.0036847856
0.902570147 -0.002818667 0.2532421456
0.9124924327 -4.0441488303e-05 0.5083829544
0.9024707401 -0.0014575276 0.7549324259
0.9023934235 0.2500420977 0.2560743231
0.9125255684 0.2483974109 0.5087483669
0.9024339227 0.2489792669 0.7537441448
0.9025370114 0.4984640044 0.7540497291
0.912418798 0.2488425893 0.00966126
0.9224625811 -2.291216268e-04 0.2616714863
0.9224478541 -0.0011537129 0.7600960644
0.9225435793 0.2495806482 0.2642680325
0.9224883533 0.2496242548 0.7674162814
0.9426090551 -0.0017220963 0.2641815117
0.9326352251 -6.6388648543e-04 0.5144900384
0.9425022847 4.4233523835e-05 0.7651464895
0.9325100459 -0.0012325954 0.0126053623
0.9425170117 0.2492285407 0.2699121379
0.9324400929 0.2493463438 0.5166272877
0.9424396952 0.2503974594 0.7668345667
0.9324437746 0.2498435898 0.0171458665
0.9523619809 -2.856150246e-04 0.5147956227
0.9525350226 -6.8178473934e-04 0.0130996357
0.962405764 0.2509187867 0.2649049733
0.9524797965 0.2500557655 0.5123214943
0.9724716376 0.2479118801 0.5167156495
0.9623910371 0.2507411059 0.7675202905
0.9524282522 0.2494283503 0.0137191803
0.9725747263 0.2460537159 0.0160511015
0.9624646718 -0.0012152829 0.2640066291
0.9825485563 0.4973224212 0.7665280619
0.9824933303 0.4976120475 0.2652657837
0.9824454677 -0.0027279131 0.2640498895
0.9923972073 -0.0013024962 0.5202142216
0.9824160137 0.2476495893 0.2701910296
0.9923162091 -0.0011140764 0.0190266827
0.9924487517 0.2495044993 0.5195312591
0.9823607877 0.2491536935 0.7688015356
0.9924745238 0.2491680121 0.019241052
0.0125270885 0.7505885717 0.0184015235
0.0025686113 0.5001243115 0.7695737802
0.0124267611 0.4981463917 0.0195910012
0.0223895828 0.7518707375 0.2694961015
0.0025257927 0.7490981352 0.2707460517
0.0126112899 0.7493649819 0.5194751126
0.0224071447 0.7509009775 0.7653471442
0.0225559238 0.5002557823 0.2694694088
0.0024686521 0.7524109393 0.7689460438
0.012403603 0.9998103676 0.0223167764
0.0525159618 0.9992831826 0.5130228656
0.0525108074 1.0000772143 0.0125239959
0.0323691196 0.7502566404 0.013564087
0.0424140072 0.4997669973 0.7635863527
0.0425314547 0.7501720305 0.2623056658
0.032344452 0.7484993573 0.5143565754
0.0425001599 0.7511157566 0.763004638
0.0523675878 0.7505560294 0.0088202588
0.0523466019 0.7484277643 0.5111138841
0.0525457839 0.5011480916 0.5122432574
0.0425741629 1.0002724679 0.2666151409
0.0324891443 1.0006890091 0.519357297
0.0325101302 0.9999405367 0.0176589168
0.0725943237 1.0007410768 0.5065384033
0.0624577608 0.9996346393 0.7596542558
0.0725004394 0.9993612841 0.0043021211
0.0723285022 0.7501394882 0.0089726828
0.0624515018 0.7472757676 0.2570030417
0.0722861622 0.7488768477 0.5064454394
0.0624680697 0.7497750147 0.7574470535
0.0624934737 0.9990293529 0.2568658969
0.082422357 0.9979554576 0.2555809701
0.1025275955 0.999445894 0.7616258269
0.0825486406 0.9988991837 0.757933043
0.092362315 1.0011511095 0.0083903238
0.0925530291 0.7506015886 0.0088719872
0.0924315317 0.500822018 0.0102293522
0.1023262044 0.7478224779 0.2581296537
0.082363081 0.7497815231 0.2545730941
0.0924687173 0.7503282334 0.510713495
0.1023847441 0.7490265422 0.7585819494
0.0824179389 0.7498856584 0.7587043672
0.0924646674 0.497601634 0.5073879645
0.1123917098 1.0005783654 0.0115201698
0.1125485519 0.7513045018 0.0096538965
0.1224608969 0.5003586159 0.758587472
0.1224023573 0.7530227342 0.2581075633
0.1125305114 0.7519423305 0.5062217738
0.1224575834 0.7489874915 0.7567208305
0.1124038596 0.9980921352 0.5120481252
0.1224148752 0.9989122006 0.7577820917
0.152280403 1.0006434499 0.501900333
0.1324251545 0.9986844047 0.5062760794
0.1423912529 0.9988861668 0.753367687
0.1523429926 1.0003831117 0.0017972502
0.1323378973 1.0000316551 0.010127276
0.1524523402 0.7494561003 -0.0043593072
0.1324571856 0.749208779 0.0036892957
0.1424821919 0.7502956911 0.2528546426
0.152451972 0.7491111522 0.4969603601
0.1324133729 0.7498075569 0.5047223857
0.1423809441 0.5015125652 0.2519029132
0.1425123821 0.7516169077 0.7499381474
0.1724997755 0.7504128434 -0.0029013295
0.1624655649 0.5006554015 0.7492855592
0.1725730421 0.5014806737 -0.0039103744
0.162503855 0.750464911 0.246657356
0.1824699238 0.9996086054 0.7485436889
0.1726415224 0.750608097 0.4968425445
0.1626025256 0.5024400201 0.2508572994
0.1624931779 0.7507577915 0.745492448
0.182546504 0.7520724996 0.244804521
0.1824717647 0.7511808412 0.7484801789
0.1624788192 1.0006434499 0.2487458223
0.172447863 0.9987494892 0.5010029092
0.1723381472 0.9993677926 -0.0012199806
0.1924323405 0.997974983 0.4982250374
0.2024728101 0.9991920643 0.7464450979
0.1925670922 0.7501785389 -0.0024754259
0.2026171342 0.750165522 0.2456200261
0.1924500129 0.7514281625 0.4975503588
0.2025405541 0.7505234871 0.7466080148
0.2325246339 0.7505039617 0.9989580656
0.2325253702 0.4998808953 1.0009738176
0.2325791236 0.7510962312 0.4968361015
0.2325003344 0.5010276852 0.5003263897
0.2223994843 1.0028628334 0.2463158747
0.2124304405 0.9999079944 0.4961209237
0.2123560694 1.0007606021 -0.0022769066
0.2124816167 0.751577857 -0.0030108428
0.232605264 1.0002985018 0.9997680481
0.2225320269 0.7529511412 0.2500905773
0.2125048116 0.7513891117 0.4946555917
0.2225106729 0.4996342248 0.2486178818
0.2225080956 0.7520334489 0.7495165883
0.2527366429 0.7515518231 1.0002650829
0.2525201567 0.5008031435 0.9987923874
0.242489996 0.7497750147 0.2501743369
0.252556974 0.7511808412 0.5030112977
0.242498464 0.4997702515 0.2531712721
0.2425481674 0.7519553474 0.7499363066
0.2525076387 0.5003638227 0.4999711019
0.2626383109 0.4995437572 0.7496242792
0.2625054001 0.7528404974 0.2483159793
0.2624822052 0.7497815231 0.7489956223
0.2825406857 0.5018666252 0.7466982174
0.2827619582 0.7515908739 0.2456145035
0.2825749259 0.5003026432 0.2482856049
0.2826157932 0.7523002956 0.7471105721
0.2725013206 0.7516429415 0.997586618
0.2725985186 0.5010843088 0.9975958223
0.2726791486 0.7511548073 0.4980004513
0.2826099024 0.9987104385 0.2471948898
0.2825804485 1.0012357194 0.7463420092
0.3124599669 1.0042621515 0.9960586964
0.2927291611 0.7505495209 0.9995287351
0.3026334064 0.5013889045 0.7477898529
0.2926330678 0.500417192 0.9967858398
0.3025936436 0.7520855165 0.2488387862
0.2925229838 0.7534067331 0.4994096368
0.302452633 0.5032600856 0.2513856289
0.3026275156 0.7534718177 0.745562401
0.3025660305 1.0010599911 0.2502765051
0.3124864754 0.7514021287 0.9967766355
0.3124886845 0.5031390283 0.9994827134
0.3125950867 0.7519683643 0.4965332784
0.2926455857 1.00232914 0.9981296744
0.3324937797 0.7505495209 0.9939969228
0.3326274269 0.5032386077 0.9927083142
0.3225722303 0.7511613158 0.2450557997
0.3326263223 0.7499702683 0.4925864546
0.3224956502 0.7530097173 0.7455670032
0.3325692554 0.5026411314 0.493186578
0.3526969526 1.0006694838 0.4927272811
0.3426229792 0.9998429098 0.7448113263
0.3627315313 0.7475165804 0.2383826483
0.3525820823 1.0011511095 0.9932881881
0.3626358061 0.7505820632 0.7380268024
0.3626247609 0.9997713168 0.2407527676
0.3526008592 0.7492543382 0.9920363969
0.3625548079 0.9998038591 0.7407374825
0.3526472491 0.5006547507 0.9920548056
0.3425913162 0.7491957621 0.2409350136
0.3526560853 0.7503152165 0.4924621959
0.3426829915 0.7488768477 0.7397885143
0.392590432 1.0019191073 0.4871890257
0.3726059545 0.7482650529 0.9871028671
0.372683271 0.5001535996 0.9861640237
0.3827012819 0.7505299956 0.2328526768
0.3725028658 0.7515192809 0.4891615172
0.3824656507 0.4994461304 0.2390021008
0.3825576941 0.7517275515 0.7309624663
0.3824987863 1.0010079235 0.2358569756
0.3823809707 0.9993938264 0.7369241216
0.3725212745 0.9989056922 0.9866334454
0.3726096362 0.5008376383 0.4875047348
0.3923768912 0.7513435526 0.9838445284
0.3924615712 0.7503477588 0.4866791049
0.4125160018 0.7509725706 0.985004276
0.4123908227 0.7496318286 0.4891311428
0.4123834592 0.5017683475 0.4859648476
0.4024759004 1.0017694128 0.2357143082
0.4023470395 0.5008382891 0.7340781376
0.4025532169 0.7509660621 0.2346189909
0.4023065404 0.501306898 0.2345057775
0.4024795821 0.7544480861 0.7357100683
0.4324857524 0.7492673551 0.9832830632
0.4223425623 0.7533676824 0.2383228201
0.4324047541 0.7508033507 0.4821100672
0.4223315171 0.5012437659 0.2341790232
0.4223204719 0.7532244963 0.7312680506
0.4424743094 0.7505560294 0.2301281902
0.4424448555 0.7497815231 0.7305436685
0.432603568 1.0022510386 0.4838865061
0.4225413762 1.0038391018 0.7335985912
0.4425663529 1.0012357194 0.2289132164
0.452610136 1.0000316551 0.9794632593
0.4626023748 1.0014504985 0.2244850052
0.4723663457 1.0003831117 0.4803391509
0.462543467 1.0032077816 0.7258549743
0.4524628664 0.7485709503 0.9767111597
0.4524591847 0.7494561003 0.4786731641
0.4723700275 0.7484407812 0.9736921339
0.4623851522 0.7491697283 0.2283517513
0.4724362988 0.750165522 0.4765331535
0.4625176948 0.7519878897 0.7281247662
0.4724068449 0.5018581642 0.4767420922
0.4823585845 1.0045745573 0.2247740217
0.4924575937 1.0025048683 0.4779055216
0.4925128198 1.0003961286 0.9769872901
0.4824579915 0.5010745461 0.7242193619
0.4924318216 0.7500418614 0.4795742697
0.4824653549 0.7501199628 0.2275113944
0.4923802772 0.7524760239 0.9816999156
0.4824432645 0.7518512121 0.7271997293
0.5123426643 0.999003319 0.4804781365
0.5124199808 1.0002724679 0.9822245633
0.5023614708 0.9994328771 0.2288966486
0.5224232648 0.7511157566 0.7355904118
0.5224564005 0.9975649503 0.2343032818
0.5224306283 1.0003570779 0.7355508331
0.5024682412 0.7490786099 0.2304126045
0.5023430621 0.4994402728 0.2276144831
0.5022915177 0.7503803011 0.7331751912
0.5024351055 0.4989371691 0.7300779286
0.5123537095 0.7485774588 0.9832646545
0.5123021652 0.5006339236 0.9840930457
0.5123205739 0.7484342727 0.4847774868
0.5222759953 0.4993192155 0.233729851
0.5223385848 0.750250132 0.2389671243
0.5324965019 0.7495472187 0.4868070453
0.5324118219 0.5006410829 0.4875341887
0.5324854567 1.0014114477 0.9882073887
0.5425145128 0.9991660304 0.23887324
0.5523521186 0.9990944374 0.4911478152
0.5524478438 0.7504323687 0.9869924149
0.5424519233 0.9995760632 0.7398363769
0.5423488346 0.7503412503 0.2424049478
0.5524220716 0.7479461385 0.4849137112
0.542455605 0.7492283044 0.7386747884
0.5323934132 0.7477443764 0.9850318891
0.5624511278 0.9974152558 0.2397531755
0.5624953086 0.9979684745 0.7379835419
0.5623038582 0.7514151456 0.2376113241
0.5624179921 0.7487141363 0.7393209335
0.5723955039 0.9993157249 0.4900994401
0.5724470483 0.9989122006 0.98840068
0.5725096378 0.7503803011 0.988667606
0.5725317283 0.7501720305 0.4874623948
0.6024384916 0.9969987146 0.2395801338
0.5923983902 0.7490786099 0.9887964669
0.5925346145 0.9979229153 0.4873685104
0.6024348098 0.998716947 0.7416146567
0.5925088423 0.9989122006 0.9866610584
0.6024164011 0.7490525761 0.2363098294
0.6024127194 0.5009749667 0.2375303258
0.5925014789 0.7475556312 0.4873574652
0.6024274463 0.7481544091 0.733269996
0.5825791931 0.9975649503 0.2387839578
0.5825681479 0.9992050812 0.740166813
0.5824429688 0.7505885717 0.2357235125
0.5824208784 0.7487011194 0.7366268212
0.6125264555 0.7485839672 0.9883914756
0.6123460504 0.7500158275 0.4881499595
0.612463866 0.9996867069 0.989542019
0.6223898335 0.9982873889 0.2453586227
0.6224045604 0.7502306066 0.2426322952
0.6224966039 0.7490070169 0.742449491
0.6425363075 1.0002269088 0.7487645932
0.6525101376 1.0008191782 0.9946964531
0.6323415731 1.0000381635 0.9927175186
0.6325256601 0.7484733235 0.9896432668
0.6323931175 0.5015346939 0.9965741398
0.6324409801 0.7483301374 0.496096072
0.6524843654 0.7483496628 0.9965833442
0.6524954107 0.4993061986 0.9953867791
0.6424921267 0.751506264 0.2443231337
0.6424958084 0.49969215 0.2462634099
0.6523444594 0.7504909448 0.4969529967
0.642528944 0.7507577915 0.7447965994
0.6723620726 0.7503087081 0.9925334316
0.6724209804 0.4965882674 0.9945491836
0.6823543113 0.9990293529 0.2463057499
0.6724320256 0.9988991837 0.4959672111
0.682556807 0.9983329481 0.7437408608
0.6824758087 0.7487727124 0.2466398677
0.6724467526 0.7484472896 0.4931801349
0.6823616748 0.7481283753 0.7431978043
0.6623845607 0.7476662749 0.2420570235
0.6624066512 0.749508168 0.7456148658
0.7025965106 1.0006434499 0.2493017648
0.702618601 0.4990360977 0.7460502314
0.692560091 0.7502306066 0.9965097094
0.6925195918 1.0012487363 0.4956082416
0.7024418776 1.0005653485 0.7464653474
0.6925527275 1.0003245356 0.994586001
0.7024823767 0.7488768477 0.2411743267
0.7025339211 0.5003618702 0.2458979974
0.6924459571 0.7498140654 0.4964292693
0.7026848723 0.7495211849 0.7434361969
0.7225441708 0.5021529972 0.7443842446
0.7325548182 0.7485709503 0.9928739925
0.7226509412 0.7489028816 0.2432784403
0.7225993969 0.5013537588 0.2442292493
0.7326026808 0.7495342018 0.4894891919
0.722709849 0.7482064768 0.7438816873
0.7225773064 1.003071104 0.7474897912
0.7126145216 0.7504323687 0.9960771051
0.7125335233 0.7476337327 0.4934341749
0.7424955127 0.499675228 0.7463990761
0.7425801927 0.7485774588 0.2407187115
0.7425765109 0.5015496634 0.2475538594
0.7425286483 0.7513826033 0.7420150458
0.7525098419 0.5027133753 0.4945635483
0.7526018854 0.750835893 -0.0077365523
0.7626493502 0.5002870229 0.7447321689
0.7626125328 0.7515973823 0.2438040085
0.7627450754 0.5001503453 0.246763206
0.7526055671 0.7507968423 0.4917829151
0.7625830789 0.7501069459 0.7434592078
0.7826191008 0.7484212558 0.2427795647
0.7825933286 0.5001490436 0.2437635094
0.7725458638 0.7536084952 0.4930144567
0.7826154191 0.7510441636 0.7447054763
0.7726010899 1.0003896202 0.4936753288
0.7726158168 0.50190112 0.4947384308
0.7726010899 0.7502436235 -0.0081717356
0.7826411912 0.5008968652 0.7453746323
0.7726194986 0.5001171522 -0.0091183364
0.7925745222 0.7473994282 0.4951010821
0.8125994989 0.4996791331 0.4938179962
0.8125295458 0.7495146764 -0.0013386707
0.8024636723 0.4989013726 0.7455246632
0.802636714 0.7508163676 0.2461980591
0.8026256688 0.4990198265 0.2442301698
0.7925008874 0.4985460109 0.4927963137
0.79246407 0.7495276933 -0.0037546921
0.8124485476 0.7512589426 0.4952547947
0.7925745222 0.4988668778 -0.0060234623
0.802636714 0.752163618 0.7486753111
0.8324661608 0.4985479635 0.493461788
0.8325434773 0.7481999683 -0.0038069635
0.8224481499 0.4997845701 0.7467773748
0.8327017921 0.4989456301 -0.0031947364
0.8225806924 0.7491111522 0.2441261606
0.8225512385 0.5012587354 0.2432397821
0.8326392025 0.7475230889 0.4969824506
0.822558602 0.7481218668 0.7455099362
0.8626895536 0.7488182716 0.7502704243
0.8626711449 0.4974974987 0.7528780158
0.8526494522 0.7476337327 -8.6333982718e-04
0.8525205914 0.500459497 0.0035249981
0.8626269641 0.7503021996 0.2526355792
0.8626748267 0.4978522095 0.2518403236
0.8525242731 0.7473278352 0.499956375
0.8427271665 0.7460521779 0.2465220521
0.8426977126 0.5002037147 0.2470927216
0.8426535317 0.747510072 0.7499722035
0.8525868627 0.4992671479 0.4975006553
0.8726670654 0.5029476797 0.5022132808
0.882732939 0.7514802301 0.754185033
0.8925963169 0.4993914594 0.5035331841
0.8725345229 0.7503087081 0.0017118339
0.8925521361 0.7496253202 0.0024694437
0.8825046712 0.4999192951 0.7505042147
0.8725124324 0.5000318914 0.0021272261
0.8926184073 0.5019056759 0.0016029465
0.8826961216 0.7495927779 0.2542067612
0.8825930329 0.4983819978 0.2529466861
0.8725566133 0.7495602356 0.5039124032
0.8925484543 0.7472041746 0.499956375
0.882563579 0.996647258 0.2543264177
0.8826040781 0.9978708477 0.7515802029
0.9125366136 0.7484407812 0.5056234912
0.912558704 0.9989447429 0.0097846902
0.9126212936 0.4976061899 0.5079393049
0.9024781035 0.7476011904 0.7545854221
0.9124151162 0.7463190245 0.0068807189