POSCAR file written by Ovito 3.7.11
1
271.5871809636 0.0 0.0
0.0 15.3632909874 0.0
0.0 0.0 10.8634872385
Sr Ti O 
800 800 2400 
Direct
0.0226245268 0.50017314 0.8128098707
0.0125938619 0.2491422897 0.5679768865
0.0224822152 0.2509426852 0.8127288655
0.0024694886 0.2482687789 0.8178275965
0.0126707065 0.2496760295 0.0681290125
0.0227095824 -0.0019498105 0.3092717453
0.0025890083 0.0010148538 0.3157779434
0.0025200065 0.4986929884 0.3161222159
0.0127604751 0.4996621818 0.5647974286
0.0125183061 -0.0014504383 0.5599012108
0.0226747133 0.0013559265 0.8116868428
0.0027528231 7.2806625337e-04 0.815637692
0.0226266992 0.2503503642 0.3172434028
0.0026680621 0.2498765074 0.3141670426
0.0324735189 0.5018798056 0.0595985105
0.0425236987 0.4996146659 0.3072576591
0.0325328001 0.4997773914 0.562727191
0.0325456873 0.2509062347 0.5603568656
0.042615382 0.2499279286 0.8074911366
0.0325143898 0.2489600371 0.0557793869
0.0524667306 0.4988596193 0.0543473422
0.0425454229 -5.8024718133e-04 0.8054807325
0.0425910804 0.247835929 0.3058870126
0.0524961871 0.2484139301 0.5513708008
0.0526088581 0.2490895666 0.0495561551
0.0625997567 0.2469149023 0.2973317488
0.0625953382 0.4990965477 0.7992258349
0.0725486799 0.4960913323 0.0458474933
0.0624808262 0.500013018 0.3015900499
0.0724488961 0.497451067 0.5459857896
0.072543525 0.2480038617 0.5449419259
0.0626303178 0.2466467306 0.7977502498
0.072479089 0.2482980695 0.0443274473
0.09250323 0.2500743816 0.5433098533
0.1025018609 0.2505924998 0.790448727
0.082531478 0.2469611164 0.7947677821
0.0924811376 0.2497684576 0.042658278
0.1025313174 -4.6386586684e-04 0.2932538685
0.0922005647 -0.0015531507 0.5471502408
0.1024083366 0.2491527041 0.2925156157
0.0825395785 0.247902321 0.2914441366
0.1023862443 0.4992449534 0.7895530661
0.0824423722 0.4982236879 0.7966437911
0.102394713 0.4992254264 0.2928120214
0.0823632079 0.4972336656 0.2943465195
0.1226051662 0.2496018266 0.288161581
0.1123889255 0.4993751339 0.0420964878
0.1124743493 0.2489841204 0.5382958096
0.1224825536 0.5001607728 0.2854773601
0.1125030694 0.4982568839 0.540036503
0.1226320452 0.2477727914 0.7859041458
0.1124938642 0.2486632257 0.0395488713
0.1225414666 -8.4457856732e-04 0.2831585835
0.152497225 0.2489841204 0.5223635407
0.1325493027 0.2478834448 0.5328712163
0.1424190616 0.2517719346 0.781138641
0.1524618773 0.2502546816 0.0217170282
0.1325931192 0.2467664966 0.0314689612
0.1424194298 -5.1118645724e-04 0.2728368518
0.1425155315 0.2484184864 0.2790346775
0.1424510955 0.499127791 0.776669542
0.1523985459 0.4984840488 0.0208311248
0.1323659362 0.4978513718 0.0348818616
0.1523550976 0.4976320178 0.5250210667
0.1324285312 0.4986864793 0.5337033616
0.1824157947 0.2505755763 0.2638204101
0.1724075904 0.5021304029 0.515757927
0.1824614523 0.4989403312 0.7619541936
0.1724779177 0.2516443578 0.516634257
0.1623146987 0.2511268905 0.7687034076
0.1724981691 0.2502813685 0.0172325566
0.1824559292 0.5005884156 0.2612438894
0.162468977 5.7731730238e-04 0.7667160163
0.1624251605 0.2501765733 0.2728930032
0.1825505581 0.2498296424 0.7641928854
0.18259327 0.0019740883 0.2623043223
0.1925068454 0.0022083481 0.0092476436
0.2024933256 0.2492405759 0.2610478197
0.2024826476 0.498169663 0.7576885283
0.1924876987 0.5007296614 0.009346691
0.2024126885 0.4980856966 0.2563403074
0.1923396799 0.4993054873 0.5121679196
0.1924965356 0.2502019585 0.5130884343
0.2024252075 0.2503620804 0.7589754079
0.1924744433 0.2512629291 0.0100984754
0.2023662945 0.002330978 0.2586719712
0.2124474036 0.2512199695 0.506944919
0.2225903713 0.2503295353 0.7510037504
0.2125718572 0.2488467801 0.0071334974
0.2224633403 6.3830683912e-04 0.7537883074
0.2224228376 0.2497541378 0.2527364922
0.2324921641 0.2509726267 0.4989410434
0.2324892185 0.251063753 1.0016157261
0.2325194114 0.0012989726 0.4949966378
0.2225296173 0.4988322814 0.7502885104
0.2124683914 0.499680407 0.0074758368
0.2123667665 0.500133435 0.5068372188
0.2423427763 0.5008500783 0.7436341095
0.2623775953 0.2503028483 0.7430072389
0.2624122067 -0.0017396342 0.2379014769
0.2624556549 -2.4978413118e-04 0.7363611226
0.2525582806 0.2515219882 0.4955618339
0.2424385099 0.2502039112 0.7466533978
0.2524835348 0.2517309278 0.9920607832
0.2624670693 0.2484822748 0.2437025607
0.2425220926 -8.8167999308e-04 0.2461124683
0.2623882733 0.4987190245 0.2395225033
0.2525395021 -2.4216857537e-04 0.4933562806
0.2424050031 -8.9352641323e-04 0.7464794205
0.2523612904 -0.0010909451 0.9895938037
0.2425272475 0.2490218728 0.2460866938
0.2724259341 0.2502045621 0.4876159507
0.272570639 0.250990201 0.9893912905
0.2724008961 -3.6779270119e-04 0.4854545822
0.2724634911 -0.0026220233 0.9861694889
0.2823906901 0.2480806682 0.7313728533
0.2723047943 0.5019793936 0.485756511
0.2824098368 0.2507018514 0.2305843053
0.3124477052 0.0021291333 0.4722074547
0.2922865916 0.4990893878 0.4789511456
0.2924393971 0.249512653 0.4813868276
0.3024579112 0.25375263 0.7281538133
0.2924927869 0.2510650548 0.9799283991
0.2924791633 -0.0026007648 0.47538231
0.302359232 0.0018400676 0.7233339982
0.3123762733 0.5030221389 0.4758075878
0.3024004711 0.2498394059 0.2254487536
0.312458015 0.2531746289 0.4739076454
0.3123707502 0.2498908272 0.9743408747
0.3223251964 0.0037228673 0.2205341255
0.3325767849 4.3333773435e-04 0.4652787404
0.3224279259 0.0010016405 0.7165424405
0.3324972524 3.0803905963e-04 0.9646386495
0.3224606962 0.2524306476 0.2221671186
0.3224897845 0.4997819478 0.7211634244
0.3224875752 0.5027546181 0.2221349006
0.332560952 0.2508489553 0.4637654141
0.3224713742 0.249506144 0.7186145192
0.3323901045 0.2518702208 0.9671240392
0.3623918887 0.2503601277 0.2059237158
0.352470581 0.5012549395 0.4602748223
0.3525526909 0.2491129991 0.4585341289
0.3425249716 0.2530724372 0.7142236639
0.3626201763 0.4994747219 0.7034425954
0.3526071853 0.2503197718 0.9590787405
0.3624434375 0.500831853 0.2026034191
0.3425106116 2.2413776524e-04 0.212598368
0.3425242352 0.2499331359 0.2147302802
0.3624176631 0.2514653597 0.7046714826
0.342570261 0.500738774 0.7157471158
0.3425779933 0.5001633765 0.2135998881
0.3823965148 0.2479609022 0.1976694602
0.3924338074 0.2493421167 0.4471206668
0.3924669459 0.249433243 0.9474802549
0.3923933047 -0.001553346 0.9522393161
0.3823560121 0.4974836121 0.7006064895
0.3922644326 0.5016318118 0.9503982866
0.3724623198 0.2490010439 0.4517416508
0.3823118274 0.2508320318 0.6980226047
0.3723702683 0.247190234 0.9485848726
0.3923712124 0.5017593887 0.4499162701
0.372410771 -0.0014628055 0.4532246
0.4126299005 0.5031360468 0.9510426469
0.4025116026 0.251662583 0.6984662928
0.4024968744 8.9704046613e-04 0.6953374632
0.4024821461 0.248760861 0.1959315284
0.4125194387 0.250704455 0.4455622354
0.4125636234 0.2512310349 0.9451145321
0.4124642078 3.6746643107e-04 0.4475873678
0.4126114902 -0.0013625015 0.948796591
0.4425576753 -0.0011924858 0.6920604308
0.442660773 0.2511639919 0.1897014847
0.422475726 0.4990965477 0.6967743867
0.4324946083 0.5008767653 0.9446634799
0.4324577877 0.501910398 0.4465941324
0.4424435315 0.4980791876 0.6930131635
0.4424656239 0.5006085936 0.1938603702
0.4325572033 0.2496799349 0.4442164429
0.4226451007 0.250331488 0.6950953679
0.4324430595 0.2508528607 0.9448936085
0.4224057669 0.0013263105 0.1932813665
0.432726578 2.6794348372e-04 0.9432274769
0.4225640954 0.2524449675 0.1941816299
0.4425539933 0.2512720417 0.6932331666
0.4725517272 0.2501648571 0.4322709232
0.4627500864 0.2485909755 0.6821630564
0.4725590913 0.2484165337 0.9310674773
0.4725738196 -0.0023292605 0.9278180603
0.4626948555 0.2496213537 0.1840209883
0.4524845062 0.4998398781 0.9380633893
0.4525581473 0.4988108017 0.4369821176
0.4625843937 0.4979789486 0.6880166096
0.472599594 0.4979405454 0.9314725038
0.4625549373 0.5011957074 0.1844168097
0.4525839217 0.2511333995 0.4363506445
0.452539737 0.2487550029 0.9371981054
0.4527606606 1.7564555087e-04 0.4357026021
0.4825779736 0.2493095716 0.6811182722
0.4825116966 -0.0010992766 0.678447859
0.4924679839 0.5005311362 0.9281678559
0.4924863942 0.4978754552 0.4303488885
0.4824270092 0.2499292305 0.1817408733
0.4924937583 0.2482765898 0.4311304055
0.4925232148 0.2476465164 0.932236531
0.482474876 0.4979646288 0.1804558348
0.5025089585 0.2493837744 0.6803588476
0.5126125282 0.2491253662 0.4315299089
0.5124726099 0.2492685647 0.9349060237
0.5025678715 -7.1856390017e-04 0.6803100603
0.5024389994 0.2487165996 0.1797185025
0.5225135846 0.2490166656 0.1841931246
0.5225540872 0.2475417212 0.6812581905
0.5124541996 0.4991388564 0.4317738453
0.5225099025 0.4967858449 0.6861737391
0.5425771236 0.4974718958 0.6897039131
0.5525739136 0.4994525912 0.9400885217
0.5427096777 0.4965795089 0.1892927762
0.552724878 0.5002798879 0.4421508078
0.532665021 -0.0016302175 0.4353509655
0.532723934 0.2517771418 0.4363745779
0.532602426 0.2490277309 0.940797318
0.5325471951 0.4995398121 0.9350901267
0.5526401906 -6.1819477996e-04 0.9405303687
0.5426839033 0.2500112441 0.1911991622
0.5527322421 0.24842109 0.4426211908
0.5425808057 0.2477220211 0.6885192106
0.5525849597 0.2496656151 0.9418098842
0.5725490831 0.2489450663 0.4424987624
0.5726153602 0.2478333253 0.9466333814
0.5626296164 0.5010577161 0.6948578751
0.5624896982 0.4972095822 0.1948618903
0.5725490831 0.5005298344 0.9463204064
0.5725085805 0.4978533245 0.4442744353
0.5624712879 0.2493844253 0.1911991622
0.5626332985 0.248721156 0.6963693602
0.6025210427 0.4980583587 0.7050967604
0.5923769704 0.5020848398 0.9499564396
0.5924027448 0.5012100272 0.4515722761
0.5827115657 0.2494872679 0.6963279371
0.6026130942 0.2512049988 0.209159325
0.5926310325 0.2486026918 0.4487122368
0.6026830533 0.250611376 0.7038862835
0.5925978939 0.2485870701 0.948548052
0.5823801804 0.4988993244 0.6957829924
0.5824611857 0.4991102167 0.1981094662
0.5826158322 0.2515486751 0.2018283457
0.612355822 0.5008299003 0.9596494596
0.6125656994 0.5004901294 0.4613481425
0.6224593917 0.4986832248 0.7108481364
0.6125215147 -0.0012653868 0.4600336474
0.6225551252 0.4974432561 0.2101231039
0.6127424382 0.2477011922 0.4584374749
0.6126761612 0.248308484 0.959796742
0.6225735355 -1.5329156468e-05 0.7104780895
0.6225735355 0.2500633163 0.2093498716
0.6226324485 0.2497977482 0.7104909767
0.6423903766 5.8434704621e-04 0.2161681242
0.6524976283 -5.4151850005e-04 0.4725508067
0.6324451355 0.5005571723 0.4653486995
0.6425045204 0.2504857518 0.2177946737
0.6523429818 0.2492959026 0.4694081694
0.6425266128 0.2515545333 0.716604115
0.6325371869 1.2760896804e-04 0.4638565451
0.6525234027 0.2474421331 0.9666453716
0.6425781616 0.5011455879 0.7222772473
0.6524534436 0.5002147977 0.4704741255
0.6325703255 0.248022087 0.4653542226
0.6326623769 0.2471134275 0.9627239788
0.682414357 0.4999362116 0.7303299101
0.6623692282 -0.0014158754 0.2218937258
0.6825211367 0.4992859603 0.2322228215
0.6623324077 5.2329241926e-04 0.7209691958
0.6724028388 0.498748966 0.4809192061
0.66247969 0.2515623441 0.2221993367
0.6624281412 0.2487686718 0.7233054622
0.6724065208 1.5917772505e-04 0.9756756211
0.6625459671 0.4985055285 0.7283351547
0.6624207771 0.4984072423 0.2284514727
0.6825469111 0.2513163031 0.2283170775
0.6725501211 0.2489105685 0.4760846627
0.6825505931 0.2508020903 0.7271412471
0.6724727979 0.2503601277 0.9748931835
0.7024226651 0.2512850597 0.2324492682
0.6923780084 0.2519034168 0.4816123537
0.7026141321 0.2510045209 0.7336225913
0.6925657934 0.2524462693 0.9818706852
0.6925326548 0.5007615556 0.9766237512
0.6925326548 0.5005552196 0.483506773
0.7325087685 0.5000286397 0.995733637
0.7325234967 0.5004510752 0.4963672843
0.7125593733 0.2496180992 0.4894910392
0.7125888297 0.2524326003 0.9902289589
0.7226408506 -4.650737215e-05 0.2426338431
0.7325198146 -0.001854896 0.4981475597
0.7325124505 -0.0020878929 0.9991947723
0.712544645 0.5002876988 0.9852397691
0.7225009323 0.2517602184 0.2445236598
0.7325234967 0.2486860072 0.4971460397
0.7224125629 0.2496532479 0.7433469089
0.7324719479 0.2488565436 0.9993972856
0.7124710039 0.5000260361 0.4847678782
0.7124525936 -0.0021497612 0.4867405412
0.7124857321 -5.9398121788e-04 0.9906339854
0.752668041 0.500020178 -9.45133139e-04
0.7425718355 2.7913900167e-04 0.2521160653
0.7426896613 -0.0015696185 0.7511252583
0.7424761019 0.2464866087 0.2543216186
0.7425497431 0.2490108074 0.7492851494
0.7626574668 3.8230700137e-04 0.2541890645
0.7526017639 -0.0016224718 0.5035647889
0.7627200618 0.0019643248 0.7522353991
0.7526017639 -0.0028745343 0.0034176556
0.7626942874 0.2484503806 0.2524041864
0.7526569948 0.250331488 0.5014549692
0.7626758771 0.247522845 0.7534237836
0.7526569948 0.2509251108 2.8463771696e-04
0.7825921338 0.0014439285 0.2579843467
0.7825516311 -0.0016763665 0.7577216669
0.7725953438 -0.0013844369 0.0034141577
0.782669457 0.2491748348 0.2597241195
0.7725806156 0.2501095304 0.5045920834
0.7825958158 0.2500730798 0.7585133095
0.7725990259 0.2502078166 0.0046365092
0.7926257443 -2.8096234687e-04 0.5134060119
0.7925999699 0.0013391332 0.0120694815
0.8123984007 0.4996947269 0.0222285582
0.7925189646 0.2500561564 0.51372451
0.7925889237 0.2491787402 0.0155507761
0.8026188522 -1.3867512456e-04 0.2656540754
0.8125088624 0.0013570981 0.5181015575
0.8025231187 5.1323229459e-05 0.7670115015
0.8125788215 -0.0014706163 0.0190057441
0.8026335804 0.2492946008 0.2726002796
0.812479406 0.2494182722 0.5197087762
0.8025857137 0.2496278627 0.7683913531
0.8124757239 0.248301324 0.0191592859
0.8323846164 7.938073762e-04 0.5231238859
0.8224577856 0.0018091497 0.771075574
0.832421437 0.0038830543 0.0246345075
0.822417283 0.2518331194 0.2711946536
0.8323956626 0.2521722395 0.5256212423
0.8224393753 0.2516541213 0.7762718797
0.8325171706 0.2515519297 0.0250030816
0.8225756115 0.001365625 0.2720461297
0.8423224934 8.5316965742e-04 0.7850701594
0.8425618273 0.2513787897 0.2805286729
0.8425507811 0.2519327074 0.7794863171
0.8624486275 0.0016757148 0.2882655992
0.8424255911 0.4998424817 0.7813650876
0.8524076528 -3.006195935e-04 0.5344655478
0.8623050272 0.0015132496 0.7880977324
0.8523781963 0.0032885854 0.037783324
0.8625001763 0.2539817476 0.2921271585
0.8423409037 0.0012787295 0.2805277524
0.8524481554 0.2521930683 0.536100382
0.8625554072 0.2498185771 0.7906217837
0.8523376937 0.2535098435 0.0348402543
0.8723533659 0.0021323878 0.5460529872
0.8925236846 0.0046789125 0.5483100893
0.8724270071 0.0026351446 0.0452652677
0.8825894897 0.2511041089 0.2934922818
0.8924169049 0.0027500289 0.0491676979
0.8723423197 0.2524697018 0.5415341804
0.8925052743 0.2520212301 0.5459296382
0.8824495715 0.2526981684 0.7934137049
0.8723901865 0.2512531655 0.0413445193
0.8923727202 0.2525790533 0.0474327117
0.9023768743 0.0016100387 0.3001825829
0.9124914901 0.0021908388 0.5544333533
0.9024762899 0.002444951 0.8010843541
0.9024284231 0.2522165008 0.297750583
0.9126166801 0.2511197306 0.5480661529
0.9025167925 0.250764338 0.8007557304
0.9025867516 0.5008377111 0.7987471672
0.9124178489 0.2518585046 0.0517677838
0.9225103724 0.0040500758 0.3037974442
0.922547193 0.0014816157 0.8043512609
0.922547193 0.2533770594 0.3045936894
0.9225508751 0.2520628879 0.8027302345
0.9425370908 0.0014678817 0.3115932834
0.9324924341 0.0039110431 0.5581706431
0.9424303111 0.0013621752 0.8102186218
0.9324261571 0.0022332776 0.0577537069
0.9424929061 0.251596191 0.3105227248
0.9325108444 0.2520615861 0.5561280209
0.9426217782 0.2495367364 0.8081575893
0.932547665 0.2529552748 0.055024749
0.9525228346 -4.990796762e-04 0.5633973257
0.9525522911 0.0031971987 0.0612206415
0.9625343528 0.251402873 0.311814207
0.9525044243 0.2523180416 0.5618333712
0.9725569171 0.2511828681 0.5667157813
0.9626264043 0.2506816734 0.8112532803
0.952423419 0.2497840793 0.0671297017
0.972612148 0.2504955154 0.0635858121
0.9625969478 9.265551956e-05 0.3158479025
0.9825610712 0.5004614897 0.8138113908
0.9826310303 0.5005617286 0.3163164445
0.9825831636 -0.0018305652 0.3167049017
0.992675687 -7.0847491597e-04 0.5661920084
0.9825389789 0.2489034086 0.3143925687
0.992487902 9.6304194985e-04 0.0652907895
0.9925210406 0.2498452641 0.5672754543
0.9825942097 0.2507018514 0.8163695012
0.9924510814 0.2513755352 0.0678373014
0.012776713 0.7492499819 0.0637256383
0.002576747 0.4977290022 0.8127592424
0.0125039092 0.5007687155 0.0632892222
0.0226990885 0.7497251405 0.3074261133
0.0025126055 0.7499399382 0.3101351881
0.0127099941 0.7503109525 0.5622135438
0.022598826 0.7503434976 0.806733553
0.0226582913 0.4991779105 0.313783188
0.00262929 0.7508837464 0.8098301646
0.0126195995 0.9986561803 0.0614069537
0.0525808744 0.9996390426 0.5516377501
0.0525101789 0.9990922847 0.0542225204
0.0325924494 0.7498097578 0.0553701261
0.0425468957 0.4987320425 0.8055838301
0.0424533714 0.7494517615 0.3063905342
0.0325766166 0.7498162668 0.5556760482
0.0425391634 0.7495233608 0.8071017589
0.0524807224 0.7483582458 0.0525294176
0.0524682034 0.749295545 0.555162401
0.052419232 0.4991102167 0.5553032397
0.042465154 1.0002313636 0.3029781861
0.0325821396 0.9992354832 0.5582571715
0.0325210175 1.0006023779 0.0570468437
0.0725074408 0.9983242201 0.5480192067
0.0625158058 0.9982135668 0.800327691
0.0724536828 0.9971656142 0.0510108445
0.0723704682 0.7481890113 0.0492759504
0.0623869337 0.7487162421 0.304879049
0.072514805 0.7479156323 0.551321093
0.0623983481 0.7490547112 0.8024467159
0.0623541634 0.9978620796 0.3017944042
0.082341852 0.9969768526 0.299065078
0.1023586288 0.9989425772 0.790325378
0.0824519455 1.0003745621 0.7973967721
0.0923559476 0.9990532306 0.0473701167
0.0923342235 0.7480913759 0.0462975329
0.0923500563 0.4995059652 0.0447808929
0.1024175418 0.7485404985 0.2946825074
0.0822998765 0.7483582458 0.2984787101
0.0924785602 0.7493736533 0.5459802666
0.1023958176 0.7497251405 0.7922741077
0.0822785206 0.7459759438 0.7972200333
0.0923990277 0.4975220153 0.5441438397
0.1125332622 1.0010124462 0.0379574854
0.1124887093 0.7488659496 0.039346358
0.1224107535 0.4998899975 0.7866875038
0.1224129627 0.7515281396 0.2868875887
0.1124371605 0.7496860863 0.5349939233
0.1225403619 0.7508512013 0.7876835007
0.1123996035 1.0022556695 0.5395219352
0.1224273227 1.0007716124 0.7835687999
0.1525123215 0.9979532059 0.5203466929
0.1325949602 0.9984478916 0.531570529
0.1425081674 1.0003029628 0.7726827927
0.1525086394 0.9986691983 0.0199432883
0.1325710268 0.998298184 0.0272730709
0.1523679848 0.7496665593 0.0195632078
0.1323891331 0.7468481527 0.0280519185
0.1424319488 0.7497772127 0.2732869835
0.1523897089 0.7495689239 0.5171175273
0.1323077596 0.7499008841 0.5314563852
0.1423999149 0.4989917525 0.2754704445
0.1424223755 0.7486381338 0.7768223475
0.172408695 0.7502914254 0.0131690363
0.1624866509 0.5006743347 0.7673419663
0.1724282099 0.5007329159 0.0146480274
0.1623408413 0.7500050284 0.2664494001
0.1825288339 1.0028414814 0.7652984236
0.1724473566 0.7506298945 0.5139739695
0.1622649909 0.4990698607 0.2685601404
0.1623117531 0.7498292848 0.7659970943
0.1824268409 0.7511766524 0.2633224116
0.1824003301 0.7517429373 0.7608882375
0.1624991699 0.9989881404 0.269941833
0.1725025875 1.0004461613 0.5130175547
0.1724333648 1.0002313636 0.0159005717
0.1925024269 0.9993396276 0.505973776
0.2023644535 1.0012142259 0.7598839559
0.1924538237 0.7493541262 0.0097111228
0.2023401519 0.748117412 0.2586618455
0.1923949108 0.7487422781 0.5104760135
0.2024362537 0.7505517863 0.7584580786
0.2322937012 0.7501091728 0.9976206922
0.2324859046 0.5010342836 0.9976206922
0.2324387743 0.7488789676 0.4989235537
0.2324030583 0.5011729258 0.4988250586
0.2224563444 0.9995479163 0.2532703908
0.2124153697 0.9998278042 0.5051388691
0.2124558724 0.9993331186 0.0052992798
0.2123652937 0.7494973247 0.0093766998
0.2325658053 1.0005242696 0.9950248406
0.2223871217 0.7491263104 0.249286403
0.212467655 0.7497707036 0.5051038895
0.2225472912 0.4997298756 0.2519761471
0.2224287289 0.7508837464 0.7520522166
0.2524400865 0.7499985194 0.988111775
0.252269239 0.50025971 0.9936624788
0.2425986794 0.7481369391 0.2405838568
0.2524047387 0.750480187 0.4907328136
0.242508469 0.4990958968 0.2436031451
0.2424153129 0.7499073931 0.7449624122
0.2524511327 0.4996009969 0.4947959656
0.2623989512 0.5011507951 0.7369833905
0.262346666 0.7496470322 0.2407679598
0.2624383493 0.7494908157 0.7370984549
0.2822621862 0.4981410233 0.7315799691
0.2823921629 0.7489310398 0.2331626671
0.2823998952 0.5000956826 0.2320092621
0.2823446644 0.7465617558 0.7316315179
0.272411574 0.7498097578 0.9865745154
0.272286384 0.5000169235 0.9878540309
0.2723353554 0.7490416932 0.4837525504
0.2824812688 0.9996976238 0.2296021161
0.2824403979 0.9996911148 0.7285643628
0.3124653791 0.999170393 0.9724998452
0.2923631785 0.751065999 0.9816773771
0.3023710146 0.5010043421 0.7247350216
0.2923289353 0.5022885722 0.9798179373
0.3023658597 0.7487943503 0.225594195
0.292369438 0.7495298698 0.4814291713
0.3024531245 0.4991323474 0.225658631
0.3023647551 0.7496275051 0.7276134711
0.3023905295 0.9989621043 0.2234724085
0.3122234678 0.7494061984 0.9758873394
0.3123729594 0.5010219165 0.9737609504
0.3124256129 0.7511636344 0.4754495076
0.2924986782 1.0005568147 0.9793760903
0.3323558613 0.7506233855 0.9667650385
0.3322947392 0.5032030898 0.9650160605
0.3223366108 0.7515541757 0.22197289
0.3324762647 0.7491328195 0.4662913066
0.322437131 0.7501352089 0.7235015318
0.3325219222 0.5012276016 0.4679417895
0.3525283893 0.9998147862 0.4591278609
0.34250067 1.0003745621 0.7135075034
0.3624471196 0.7497121224 0.2075935295
0.3524908323 1.0002248546 0.9602938199
0.3624323913 0.7484754082 0.7069782925
0.3623403399 0.9999905298 0.2105373356
0.3525825155 0.7504150968 0.9592260229
0.3624434375 0.9998408223 0.7050488936
0.3523372904 0.5027149131 0.959796742
0.3424314473 0.7506233855 0.2146428313
0.3524735266 0.7516843561 0.4582938746
0.3425091388 0.7507405479 0.7177621225
0.3923969868 1.0004071072 0.4489524911
0.3724070889 0.7489635849 0.9531598308
0.3722892631 0.4992566697 0.9539698838
0.3824406995 0.7503760427 0.2047436159
0.3723187195 0.7492434728 0.4501565244
0.3824554277 0.4987007992 0.2004494147
0.3823044633 0.7480913759 0.7050148346
0.3823191915 1.000647941 0.1996513284
0.3823412839 1.001526659 0.7007298385
0.3723702683 0.9991964291 0.9540343198
0.3723813145 0.5009854659 0.451727843
0.3924006688 0.7502068081 0.9473697932
0.3923712124 0.7475706542 0.4469614178
0.4124237052 0.7503304795 0.9458233284
0.4123426999 0.750480187 0.4454830711
0.4123537461 0.5010700832 0.4482795949
0.4024674179 1.0003289989 0.19534424
0.4024342794 0.4996394002 0.695601651
0.4023606382 0.7493866713 0.1952917706
0.4025447411 0.4992950729 0.1942561916
0.4024195511 0.7511961795 0.6969345563
0.4323804645 0.7511701434 0.9441664019
0.422472044 0.7511050532 0.199096258
0.4323546901 0.7511766524 0.4442569455
0.4224941363 0.4994799291 0.195503489
0.4225309569 0.7494322345 0.6977501323
0.4425650394 0.7506298945 0.1908180691
0.4425539933 0.751046472 0.6916443581
0.4326087521 0.9975301194 0.4441961915
0.4225493672 0.9999905298 0.6947179568
0.4425687215 1.0004787064 0.1925486368
0.4526833373 1.0000295839 0.9367930789
0.4626911735 0.9988514509 0.1825177878
0.4725811837 1.00005562 0.4300359135
0.462661717 0.997979242 0.6840887732
0.4525728756 0.7493671443 0.938606493
0.4525029164 0.7516127569 0.4376955165
0.4725296349 0.7491458375 0.9326507627
0.4625070705 0.7488203864 0.1827865781
0.4723786705 0.7495233608 0.4304114835
0.462599122 0.7505322592 0.6840685219
0.4725480452 0.4999986982 0.4306498968
0.4825595633 1.0006869951 0.1773472565
0.4925195327 0.9987473066 0.4272439923
0.4925121686 0.9978750976 0.9258021331
0.4825853378 0.496446074 0.6803413578
0.4926373586 0.7473688745 0.431159862
0.4824711939 0.7480393038 0.1780385631
0.4925158506 0.7471670948 0.9302666295
0.4824969683 0.7482866466 0.6789909627
0.512664077 1.0000816561 0.4317094093
0.512476292 1.0007260493 0.931794684
0.5024979123 1.0007000132 0.1802100573
0.5226277284 0.7487878413 0.6853931426
0.5225577693 0.9998928945 0.1855646915
0.5226203643 0.9987928697 0.6827254909
0.5025126406 0.7467505174 0.1792646887
0.5025200047 0.4981781247 0.181904725
0.5025052765 0.7503500066 0.6798175849
0.5025163226 0.50146453 0.6792588325
0.5127045797 0.7486251157 0.935357076
0.5124652458 0.5010010876 0.9327704296
0.5124947023 0.7494647796 0.4341193168
0.5226093181 0.4982633929 0.1829126886
0.522414169 0.749887866 0.1873873107
0.5325545592 0.7511115622 0.4361812698
0.5325471951 0.5002675208 0.4340079345
0.5326355645 1.0021450161 0.9365261297
0.5426360365 0.9989816314 0.1896039101
0.5527801088 0.9995869704 0.4411529699
0.5525186827 0.7492109277 0.9444333512
0.5425476671 1.0001532553 0.6910533877
0.5426544468 0.7514370133 0.1925191803
0.5526144162 0.7506103675 0.4435186927
0.5425955339 0.7501221908 0.6890199706
0.532598744 0.7507145118 0.9401437526
0.5625449291 0.9979076427 0.1908834256
0.5625927958 0.9991508659 0.6928612786
0.5625228367 0.750473678 0.1929269683
0.5625854317 0.7505973494 0.6934927517
0.5725932679 1.0007585944 0.4423441159
0.5725711755 1.0001792914 0.9468082792
0.5726116781 0.7490351841 0.9474526395
0.5726816373 0.748696715 0.4440774451
0.6026130942 1.0005568147 0.2014398885
0.5925242527 0.7503760427 0.9514752889
0.5925905298 1.0013183703 0.4449519341
0.6025541812 0.9995869704 0.7060181956
0.5925132066 0.9989295592 0.9484007697
0.6022853909 0.7482280654 0.2049571753
0.6024474015 0.4999153827 0.2029357249
0.5924616577 0.7488268954 0.4509776235
0.6023406218 0.7500571006 0.7073170419
0.5824538216 0.9985129818 0.1968023353
0.5825790116 0.999769223 0.6948716828
0.5826489707 0.750473678 0.1978646093
0.5825716475 0.7509618547 0.6959431619
0.6126356585 0.7490612202 0.9584619956
0.6125288788 0.7498032487 0.4591563969
0.6125583353 0.9991183208 0.9565933507
0.6225109405 1.000947356 0.2106100562
0.6225219867 0.747505564 0.2115084786
0.6223710223 0.7488203864 0.7153144739
0.6425892078 1.0010449914 0.7181800362
0.6525344489 0.9997041328 0.9697475062
0.6325703255 0.9989881404 0.9651633429
0.6324709099 0.7504020788 0.9658169083
0.6325740075 0.4992605751 0.9651265223
0.6325003663 0.7510204359 0.4666042816
0.6524423974 0.7518926448 0.974294849
0.6524460795 0.4999902365 0.9727483842
0.6424861101 0.7494777976 0.220561741
0.6425008384 0.4994727692 0.2222435214
0.6524092589 0.7499855014 0.4744820466
0.6424382434 0.7501547359 0.7183107493
0.6723954747 0.7522701681 0.9800296557
0.6724912082 0.5012328088 0.9790815255
0.6824695878 1.0001988185 0.2293701464
0.6723991567 0.999450281 0.4775234273
0.6824364493 1.000940847 0.7301117481
0.6824217211 0.7505387682 0.2321721932
0.6723328797 0.7511245802 0.479788814
0.6824732699 0.7503304795 0.7312844839
0.6624244591 0.7511180712 0.226034201
0.6624097309 0.7508121472 0.7259086779
0.7025957219 1.0016177853 0.235719857
0.7024963063 0.5007999588 0.7341583308
0.692540019 0.7505387682 0.9829476874
0.6925878857 0.9998668584 0.4832158903
0.702481578 1.0002443816 0.7378367077
0.6924479675 1.0001402373 0.9823769683
0.702415301 0.7522831861 0.2326112787
0.7025257627 0.5008403147 0.2345388366
0.6924406034 0.7515346486 0.4844466185
0.7024999883 0.7515476667 0.7352426972
0.7224420194 0.5004933839 0.738852956
0.732545589 0.7509748727 0.9977127436
0.7225230247 0.7511310892 0.2427967742
0.722357332 0.5006046881 0.2381214799
0.7324940402 0.7503109525 0.4962641866
0.7224383373 0.7489245308 0.7399603352
0.7225193426 1.0016438214 0.7428746848
0.71248205 0.7517624644 0.9875042353
0.7125704194 0.7509097825 0.4869697494
0.7426160202 0.4987411551 0.7468098853
0.7424908302 0.7486771879 0.2462026787
0.7426565228 0.5011494933 0.2481118263
0.7426012919 0.7482606105 0.7488727588
0.7526201742 0.499707094 0.5014825846
0.7525907178 0.7487292601 -0.0018896273
0.7626427386 0.5028242647 0.750759814
0.7627237439 0.7493280901 0.2522863605
0.7626022359 0.5001139079 0.249534942
0.7525943998 0.7485209714 0.5008336217
0.7625359589 0.7501156818 0.7525723075
0.7825000823 0.7494582706 0.2581426752
0.7825553132 0.4993549559 0.2595888039
0.7724922462 0.750187281 0.504412583
0.7825958158 0.7490937653 0.7561963739
0.7725990259 0.9972176864 0.504850748
0.7727168518 0.4992573206 0.5043463059
0.7725842976 0.7504932051 0.0018816847
0.7825037644 0.4985960039 0.7589763284
0.7725585232 0.499075068 0.0038721137
0.7925741955 0.7497967397 0.5120924374
0.8125125445 0.5005044492 0.5193608217
0.8125861857 0.749002639 0.0202638116
0.802541529 0.4990822279 0.768603992
0.8024973442 0.7477919609 0.2655693881
0.8025930778 0.4981410233 0.2683834016
0.7925116005 0.4984085441 0.5145824297
0.7925005543 0.7503890607 0.0104802128
0.8126598268 0.7504020788 0.5195624144
0.7925373749 0.4994799291 0.0142658296
0.8024678878 0.7492434728 0.7650655334
0.8324508935 0.5004972893 0.5277375057
0.8324251191 0.7495493969 0.0273507624
0.8225203806 0.499241048 0.7739457389
0.832421437 0.4999973964 0.0264143228
0.8223694162 0.7490872563 0.2695119526
0.8225166986 0.4969954354 0.2717018572
0.8324913961 0.7499204111 0.5275322309
0.8224651497 0.7506298945 0.7712394256
0.8624338992 0.7501482269 0.7912182773
0.8623823504 0.5004419626 0.7877101957
0.8523156013 0.7495168518 0.032516691
0.8525880737 0.5020562001 0.0335505211
0.8624559916 0.7505322592 0.2898387589
0.862360258 0.4990587954 0.2841159188
0.8523487399 0.7502588803 0.5362513464
0.842421909 0.7514109772 0.2779042854
0.8423961346 0.4992286809 0.2816231649
0.8422856728 0.7513914501 0.7769549016
0.852484976 0.4992462552 0.5338368363
0.8723496839 0.5037257642 0.5430861683
0.8824127509 0.7500831367 0.7959524845
0.8924316332 0.5025704128 0.5492416502
0.8725521971 0.7514565403 0.0463846136
0.8925126385 0.7509228005 0.0507832933
0.8824569356 0.500672382 0.7945302893
0.872482238 0.5026791135 0.0399744252
0.8924537255 0.5031672901 0.047197244
0.8823869765 0.7511896704 0.2985633975
0.8826299923 0.5001386422 0.2924355309
0.872544833 0.751931699 0.5420312584
0.8925200026 0.7518340636 0.5519590097
0.8822728326 1.0008497207 0.2966330781
0.8823538379 1.0001402373 0.7945864407
0.9125209466 0.7534027379 0.5530792761
0.9125761775 1.0026592288 0.053266934
0.9126129981 0.5024734284 0.5536518363
0.9025536131 0.7528104169 0.8016532322
0.9125872237 0.7526476914 0.052955708
0.9124988542 0.5021753152 0.0530166461
0.9025683414 0.7529080523 0.3022380923
0.9025977978 0.5003586471 0.3025473852