POSCAR file written by Ovito 3.7.11
1
271.5966598612 0.0 0.0
0.0 15.3638271948 0.0
0.0 0.0 10.8638663944
Sr Ti O 
800 800 2400 
Direct
0.0226639418 0.4992664588 0.7837871829
0.0126968826 0.2487566118 0.5350479309
0.0226636841 0.2487832979 0.7831934716
0.0025213893 0.2491686185 0.7800988091
0.0126386713 0.248766375 0.0353228052
0.0225491761 -0.002530535 0.2873957689
0.0024848645 -0.0011565089 0.2822244977
0.0027267305 0.4981866497 0.2804175903
0.0126689367 0.4994063979 0.53382553
0.0127121626 -1.3462808153e-04 0.5379051089
0.022620716 -4.0025200116e-04 0.7837089418
0.0025002182 0.0012343667 0.7809364482
0.0226709375 0.2482782154 0.2805795953
0.0026099397 0.2484461423 0.2831376164
0.0326956558 0.4996400636 0.0321167643
0.0426527002 0.4997149148 0.2804580916
0.0327155382 0.5005356738 0.535467671
0.0325332827 0.2503558227 0.5321530131
0.0427016699 0.2510275303 0.777615347
0.0325969801 0.2488887403 0.0333722105
0.0526520868 0.5017163692 0.0308159383
0.0425289873 5.3323936255e-04 0.7851043935
0.0426906241 0.2496053587 0.280781181
0.0526362545 0.2503493139 0.5242341013
0.0525213782 0.2511329728 0.0260208683
0.0624728998 0.2540599779 0.2731954839
0.0624559629 0.5010999863 0.7787650298
0.0724892232 0.5015198036 0.0272499887
0.0626731968 0.5030038088 0.2758299051
0.0724612406 0.5010218808 0.5253414419
0.0725183105 0.2506116184 0.5253257937
0.0624913094 0.2505276549 0.7754890322
0.0724358352 0.2514935601 0.0252060571
0.0922361524 0.24883667 0.5242589544
0.1023117549 0.249814291 0.7706049515
0.0824293307 0.2520005952 0.7732559414
0.0924287173 0.2501149973 0.0229450756
0.1023327419 4.4309255327e-04 0.274908502
0.0924578046 -6.6144994026e-04 0.5249760103
0.1023754523 0.2505029215 0.2703088504
0.0824466358 0.2521730782 0.2730702982
0.1022959226 0.4997487605 0.772059314
0.0824370628 0.5019851824 0.776903814
0.1022951862 0.501344717 0.2725023605
0.0824400083 0.5012138902 0.275116531
0.122337038 0.2511681203 0.2686271287
0.1123380196 0.4995333194 0.0193109183
0.1123041459 0.2509683003 0.5202263201
0.1223948443 0.5013746575 0.2681549211
0.1122975184 0.4991102477 0.5189238372
0.122392267 0.25111605 0.7669515561
0.1123162962 0.2512898348 0.0187084624
0.1224791605 -6.8904723061e-04 0.2680159283
0.1525690004 0.2539174353 0.5134083054
0.1324663968 0.2535119374 0.5151102778
0.1424926614 0.2511401325 0.7694340976
0.1526153927 0.250959188 0.0137524
0.1325989463 0.2508530946 0.0148642509
0.1425692456 0.001693367 0.2680849645
0.1423939857 0.2490000407 0.2658205773
0.1425622499 0.5009567928 0.7653756899
0.1526547894 0.4988420854 0.0169366255
0.1324369413 0.5024076032 0.020286906
0.1525115623 0.502035951 0.5178569979
0.1323323745 0.5002662097 0.5175679663
0.182545805 0.2518756263 0.2608131519
0.1726281572 0.5013251906 0.5095017773
0.1826021385 0.5021837007 0.7566274232
0.1725335316 0.2541543554 0.511210193
0.1624767069 0.2508465859 0.7650415547
0.1725445774 0.2540905692 0.0114479718
0.1825848334 0.502776001 0.2564997704
0.1624929074 0.0010999601 0.7663164231
0.1625661778 0.2507684803 0.2648899693
0.1824014733 0.2531038359 0.7619616199
0.1826028749 0.0020203037 0.257288624
0.1925775926 0.0012958098 0.0057369296
0.202467994 0.2509220879 0.2556170276
0.202445166 0.5001659743 0.7515887015
0.192490699 0.5015308686 0.003761758
0.2026384674 0.5002941975 0.252714746
0.192450566 0.5021518076 0.5047299955
0.1925293593 0.2520376953 0.5085720899
0.2025066543 0.2491640624 0.7563255049
0.1926339261 0.2499913302 0.0051585903
0.2025169637 0.0018661104 0.2566452067
0.2124942587 0.248474781 0.5025226782
0.222496959 0.2506506711 0.7470341535
0.2124423435 0.2508257577 0.0035077048
0.2224678718 -3.3138895118e-04 0.7477171516
0.2225341465 0.249992632 0.2499321271
0.2325096006 0.2499581353 0.4971498213
0.2324889818 0.2518313665 0.9985606268
0.2325604112 -2.2327786799e-04 0.4977481349
0.2225138959 0.4967670816 0.7485529498
0.2124751127 0.502360089 -0.0022486896
0.2125583243 0.4973606837 0.5001791295
0.2425723164 0.499330245 0.7487655813
0.2625000283 0.2506259377 0.7453625571
0.262579558 0.0015989244 0.2450222729
0.2625898674 -2.3037245443e-04 0.7429867915
0.2524925415 0.2513907211 0.4946497905
0.2425266604 0.2486329447 0.748808844
0.2525735439 0.2508517929 0.9935163821
0.2626182183 0.2509585371 0.2438035539
0.2425763665 4.7863057339e-04 0.243138045
0.2624779367 0.5007009972 0.2450379211
0.2525227333 0.0014749318 0.4940827732
0.2426050856 7.950230932e-04 0.7441613273
0.2525613936 -7.1065642966e-04 0.9936084304
0.2425064098 0.2509422651 0.2469957876
0.2724489725 0.2512221433 0.4922988779
0.2724872645 0.2519413652 0.9933322856
0.2725977225 -2.1765578069e-05 0.4932101557
0.2725671624 8.9274462825e-05 0.9947958529
0.2824965923 0.2485229461 0.7415333495
0.2726028772 0.5008428889 0.4945881182
0.2824664005 0.249857249 0.2391744469
0.3125201575 -0.0027617469 0.4832275219
0.2924724146 0.4995144439 0.4888212947
0.2925062883 0.2499392598 0.4889050586
0.3024832152 0.2486446605 0.7341004525
0.292599073 0.2503499648 0.9862721841
0.2924624734 -0.0023280464 0.4850850558
0.3025516991 -3.976484832e-04 0.7341317489
0.3125153709 0.4980031017 0.4847067375
0.3023745982 0.2486023534 0.2364415341
0.312460142 0.2483472086 0.4828482831
0.3124557237 0.2496821624 0.9850663519
0.3224875113 -0.0015411136 0.2332529823
0.3325067803 -0.0020502771 0.4774717442
0.3225512087 -8.2397454877e-04 0.7319336365
0.3324957345 -0.0022866505 0.9799668782
0.3224963479 0.247281068 0.2299834281
0.3223925175 0.5005988091 0.7341473971
0.3224311777 0.4997331394 0.2332336522
0.3323801219 0.2518157454 0.4771458934
0.3224547421 0.2509487739 0.7315488747
0.3324563378 0.2482326538 0.9831241336
0.362415101 0.2503825088 0.2256184996
0.3525162311 0.4986233899 0.4764840664
0.3522945789 0.2490299812 0.4805084163
0.3426052108 0.2492662505 0.7285398171
0.362466648 0.5000553248 0.7259762731
0.3523487032 0.2503688403 0.9787150219
0.3624740118 0.5001314777 0.2267295221
0.3424347374 4.1080893059e-04 0.2276748578
0.3424465196 0.250451502 0.2293713072
0.3624519203 0.2496333465 0.7272861198
0.3423721446 0.5009320594 0.7309266285
0.3424045456 0.500021479 0.2278663181
0.3825037133 0.2488080313 0.2249990148
0.3924338796 0.2489050123 0.4739242043
0.392411788 0.248928444 0.9747017178
0.3923786506 4.6639403899e-04 0.9743059102
0.382356436 0.4975299123 0.7270854546
0.3924301976 0.4990106632 0.9728975719
0.3724446794 0.2480308812 0.4763772904
0.3825736699 0.250500318 0.7259587839
0.3724557252 0.2480120057 0.9777301055
0.392411788 0.5001008863 0.4724210562
0.3724262697 -0.0019794223 0.4752828366
0.4125556292 0.5006495777 0.9664449888
0.4024266387 0.2495357146 0.7201229242
0.4023861374 9.6867774097e-04 0.7220338461
0.4024892315 0.2497270731 0.2205181055
0.4124414894 0.2519595898 0.4690852272
0.412463581 0.2519524301 0.9675679776
0.4125114461 7.8434866957e-04 0.4689324271
0.4124856725 -0.0012265435 0.9682399299
0.4426627741 0.0010404047 0.7129091021
0.4427106392 0.2511069376 0.2113372121
0.4226404366 0.4991727322 0.7136694207
0.4326552873 0.5006515304 0.9660860006
0.4326368777 0.4982042235 0.4623758295
0.4427143212 0.5007270324 0.7150390988
0.4425375885 0.4990503668 0.2122098296
0.432515374 0.2501944046 0.4651335954
0.4225447064 0.2488640069 0.7144895707
0.4324896004 0.2514037387 0.9641253727
0.4226514824 0.0011112203 0.2154858272
0.4326111041 0.0015190614 0.9625697571
0.4225373426 0.2500603234 0.2138851079
0.4427437766 0.2531318237 0.710820527
0.4724532731 0.25069428 0.4595177311
0.4625967454 0.251283326 0.7115762433
0.4726815527 0.253038748 0.9576175607
0.4725269117 0.0025282501 0.9596886465
0.4626188369 0.2501182517 0.2109331202
0.4526260778 0.5001822463 0.9607932257
0.4526113501 0.5015972583 0.4615427928
0.4625341525 0.4990497159 0.7058048173
0.4725379575 0.5035551038 0.9602225264
0.4625378345 0.5023340538 0.2099463629
0.4526039862 0.2545572498 0.4612123395
0.4525450754 0.251828763 0.9600108154
0.4526334417 0.0028640388 0.4602854136
0.4827037673 0.250770433 0.7110708983
0.4825896275 0.0011606872 0.7058066583
0.4925639769 0.5033858751 0.9592836342
0.4925713408 0.4998808891 0.4611433033
0.4826374926 0.2494009825 0.2105778139
0.4927554373 0.2508648105 0.4585245303
0.4925197938 0.2492050678 0.958924646
0.4826006733 0.4979171856 0.2060628468
0.5025714638 0.2484871477 0.7071763364
0.5124648108 0.2484539528 0.4597119529
0.512560541 0.247950823 0.9586761157
0.502453642 -2.4768584884e-04 0.7038313026
0.502560418 0.2495825779 0.2076295082
0.5224649338 0.2478818298 0.2110178046
0.5225091169 0.2478610016 0.71069258
0.5125384494 0.4962997501 0.4622791789
0.5225275266 0.497137432 0.711324031
0.5424173146 0.5002994046 0.7130066732
0.5524358473 0.5013531785 0.9657914462
0.5423289483 0.4998515995 0.2136651126
0.5524800304 0.5015425844 0.4669082859
0.5324687387 0.0018103951 0.4604741125
0.5323325072 0.2513549227 0.4615133373
0.5323398711 0.2489030597 0.9589154411
0.5325092399 0.4999986982 0.9638216134
0.5524873943 0.0028468556 0.9660215668
0.5424283604 0.2523247332 0.2134377534
0.5525315775 0.2507352855 0.462958495
0.5423657676 0.2502308539 0.7148632866
0.5525720787 0.2511830905 0.9629195405
0.5725134138 0.2508648105 0.4723842369
0.5723992739 0.2502119783 0.9719586796
0.5625390643 0.5013896277 0.7171092642
0.5625611559 0.4995216036 0.2195552807
0.5725391873 0.5009444261 0.9690959787
0.5724729125 0.5009405209 0.4706077054
0.5625096089 0.2532672067 0.2155069983
0.562660568 0.2513113138 0.7188701474
0.6023296862 0.4992606009 0.7264401963
0.5923663825 0.5011409917 0.9719034507
0.5924400211 0.5018211608 0.4690806248
0.5824214885 0.2505250514 0.727145286
0.6025911032 0.2508478876 0.2233163727
0.5925099778 0.2480888095 0.4782624388
0.6025542839 0.250321977 0.7276082887
0.5924805224 0.2499561827 0.9769016712
0.5823809873 0.5009587455 0.7214208047
0.5824546259 0.4981612654 0.2233145317
0.5824877632 0.2508264086 0.222769606
0.6123776743 0.5011859024 0.9708080764
0.6123445369 0.5024082541 0.4744608456
0.6224808913 0.5017163692 0.7257424705
0.6124734045 0.0031540707 0.477507643
0.6225029829 0.5014006927 0.2302319584
0.6124034478 0.2499399107 0.478724521
0.612605954 0.2496548255 0.976643936
0.6226097589 0.0040316515 0.7272898017
0.6224293443 0.2499451178 0.225941589
0.6224993009 0.2496593817 0.7281679421
0.6424038167 -4.4286008402e-05 0.2324006154
0.6525917182 5.4794923901e-04 0.4871653465
0.6324920601 0.5003677469 0.4796763
0.6425952771 0.2511498957 0.2318796223
0.6525401711 0.2529638968 0.4807624695
0.6425915952 0.2511544518 0.7314061999
0.6325546529 0.0036721708 0.4790890321
0.6524628506 0.2508635087 0.9853977256
0.6423927709 0.5018771364 0.7328301865
0.6524002578 0.5007328903 0.4819296414
0.6324846962 0.2520162163 0.4799340352
0.6326135638 0.253206024 0.9792673115
0.682544222 0.5007380973 0.7381846338
0.6625108387 0.0013566019 0.2358772782
0.6824816292 0.5014241243 0.237026961
0.6624445639 -6.0124358749e-04 0.7373276645
0.6725256894 0.5031391918 0.4861454518
0.6626176146 0.2528096384 0.2353130224
0.6626728436 0.2518066331 0.7355723042
0.6725551448 -1.5395920237e-04 0.9904143558
0.6625366122 0.501668855 0.7336107558
0.6625218845 0.4992293587 0.2350764584
0.682488993 0.252071541 0.2408635325
0.6726177376 0.2511186535 0.4915137063
0.6824521737 0.2525011215 0.7389845332
0.6725588267 0.2504873004 0.9863642323
0.7023935088 0.2500863586 0.2434629753
0.6925517088 0.2503519174 0.4905490405
0.7026549259 0.2504339283 0.7445147927
0.6925038438 0.2517057468 0.9901474158
0.6924707064 0.5007660852 0.9885457761
0.6925222534 0.5012542448 0.4903235223
0.7324822441 0.498817352 0.9987447233
0.732485926 0.50074005 0.4992043384
0.7124746343 0.2504449932 0.495444167
0.7125998199 0.2494263668 0.993682069
0.7224637115 0.0012420471 0.247235113
0.7324417429 -7.1729540045e-04 0.4992153842
0.7323865139 -0.0023842954 0.9980819758
0.7125224994 0.4976783129 0.996434312
0.7225373501 0.2477854996 0.2476382844
0.7324711983 0.2479462668 0.4964520954
0.7224195283 0.248263896 0.7449658291
0.7324638344 0.2510704884 0.997014216
0.7124635885 0.4994083505 0.494780499
0.7123494486 -0.0018420347 0.4947399978
0.7126255934 -4.5115077723e-04 0.9993706515
0.7525008997 0.4982244008 0.0032135185
0.7424529116 5.9858766329e-04 0.2463735413
0.7423940007 9.6499225158e-05 0.7478450987
0.7424639574 0.2467850978 0.2500545513
0.7424713213 0.2495233478 0.7508062912
0.7623647913 -1.3501860923e-04 0.2563046281
0.7524014876 -0.0038188924 0.4994344591
0.7623832009 -0.0021826529 0.7534867366
0.7524162153 -0.0020029581 0.0011856033
0.7623758371 0.2491302166 0.254805162
0.7523388948 0.249057969 0.5020698008
0.7623684732 0.2486785063 0.755843172
0.7523978057 0.2481525956 9.1893951891e-04
0.7824607674 -0.0010785335 0.2578353907
0.7824129023 -0.0023729961 0.7574576985
0.7723575504 -0.0033875415 0.0027094623
0.7824386758 0.2500206198 0.2608113109
0.77237596 0.2478271559 0.5095606882
0.7825307241 0.2501169499 0.7603185584
0.7723575504 0.2501612097 0.0101464094
0.7923357048 -0.0016418046 0.5087828804
0.7923872518 -0.0013498201 0.0092031909
0.8124611364 0.4982074779 0.0113916383
0.7924940278 0.2520852095 0.5115885113
0.792324659 0.2496450623 0.0112293572
0.8024241941 -7.055144817e-04 0.2626145364
0.812531093 -0.0011015747 0.5120800491
0.8024941508 -0.0018311845 0.7592020131
0.8123874978 -0.0012378688 0.0118244492
0.8024499676 0.2494803898 0.2631272452
0.8125163653 0.2477959137 0.5114090172
0.8025604255 0.2496261868 0.762589389
0.8125274111 0.2489434142 0.0117457479
0.8324392907 -0.0023367291 0.5136080502
0.8226232643 7.0318399724e-04 0.7645573808
0.8326160234 -0.0011566391 0.0188059415
0.8223655292 0.2482866768 0.2662108619
0.8324982016 0.2491035306 0.5147816655
0.8224723051 0.2494999162 0.7634850186
0.8324356088 0.2468885877 0.0156462929
0.822586445 8.8354270376e-04 0.2609852821
0.8424909608 -0.0020381382 0.7680055087
0.8424983246 0.2478056769 0.2675446412
0.8424946427 0.2474620125 0.7701529946
0.862476479 -8.9986709724e-04 0.2695098715
0.842424686 0.4975364211 0.7695795339
0.8525426308 -0.0011399765 0.5243565255
0.8625979827 -0.0017961282 0.769469076
0.8525131753 -5.1487187925e-04 0.0187919502
0.8625537995 0.2506708484 0.2672252337
0.8425756452 -0.0018241811 0.270699135
0.8523916716 0.2482970909 0.5188069359
0.8624543874 0.2493762491 0.7694506663
0.8524653102 0.2490091531 0.0190801533
0.8724876478 8.1097904954e-06 0.5167119175
0.8924584383 -3.6139449564e-04 0.5193509411
0.8725207851 7.9638994012e-04 0.0215070057
0.8825540455 0.2507938646 0.2687532348
0.8924658021 -0.0017853236 0.020098023
0.8724618743 0.2488607525 0.5190738759
0.8924510744 0.249123057 0.5210335833
0.8824877707 0.2516087657 0.7693448108
0.8724140092 0.248312712 0.0159161784
0.8924289828 0.2501501448 0.0219758075
0.902473289 -9.8851688369e-04 0.2733399996
0.9125323229 6.0340417151e-04 0.5219282924
0.9025579734 6.9498291567e-04 0.771292552
0.9026058385 0.2494107457 0.2701919491
0.9125139132 0.2507157591 0.5204601227
0.9025616553 0.2485626497 0.7713284508
0.9024843348 0.4986292478 0.7719617429
0.9125139132 0.2499854723 0.0190045817
0.9224072602 -5.7247471406e-04 0.2702683492
0.9224109421 4.1803369293e-04 0.7733240571
0.9225803109 0.2481226552 0.2731724718
0.9224514434 0.2499555318 0.7757071866
0.9425400557 5.1319227428e-04 0.2767522286
0.9324073832 -7.148220584e-04 0.5263990764
0.9425842388 -8.2254261389e-04 0.7748833546
0.9326246171 0.0023536842 0.0251894884
0.942683651 0.249544176 0.2776404943
0.932469976 0.2484949583 0.5226490303
0.9425547834 0.2472927838 0.7791902927
0.9324073832 0.2526644923 0.0263174477
0.9524849497 -2.7671507407e-04 0.5257133169
0.9525438606 -1.244743615e-04 0.0279838894
0.9625329378 0.2481376254 0.2826911824
0.9526322269 0.2508146928 0.5290408615
0.9725993355 0.2505979499 0.5295784233
0.9626176222 0.2510359918 0.782086131
0.9528089596 0.2489837688 0.0277461288
0.9725772439 0.2482378609 0.03269225
0.9625108462 -0.0018864702 0.280914651
0.982625232 0.4963342467 0.7795419171
0.9824484993 0.4998828417 0.2821444157
0.982415362 -2.8778002539e-04 0.2789779556
0.9926658562 -9.5284868767e-04 0.5321106709
0.9825626392 0.2496697957 0.2854912904
0.9925148971 -0.0018961748 0.0331085843
0.992621673 0.2487540083 0.5303543901
0.9825810488 0.2505159391 0.7842916073
0.9925958995 0.2502607943 0.0298444609
0.0125231323 0.7485969122 0.0316950912
0.0027736015 0.4980037526 0.7836003249
0.0126401809 0.4982380692 0.0330462676
0.0226500241 0.7500418647 0.2884497215
0.0025809997 0.7489418783 0.284033246
0.0124435658 0.7505886034 0.5345582342
0.0225954579 0.7497294425 0.7873531324
0.0226438385 0.497029386 0.2863224862
0.0025569935 0.7501655318 0.7848724318
0.0125539501 0.9986778296 0.0333688047
0.0525703479 0.9991139189 0.5277328557
0.0525165917 0.9997713072 0.0302315239
0.0326577319 0.7499637591 0.0327242828
0.0425488697 0.5013330012 0.7814887378
0.042543715 0.7508489552 0.2847677911
0.0325686292 0.7506797266 0.5338218481
0.042568384 0.7489483871 0.7810367808
0.0524127613 0.7516560458 0.028326401
0.0526215268 0.7501720406 0.5257952398
0.0526535596 0.501631104 0.533377255
0.0426895195 1.0014115235 0.2818332926
0.0326209126 0.9993482355 0.5325681508
0.0325365964 1.0007346088 0.034403059
0.072469709 1.0006369769 0.5272440794
0.0626275408 1.0012097508 0.7784677139
0.0724829639 0.9983393723 0.0248215715
0.0726276638 0.7508359376 0.0249151846
0.0625616343 0.7497034073 0.2784634058
0.0725529206 0.7480501734 0.5244964389
0.0626286454 0.7498986712 0.7768808019
0.0625947716 1.001997315 0.2732884526
0.0823947206 1.0008062055 0.2747962031
0.1023780297 0.9991790068 0.7739490648
0.0824425857 1.0021470173 0.7739232913
0.0924125168 1.0009233638 0.0234535502
0.0923451375 0.7483951395 0.0258437674
0.0924526499 0.5022976046 0.0268823479
0.1024428317 0.7490915806 0.2709338581
0.0824856643 0.7519814855 0.2765828598
0.0924622229 0.7504323923 0.5245019618
0.1024373088 0.7494755995 0.7712419255
0.0824849279 0.7515258699 0.7762070086
0.0923388782 0.4997318377 0.523852101
0.1123961941 1.0003766251 0.0191030733
0.1123785209 0.7514022028 0.0230214757
0.1223403518 0.5001073951 0.7687777936
0.1223797484 0.7503022164 0.2699415779
0.1123810982 0.7492543005 0.5224824229
0.1224176723 0.7495927578 0.7699053847
0.1123755753 0.9988796023 0.5206745951
0.1224198815 0.9994849202 0.7707310576
0.1525634775 1.004028059 0.5128689026
0.1324258955 0.9992245684 0.5179858654
0.1425003935 1.0005653801 0.7652689139
0.1525958785 1.0016848928 0.0132362854
0.1324781789 1.0005133098 0.0165303244
0.1525064076 0.7504974803 0.0157415629
0.1324980614 0.7489288607 0.019350499
0.1426502481 0.7499377239 0.267792251
0.152503462 0.7492803357 0.5190637505
0.1324594011 0.7500288471 0.519488093
0.1425291126 0.5021147075 0.2647601813
0.1426001738 0.7485513506 0.767325272
0.1725257996 0.751682081 0.0122610341
0.1624892255 0.5020502704 0.7644819013
0.1726031201 0.5022787291 0.0100000527
0.1625978424 0.7503217428 0.2629882523
0.1824787938 1.0010014694 0.7608091757
0.1725434728 0.7521507142 0.5136255393
0.1626372391 0.5015900986 0.2625740351
0.1626151475 0.7512004301 0.7633276161
0.1825656874 0.7532702269 0.2589878349
0.182574524 0.7511548686 0.7595398302
0.1625930559 1.0009038375 0.2635939298
0.1725243268 1.0011772068 0.5129756786
0.1726414122 1.0018020512 0.0127067318
0.1926538085 1.0009103463 0.5059496349
0.2025570967 0.9995500081 0.7544210264
0.1926140437 0.7494821083 0.0072008651
0.2026119575 0.748792176 0.2506556264
0.1925540282 0.7503673044 0.5050512439
0.2027058467 0.749872636 0.7526546203
0.2327006928 0.7475815402 0.998864386
0.2325018685 0.4989208418 0.9971246739
0.2326329453 0.749872636 0.4962210543
0.232561884 0.4998086414 0.4958362926
0.2226107307 0.9997387632 0.2485514032
0.2124898404 0.9999535534 0.5007571926
0.2125262915 1.0021990876 0.0016688567
0.2125410192 0.7519229064 0.0032987552
0.2324753586 1.0001683436 0.9977321924
0.2226353996 0.7494690907 0.2454576611
0.2125944072 0.7496773721 0.5014595208
0.2225404058 0.4985648107 0.249964344
0.2225529244 0.751174395 0.7475330551
0.2525168422 0.7516430282 0.9944368647
0.2526486553 0.4998685223 0.9970970595
0.2425815212 0.7507187793 0.2461701147
0.252548875 0.7503673044 0.4938701417
0.2425285014 0.5024180173 0.2487852057
0.2424544946 0.7501720406 0.7457095791
0.2524192711 0.4990777038 0.49464887
0.262430808 0.5009333612 0.7422918272
0.2626668198 0.7515063435 0.2416689548
0.2625445797 0.7520075207 0.7423516585
0.2825260478 0.5004653788 0.7415959423
0.2824745008 0.7505951122 0.24022932
0.2825102155 0.4981078933 0.2389130298
0.2826486561 0.7511288334 0.7404204861
0.2726242324 0.7490395102 0.9923197548
0.272581522 0.4998249134 0.9956887211
0.2725638487 0.749397494 0.4934531631
0.2825312025 0.9989316726 0.2376510482
0.2824859148 1.0002855019 0.7391741526
0.3123879762 0.99764944 0.9825626392
0.2926185872 0.7475424874 0.9871466425
0.3025042022 0.4975058298 0.7367588063
0.2925335346 0.4997669851 0.989871271
0.3026135555 0.7504519187 0.231680798
0.2926126961 0.7505104979 0.4858039527
0.3024537597 0.5006665006 0.2370122333
0.302606928 0.7492022301 0.7313362433
0.3025123024 0.9974541762 0.2339184913
0.3126284062 0.7491761949 0.97960789
0.3125032206 0.4996634953 0.9855173883
0.3125617633 0.7507773585 0.4829707073
0.2924911924 0.9991920244 0.987174257
0.3326573712 0.749046019 0.9779049972
0.3325708459 0.5004549648 0.9830044708
0.3227684425 0.7477117161 0.2317268222
0.3325980921 0.7495146523 0.4742969997
0.3225688819 0.7498205656 0.7282645928
0.3325288719 0.5004087523 0.480126416
0.3523523852 0.9988340407 0.4745630192
0.3424656656 0.9983719162 0.7289475909
0.3624850576 0.74882472 0.2217994173
0.3523512806 0.9997387632 0.9723452823
0.362415101 0.7502826901 0.7240294524
0.362256778 0.9999600622 0.227263402
0.3525118127 0.7482779812 0.9741770427
0.3624445564 0.99818967 0.7252868316
0.3526241116 0.4987496605 0.9764230202
0.3426530759 0.7493909852 0.2226278517
0.3524786754 0.748030647 0.4768642257
0.3425945332 0.7478614184 0.7252831497
0.392463335 0.9999795886 0.4748805857
0.3724189059 0.7487270881 0.9705227268
0.3724336336 0.4993966347 0.9755669714
0.3825110771 0.7501655318 0.2231608111
0.3725293638 0.7502371285 0.4721798897
0.3823748457 0.4982484833 0.2240720889
0.3825000313 0.7503347604 0.7235784159
0.3825331687 1.0000576941 0.2241392841
0.3824337566 0.9994198322 0.7237855245
0.3723673588 0.9979097918 0.9754473087
0.3725514554 0.4984951666 0.4762300132
0.3925958845 0.7487140705 0.9724741499
0.3924927904 0.7511548686 0.4700057098
0.4125593112 0.7494430555 0.9676324114
0.4126624052 0.7488767904 0.4681214819
0.4126255859 0.5025319212 0.4694248853
0.4024524122 0.9996606576 0.2202152668
0.4023272266 0.4995033789 0.7186326629
0.4027211931 0.7502110933 0.2202060619
0.4026180991 0.4993738539 0.2161706662
0.4025812798 0.7503217428 0.7155186702
0.4325706029 0.7514087116 0.9622936123
0.4224747497 0.7487596321 0.217106797
0.4324527811 0.7488963168 0.4669119678
0.4225005232 0.5001340812 0.2172991779
0.422515251 0.7502891989 0.7140919222
0.4424234487 0.7486945441 0.21404159
0.4425412704 0.7504454099 0.7103952641
0.4327436536 0.9974411586 0.4639728669
0.4226514824 1.0001618348 0.7167263434
0.4426333187 0.9998429039 0.2092965021
0.4525745308 1.0016002785 0.9599647913
0.4626298827 1.0033771795 0.2105336308
0.4724422273 1.0016458401 0.4593216683
0.4625562441 1.0008843111 0.7089482654
0.4524640729 0.7509140432 0.9581882599
0.4525008922 0.7529773311 0.4604363727
0.4724753646 0.7506211474 0.9559791016
0.4624789236 0.7493258972 0.2140857731
0.4725011382 0.7498791448 0.4580596866
0.462508379 0.750601621 0.7117170771
0.4725453213 0.5033084204 0.4600644977
0.4824902153 1.0005914153 0.2039623055
0.4925345215 1.0010014694 0.4594772298
0.4926007962 0.9999860974 0.962680215
0.4826301287 0.5027284868 0.7077451947
0.4925971143 0.7501134614 0.4586782509
0.4825969913 0.7495602138 0.2090792683
0.4926339336 0.7495927578 0.9577556331
0.4825454443 0.7524761539 0.7131557914
0.5124611288 0.9973760706 0.46272009
0.5125642229 0.9998949743 0.960194912
0.5025493722 1.0006565033 0.2057020176
0.5223544758 0.7488182112 0.7115826866
0.5225385724 0.9977926335 0.2091252924
0.5225017531 1.0005588713 0.7077737296
0.5025309625 0.748857264 0.2130051265
0.5025751457 0.502101039 0.2091050418
0.5024830974 0.7494951259 0.7099387047
0.5025272806 0.4994851543 0.7057256558
0.5124795385 0.7514607819 0.9599924058
0.5126341796 0.4980929231 0.9594032969
0.5126268157 0.7488767904 0.4593050996
0.5224907073 0.5018237643 0.2127759264
0.5225275266 0.7487466145 0.2082775279
0.5325092399 0.7507057617 0.4622975885
0.5324282374 0.499729885 0.4622092222
0.5323951001 0.9992310772 0.9596610321
0.5423804953 1.0006565033 0.2147586459
0.5524910762 1.0010600485 0.4649881592
0.5525647148 0.7522678725 0.9644383368
0.5425130448 1.0027132824 0.7121635112
0.5423105386 0.75336135 0.2128173481
0.5524837124 0.7524501188 0.4668861943
0.5423031748 0.75082292 0.7140863993
0.5323619627 0.7500809174 0.963315348
0.5624911992 1.0015742433 0.2190849141
0.5626384764 1.0022576668 0.7196341479
0.562553792 0.7536412282 0.215760131
0.5625869294 0.7524240836 0.721165831
0.5726459633 1.0020819293 0.4706776621
0.5727159199 0.9999600622 0.9748121757
0.5725281415 0.7534459644 0.9714340045
0.5723992739 0.7545264243 0.4713597397
0.6023480958 1.0015156642 0.2256838539
0.5922411969 0.7525282243 0.9765334781
0.5925062959 0.9992180596 0.4743549901
0.6024585538 1.0014635938 0.7263702396
0.592392156 1.0027783704 0.9730540539
0.602285503 0.7530944895 0.2231608111
0.6022450018 0.5017495641 0.2262527121
0.5923221993 0.7492282653 0.4785247763
0.6023591416 0.7510572367 0.7245301949
0.5824435801 1.0002724844 0.2246860508
0.5824546259 1.0027263 0.7249554579
0.5824030788 0.7528601728 0.2232003918
0.5823736234 0.7514412556 0.726506471
0.612495496 0.7503542868 0.9773066835
0.612499178 0.752189767 0.4769268185
0.6123776743 1.0029410903 0.9756682245
0.6226134408 1.0016783841 0.2245139205
0.6222636574 0.75136315 0.2266917823
0.6223851611 0.752345978 0.7295118467
0.6424737734 1.0018541215 0.7298423
0.6525880362 1.0020363678 0.9827191212
0.6324626046 1.0023552987 0.9789175281
0.6323705564 0.7511613774 0.9776840814
0.6324257853 0.5030799617 0.9795158418
0.6324000118 0.7510116751 0.4787107138
0.6524149855 0.7508749904 0.9847533878
0.6525033518 0.5015308686 0.9821023979
0.6423669974 0.751616993 0.2340436769
0.6423743613 0.5030754056 0.2302411633
0.6524039397 0.7509791311 0.4833471847
0.6423964529 0.750380322 0.7333088375
0.6723305471 0.7515649227 0.9836948328
0.6724152315 0.5011051934 0.985747509
0.682488993 0.999712728 0.2371576695
0.6725220074 0.99964764 0.4860653698
0.6825037208 0.9997582896 0.7393398395
0.6823490797 0.7503412692 0.2387952081
0.6723305471 0.7515584139 0.4858996829
0.6824337641 0.7498205656 0.7370699294
0.6625255664 0.7487726496 0.2366560065
0.6624151085 0.7510702542 0.7350181737
0.7023971908 0.9985932153 0.2418981549
0.7025555138 0.5002655588 0.7427852059
0.6924228413 0.7487856672 0.9894110297
0.6925517088 0.9999470446 0.4939299731
0.7024634655 0.999999115 0.7431469555
0.6925627546 0.9990553397 0.9917398507
0.702540786 0.7477898216 0.2385807356
0.7025739234 0.4987984765 0.2467794742
0.6924412509 0.7495016347 0.4913314507
0.7025002848 0.7502241109 0.7402750498
0.7225815332 0.5010895723 0.7466908135
0.7324748802 0.7506536914 0.9952652991
0.7224710753 0.7481543141 0.2448538246
0.7224563476 0.500096981 0.2461296134
0.732485926 0.751584449 0.4959172951
0.7223790271 0.7464229747 0.7448526098
0.7223863909 1.0009624166 0.7469513101
0.7124009957 0.7484211747 0.9955138294
0.7123789041 0.7490915806 0.4949185714
0.7424934129 0.5002954993 0.748753615
0.7423203621 0.7488377376 0.2472323516
0.7424234562 0.4976522777 0.2476419664
0.7423976827 0.748063191 0.7488456633
0.7524162153 0.4974784929 0.5052160103
0.7523094393 0.7474383467 -0.0031262686
0.7623905648 0.4975500896 0.7560539626
0.7623316539 0.7501850581 0.2517740128
0.7624752492 0.4993764574 0.2543366363
0.7523867599 0.750601621 0.4971479803
0.7623611093 0.7481673317 0.7522680176
0.7823576734 0.7468916079 0.2544286846
0.7822877167 0.4989592437 0.2605287228
0.7724090974 0.7483560868 0.5050512439
0.7824423578 0.747269118 0.7577679012
0.7723023214 0.9977861247 0.5056587624
0.7723833239 0.4984684806 0.508351174
0.7723685962 0.7498140568 0.0060237519
0.7824349939 0.4984515577 0.7603360476
0.7724937818 0.4986995428 0.0085737649
0.7924351169 0.7492868444 0.5103642695
0.8123396327 0.4992540921 0.5138630239
0.8124648183 0.749651337 0.009434232
0.8024536495 0.4988303696 0.7641993131
0.8024205121 0.7497359513 0.2605139951
0.8022916446 0.4980597282 0.2636878191
0.7924940278 0.4971628163 0.5145285328
0.7923025674 0.750093935 0.0101125356
0.8125826401 0.7520791175 0.5111024965
0.792376206 0.4976425145 0.0157636545
0.8022511434 0.7469957486 0.7596235941
0.8325460667 0.5003723031 0.5205337613
0.8325423848 0.7487466145 0.0180135901
0.822372893 0.4992918431 0.7636663537
0.8324687462 0.499297701 0.0160007708
0.8225569895 0.7472561004 0.2633306718
0.822266117 0.4965893915 0.2625436592
0.832424563 0.7475164522 0.5168647176
0.8225091244 0.748603421 0.7646319399
0.8624727971 0.7477507688 0.7683129498
0.862583255 0.4976145267 0.7691330998
0.8525536766 0.7459933942 0.0217407162
0.8524027174 0.4977271288 0.0177912936
0.862476479 0.7501004438 0.2688379192
0.8623881127 0.4977447026 0.2698845079
0.8526236332 0.7492282653 0.5195304352
0.8425093704 0.7485122979 0.2695862716
0.8425351439 0.4953969803 0.271256027
0.8424651872 0.7487531233 0.7690511769
0.8524726741 0.4963563766 0.5223029288
0.872369826 0.4982829799 0.5189247577
0.8823736309 0.7483040164 0.7678609929
0.8926057155 0.4986129758 0.5208734193
0.8725355129 0.7486164386 0.0229355026
0.8924805299 0.7475620138 0.0210590988
0.8824399057 0.4999798227 0.7692131818
0.8724287369 0.4968438854 0.0186760614
0.8924805299 0.4977036972 0.021135683
0.8825061804 0.7487596321 0.2687698035
0.8824399057 0.4983448135 0.2718681479
0.8724287369 0.7472886444 0.5219789189
0.8924547564 0.7497619865 0.5224244325
0.8824804069 1.001014487 0.2721884759
0.8823441755 0.9999145006 0.7682577209
0.9124365927 0.7489874399 0.525097514
0.91246973 1.0003505899 0.0244806247
0.9124991855 0.4990100123 0.5223590783
0.9023812407 0.7502045845 0.7715355594
0.9124034553 0.7502761813 0.023937632
0.9126170073 0.5019838807 0.02311739
0.9023701949 0.7484081571 0.2719086492