POSCAR file written by Ovito 3.7.11
1
271.5861339417 0.0 0.0
0.0 15.3632317589 0.0
0.0 0.0 10.8634453576
Sr Ti O 
800 800 2400 
Direct
0.022384714 0.5000852685 0.8086374468
0.0124218343 0.2505511822 0.5586679472
0.0223115881 0.2511363455 0.8035699937
0.0023224232 0.2514077728 0.8152348013
0.012566282 0.249199904 0.0601938608
0.0224804848 6.240839191e-06 0.3085097414
0.0025018875 0.002044614 0.3152184786
0.0024766284 0.5001698861 0.3125351678
0.0124838036 0.5018420603 0.5621134471
0.0123252167 1.1090631747e-04 0.5628332924
0.0224100099 0.0013942301 0.8101323685
0.002599536 0.0011255366 0.8113060293
0.0224191414 0.2506364507 0.3074529864
0.0024497125 0.2527557965 0.3132899928
0.0324032299 0.5019221216 0.0490477653
0.0423054291 0.5004810186 0.296955396
0.03241759 0.4986558818 0.5521608035
0.0323325341 0.251126582 0.5528511922
0.0424803276 0.2516778983 0.8013009162
0.0323759826 0.2493463576 0.0491705624
0.0524425446 0.500170537 0.0448896921
0.04244903 6.2570685711e-04 0.8016194155
0.0425038929 0.2487162818 0.2982551678
0.05248047 0.2500063749 0.5445214224
0.0524712648 0.2520111615 0.0442336388
0.0623918744 0.2466301322 0.2936212788
0.062364627 0.4996732458 0.796608114
0.0725013743 0.4994389201 0.0403985755
0.0624651476 0.4993217573 0.2949146069
0.072436938 0.501154705 0.5427485041
0.072555869 0.2507692353 0.5438696954
0.0623981339 0.2478499276 0.7948121828
0.0724656582 0.2509391214 0.0410196492
0.0924810394 0.2517983156 0.536974093
0.1025183707 0.2537354081 0.7883262111
0.0823700666 0.2491198427 0.7900908446
0.0924269129 0.251856897 0.0373723717
0.1024565118 0.001212172 0.2865655062
0.0923238148 0.0011763072 0.5365386879
0.1025168978 0.2523711118 0.2871067709
0.0824090966 0.2522090365 0.2891889833
0.1022296961 0.5035715142 0.7878613493
0.0824289798 0.4990268975 0.7909045827
0.1022366921 0.5022723084 0.2888143323
0.0824536497 0.5006541592 0.2918474401
0.1225484801 0.2520983827 0.2803188692
0.1124463444 0.5027520251 0.0347413464
0.1124157832 0.2516082514 0.5333104303
0.1223478072 0.5005265819 0.2800270649
0.1123668116 0.5002903035 0.536018595
0.1225477437 0.2516329858 0.7792996088
0.1124960524 0.2533845704 0.0325994844
0.1225952425 -0.0023201512 0.2796422882
0.1524999356 0.2494622186 0.5165137333
0.1325596687 0.2489408439 0.5251693666
0.1424169466 0.2505088734 0.7691039484
0.1525216599 0.2485698282 0.0174047654
0.1325567231 0.2492617399 0.0286872818
0.1425535515 -8.483970525e-04 0.2702658891
0.1425509741 0.2505355605 0.2712646514
0.1425182036 0.4973078581 0.7732177446
0.1525301286 0.4984339233 0.0168407638
0.1324720354 0.4995879773 0.026128333
0.1524771068 0.498387709 0.5185388735
0.1325180613 0.5000533742 0.5257879549
0.182586155 0.2483719532 0.2641573298
0.1725300451 0.5014736483 0.5153437545
0.1825769498 0.4986187802 0.7663792143
0.1724656088 0.2486928492 0.5149442496
0.1624632573 0.248400593 0.7651162632
0.1725709161 0.2461673389 0.0141883825
0.1826226075 0.5007804348 0.2636105419
0.162452211 -0.0014450814 0.7640420184
0.162651043 0.2508629655 0.2672106889
0.182579159 0.2475934712 0.7660772843
0.1825946238 -0.0022370046 0.2608020407
0.1925888748 -0.0011870628 0.0121882804
0.2026228922 0.2490469414 0.2615826401
0.2026416708 0.501373409 0.7598748322
0.1926647255 0.5015432951 0.0105419334
0.2024763457 0.5007107879 0.2584188188
0.1926518382 0.4991466639 0.5112143095
0.1925262795 0.2490326215 0.5160074482
0.2025153757 0.2505804729 0.7635808387
0.1925866655 0.2496366611 0.0122767422
0.202581653 0.0010679966 0.2558542549
0.2124433494 0.2519232893 0.5062020875
0.222445701 0.2488386519 0.7557159306
0.212421257 0.2498397433 0.0067726872
0.2223904699 -9.9843058946e-04 0.7533106163
0.2223289793 0.2495181964 0.2551316481
0.23239724 0.250135905 0.4993294981
0.2323968718 0.2495455344 1.0013783252
0.2323747793 0.0013522467 0.501316897
0.2224018843 0.5001471045 0.7525060834
0.2125873185 0.4991727001 0.0062014136
0.2125394515 0.499412233 0.5055522016
0.2424673417 0.5019071508 0.7425948631
0.2623365446 0.249691988 0.7386301908
0.2624274918 -0.0029205978 0.2370747615
0.262525435 -0.0015600312 0.7383724457
0.2524074663 0.2509658085 0.4927100511
0.24244304 0.2468520907 0.7438937144
0.2524582789 0.2531919026 0.9911237516
0.2625512095 0.2485704791 0.2361082174
0.2424386215 6.5408630271e-04 0.2481679273
0.262393985 0.499296372 0.2356111375
0.2524777939 -3.6523048205e-04 0.489278359
0.242382654 -0.0034083793 0.7439618327
0.2523419254 -1.0747773888e-05 0.9899086674
0.2423712396 0.2488738007 0.2475567032
0.2722667276 0.2501346032 0.4860059165
0.2724423625 0.2507223701 0.9864475187
0.2724051735 0.0016968357 0.4838914861
0.2724651913 -0.001891563 0.9838148364
0.2824594424 0.2482684594 0.730879427
0.2724964889 0.4999674548 0.4830841915
0.2823758593 0.2502817076 0.2323294898
0.3123972742 0.0019611681 0.4758885002
0.2923351306 0.4983851054 0.4798780264
0.2925483227 0.2489382403 0.4782551526
0.3025050166 0.2507718389 0.7268586031
0.2924691581 0.2489043933 0.9800959426
0.2924964054 -0.0017679952 0.4776328823
0.3025109079 -3.5117094019e-04 0.7254170715
0.3123177414 0.5008344598 0.4750351797
0.302466723 0.24695233 0.2247674322
0.3124915352 0.2509983537 0.476685669
0.3125044225 0.2477607537 0.9768373079
0.3224025714 0.0021328767 0.2263046977
0.332406764 0.0010834881 0.4742444545
0.3224585389 3.9463568304e-04 0.7230900013
0.3325385823 0.0019065572 0.9704489111
0.3224416014 0.2517325742 0.225816823
0.3223359259 0.4992449505 0.7254566538
0.3223937344 0.5014228777 0.22423077
0.3323868809 0.2495871923 0.470769498
0.3224261367 0.2474711011 0.7263375898
0.3324005045 0.2511187711 0.9712037361
0.3624392251 0.2485529047 0.2128568462
0.3526239229 0.5004400116 0.4629266823
0.3523952661 0.2509573467 0.4658493278
0.3424496184 0.2526334264 0.7193572997
0.3626711957 0.4982835643 0.7098796435
0.3525027827 0.2496971952 0.9691141596
0.362582826 0.4993217573 0.2069719729
0.3424798114 -8.1643763096e-04 0.22158428
0.3424602965 0.2498338852 0.2221430346
0.3623729478 0.2499126447 0.7130038825
0.3423995423 0.4997982195 0.7196711964
0.3424647149 0.4998047286 0.2184628025
0.3824697028 0.2488314919 0.2056050032
0.3925475369 0.250798526 0.4527577169
0.392551219 0.2509775248 0.9496820187
0.3925291266 -0.0021241963 0.9526276772
0.3825948933 0.499576261 0.7022034416
0.3927058661 0.5014847137 0.9489732197
0.3725759724 0.2507842061 0.4596790938
0.3824476104 0.249623643 0.7026471314
0.3725686083 0.2484904179 0.9563465711
0.3927942358 0.498879793 0.4492680321
0.3725096951 -0.0012628281 0.4571283377
0.4126258816 0.4999824256 0.9464509996
0.4025443654 0.2507835552 0.6993240604
0.4025443654 0.0012241487 0.7009920395
0.4025959144 0.2492044603 0.1979168346
0.4125927429 0.2512964681 0.4459136635
0.4124638704 0.2524290423 0.9470953624
0.4124896449 0.0016601897 0.4476479199
0.4125338298 -5.031571913e-04 0.9500502261
0.4425353614 0.0021270837 0.6882980925
0.4424212172 0.2492975397 0.1900114236
0.4225453865 0.5001275773 0.6954284271
0.4324612094 0.5005116111 0.9385989787
0.4324317528 0.5019390451 0.4441554736
0.4425832284 0.4998066813 0.6883478005
0.4426752802 0.4990379628 0.1918211625
0.4325827178 0.2508558056 0.4416903257
0.4225048837 0.2512294249 0.6918761471
0.4324722556 0.2514123291 0.9403203479
0.4224975196 0.0026172149 0.1925051076
0.4323802038 0.0025517339 0.9430542872
0.4224128319 0.2515099648 0.1926330597
0.4424101709 0.2518542934 0.6910384754
0.472632627 0.2503396382 0.4368115788
0.4625511108 0.248476098 0.6887316566
0.4725442573 0.2512886572 0.9334993074
0.4724742979 -0.0010516746 0.9358558342
0.4625363826 0.2483810659 0.1878767417
0.4524659126 0.4998314157 0.938313618
0.4525837389 0.4971125867 0.4386369665
0.4625916136 0.5012809805 0.6888421188
0.4726252629 0.4989650615 0.9343922102
0.4626247523 0.5016949559 0.1835889676
0.4525285078 0.2490560541 0.4369183589
0.4524695947 0.2486264569 0.9354231906
0.4525616465 -3.7935511438e-04 0.4387575544
0.4825631782 0.2501821192 0.6843840488
0.4825852706 1.2496585933e-04 0.6821968974
0.4925563246 0.5022195851 0.9338583096
0.4924937293 0.5002369293 0.4340380572
0.4825300395 0.2498892121 0.1872406636
0.4924200879 0.2505570403 0.4331828957
0.4924679548 0.2500584473 0.9370156873
0.4824969009 0.5000468651 0.1820047556
0.5024574192 0.2507972242 0.6852769515
0.5124395194 0.2500226476 0.4347542204
0.5123511496 0.2495396763 0.9371169443
0.502450055 -3.2090387091e-04 0.6850560271
0.5024537371 0.2501749593 0.1859381302
0.5224473941 0.2517397342 0.1911418201
0.522443712 0.2505902365 0.6890934203
0.5125683919 0.4997838996 0.436494
0.5223884809 0.5002903035 0.6885061296
0.5423342709 0.4987053505 0.691069773
0.5524710182 0.4985986021 0.9480527014
0.5424668256 0.4985348135 0.1895935083
0.5523936947 0.4995040106 0.4461493162
0.5323006217 -0.0015970677 0.4376529325
0.5324552688 0.25249934 0.4398124684
0.5323448066 0.2513745767 0.9398877043
0.532569413 0.5000520724 0.9408726588
0.5524967927 -0.0015313914 0.9441128832
0.5424778718 0.2511936251 0.1975154886
0.5524268333 0.2491946968 0.4441803276
0.5423342709 0.2490248106 0.6958159653
0.5523568739 0.2496451228 0.9464417944
0.5724830855 0.2521140044 0.4542802541
0.5725346345 0.2500382693 0.9562729296
0.5624457542 0.500894994 0.6976487172
0.5623021534 0.4990067194 0.1977373335
0.5723873516 0.4988687276 0.95352058
0.5724683572 0.4986083657 0.4535245086
0.5623868411 0.249650981 0.1978846164
0.5624162976 0.249404939 0.700133196
0.6024698889 0.5004608405 0.7094322716
0.5924656963 0.4999700584 0.9549013574
0.5925319736 0.499371226 0.4594241103
0.5825461913 0.2475986784 0.7070380036
0.6024072937 0.2498768449 0.2127592713
0.5924583321 0.2502686895 0.4571992176
0.6025398483 0.2498019909 0.7105065165
0.5924546501 0.2501879774 0.958960843
0.5823473594 0.5007713221 0.7009294443
0.5823584056 0.5018824164 0.2017701241
0.5824099546 0.2496171339 0.2081115745
0.6125403589 0.5012868386 0.9625324539
0.6126655493 0.5006268212 0.461503561
0.6225003666 0.5021740218 0.7150262612
0.6123673014 -6.6419101796e-04 0.4648662143
0.6224488176 0.500860496 0.2132600332
0.612444625 0.2498722886 0.4610212095
0.6125329947 0.2526477463 0.9656898316
0.6225040487 5.5859858092e-04 0.7153281912
0.6224856383 0.2518399735 0.2182501628
0.6226513316 0.2514181873 0.7166970019
0.6424461566 0.0011570404 0.2218530713
0.6525644935 -1.9768760823e-04 0.4742766727
0.6325671545 0.4990659517 0.4722874327
0.6425566188 0.2504945535 0.2230414604
0.6523472512 0.2499145974 0.4745905694
0.6425897575 0.2504476883 0.7228810437
0.6324677385 5.9745759245e-04 0.4700956786
0.6523840719 0.2492864743 0.9706330147
0.6425013877 0.5004530297 0.7193149558
0.6526344529 0.4993022301 0.4717986375
0.6323720046 0.2506338471 0.4715998055
0.632493513 0.2499634152 0.9696940861
0.6824997479 0.4999635493 0.727382378
0.6626055069 -0.0023930265 0.2280665697
0.6824629272 0.4989702687 0.2278226324
0.6624839985 7.9429117847e-04 0.7248564759
0.6724182317 0.4990470755 0.4778805017
0.6624950447 0.2519278457 0.2255507932
0.6624177212 0.2492702017 0.7253673635
0.6724255959 -0.0017595335 0.9780800076
0.6625870965 0.4991935291 0.7239111036
0.6624692702 0.5003215469 0.2234851502
0.6823119622 0.2499601607 0.2291583044
0.6725176477 0.2502341916 0.476435288
0.6824445168 0.249473284 0.729847526
0.6723924572 0.2511988324 0.976386254
0.702500769 0.2497629366 0.2387878461
0.6923971604 0.2502237771 0.4774855994
0.7025302256 0.2511122621 0.73523624
0.6925628537 0.2504548483 0.979157014
0.6925333971 0.4993725279 0.9785310615
0.692629131 0.5004680005 0.4838583474
0.732517029 0.4994851344 0.9938300753
0.7324433875 0.5002434384 0.4930055375
0.7125454644 0.2505694075 0.4891807841
0.7125491465 0.2512691301 0.9877914754
0.7225422929 -0.0014843961 0.2444011665
0.7327121788 7.0147216601e-04 0.4994169473
0.7326753581 5.2129621647e-05 0.9970334789
0.7126338342 0.4990125775 0.9895680757
0.7225938419 0.2515425101 0.2438534581
0.7324949365 0.2491133337 0.4969030119
0.7226343448 0.2503005839 0.7451732348
0.7324507517 0.2486511913 0.9974845329
0.7124386843 0.4987509139 0.4899374501
0.7127222039 6.7302762994e-04 0.4928628572
0.7127185219 5.0183968971e-04 0.9936367665
0.7523818134 0.5026452768 5.1908189192e-04
0.7425359499 5.3171069192e-05 0.2504314817
0.7425985451 -0.0020303619 0.7496432715
0.7425874989 0.2499243609 0.2502308088
0.74264273 0.2522864942 0.7499323142
0.7625553814 -0.0018347781 0.2557161772
0.7526800613 0.0011992841 0.503705642
0.7625516993 5.8502963616e-06 0.7537543061
0.7526837434 6.7107491579e-04 0.00494463
0.7626327049 0.25223312 0.2548794261
0.7526726972 0.2480705843 0.5014807493
0.762584838 0.250695683 0.756769924
0.7525806453 0.248277572 0.00498725
0.782479079 0.0024583942 0.2619499269
0.7824753969 -0.0012093237 0.7611755245
0.7725227533 2.1264272453e-04 0.0104520908
0.7823980733 0.2514220927 0.2579106927
0.772508025 0.2498781467 0.5088568622
0.7825085355 0.2520879682 0.7613964489
0.7724748863 0.2504782809 0.0099435965
0.7923691273 0.0012130182 0.5132514165
0.7923728094 0.0011808635 0.0148568629
0.8123370098 0.5032284874 0.0159515432
0.7924427688 0.2493086051 0.5119811013
0.792453815 0.2496021631 0.013919407
0.8022959964 0.0017219606 0.2684552296
0.812348056 0.0010357768 0.5204857696
0.8023512275 6.8767298604e-04 0.768604107
0.8126205294 4.0622178698e-04 0.0236084142
0.802575834 0.2522838905 0.268020745
0.812499021 0.2512528575 0.5217238667
0.8024616897 0.251987078 0.7637520551
0.8124364258 0.2522454872 0.0206925805
0.8325074063 -0.0028367287 0.5274872316
0.8223817052 -8.3967492931e-04 0.772861504
0.8324742676 -5.6609967731e-04 0.0284402146
0.8223780231 0.2502836604 0.2694190122
0.8324337648 0.2497583802 0.5253764832
0.8224332542 0.2507529627 0.7756608001
0.8325663194 0.2503123002 0.024094724
0.8224185259 -2.2997248213e-04 0.2709360264
0.8424600499 -0.0022430385 0.7801289958
0.8425042347 0.2488666408 0.2783517216
0.842518963 0.2496997988 0.7781572457
0.8626783133 -0.0011154633 0.2852915089
0.8425447376 0.5019982775 0.7778046872
0.8525194736 -0.0013580554 0.5286176281
0.8625199842 -0.0014277022 0.7838837898
0.8525121095 -0.0016246009 0.0350520213
0.8624279323 0.250532306 0.284567061
0.8424305933 -0.001010928 0.2749890683
0.8525489302 0.2509462814 0.5348780729
0.8625347124 0.2461484627 0.7830405951
0.8524605604 0.2499569062 0.0312484398
0.8725020843 -0.0011763228 0.5377013024
0.8926651167 -7.3702725565e-04 0.5372861487
0.8724652636 -8.6063406115e-04 0.036925368
0.8827124731 0.2468514398 0.288874166
0.8925251979 4.7346024411e-04 0.0403626753
0.87258309 0.2496926389 0.5423471582
0.8925914752 0.2493378958 0.5407123177
0.8825909647 0.2489759928 0.7888619527
0.8726162286 0.2478479749 0.0409097393
0.8925657007 0.2510614915 0.0441384572
0.9025109802 -0.0013963937 0.2906387996
0.9124930804 -0.0022974541 0.5428497612
0.9025772575 4.5282656462e-04 0.7910739581
0.9025662113 0.2482333105 0.2898443923
0.9126440454 0.2492187802 0.5436515326
0.9025478009 0.2489187132 0.792858843
0.9025257085 0.5011586104 0.7907619024
0.9125004445 0.2515262375 0.0487904804
0.9225745965 -4.2270536844e-04 0.3004515244
0.9225635503 3.503090719e-04 0.7975194271
0.9225156834 0.2497037043 0.3003272544
0.9225267296 0.2508174022 0.7971024323
0.9425903459 -0.0018736891 0.3042541854
0.9325787892 2.4005013685e-06 0.5512338416
0.9426124384 -3.1530609036e-04 0.8056641728
0.9324425525 -0.0015758482 0.0514386274
0.9424872479 0.2488842152 0.3064054366
0.9324609628 0.2506527233 0.5549380072
0.9426087563 0.2477080304 0.8066371606
0.9325272401 0.249193395 0.0525736264
0.9526055848 -0.0025604327 0.5592101325
0.9527381394 0.0018295551 0.0605189879
0.9626097774 0.2489890109 0.3148714432
0.9526608159 0.2488874697 0.5567854874
0.9724998258 0.2482957974 0.5632723796
0.9624956332 0.2481584565 0.8134305855
0.9525208971 0.249206413 0.0608801072
0.9725071899 0.2494602659 0.0624621099
0.9625913671 1.7209136075e-04 0.3086487396
0.9825224288 0.5001392936 0.8190632368
0.9827433532 0.500505753 0.3166609307
0.9824745618 -0.0019169222 0.3164068677
0.992707043 0.0022752296 0.567620908
0.9825187467 0.2488288883 0.3159245161
0.992508211 0.0017189664 0.0655299212
0.9925708063 0.2512997226 0.5671744566
0.9825592495 0.2507763952 0.8158073637
0.99245298 0.2495247055 0.0691489388
0.0125883744 0.7506894422 0.0638859676
0.0024749715 0.4994219966 0.8135603786
0.0122387616 0.5001353882 0.0627990196
0.0224905 0.7510018765 0.3068675368
0.0024584022 0.7509693312 0.3164473705
0.012470364 0.7516202359 0.5638900474
0.0223051444 0.7508847136 0.811392558
0.0224047445 0.5012510389 0.3043020523
0.00254471 0.7505918065 0.817308729
0.0123998891 0.9993155164 0.0623054377
0.0523770037 1.0004611087 0.5463191945
0.0523825268 1.0004350726 0.0462431302
0.0323487352 0.7504486075 0.0545435355
0.0422682402 0.4999108261 0.7988090732
0.0423930625 0.7500059922 0.2966875252
0.032305655 0.7501296641 0.5539061062
0.042518253 0.750936786 0.7983939194
0.0523711124 0.7489580357 0.044898253
0.0524366533 0.7504746436 0.5464370209
0.0523501246 0.4994695127 0.546922134
0.0423208938 1.0013137939 0.3016113774
0.0323888698 0.9991853355 0.5567265742
0.0323899745 1.0017173548 0.0539456589
0.0723555642 1.0021144067 0.5402299661
0.0624423188 1.0007930702 0.7935197752
0.0722473112 1.0020493163 0.0434627047
0.0723157978 0.749420178 0.0403149925
0.0624128622 0.7503444627 0.2949100044
0.0724848049 0.7507089693 0.5451022694
0.0623719912 0.7502012637 0.7924225174
0.0624923949 0.9998557674 0.2943190316
0.0823737487 1.0004611087 0.28950288
0.1023044422 0.9993740979 0.7853823936
0.0823674892 1.0005782716 0.7873679515
0.0924250719 1.0035463971 0.0391154651
0.0922394954 0.7517308897 0.0390849959
0.0923403842 0.5019924193 0.0408777053
0.102346786 0.749283488 0.2886550827
0.0822680732 0.7546078886 0.2911257537
0.0922766843 0.7530717535 0.5416613721
0.1022823498 0.7503379537 0.7894437202
0.0822743327 0.7493225423 0.7910039987
0.0923694726 0.5015699822 0.5420424666
0.1125685892 1.002153461 0.03172849
0.112369389 0.7503574808 0.0364750505
0.1222343993 0.5039197482 0.781447178
0.1223485436 0.7480988414 0.2838527388
0.11227881 0.7508586774 0.5351164871
0.1225967153 0.7508521684 0.7825692898
0.1123767532 1.0016522644 0.5348302059
0.1225068727 1.0010859773 0.780289166
0.1524627467 0.9978965442 0.5173679742
0.1324797677 0.9977273089 0.5253838474
0.1426522311 0.9981829422 0.7701625444
0.1526067158 0.9981373789 0.0155568249
0.1324584117 0.9990681727 0.0237855219
0.1525732089 0.7480012057 0.0194674627
0.132625946 0.7476757534 0.0243779675
0.142527777 0.7510344217 0.2696252083
0.1525444887 0.7496154494 0.5151716176
0.132514011 0.749836757 0.5257631009
0.1424721777 0.4993113428 0.2729473588
0.1426043642 0.7494006509 0.7719639987
0.1725815941 0.7485284385 0.0138460417
0.1624949231 0.4986487218 0.7706577832
0.1725867491 0.4999687566 0.014746953
0.162644047 0.7521149235 0.2639741466
0.182516932 0.9994912607 0.7630285278
0.1725510329 0.7493550875 0.5106159727
0.1624341689 0.4996459078 0.2673533692
0.1624584706 0.7496414856 0.765884896
0.1825846822 0.7482615676 0.2659431352
0.1824918939 0.7501882456 0.7628766423
0.162652884 1.0000315116 0.2659182812
0.1725823306 0.998560467 0.5158325497
0.1725142122 0.9972000761 0.0169249913
0.1924570566 0.9978900351 0.5123925729
0.2025179531 1.0003764911 0.7585179882
0.1926013938 0.7528309187 0.0118370106
0.2025757617 0.7474479367 0.2587962313
0.1925027143 0.7495959223 0.5110394111
0.2026622904 0.7505983155 0.7604280636
0.2324123365 0.7495178137 0.9970795048
0.2324903964 0.4990731117 0.999758213
0.2325533599 0.7475911358 0.500632952
0.2324727225 0.4996849621 0.4997345261
0.2225322297 0.9999664212 0.2502381729
0.2124956348 0.9990551546 0.5102855066
0.2124573413 0.9996930412 0.0068636344
0.2124912163 0.7501361732 0.0079310674
0.2323939261 1.0002918735 1.0024369212
0.2224328137 0.750253336 0.2494060244
0.2125983647 0.7493550875 0.5064174888
0.2224909905 0.5014593284 0.2508420329
0.2225009321 0.750253336 0.7521498428
0.2525333932 0.7509107498 0.991952218
0.2523640178 0.5014013979 0.991850961
0.2423752899 0.7505462432 0.2465082328
0.2523533398 0.7518155074 0.4911028262
0.2424673417 0.5016174982 0.2485527039
0.2424345713 0.7490556714 0.7442297035
0.2524755846 0.501024524 0.4907742012
0.2623693151 0.5005233274 0.7368370212
0.2624470068 0.7494982866 0.2382023964
0.2624238097 0.7490491623 0.7379913512
0.2822926444 0.4980466349 0.7300840992
0.2824708568 0.7495503589 0.234452205
0.2823765957 0.4996732458 0.231205537
0.2823670223 0.7475195362 0.7330969555
0.2724743965 0.7487041828 0.9880860413
0.2724604046 0.4998750263 0.9860240803
0.2724394168 0.7488864361 0.4839338299
0.2824075251 0.9998622764 0.2325071499
0.2824620198 0.9993806069 0.7300813376
0.3125173097 0.9998167131 0.9766532043
0.2924901459 0.7505722793 0.9787611911
0.3023455828 0.5003456304 0.7265815271
0.2923539092 0.4992703358 0.9778774936
0.3024155422 0.749003599 0.2251384011
0.2925376447 0.7507154784 0.4792134122
0.3024681958 0.4978422509 0.2286685886
0.3025897042 0.7505071889 0.7247027493
0.3024766646 0.9988273379 0.2257606714
0.3124525053 0.7499343927 0.9765335369
0.3123877008 0.4988439932 0.9737535717
0.3125132595 0.7523622673 0.4764426522
0.2924496431 1.0003699821 0.9808415624
0.3325544152 0.7502207908 0.9709644013
0.3324174421 0.5018160242 0.9696204446
0.3224754765 0.7511385665 0.2219349975
0.3324218605 0.7491207618 0.4741827798
0.3225465405 0.7488538909 0.7279052324
0.3324704639 0.499166842 0.4750876493
0.3523904794 1.0001291473 0.4650042921
0.3424426225 1.000773543 0.7206727203
0.3626012364 0.7485609838 0.2111520464
0.35239858 0.9996019145 0.9677333822
0.3625165487 0.7478710248 0.7137633101
0.3625865081 0.998977046 0.2124260437
0.3526102992 0.7477343348 0.9672086867
0.362431861 0.9988013017 0.7128446329
0.3524549157 0.4998574519 0.9649350066
0.3424901213 0.7491988704 0.2210117176
0.3524563885 0.7508782046 0.4649904843
0.3425921147 0.7498237389 0.7206156482
0.3925328086 0.9993285345 0.4527162936
0.3726643422 0.7495959223 0.9582796594
0.3724912847 0.4984130943 0.9558863119
0.3826943093 0.750793587 0.2060413289
0.3724507819 0.7497326123 0.4559022073
0.3825138877 0.5008644015 0.2074405167
0.3827237659 0.7468556134 0.7037940972
0.3824586566 1.0008386335 0.2033976004
0.3826943093 1.0000380207 0.7029251279
0.3724876026 0.9998232221 0.9581415817
0.3725612441 0.5014840628 0.457246164
0.3925217624 0.7526942287 0.9507129992
0.3925585832 0.7470964482 0.4525220642
0.412647974 0.7496610127 0.9469941054
0.4125816967 0.7523817945 0.4479756245
0.4125853788 0.4980720202 0.4437752996
0.4025959144 1.002153461 0.2007271769
0.4025664579 0.5008162345 0.699779717
0.4026916483 0.7496154494 0.1939595265
0.4026658738 0.4997734852 0.197965622
0.4026769201 0.751483546 0.6968533894
0.4325458971 0.7498042118 0.9411948402
0.422468063 0.7516983445 0.194990507
0.4326232206 0.7516397631 0.4416535049
0.4225564328 0.4993543025 0.1938278924
0.4225085658 0.7517959802 0.6956217359
0.4424175351 0.7489710537 0.1883103058
0.4424506738 0.7517308897 0.690387669
0.4324096604 1.0009688144 0.4435212365
0.4226448025 1.0027327662 0.6943707516
0.4425427256 1.0011705949 0.1898991204
0.4524033174 1.0000380207 0.9398877043
0.4626321165 1.0000119845 0.1862778015
0.4725221648 0.9986125394 0.4353764908
0.4626394806 1.000213765 0.6869237587
0.4525542824 0.7496219585 0.9364173504
0.4525690106 0.7495698861 0.4373344332
0.4726178987 0.7495763951 0.9344014154
0.4625179722 0.7484828752 0.1871587375
0.4724117026 0.7487367281 0.4354538143
0.462558475 0.7507480236 0.6870314594
0.4725553035 0.4984410832 0.4374992059
0.4825300395 1.0020428072 0.1812747847
0.4925489604 1.0012552125 0.4366063032
0.4925600067 0.9998297312 0.9379822314
0.482603681 0.4984280651 0.6788093901
0.4925195039 0.7492118885 0.4307545685
0.4824858546 0.7504681346 0.1872958947
0.4923979954 0.7477538619 0.9314005258
0.482504265 0.7505462432 0.6847817127
0.5125868023 1.0015155744 0.4374007105
0.5124873863 1.0005457264 0.9378165382
0.502398506 1.0004676178 0.1837647866
0.5225578563 0.74804026 0.6887878082
0.5224989431 1.0004676178 0.185168577
0.5224363479 0.9992764622 0.6843518307
0.5024868758 0.7486065471 0.1849586988
0.5024905578 0.4995612902 0.1828626787
0.5024095522 0.7507545327 0.6850210474
0.5025163323 0.5033723373 0.6831827724
0.5125462995 0.7490556714 0.9347235967
0.5125978485 0.5001659807 0.9371629702
0.5123474675 0.7515746726 0.4351896256
0.5225615383 0.500191366 0.1863901047
0.5224768507 0.7501491913 0.1908794723
0.5324589509 0.751490055 0.4387014028
0.5324221301 0.499364717 0.4428860789
0.5324920895 1.0022576058 0.9401638598
0.5423858199 0.9974278928 0.1894858077
0.5525372955 0.9995172969 0.4431355394
0.5524710182 0.7499604289 0.9486786538
0.5423858199 0.9999143488 0.6926107206
0.5425367849 0.7505983155 0.19446305
0.5524857465 0.751769944 0.4426108439
0.5424852359 0.7499604289 0.693609483
0.5326062338 0.7508586774 0.942189
0.5624715287 0.9996930412 0.2005449143
0.562486257 1.0005912897 0.6993249809
0.5625157136 0.7492444337 0.2013301163
0.5624973033 0.749556868 0.6986944259
0.5724389006 0.999810204 0.4540142243
0.5723468488 0.9970959314 0.9540176598
0.5724278544 0.7508131141 0.9507866407
0.5725714553 0.7511711117 0.4488722093
0.6024956634 1.000220274 0.2073779214
0.592300003 0.7508456593 0.9528946275
0.5924362397 0.9995954055 0.4562612095
0.6024772531 0.9995042788 0.7124257971
0.5924104652 0.9971154585 0.9587767393
0.6023999295 0.7486521104 0.2075113966
0.6024772531 0.5015790948 0.2060229185
0.5923184133 0.7511060212 0.4519743558
0.602374155 0.7510214036 0.7090115948
0.5822553075 0.999113736 0.2045638971
0.5824394112 0.9994652245 0.7048895139
0.582531463 0.7493615966 0.206624017
0.5824467754 0.7498627932 0.7050165455
0.6125366768 0.7526356473 0.96032321
0.6123636193 0.750793587 0.4574606448
0.6124667174 1.0018605539 0.9637935639
0.6224414534 1.0029931281 0.2148967147
0.6225261411 0.7500775918 0.2164192519
0.6223935865 0.7506503879 0.7169446213
0.6425197981 0.9996930412 0.7237951183
0.6525755397 0.9978249446 0.9731828504
0.6324456461 1.0003830002 0.9709828117
0.6325487441 0.750110137 0.966518298
0.6325966111 0.4975285148 0.9691141596
0.6325376979 0.7495308318 0.4659386181
0.6524908521 0.7486521104 0.9708355287
0.6524650776 0.498422207 0.9729895415
0.642615532 0.7482029862 0.2210936437
0.6425382085 0.498620082 0.2204805786
0.6525718577 0.7480272419 0.4726004089
0.6424866594 0.7477473529 0.7195542906
0.6725360581 0.7493681056 0.9742138308
0.6724771449 0.5004276444 0.9767452561
0.6825365686 0.9999143488 0.2279192868
0.6724292779 0.9983847227 0.4796580225
0.6826138922 1.0003764911 0.7295363908
0.6825770714 0.749010108 0.2301266896
0.672583925 0.7497065761 0.4753481559
0.6825807535 0.7491012347 0.729700243
0.6625171371 0.7507480236 0.2244277609
0.6626386455 0.7483006219 0.725519249
0.7026701444 1.000077075 0.2362168385
0.7025191794 0.4991681438 0.7333390518
0.6926107206 0.7483917486 0.9791293984
0.6926217669 1.0005457264 0.4828282874
0.702603867 0.9997971859 0.7352390015
0.6925370792 0.9997581317 0.9855085901
0.7026590981 0.7509042408 0.2372008726
0.7025412718 0.4988439932 0.2368437115
0.692478166 0.7503314446 0.4793634567
0.7027216934 0.7511646026 0.7355059518
0.7225202005 0.4993087392 0.7432677619
0.7324912545 0.7506308608 0.9989757725
0.7225717495 0.7500125013 0.2448577436
0.7224281487 0.4977420115 0.2412272195
0.7324728441 0.7476562262 0.4973724762
0.7225496571 0.7494331961 0.7413733353
0.7226122523 1.0007279797 0.7455819449
0.712475505 0.74804026 0.9909396479
0.7125638748 0.7500385375 0.4907926116
0.7424991292 0.4983336839 0.7477884272
0.7424880829 0.7505071889 0.2467751831
0.7424512622 0.5000729013 0.2476211394
0.7425064933 0.7498693023 0.7494085393
0.7524039058 0.5012933477 0.5012837584
0.7525880095 0.7499799561 0.0043609294
0.7624265088 0.5005851633 0.7538086167
0.7625038324 0.7496284675 0.2564415456
0.7624596475 0.4986558818 0.2524897606
0.752613784 0.7499148656 0.5013187381
0.7623970522 0.7493290513 0.7551525734
0.7823244319 0.7528829911 0.2626458388
0.7823833451 0.5010622765 0.2581030811
0.7723975628 0.7515616545 0.5078829539
0.7824680327 0.7508391503 0.7618475028
0.7724122911 0.9986385755 0.5086368584
0.7725411636 0.5011651194 0.5068897147
0.7724196552 0.7508782046 0.0075070767
0.7825048535 0.4995814683 0.7585870271
0.7723276034 0.5007823875 0.0075754712
0.7924354046 0.7515095821 0.5128914938
0.8125910728 0.5026836801 0.5182277383
0.8123443739 0.7505722793 0.018260203
0.8025611057 0.5017463774 0.76729513
0.8023659558 0.7517569259 0.2667596349
0.802377002 0.5026680584 0.2672419865
0.7924280405 0.500696468 0.5105855956
0.7923359887 0.7513598741 0.0118628772
0.8124069692 0.7512817655 0.5175134161
0.7925200923 0.5009067103 0.0119381756
0.8024580076 0.7512492203 0.7660073249
0.8324705855 0.5007687185 0.5262795117
0.8324153544 0.7497391213 0.024309573
0.822521624 0.5018114678 0.7704027997
0.8324521752 0.4999700584 0.0218998402
0.822470075 0.750253336 0.2731471113
0.8223117458 0.500696468 0.26943282
0.8324484931 0.7510669669 0.521736754
0.822521624 0.7511255484 0.7726829235
0.862612036 0.748183459 0.7829255303
0.8626414926 0.500027338 0.7834953311
0.8525084274 0.7486390923 0.0298906753
0.8525562943 0.5014502157 0.0296344951
0.862663585 0.7481053505 0.2859100972
0.8625936256 0.4980674639 0.2835811859
0.8525047453 0.7513208198 0.5305424318
0.8426367894 0.7506764241 0.2812136129
0.8424747782 0.5021317129 0.2782928084
0.842518963 0.750943295 0.778831065
0.8525231557 0.5016135928 0.530249707
0.8725278589 0.5002981144 0.5409673013
0.8825467798 0.7452153335 0.7926204288
0.8925546545 0.4982926769 0.5417617086
0.8726051824 0.7492509428 0.0393189917
0.8925693828 0.7487172009 0.0393744069
0.8826425137 0.4991954818 0.7928477968
0.872634639 0.5001946205 0.0368874427
0.8926209318 0.5007602567 0.0433722178
0.8826130571 0.7480728052 0.2931214373
0.8826167392 0.4982301901 0.2895535085
0.8726272748 0.7512427112 0.5381505154
0.89252888 0.74845033 0.5397522172
0.8824363176 0.9984823584 0.2907032358
0.8826682882 0.9987101751 0.7900705932
0.912574086 0.750246827 0.5446834336
0.9126440454 0.9992699531 0.0437745763
0.9126514095 0.5003287069 0.5455662106
0.9025883037 0.7493355604 0.7917606647
0.9126808661 0.7490751985 0.0450725071
0.9124599417 0.4988296733 0.0452220913
0.9027429508 0.7489059633 0.2930376702
0.9024631132 0.4996491624 0.2927817661
0.9225193654 0.4985986021 0.2991591167