POSCAR file written by Ovito 3.7.11
1
271.6134445295 0.0 0.0
0.0 15.3647766791 0.0
0.0 0.0 10.8645377811
Sr Ti O 
800 800 2400 
Direct
0.022442789 0.4989436879 0.7687611841
0.012549538 0.249532318 0.5215394381
0.0225780916 0.2504005375 0.7727125717
0.0026163404 0.2511307792 0.7756763425
0.0123100432 0.2471821374 0.02274583
0.0224444458 -1.2422311817e-04 0.2736835187
0.0023890689 9.1230349934e-04 0.2752123459
0.0026178499 0.4998483545 0.2731929318
0.01268959 0.4993758451 0.5226991745
0.0123062511 0.0019172644 0.5256739904
0.0224382974 -4.0811920668e-04 0.7701850827
0.0024010345 -0.0013016564 0.7718639392
0.0226218303 0.2458225341 0.2736043621
0.0026391302 0.2501538695 0.2770476748
0.0325838924 0.4978606913 0.019083272
0.0424357611 0.5013127428 0.2717174894
0.0325367666 0.4999199468 0.5236113164
0.0324605553 0.2476624567 0.5206898852
0.0424596921 0.2471801848 0.7727116513
0.0325135718 0.248584696 0.0210735085
0.0524139122 0.5016043188 0.0192795068
0.042424716 -0.0026168008 0.7715187796
0.0426562951 0.2502586546 0.2732490778
0.0525851114 0.2514184501 0.5208040179
0.0526204557 0.2513924166 0.0223568581
0.0625087733 0.2517640458 0.2696492928
0.0624995691 0.5018848305 0.7657237792
0.0722468774 0.5013472373 0.0175467133
0.0623099614 0.500951527 0.2680891712
0.0724331716 0.5007133198 0.5180933642
0.0723507015 0.2507584991 0.5147605027
0.0624255668 0.2512993466 0.7712251638
0.0723657964 0.2509029854 0.0137049484
0.0924969796 0.250418761 0.5129113674
0.1025414014 0.2507676109 0.7575577623
0.0824543987 0.2529192855 0.7651190595
0.0923714335 0.252192298 0.0093570414
0.1024703445 9.3866248968e-04 0.2624589271
0.0923644383 0.0021762334 0.5088660964
0.1024651901 0.251253137 0.2574573337
0.0824138999 0.2510839188 0.2639767091
0.1024224824 0.5004269506 0.7587487931
0.0823347433 0.5011526363 0.7652617255
0.1025156295 0.4991487022 0.2594159997
0.0823940187 0.5017078022 0.2635615971
0.1225477748 0.2497008853 0.25677898
0.1125037212 0.5011558905 0.0082750809
0.112466536 0.2488912413 0.5085936504
0.1224303285 0.5009469711 0.2542294007
0.1123730208 0.498570757 0.5076511344
0.1225374661 0.2484323996 0.755442624
0.1126196948 0.252338086 0.0069836316
0.1223784165 0.0022180823 0.2592530843
0.1523515278 0.2517015652 0.5037512906
0.1325215079 0.2505678032 0.5026615066
0.1424300749 0.2479982898 0.7503278182
0.1524174303 0.2514327686 0.0033621246
0.132545439 0.2516475456 0.0041053683
0.1424904548 7.5584536966e-05 0.2507207379
0.1426016422 0.2519645043 0.2538446628
0.1425165949 0.500016271 0.7543058982
0.1523415872 0.50164402 0.0026958284
0.1323598812 0.4991890543 0.0047923741
0.1524763375 0.5012164186 0.5011621331
0.1323631947 0.4985167373 0.505488134
0.1826151254 0.2517777134 0.2536670206
0.1725460362 0.5013752234 0.502997462
0.1825510638 0.4984236673 0.7540371339
0.1725143736 0.2506309346 0.5016748102
0.1624600112 0.2504545572 0.7497129739
0.1724919152 0.2496520724 0.0023731271
0.1825024653 0.5012886617 0.2531304124
0.1624139899 4.3536848407e-04 0.751451658
0.1626013886 0.248839825 0.2526481094
0.1825584272 0.2478733287 0.7524079804
0.1825400187 0.001723054 0.2550136035
0.1925571959 -9.0835426773e-04 0.0064429735
0.20249853 0.2493988959 0.2519136096
0.2025559645 0.4989677689 0.7532879074
0.1927096184 0.4992860293 0.0020297163
0.202500739 0.5001607573 0.2537958802
0.1926739058 0.4972860003 0.5053767625
0.1925277422 0.2492882532 0.5015339851
0.202496321 0.2506680325 0.751637584
0.1924669941 0.2517458223 0.0013141774
0.202550442 -0.0026421315 0.2529039877
0.2126088542 0.251127525 0.4990469948
0.2224868631 0.2503569313 0.7507493732
0.2125624648 0.2509875946 -0.0035855801
0.2225604971 8.0185607563e-04 0.7527623443
0.222450046 0.2504415404 0.2470381146
0.232497045 0.2499475534 0.4999075928
0.2326174367 0.2489263866 0.9978671111
0.2323969027 0.0015883953 0.4991942629
0.2226149863 0.5021627389 0.7493724163
0.2126519302 0.4997468235 0.0014428529
0.2125665147 0.501040692 0.5008031671
0.2423470729 0.501996124 0.7521392161
0.2625275909 0.2510006113 0.7452277393
0.2625091823 4.3914335182e-04 0.2489645656
0.2625095505 0.0025902322 0.7465108128
0.2524386205 0.2501428052 0.5013149238
0.2424763007 0.250528102 0.7500921893
0.2525417082 0.2500647045 0.9968178258
0.2625007144 0.2497249664 0.2484795013
0.2426390319 0.0020825776 0.2509434809
0.2625220683 0.502757606 0.2490105869
0.252530663 9.7029327808e-04 0.5018349643
0.2424416926 -2.9890837759e-04 0.7527973204
0.252489428 4.12328774e-04 0.9992661582
0.2424369064 0.2524142342 0.2517856705
0.2724696613 0.2505782167 0.4963667151
0.2725270959 0.2483738241 0.9973884898
0.2724232719 0.0026506952 0.4962636274
0.2725061102 0.0012175471 0.9963760215
0.2823793328 0.2501239308 0.7461849821
0.272473343 0.5008480436 0.4945000917
0.2825770402 0.2520803537 0.243452136
0.3124201874 1.2784693015e-04 0.4946998241
0.2924664623 0.5002336513 0.4937701941
0.2923626383 0.2470571762 0.4936781516
0.3025477011 0.2519814261 0.7430251606
0.29239651 0.2498746594 0.9949033403
0.2923722107 0.0015396475 0.4947495271
0.3024077964 0.0021125813 0.7453832913
0.3123719571 0.4999752681 0.4925662773
0.3024917392 0.2481785723 0.243037024
0.3125026575 0.2492049458 0.4949317714
0.3125173843 0.2485378356 0.9919763865
0.3224090155 5.5954861632e-04 0.2441516596
0.3325377482 8.4377012447e-04 0.4891017949
0.3224392054 9.7875418856e-04 0.7420762017
0.3323860621 0.0016410482 0.9907430161
0.3224844904 0.2507044795 0.2424902911
0.3223898706 0.501498232 0.7413370998
0.3225179939 0.5006846829 0.2409844747
0.332496145 0.2501148191 0.4925092109
0.3225448703 0.2500035256 0.7407793218
0.3324103613 0.2530845987 0.9893715818
0.3625230092 0.250694066 0.2400152664
0.352609656 0.501056963 0.4899467457
0.352354514 0.2511821955 0.4927816569
0.3424371109 0.2528145004 0.7372237173
0.3624567385 0.5017924113 0.7382610371
0.3524992049 0.2512498828 0.9947376637
0.3625414177 0.5031084083 0.2377013161
0.3424430017 -9.4304400069e-04 0.2396342101
0.3424418972 0.2513872099 0.2379958523
0.3624530568 0.2530930596 0.7367800721
0.3424971227 0.5001236595 0.7413463041
0.3424367428 0.5022245686 0.2389374479
0.38261038 0.2496071645 0.2356432442
0.3926246119 0.2518701326 0.4800309994
0.3924883889 0.2489517693 0.983333589
0.3925104791 -0.0014864948 0.9828457634
0.3825809264 0.5024107086 0.7330486662
0.3925288876 0.5004015678 0.9830206443
0.3725261959 0.2504591131 0.4873980869
0.3824594302 0.2513182209 0.7326031802
0.3725335593 0.2515857158 0.9854321597
0.3925141608 0.5012476589 0.482092753
0.3725482861 0.0030573396 0.483251569
0.4126273036 0.4985993939 0.9757308726
0.4025210292 0.2494054043 0.7338798106
0.4024805305 -0.0024673681 0.7333837012
0.4025541645 0.2488554451 0.2296411481
0.4126088951 0.2489081631 0.4794336431
0.4124800355 0.248734389 0.9781331837
0.412498444 9.0156465142e-04 0.4845512101
0.4126052134 -1.1627924886e-05 0.9826432697
0.4425705931 -0.0014098259 0.7229469939
0.442596365 0.2485573607 0.2233942187
0.422670989 0.4995437617 0.7243846989
0.4325710881 0.498501768 0.9740372893
0.4327257196 0.4981854601 0.4728525993
0.4425816382 0.5008597587 0.7196601537
0.4427104978 0.4996504993 0.2198754312
0.4327772634 0.248438908 0.4711498117
0.4226378537 0.2504805908 0.7284741504
0.4326299953 0.2489810571 0.9749024894
0.422461132 0.0019342513 0.2283645176
0.4326631307 0.0012296527 0.9744146638
0.4225531746 0.2492257727 0.2249488178
0.4425890016 0.2480822481 0.7234145702
0.4725801532 0.2509635135 0.4712289683
0.4626653274 0.2488951463 0.722834702
0.4725249277 0.2505463255 0.9760990429
0.4726464239 6.1623671653e-04 0.9768169749
0.4625732848 0.2501616795 0.222832759
0.4526879126 0.5001288662 0.9748380596
0.4526179602 0.5015249164 0.4745783975
0.4626248287 0.5022616665 0.7226441739
0.4727126945 0.4995860662 0.9756296258
0.462595375 0.4997025665 0.2240642887
0.4526400505 0.2517900794 0.4709556018
0.4527100028 0.2498206397 0.9713220334
0.4524817372 2.4103150903e-05 0.4756801471
0.482620157 0.2515883192 0.7229874927
0.4824434352 5.9293667075e-04 0.7235903715
0.4926122986 0.5010426445 0.974920898
0.4925938901 0.5010888541 0.4736892662
0.4826275204 0.2489738979 0.2232800859
0.4924061232 0.2484734025 0.4717287595
0.4926159803 0.2515011067 0.9674194283
0.482557568 0.501259374 0.2229432101
0.5024866257 0.2504376354 0.720592545
0.5124272235 0.2488814787 0.4683158209
0.5123904064 0.2527982294 0.9689749478
0.5024129916 7.0807013718e-04 0.7234909655
0.5025676232 0.2501057073 0.2205602279
0.5223199591 0.2526693632 0.2226735254
0.5222941872 0.2518030962 0.7245246036
0.5125082209 0.4996869463 0.4713937245
0.5224009566 0.5025154938 0.722575142
0.5424920092 0.5027393825 0.7278648286
0.5523994716 0.5021471187 0.9800108522
0.5425361896 0.5011253011 0.2287888339
0.5523921082 0.500145788 0.4812275529
0.5324299152 -6.4212107459e-06 0.4778597152
0.5323157824 0.2510656953 0.472328877
0.5323415543 0.2514308161 0.9710643142
0.5323341909 0.5004594925 0.9756664428
0.5523552912 -3.4947858868e-04 0.9799188096
0.5422637436 0.2521350242 0.2270510701
0.5524731057 0.2506224737 0.4803255357
0.5424515104 0.2522124741 0.726006489
0.5523663363 0.2490142499 0.9802777756
0.5723800731 0.2485267713 0.4843551595
0.5723395744 0.252151946 0.983904253
0.5624026583 0.4993856077 0.7305257793
0.5623805681 0.5024940161 0.2329666462
0.5724168901 0.5032528947 0.9843460573
0.5724905242 0.5003384364 0.48584809
0.5623842498 0.2512628996 0.233303522
0.5624799741 0.2520308899 0.7323426997
0.6024964026 0.5016069222 0.7357722059
0.5924527172 0.5005662302 0.9869416579
0.5923385844 0.4992118336 0.487458835
0.5825194828 0.2501297884 0.7351463164
0.6024816758 0.24984407 0.2394464433
0.5924085368 0.2484968327 0.4895656895
0.6025737184 0.2491795631 0.7375274578
0.59256685 0.2478199598 0.9887272837
0.5824826658 0.4986553661 0.7376618399
0.5824127135 0.5012567706 0.2369907475
0.5824237586 0.2490754288 0.2372990901
0.6124590906 0.5004113304 0.9867759812
0.6124259553 0.4989866433 0.4893521507
0.622392325 0.4977227134 0.7380300102
0.6124701357 -0.0011398578 0.4874376652
0.6225101395 0.4990966351 0.2374776527
0.6124590906 0.2496624858 0.4927908612
0.6124738174 0.2491925799 0.9937251954
0.6224954127 -0.0026705927 0.7440873319
0.6224180969 0.250341962 0.2442538268
0.6224365054 0.2489452609 0.7393342535
0.6425128312 -1.0456777229e-04 0.2407083469
0.6524865643 5.3657399018e-04 0.4910402115
0.6325722334 0.4995294432 0.4898050001
0.6424723325 0.2502560512 0.2431382708
0.6525233813 0.2496501199 0.4919541942
0.6425827836 0.2502339227 0.7420347825
0.632590642 0.001194963 0.4924512241
0.6524792009 0.2510982372 0.9902183734
0.6425238763 0.4989677689 0.7410149508
0.6524313388 0.5011018709 0.4882807752
0.632428647 0.2494385971 0.4937600695
0.6323145142 0.2488873362 0.992528642
0.6823635831 0.5003338805 0.7446644388
0.6624455706 -0.0015221608 0.2413130666
0.6824482623 0.4991194145 0.2429486631
0.6626333374 7.2349502782e-04 0.7398322038
0.6726659778 0.4991233195 0.4922459692
0.6624971144 0.247989178 0.2418524361
0.6625192046 0.2481961449 0.7443735843
0.672551845 4.4207212853e-04 0.993817238
0.6624787059 0.5003000369 0.7392431313
0.6624308438 0.4999947933 0.2403456992
0.6826912547 0.2484467181 0.2453647806
0.6724745292 0.2500536402 0.4916338861
0.6826581194 0.2486113804 0.7450252457
0.6726144339 0.2503478196 0.9932833911
0.7024914528 0.2488678111 0.2464195885
0.6924624941 0.2511106032 0.4992973506
0.7024178187 0.2500061289 0.7481178761
0.6924588124 0.2497373323 0.9968914599
0.6925214014 0.5004894311 0.9957041107
0.6924551307 0.5006827304 0.4993939953
0.7324715593 0.4968134909 0.9974345111
0.7324494691 0.4989033358 0.5019638239
0.7123473714 0.2502352244 0.4960003857
0.7124025969 0.2509225106 0.9995698987
0.7223505581 -0.0029924262 0.2449064086
0.732302201 -0.0015799553 0.4973046289
0.7324531508 -0.0010006433 0.999901252
0.7124651859 0.4981932702 0.9951978766
0.7223174228 0.2468098573 0.2498168799
0.732302201 0.249297365 0.494459593
0.7224389189 0.2515531739 0.7500222369
0.7324273789 0.2483315195 0.9958974001
0.7124430956 0.4966345101 0.4957399052
0.7124210054 1.9234510157e-04 0.4959921018
0.7123841884 -0.0015946643 0.9971859961
0.7524411157 0.4968297619 5.4292503215e-04
0.7424305656 -0.001636318 0.24931985
0.7423790217 -5.2064931604e-04 0.7449985533
0.7424342473 0.2486029195 0.2507299422
0.7424563375 0.2470168242 0.7504373489
0.7625400267 5.848011799e-04 0.2504832681
0.7525000229 9.1640378673e-04 0.5013140033
0.7625105731 3.9709913514e-04 0.7515483027
0.7523785267 -9.7571613192e-04 1.1474298762e-04
0.7624406207 0.2474880318 0.2473556615
0.7524153438 0.2486810202 0.498504864
0.7623743501 0.2485515032 0.7485946566
0.7524816144 0.2480113066 8.8649234032e-04
0.7824101771 -4.5621622856e-04 0.2494109721
0.7824764478 -1.9985064106e-04 0.7473806151
0.7723849002 3.7920105528e-04 -0.0024663332
0.782299726 0.2496201813 0.242312649
0.7724253989 0.2510975864 0.4956469422
0.7823880869 0.2485397881 0.743062898
0.7724327623 0.2489634844 -0.0033417133
0.7925201332 -5.7837512883e-05 0.4994096425
0.7925459051 -0.0019359188 -0.0021678392
0.812633276 0.4998067007 -5.8878441078e-04
0.7924096821 0.2479982898 0.4943647892
0.7923507749 0.2501128666 -0.0050173115
0.802497548 6.608228366e-05 0.2482144187
0.8124271007 -0.0019868665 0.4983410283
0.8025049114 -3.9288593758e-05 0.7478702816
0.8124786445 -2.9897346151e-04 -0.0017572649
0.8024644127 0.2491346552 0.2499374556
0.8124050104 0.2506654291 0.4972263927
0.8025159565 0.2497985112 0.7486913013
0.8125559603 0.2485000869 -0.0024354898
0.832521835 6.3524122314e-04 0.4994252898
0.8224339691 -0.0010369601 0.7485320677
0.8325071081 -9.683616482e-04 -0.0047086099
0.8225076031 0.2492400911 0.2462097315
0.8324739728 0.2492335827 0.4997870171
0.8225076031 0.249240742 0.7468044286
0.8325255167 0.2507409265 7.8174789349e-04
0.8224634227 -6.8316388115e-04 0.247838885
0.84252134 -0.0017747515 0.7480598893
0.8425397485 0.24911513 0.2502080608
0.8425139766 0.2498792153 0.7491312648
0.8624982598 -0.0012605885 0.2551627124
0.842594974 0.4986462543 0.7516918892
0.8523883037 -0.0010051341 0.50050679
0.8625424402 -0.0013535934 0.7548590741
0.8524324841 -0.0012481574 0.0020489532
0.8623178563 0.2490897472 0.2555041904
0.8424513876 -7.4304109377e-04 0.2469055733
0.8525245267 0.2495895918 0.5032579425
0.8624614427 0.2490936523 0.7557620117
0.8525318901 0.2494665832 0.0028557984
0.8724940831 -0.0042049918 0.505680503
0.8925446369 -0.002603719 0.5067454355
0.8723946771 -0.0044971145 0.0066518181
0.8825009515 0.2485033411 0.2586041842
0.8925372735 -8.6813240099e-04 0.0072664784
0.8725640354 0.2471639139 0.5069617356
0.8925593638 0.2468762429 0.5092766062
0.8824899064 0.2507578483 0.7553634674
0.8725014465 0.2474359647 0.0071788539
0.8924746846 0.2461381912 0.0090304743
0.902481553 -6.6780407444e-04 0.2594583393
0.9126062359 -0.0018679061 0.510307483
0.9025294152 -0.0016345607 0.7614299933
0.9025404603 0.2468215724 0.2569547813
0.9124368776 0.2477314457 0.5116964055
0.9024925981 0.2480002423 0.7606688012
0.9024520994 0.4976062132 0.7613397915
0.9123706069 0.2478804879 0.0086776752
0.9226094226 -0.0019015285 0.2621165287
0.9225652422 9.4458512701e-04 0.763762352
0.9225615605 0.2498694527 0.2682428823
0.9226020592 0.2501662354 0.7641885091
0.9425900241 0.0010114914 0.2667619173
0.9324874315 -2.1722804951e-04 0.5174067266
0.942505345 1.8941632486e-04 0.7657035299
0.932579474 0.0022158044 0.0197149602
0.9424501194 0.2491541803 0.2684094794
0.9326052459 0.2485749334 0.5179129608
0.9425237535 0.2500751179 0.7697037001
0.9325500204 0.2494828542 0.0147966653
0.9526484364 -5.1993339285e-04 0.5174453845
0.9526521181 0.0019150516 0.0214823616
0.9626553048 0.2507292114 0.2735233647
0.9524533062 0.2460281993 0.5188508746
0.9725885392 0.2503803615 0.5202342744
0.9626847584 0.2490493952 0.7729334739
0.9525968926 0.2497874469 0.0217112715
0.9725333136 0.2504089984 0.0199884186
0.9626221695 6.5287896729e-04 0.2660826432
0.9825733174 0.5012600248 0.7748129832
0.9826174978 0.5005297832 0.2733797783
0.9824444578 -7.2494776213e-04 0.2739633282
0.9924329177 0.0015386712 0.5246946575
0.9825512272 0.2506393955 0.2707390769
0.9924513262 3.3670488136e-05 0.0254774695
0.9925433688 0.2498225923 0.5246872941
0.9827169038 0.2497275697 0.7728681237
0.9924550079 0.2486764643 0.0261167972
0.0124020858 0.7486271086 0.0212144257
0.0026084248 0.4996967089 0.7729730522
0.0126742373 0.4983201839 0.0227166525
0.0225314076 0.7482300966 0.2701693334
0.002477982 0.7496749598 0.2717377388
0.0124529669 0.7508464705 0.5191849891
0.0225541237 0.7507032859 0.7720240933
0.0224787961 0.4973009696 0.2677200805
0.0025118537 0.7487702932 0.7755060638
0.0124288886 1.0011006773 0.0239207534
0.0524584608 0.9980742747 0.5173266496
0.0524897553 0.9991221259 0.0220644389
0.0324914816 0.7494862164 0.0213285585
0.0425896563 0.4987354193 0.7688615105
0.0424858322 0.7502737319 0.2718730414
0.032477123 0.7515038182 0.5218082024
0.0424740508 0.7495968591 0.7694616281
0.0524849691 0.7499678375 0.0235472447
0.0524971187 0.7500329214 0.5196470428
0.0524017626 0.4991975152 0.5185627813
0.0423348824 0.9988943322 0.2691025599
0.0325003177 0.9979766488 0.5207230205
0.0325198307 0.9974624858 0.0206257214
0.072384205 0.9994670707 0.513182893
0.0623453057 0.9998120155 0.7644858067
0.0724493711 1.0022526628 0.0135545508
0.0723308203 0.7510677559 0.0162191833
0.0625198184 0.7516860532 0.2685972462
0.0724972332 0.7503778662 0.517593573
0.0624170989 0.7511783985 0.7697193473
0.0624344029 0.9991481595 0.2673335017
0.0824069047 1.0026952335 0.2641101708
0.1024014967 1.001146236 0.7571905124
0.0823155985 1.0019532767 0.7624461433
0.0924829891 1.0016538906 0.008147694
0.0923121581 0.7511133146 0.0140296746
0.092372538 0.5007413059 0.0118424669
0.1023908197 0.7515493769 0.2617262682
0.0824937929 0.7503973914 0.2668861748
0.0923489751 0.7491282548 0.5140885919
0.1023889789 0.7490436457 0.7611336162
0.0823531518 0.7506707439 0.7645290667
0.0924019917 0.5010348344 0.5145175103
0.1125420109 1.0007036653 0.0061703434
0.1123645528 0.7482951806 0.0074120898
0.1224549959 0.4993790993 0.7554288176
0.1223213501 0.7479892861 0.257516241
0.1123078546 0.7479567442 0.5112619645
0.1223294498 0.7487963268 0.7574417886
0.1124698495 1.0016538906 0.5061977822
0.1224524187 1.0005279387 0.757777744
0.1524236892 1.0010095598 0.5043118299
0.1323970664 1.0017580249 0.5038746277
0.1424157162 1.0010551185 0.7540426564
0.1525308267 1.0000333009 0.0024229222
0.1324861636 0.9995061211 0.0026002882
0.15259857 0.7517511371 0.0028348127
0.1324081115 0.7511458566 0.0065515838
0.142356809 0.7499483123 0.2523747429
0.1525124182 0.7535474535 0.5009706845
0.1324180521 0.7510482307 0.5027010849
0.1425526756 0.5003996153 0.2538023232
0.1423155739 0.7488679191 0.7550542043
0.1725626039 0.7501565809 0.0029897203
0.1625086097 0.4996869463 0.7510595567
0.1725695991 0.4989853416 0.0022519071
0.1624857831 0.7508985376 0.2527604013
0.1824696982 1.0004368212 0.7553772737
0.1723571649 0.7513541251 0.5025878725
0.1625001418 0.4974623777 0.2501454718
0.1623790137 0.7507097943 0.753001655
0.1825937715 0.7506967775 0.2548065077
0.1826180708 0.7507163026 0.7519302794
0.1624692154 0.9999096414 0.2537921985
0.1724716658 1.0011852864 0.5016425953
0.1725449317 1.0010225766 0.0032761568
0.1924526355 0.9999552002 0.5044333261
0.20249853 0.9987446391 0.7539763858
0.1924577899 0.7510221971 0.0032014182
0.2026995509 0.7529031226 0.2523011089
0.1925733954 0.7504299334 0.5045373342
0.2026203943 0.7504299334 0.7538263564
0.2324145749 0.7525581778 1.0016316523
0.2325614748 0.5003989645 1.0000945414
0.232529444 0.7496684514 0.5034392663
0.2325854059 0.4977083949 0.4995486268
0.2224813405 1.0001244184 0.2514929751
0.2124840445 1.0008793919 0.5036868608
0.2124453866 1.0010225766 0.0014065881
0.2126430941 0.7516535112 -1.8360380497e-04
0.2322986012 1.0027928594 1.0016408566
0.2224713999 0.7520049644 0.2495738875
0.2125911821 0.7510156887 0.504508801
0.2225932643 0.5013101394 0.2498978773
0.2225678605 0.7494731996 0.7489913601
0.2524371478 0.7499743459 0.9977382515
0.2524540836 0.5004952887 0.9989440092
0.242595956 0.7535214199 0.2493732347
0.2525347129 0.7511458566 0.4978900197
0.2425499347 0.5022323787 0.2498721054
0.2425002317 0.7510221971 0.7507180787
0.2526411141 0.5009730047 0.5010627271
0.2624554295 0.5036212697 0.7464592689
0.2626667592 0.7524475351 0.2485577375
0.2625021871 0.7534758611 0.7475297241
0.2825829309 0.5012606757 0.7467501235
0.2823358887 0.7512434825 0.2464195885
0.2824327175 0.5024608233 0.2475830066
0.2824721117 0.7506186768 0.7457229284
0.2725841623 0.7511783985 0.9959158086
0.2725108964 0.5009248426 0.9948941361
0.2724796019 0.751633986 0.4944310598
0.2825162921 1.0037430847 0.2457946195
0.2825601044 1.0007166821 0.745343713
0.3126086906 0.9987251139 0.9962195491
0.2923659518 0.7531113912 0.9921236547
0.3023617751 0.5033290429 0.7453906547
0.2925268422 0.5009430661 0.9937067869
0.3024420363 0.7494601829 0.2417392237
0.2924955478 0.7494862164 0.4924236113
0.3025410741 0.4999212484 0.2451981836
0.3024265731 0.7511068062 0.7464224519
0.3023584616 0.999935675 0.2443311426
0.3125229069 0.7524149931 0.9931821442
0.3124743084 0.499886754 0.9882854794
0.312484249 0.7511783985 0.4926877735
0.2924436358 1.0016799242 0.9954648
0.332463746 0.7522457749 0.9880645772
0.3323312047 0.4993231272 0.9869140451
0.3224859631 0.7520440148 0.2378430617
0.3325535796 0.7529161394 0.4895187478
0.3226240269 0.7517706623 0.740436003
0.3324655869 0.4990732049 0.4870161102
0.3524686468 1.0041270799 0.4908487629
0.3424444743 1.0029946195 0.7398009093
0.3626003249 0.7537817556 0.2364679456
0.352562162 1.0027993678 0.9888285306
0.3625561445 0.7501565809 0.7359415643
0.3624825104 1.001692941 0.239778717
0.3524888961 0.751666528 0.9871901728
0.3624346483 1.0017319914 0.7375486276
0.3525190861 0.5017253749 0.9865274663
0.3425030134 0.7516404944 0.2383419324
0.3524425067 0.7513606335 0.486658985
0.3425586071 0.7522197414 0.7367901968
0.3926025217 1.0007687492 0.4816785615
0.3725630129 0.7513801587 0.9857266959
0.3726256018 0.5020533979 0.9873374409
0.3826030166 0.751087281 0.2342985022
0.3725482861 0.7501240389 0.4842907297
0.3825036107 0.5015620142 0.2328847283
0.3826287886 0.7493690654 0.7352116667
0.3824888839 0.9991091091 0.2351600207
0.3825809264 0.9993499196 0.7333735765
0.3727065993 1.0036259336 0.9846129808
0.3725151508 0.501676562 0.4839575356
0.3926209302 0.7484774156 0.979430984
0.3926503838 0.7494081157 0.4767432388
0.4124505819 0.7495968591 0.9819989717
0.4125389427 0.7499157703 0.4772016108
0.4126236219 0.4993153171 0.4769494141
0.4025173475 0.9983736607 0.2331166756
0.402535756 0.5017624727 0.7284189248
0.4026682973 0.7505796264 0.2286986322
0.4025173475 0.4994910437 0.230075589
0.4026241169 0.7481845379 0.7305405061
0.4325342711 0.7504038998 0.9762186982
0.4226378537 0.7485555163 0.2273870255
0.4326741758 0.7483212141 0.4731554193
0.4226194452 0.4982407815 0.2262742308
0.4228145755 0.7494601829 0.7285312168
0.4425853199 0.7482951806 0.2233159825
0.4425742748 0.7491152381 0.726235675
0.4324827272 0.999571205 0.4724807473
0.4225458112 0.9992588021 0.7273254591
0.4426110918 0.9986209797 0.2210093957
0.4526547773 0.9991026007 0.9734574211
0.4624481069 0.9973713683 0.2248024701
0.4726096069 1.0006776317 0.4753009317
0.4623891997 0.9996948645 0.7241831257
0.4525811432 0.7497660773 0.9725646081
0.4524927823 0.7489199863 0.4733938096
0.4726795592 0.7514322258 0.9747828341
0.4626653274 0.750787895 0.226873428
0.472484429 0.7516470028 0.4721328263
0.4625732848 0.7511914153 0.726447373
0.472694286 0.5009782114 0.4792375925
0.4825502046 0.9969938815 0.2231088868
0.4923766696 0.9987446391 0.4711507321
0.4924098049 1.0011397276 0.9741753531
0.4824876157 0.5018496852 0.7246102032
0.4924503037 0.7507097943 0.4716321148
0.4825722948 0.751119823 0.2290741658
0.492483439 0.7502932571 0.971414076
0.4825502046 0.7505535928 0.7288570475
0.5124971758 1.0012113199 0.4701115715
0.512408815 1.0012698955 0.9734021955
0.5023982648 1.0009509842 0.2195523618
0.5223972749 0.7496879766 0.7258527779
0.5223052323 1.0046607681 0.2214042583
0.522345731 1.0007296989 0.7202105683
0.5024571721 0.7518097126 0.2226946952
0.5026081219 0.4995561276 0.2219344235
0.5025676232 0.7493169982 0.7236198251
0.5025308061 0.49927106 0.7235682813
0.5124272235 0.7504624753 0.9713036249
0.5125229477 0.5006124398 0.9732457232
0.5124051333 0.7509571132 0.4708994559
0.5225114077 0.5007797054 0.2217659856
0.5223972749 0.7516470028 0.2249929982
0.5323231458 0.7507293194 0.4762544927
0.5323636445 0.5014533241 0.4757510198
0.5323268275 1.0003196702 0.9744606851
0.5423484227 1.0027928594 0.2261306444
0.5524178801 1.0021940872 0.4788335256
0.552370018 0.7495382836 0.9822382824
0.542307924 1.0008533583 0.7233602651
0.5424993726 0.7506382019 0.2276631532
0.5525025593 0.7518292378 0.4833049537
0.5424515104 0.7522848253 0.7291405386
0.5324262335 0.7522783169 0.9746815873
0.5623032523 1.0025129985 0.2291312322
0.5624321119 1.0005084135 0.7340528507
0.5623879315 0.7504494585 0.2339920005
0.562505746 0.7523238756 0.7327762202
0.5724095267 1.0022982215 0.4835709568
0.5723579829 1.0046607681 0.9862237258
0.5724831608 0.7500329214 0.9845301425
0.5724573889 0.7486726673 0.484559494
0.6025258563 0.9991807014 0.2411869683
0.5925815768 0.7493690654 0.9859383938
0.5923974917 1.0007947828 0.4883507275
0.6024853575 0.9984127111 0.7386172418
0.5923938099 1.0001244184 0.9867299599
0.6024706307 0.7498506864 0.2362893831
0.6024374954 0.4987061315 0.2395035097
0.592430627 0.7498571948 0.4861665573
0.6024522222 0.7522848253 0.7371951841
0.5823611696 0.9996297805 0.2392623581
0.5824642573 0.9985493873 0.7369218176
0.5825084377 0.749362557 0.2364835929
0.5825710267 0.7511068062 0.734148575
0.6124443638 0.7511002978 0.9880645772
0.6124517272 0.7485294827 0.4875600818
0.6125069528 0.9986339964 0.9895004414
0.6224217786 0.9994800875 0.2410084057
0.6225138212 0.749844178 0.2358862366
0.6226242723 0.7509571132 0.7351555207
0.6424944227 1.0004368212 0.7401221379
0.6525196996 0.9998836078 0.9914885609
0.6326458675 1.0009509842 0.990954714
0.6324360104 0.7522197414 0.99131368
0.6325869603 0.497878264 0.9888745519
0.6324176019 0.7505926432 0.4864850246
0.6525601984 0.7514257175 0.9897949776
0.6524166119 0.5002603357 0.9922341057
0.6425312397 0.7480738952 0.2369686572
0.6424060618 0.4989970567 0.2392991752
0.6526154239 0.7489264947 0.4875573205
0.6425864653 0.7501240389 0.7399049174
0.672489256 0.748483924 0.9918475269
0.6725297548 0.5001080393 0.9920500206
0.6827427985 0.9999942505 0.244641326
0.6726438875 1.0001699771 0.4924677918
0.6825366232 1.0007687492 0.7448448422
0.6825623951 0.7507683698 0.2424212592
0.6725444816 0.7504038998 0.4928313599
0.6825771219 0.7514322258 0.7460275893
0.6626186106 0.7508139285 0.2419822161
0.6625633851 0.7505145425 0.7375136514
0.7023883651 0.9991937182 0.245056438
0.7023994102 0.5019401519 0.7489296916
0.6924440856 0.7494992332 0.9962839789
0.6926171257 1.0004953968 0.4949989625
0.7024619991 0.9993954784 0.7474984296
0.6925324465 0.9994670707 0.9953083276
0.7024914528 0.7495838423 0.2477680122
0.7024030919 0.5004165371 0.2465318805
0.692550855 0.7497986193 0.49551256
0.7023699566 0.748998087 0.7489361346
0.7224094653 0.4983279939 0.7481795446
0.732412652 0.7499938711 0.9982076687
0.722339513 0.7472147874 0.2480367765
0.7224315555 0.4977949566 0.2501160182
0.732339018 0.7511002978 0.5011961888
0.7223616032 0.7500394298 0.7503278182
0.7223247862 0.9982825432 0.7456787479
0.7124615042 0.7481064372 0.9963484087
0.712340008 0.7505535928 0.497235597
0.742574152 0.5001138969 0.7484878872
0.7424894728 0.7485880582 0.2503249548
0.7425226081 0.4985238965 0.2499595458
0.7423790217 0.7458935837 0.7476779126
0.7525478851 0.4977864957 0.5035708872
0.7524521608 0.7497205186 1.6487542104e-05
0.7624700743 0.4991805934 0.7528553073
0.7624406207 0.7482951806 0.2501574374
0.7625216182 0.500753021 0.2508845737
0.7524079804 0.750423425 0.5016039374
0.7624663926 0.7486466338 0.7496190904
0.7824469941 0.7507944034 0.2476069377
0.7825132648 0.5004660009 0.2455967279
0.7726021206 0.7491868304 0.4988859203
0.7824874929 0.7477614924 0.7470382167
0.772473261 0.9988813154 0.4958098575
0.7724953513 0.4991519564 0.4950136893
0.7725321683 0.7502151564 -0.0012246329
0.7824654026 0.4984698769 0.7462935923
0.7723959453 0.4996797871 -8.6298843676e-04
0.7924943613 0.750905046 0.4985103866
0.81253387 0.5008525994 0.4975393375
0.8124491909 0.7483862981 -0.0052550483
0.8025527735 0.5003416906 0.7462264012
0.802497548 0.7475922742 0.2504142361
0.8024938663 0.5000455587 0.2474053645
0.79253486 0.5012300862 0.4966023441
0.7925459051 0.7492584227 -0.004027679
0.8125559603 0.7465574397 0.4989061697
0.792461226 0.4998008432 -0.0030568139
0.8025196382 0.7477484756 0.7490769597
0.8325476069 0.500036447 0.4994133242
0.8325512886 0.7484383652 -0.0014117555
0.8225849189 0.5004477774 0.7476337322
0.8324371558 0.4991317804 8.7222574167e-04
0.8225444202 0.7501565809 0.2482797689
0.8225444202 0.4992020711 0.2495471951
0.8324297924 0.7500133962 0.496628116
0.822559147 0.7514387342 0.74864528
0.8625829389 0.748998087 0.7596995929
0.8625534853 0.4992821243 0.7566603472
0.8524877097 0.7495643171 7.999355057e-04
0.8526791582 0.4989892466 0.0023202947
0.8625718938 0.7476117993 0.257044983
0.8625534853 0.4998314326 0.2544263719
0.8525871156 0.7489915786 0.5010259101
0.8424108889 0.7503518327 0.2496797364
0.8425544753 0.4995209823 0.2526361438
0.8425250217 0.7492323891 0.7475223606
0.8525797522 0.5001282153 0.5040301796
0.8725971708 0.4977194592 0.5074606063
0.882482543 0.7479111854 0.756873886
0.8925704089 0.4979121076 0.5102237243
0.8726266244 0.7472603461 0.0076022497
0.8924967748 0.746479339 0.0091679859
0.8826224477 0.4990224394 0.7591639051
0.872556672 0.5004861769 0.0077424306
0.8925078199 0.4969768516 0.0076124665
0.882556177 0.7497335354 0.2614031988
0.8826114026 0.4997839214 0.2577076895
0.8726523963 0.7483147058 0.5051862343
0.8925888174 0.7494471661 0.5119596472
0.8825635405 0.9987055888 0.2570505056
0.8824714979 0.9986990804 0.7587184191
0.912580464 0.7495773339 0.5104713188
0.9125068299 0.9989463993 0.0081036977
0.9125546921 0.5002245395 0.5136744003
0.902753999 0.7498506864 0.7598312138
0.9126688249 0.7514777846 0.0088419711