POSCAR file written by Ovito 3.7.11
1
271.6041128947 0.0 0.0
0.0 15.3642488021 0.0
0.0 0.0 10.8641645158
Sr Ti O 
800 800 2400 
Direct
0.0225212253 0.4979094324 0.7600049028
0.0126570153 0.251525112 0.5138405525
0.0226351043 0.2516292499 0.758566228
0.00267252 0.2515563534 0.7602405399
0.0126069056 0.2484920968 0.0126558556
0.0226282193 -2.4313580235e-04 0.2620411623
0.002564311 4.868055143e-04 0.2581991733
0.0024726335 0.5008077193 0.2603705322
0.0126062429 0.5001340775 0.5128648677
0.0124894185 0.0018689753 0.5122030589
0.0224246877 -4.6770848958e-05 0.759902732
0.0025249523 3.3632630573e-04 0.7601282441
0.022545194 0.250612604 0.2588370503
0.0025800693 0.2515941034 0.2614999334
0.032471001 0.5015399386 0.0138628513
0.0424443404 0.5000299396 0.2610857276
0.0325203375 0.498607807 0.5103547805
0.0325022965 0.2491787558 0.5108048841
0.042495886 0.2509946598 0.7593329689
0.0324536964 0.2507733668 0.0063958252
0.0523672387 0.5007934003 0.0132293925
0.0423585538 0.0017323594 0.7593164007
0.0423835902 0.2534705374 0.2624599704
0.0523687115 0.2494332427 0.5121809679
0.0523326295 0.2486099028 0.009734416
0.0623431554 0.2501999577 0.2588711072
0.0625957289 0.4989729403 0.7620473976
0.0724527225 0.4996420261 0.009072331
0.0625077332 0.5002479783 0.2640910208
0.072389395 0.5014292921 0.5106419632
0.07254035 0.2498387295 0.508574616
0.0623814464 0.2480521144 0.7610440991
0.0724022814 0.2499877769 0.0069379745
0.0925886473 0.2477911189 0.5066591443
0.1025682458 0.2485500235 0.7542317943
0.0824709802 0.2514444052 0.7565633128
0.0926158929 0.2503581171 0.0057794869
0.1025572003 -7.442992565e-04 0.2536576368
0.0926140519 -0.0011326684 0.5048697752
0.1024438 0.251694336 0.2547483787
0.0824809212 0.2486320321 0.2552242552
0.1024371727 0.5000715948 0.7542594081
0.0824985939 0.4980278893 0.7544609882
0.102534373 0.498875962 0.2539328535
0.0825379895 0.4993706168 0.2560213713
0.1224928337 0.2519982884 0.2486641557
0.112416403 0.5006352409 0.0029362862
0.1124848851 0.2517802498 0.5013499463
0.1224114652 0.500188099 0.2471757762
0.1124230303 0.5011630897 0.5015966289
0.1224199334 0.2486522088 0.7538857024
0.1125401125 0.2509933581 0.0020935155
0.1223245741 -4.4477273494e-04 0.2477354143
0.152596207 0.2494599281 0.4949223927
0.1325099868 0.248533752 0.4977675263
0.1425569628 0.2494111134 0.7463351908
0.1524805975 0.2507017721 -0.0055057987
0.1325158777 0.2516494266 -0.0024724408
0.1424148442 2.6544747436e-04 0.24513052
0.1424332533 0.2485728037 0.2457969311
0.1424781717 0.5020137659 0.7488839372
0.1524743384 0.4987360267 -0.0015443896
0.132463964 0.5007576029 -3.917653462e-04
0.1524677111 0.5002082757 0.4977638445
0.1324422412 0.5003469092 0.4996922026
0.1823571701 0.2506646729 0.244558916
0.1723911944 0.5016004687 0.4967890802
0.1825088615 0.4979152902 0.7448311635
0.1724353763 0.2504049792 0.4930409779
0.1624012867 0.2488988853 0.7417918134
0.1725137993 0.2505924273 -0.0094505936
0.1824319113 0.5012808957 0.2444677907
0.1624451005 -8.7199830806e-04 0.7426459978
0.1625261008 0.2499239924 0.24289657
0.1824123976 0.2507694617 0.7425198951
0.182395093 -2.1443280453e-04 0.2481643474
0.1924129825 -5.4253215158e-04 -0.0078624116
0.2024533312 0.2470575978 0.2392165815
0.2024941995 0.5014624861 0.7385315535
0.1922362547 0.5000338448 -0.0082760351
0.2024301357 0.5001490473 0.2381019077
0.1923319823 0.5008545813 0.4919134176
0.1924954555 0.2495673202 0.4894042509
0.2024783676 0.2478770326 0.7383410188
0.1924766781 0.2497261305 -0.0089830537
0.2025181314 -0.0023211743 0.2401913459
0.2126225439 0.2483092047 0.4881229743
0.2225093603 0.2473088304 0.7380096541
0.2126218075 0.2492965618 -0.0130491399
0.2225616423 2.5698627318e-04 0.7367348207
0.2224802739 0.2501159966 0.2354684792
0.2324366769 0.2506529574 0.4871426872
0.2326156138 0.2507102333 0.9843442891
0.2325412408 -0.001188252 0.4849151805
0.2225999333 0.4988499275 0.7349528153
0.21253013 0.4990412808 -0.0115925714
0.2124936799 0.4986214751 0.4883586114
0.2425955805 0.4988421172 0.7438711265
0.2624277544 0.2495744797 0.7442632413
0.2625326865 -7.0908764238e-04 0.2446601663
0.26249955 0.001342298 0.7467319079
0.2524643559 0.250043751 0.4899325934
0.2424541982 0.249385079 0.7410167883
0.2525807017 0.2502494232 0.9946073885
0.2623798906 0.2495660185 0.2432932871
0.2424306345 1.5881700593e-06 0.2414726225
0.2625227456 0.4992463022 0.2462221824
0.2524360058 8.8786644994e-04 0.4936061387
0.2424865983 -4.5824557066e-04 0.741972223
0.2524717196 3.5643793006e-04 0.9907782859
0.2423047159 0.2496148331 0.2405052218
0.2726234762 0.2506848497 0.4943590728
0.2725133896 0.2531359946 0.998178763
0.2723495481 -1.7180136784e-04 0.4978632539
0.2724515348 0.0012755847 0.9944601153
0.2825018244 0.2509172073 0.7466463054
0.2722468251 0.5006755944 0.498282062
0.2825559473 0.2485780106 0.2485380531
0.3123864971 2.5952463354e-04 0.5008998427
0.2923871681 0.5020495633 0.5038443857
0.2924247228 0.250937384 0.4988647115
0.3025173535 0.2502806646 0.7529569609
0.2924585956 0.2487719673 1.0027350268
0.2924063136 -0.0012119433 0.4993000878
0.3024477669 -4.0962620699e-04 0.7522739816
0.3125057884 0.5012906586 0.5004810346
0.3024507123 0.2492620661 0.2496738974
0.3124715473 0.2501758759 0.5028696214
0.3124141108 0.2499994924 1.0022195707
0.3223233864 -0.0012614739 0.2497567386
0.3324929673 2.5828799644e-04 0.4958262818
0.3224728686 9.9675560043e-04 0.750075009
0.332542672 -0.0021867974 0.9982063767
0.3223086591 0.2475828431 0.2531937263
0.3226113054 0.5003111119 0.7496166212
0.3224920142 0.4995190133 0.249995137
0.3323029849 0.2481178514 0.4979783111
0.322457405 0.2479388644 0.7535184399
0.3324937036 0.2502754577 1.0009309304
0.3625182858 0.2480456058 0.2399188905
0.3524805144 0.498861643 0.4959827596
0.3524433279 0.2459075253 0.4947852446
0.3423131426 0.2484452348 0.7452545739
0.362599286 0.4993966513 0.7419041092
0.3525431055 0.2481588557 0.9941471598
0.362448331 0.4977903248 0.2426176714
0.3424471612 1.5258806793e-04 0.2455852259
0.3424618885 0.2506731341 0.2441014487
0.3625514223 0.2485682476 0.7407636625
0.3424953931 0.4959516407 0.7446848108
0.3425307387 0.4984353286 0.2442036194
0.3826763016 0.2467660118 0.2429158996
0.3925914681 0.2478718257 0.483911882
0.3926614228 0.2460578743 0.9861207718
0.39263565 -0.0017250826 0.9876395264
0.38245171 0.4983344451 0.7399674669
0.3926835138 0.496495761 0.9907230585
0.3725291799 0.2468681971 0.4913031544
0.3826394833 0.2479232438 0.7390875097
0.3725107707 0.2481562522 0.9882930511
0.3925251952 0.4964456446 0.4904655382
0.3724739524 -0.001389954 0.4909469374
0.4125801197 0.4993328668 0.9823561012
0.4026023621 0.2494020014 0.7331505598
0.4025360892 -9.5224954689e-04 0.7357526927
0.4026391804 0.2499389622 0.2350146938
0.4126463927 0.2484120408 0.4826526963
0.41266112 0.2503848024 0.9797143887
0.4125248923 -0.0013898238 0.4820277058
0.4125653924 -0.0013078153 0.9782140432
0.4424618469 -0.0031712451 0.7293094913
0.4424728924 0.2503691818 0.2274807504
0.4225799683 0.4987067379 0.7272633147
0.4324730438 0.4992697333 0.9786834764
0.4325577259 0.5015425421 0.4756958797
0.4425943928 0.500926827 0.7274556903
0.4424692106 0.4992157117 0.2258690296
0.4324730438 0.2512361295 0.4769651904
0.4225284227 0.2497892641 0.7278441233
0.4325466804 0.2495009324 0.9791068868
0.4224474225 2.6395049261e-04 0.2269450443
0.432598226 -0.0019045122 0.9812515524
0.4224842407 0.2499793157 0.2299880762
0.44256862 0.2524597493 0.725519048
0.4724393016 0.2474292398 0.4851701472
0.4625977717 0.2484126917 0.7322402275
0.4724908473 0.2474246838 0.9853844059
0.472454029 -9.8908831508e-04 0.9817854177
0.4624578622 0.2499591389 0.2312767165
0.4525684685 0.5001334266 0.9812975753
0.4524359227 0.499317897 0.4813695788
0.4624578622 0.500160112 0.7311789402
0.4725092564 0.4998847975 0.9849149726
0.4625572716 0.4976588507 0.2285770151
0.4525647867 0.251195776 0.4805163148
0.4525905595 0.2495276177 0.9811410975
0.4523401951 0.0016148789 0.483004311
0.4823250135 0.2487361699 0.7373542885
0.4825017413 -2.663715625e-04 0.7321997274
0.4925789083 0.4951296024 0.98346065
0.4924095442 0.4999941422 0.4839698708
0.4825348778 0.250029432 0.2337647127
0.4923948168 0.2493980962 0.4882803725
0.4923211802 0.2494391005 0.987151684
0.4823728773 0.497464894 0.2344329647
0.5024130746 0.2495523504 0.7385674513
0.512545469 0.2478288688 0.4926433403
0.512501287 0.2480859592 0.99122931
0.5025493022 -4.52387816e-04 0.7359294205
0.5024719838 0.2494358462 0.2404094943
0.5223796352 0.248533752 0.2468885935
0.5225195447 0.2502669965 0.7430012943
0.5124534232 0.4998880518 0.4942440156
0.5224127717 0.4993341686 0.7449913231
0.5423277868 0.5002779179 0.7506171584
0.552334999 0.5001451421 1.0040236671
0.5423093776 0.5002095774 0.2491188616
0.5524380902 0.500253836 0.5058399372
0.5324531204 -5.6934765069e-04 0.4987883135
0.5325635753 0.2501303155 0.4992448604
0.5324273476 0.2502917292 0.9978934212
0.5324126203 0.5011598354 1.0001945645
0.55235709 7.4057646335e-04 1.0064720836
0.5424198325 0.2492894023 0.2531403398
0.5524233629 0.2493082773 0.5073918283
0.5424713781 0.2519221376 0.7552571838
0.5523828628 0.2501784793 1.0073096998
0.5723788781 0.2517197196 0.5113332267
0.5724193782 0.2504023757 1.0132098314
0.5623863932 0.5005506289 0.7598005613
0.5623569385 0.5021452399 0.2579276384
0.5725114239 0.5002512326 1.0085707263
0.5725261513 0.4991916299 0.5089427989
0.5624600298 0.2505227851 0.2581034458
0.5623790295 0.2505943799 0.7570217006
0.6024446967 0.5000052069 0.7618099197
0.5926952125 0.5004159006 1.0100526627
0.5925148029 0.4982563417 0.5132201642
0.5823676812 0.2493967945 0.7613349637
0.602481515 0.250706979 0.266512744
0.5923859389 0.2508488668 0.5146864528
0.6024078784 0.2498289666 0.7641929837
0.592404348 0.2508182763 1.0151888146
0.5824560451 0.5002193404 0.7607707233
0.5824965452 0.5017143695 0.2603696117
0.5824854997 0.2498901476 0.2629726651
0.6125770911 0.4993237548 1.0138449469
0.6124592726 0.501698098 0.5127001058
0.6225253941 0.499774151 0.7634225609
0.6123709087 6.7379806024e-04 0.5165706289
0.6225033031 0.4994610866 0.2616021041
0.612536591 0.2497020486 0.5132864371
0.6125108182 0.2483020452 1.016109272
0.6223449845 -3.8274562172e-04 0.7645492007
0.6224922576 0.2489652732 0.2650114781
0.6225106668 0.2505442635 0.763485152
0.6424993184 3.9880902209e-04 0.2550420046
0.6525175762 -2.6682716564e-04 0.5076477155
0.6326025611 0.498344208 0.508131876
0.6425361367 0.2500815009 0.2601201678
0.652521258 0.2486580665 0.5044380807
0.6425766369 0.2495061392 0.7569977687
0.6325988793 -7.9610784215e-04 0.512167161
0.6524954852 0.2484810322 1.0067298117
0.6425582277 0.4991115739 0.7595704469
0.6526390765 0.5007641116 0.5055674819
0.6323595604 0.2497248288 0.5110349985
0.6324331969 0.2508976814 1.013734492
0.6825097582 0.5012737362 0.7520972538
0.6624953338 3.9138919952e-04 0.2544216164
0.6824103488 0.5019402185 0.2507701621
0.6623885607 0.0028211858 0.7576420888
0.6724767732 0.5028911274 0.502933133
0.6625026974 0.249592053 0.2544372642
0.6625247884 0.2509302245 0.754164601
0.6726608646 -1.5605051643e-04 1.0037843482
0.6623738334 0.4997064614 0.7540044414
0.6625137429 0.4995691296 0.2552168915
0.6825613038 0.2517125602 0.2496987498
0.6724436367 0.2492549067 0.5063673593
0.682579713 0.2528522189 0.7482948445
0.6724730913 0.2490271051 1.0054779897
0.7024063641 0.2510818753 0.2440931645
0.6924691067 0.2529778352 0.4997750438
0.7024174096 0.2505689963 0.7457737118
0.6924654248 0.2494286867 0.9987678556
0.6925096068 0.501491124 0.9990808111
0.6925022431 0.5022910329 0.4961410782
0.732575274 0.4978183118 0.9887993026
0.7325384557 0.4998431423 0.4901304918
0.7124982584 0.2483957693 0.4920312362
0.7124724856 0.2508534228 0.9939354546
0.722542289 0.0013382627 0.2370875637
0.7325237284 0.0021700639 0.4860399793
0.7325053192 0.0010362629 0.9876119127
0.712465122 0.498631238 0.9899958972
0.7224060613 0.2496714581 0.2389993536
0.7325384557 0.2496597426 0.4838879501
0.7226453802 0.249173549 0.7396664774
0.7325126829 0.2503359878 0.9866086142
0.7125093039 0.4978274239 0.4896665813
0.7125424404 -2.3014399508e-05 0.4902262193
0.7125903042 7.1317518878e-04 0.9893423725
0.752405607 0.5001099956 -0.014790185
0.7424131221 -0.0011176986 0.2324236064
0.7424720313 -4.7291538261e-05 0.7318435104
0.7425198951 0.248392515 0.2333256546
0.7425088496 0.2507694617 0.7334478676
0.7624790921 0.001164027 0.2311496934
0.7524939709 4.0232367489e-04 0.4813309196
0.7625416832 0.0014195553 0.7335546406
0.7525860166 2.7586126042e-04 -0.01453219
0.7625122286 0.2537907613 0.2323140719
0.7524571526 0.2503568154 0.4852916475
0.7624496375 0.252541107 0.7311780197
0.7523430159 0.2494006997 -0.0163755439
0.7825008803 0.0016291328 0.2370958478
0.7825450622 0.0025822545 0.7367651958
0.7724163496 0.0027092376 -0.0152837711
0.7825119257 0.2530526843 0.2368887449
0.7725083953 0.253091736 0.4865158558
0.7824751074 0.2520737884 0.736340865
0.7724789407 0.2507102333 -0.013513842
0.7925780472 0.0023560801 0.4880373718
0.7925706836 7.5222688651e-04 -0.0138286753
0.812607199 0.500898189 -0.008694344
0.7925044107 0.2494189238 0.4870524824
0.7925964564 0.2506978669 -0.0105764233
0.8026331233 2.8490823706e-04 0.2405834607
0.8125593352 0.0014670031 0.4913436546
0.8024490318 9.0888928055e-04 0.7404820026
0.812607199 2.3847637763e-05 -0.0082806783
0.8026294414 0.2512771337 0.2388971828
0.8123384255 0.250880759 0.4884451344
0.8026368051 0.2528437577 0.7391749531
0.8125593352 0.2513545863 -0.0102046598
0.8324559412 9.8891983559e-05 0.4948321879
0.8225518201 9.5230175119e-04 0.7423201559
0.8325258959 4.1916165743e-06 -0.0054296217
0.8224634562 0.2535082874 0.2387075686
0.832437532 0.2508293409 0.4931127736
0.8224855472 0.2499278976 0.7397419549
0.8326216235 0.2515609094 -0.0124858108
0.8225518201 1.771906375e-04 0.2439339254
0.8425110172 4.324585683e-04 0.7406725372
0.8425331081 0.2496161349 0.2417275892
0.8425183808 0.2514437543 0.7430841355
0.8625438508 6.7920021176e-04 0.2465876039
0.8424741989 0.4996862847 0.7451247894
0.8525660932 6.836657317e-05 0.4933944335
0.8625733054 6.8171314681e-05 0.7469749087
0.8524961384 0.0017888542 -0.0034819247
0.8625475326 0.2497873115 0.246241512
0.8426398812 4.0850686036e-04 0.2407095634
0.8524777293 0.2502852206 0.4938344121
0.8626653511 0.2488058121 0.7448431295
0.8526286843 0.2514177199 -0.0075539986
0.8725878813 0.0036343073 0.4977877764
0.8925838966 0.0021359587 0.498583972
0.8725768358 0.0011703404 -0.003573455
0.8826797756 0.2490733163 0.2538279214
0.8924292598 7.5743377954e-04 -0.0014729437
0.8724553354 0.2491305921 0.4962800673
0.8926501695 0.2507310608 0.498259971
0.8826098208 0.2517158145 0.7508334658
0.8724737446 0.2495751306 -0.0044149003
0.8926501695 0.2516038663 -0.0028862784
0.902631609 0.00190653 0.2525346788
0.9125578209 7.1180837936e-04 0.4995191567
0.9024659266 -0.0014853703 0.7508049317
0.902587427 0.2510636511 0.2480879494
0.9125946392 0.2510656037 0.5030196559
0.9026242453 0.2515179525 0.752168129
0.9024916994 0.4994799616 0.7497261557
0.9125615028 0.2509979141 0.0021887828
0.922524533 0.001155696 0.2508824579
0.9224840329 0.0020239454 0.7502278049
0.9226018515 0.2500040484 0.2505280818
0.9226386698 0.2512927544 0.7494730299
0.9425684121 -8.75968564e-04 0.2527537477
0.9324102449 1.2980791093e-04 0.5005721599
0.9426935943 0.002158088 0.7529680064
0.9326311547 5.9803776666e-04 0.0032126996
0.9426346851 0.2511463106 0.2587045044
0.9325206998 0.2497912166 0.5064676891
0.9427046398 0.2505598842 0.7539409298
0.9326532456 0.2511755993 0.0059574113
0.9525940335 -0.0013178385 0.5063093705
0.9524614877 -1.187561451e-04 0.0061452767
0.9626491095 0.249610928 0.2619095369
0.9525719425 0.2512836424 0.5106336791
0.9727041855 0.2495282685 0.512513253
0.9626564732 0.2479993946 0.761520896
0.9525314424 0.2508026556 0.0069900724
0.9725569124 0.2509087461 0.0140185006
0.9626307004 -0.0020496283 0.2590864942
0.9824352606 0.501448818 0.7608268712
0.9825604428 0.5027342697 0.2638949634
0.9826451248 0.0013357894 0.2591840627
0.9926192006 0.0010952961 0.5117501938
0.9825641246 0.2505377549 0.2624387998
0.9926597007 5.0467878379e-05 0.0116838526
0.9925602913 0.2502214362 0.5091526632
0.9825825337 0.2489190621 0.7653150212
0.9925750186 0.2506523066 0.0130141896
0.0125749842 0.749820219 0.0103953964
0.0024787453 0.5021146494 0.7626825132
0.0126029293 0.501157232 0.0102124095
0.0224853275 0.7488959955 0.2626551073
0.0025410419 0.7526709929 0.2584136399
0.01253997 0.752566855 0.5093505615
0.0224731406 0.7509657354 0.7642325634
0.0224710788 0.5010615553 0.2605527827
0.0026399358 0.7519290106 0.7604126654
0.012471672 0.9996209121 0.0119191215
0.0524313026 0.9994061277 0.51123934
0.0524662799 0.999809662 0.0124829016
0.032366437 0.7501521584 0.0128361731
0.0425363861 0.501491124 0.762201114
0.0423600265 0.7496184519 0.2635672805
0.0323638598 0.7492474607 0.5124506619
0.0425003042 0.750464572 0.7649081791
0.0524802709 0.7498918137 0.0163997237
0.0524173116 0.7522739673 0.5154854097
0.0524515526 0.5023554682 0.512805038
0.0424406586 1.0001090583 0.2607249083
0.032523283 0.9997966447 0.5097960629
0.0323981008 1.0015865142 0.0096093258
0.0725083181 0.9989244901 0.5101697686
0.0624097965 1.0009356526 0.7612990658
0.0725027954 0.9988789298 0.0090529094
0.0723286448 0.749208409 0.012381007
0.0623862328 0.7495338399 0.261972128
0.0725782729 0.7471972466 0.5121736042
0.0624823286 0.7499308654 0.7597177201
0.0621958822 1.0009812129 0.2656521164
0.0823723072 0.9997510844 0.2589125278
0.1025479958 0.9999528515 0.7542575672
0.0825343077 1.0003043168 0.7608222689
0.0925091198 0.9999528515 0.005220217
0.0925544063 0.7509462096 0.006385516
0.0923552193 0.4990152464 0.0074838057
0.1024493227 0.7522934932 0.2566822596
0.0825136894 0.7496119432 0.2572980456
0.0925440972 0.7477439704 0.5035535212
0.1024581591 0.7492409521 0.7567418815
0.0824728211 0.7515710367 0.7560745499
0.0925308426 0.4994012073 0.5073099076
0.1125202306 0.9985925507 -8.1264446611e-04
0.1124627941 0.7504840978 -5.6342143602e-04
0.1224306107 0.4985947897 0.7489925512
0.1225642611 0.7517012091 0.2500558872
0.1124469622 0.7514083213 0.5007111489
0.122421038 0.7516231057 0.7503741576
0.1125559444 0.9995232828 0.5035848168
0.1225414338 0.9995688432 0.7469021925
0.1525538659 1.0000309549 0.4930621484
0.1323675 0.9999268171 0.4974315594
0.1424634443 1.0014433246 0.745349381
0.1525428204 0.9995493173 -0.0030136789
0.1324952595 1.0007989716 -0.0063874128
0.1524861203 0.7495273312 -0.0039468846
0.1323443045 0.7496575036 1.4931629809e-04
0.142402326 0.7505426754 0.2459092269
0.152499743 0.7478090565 0.490525368
0.1323490909 0.7500284947 0.498326244
0.1424800126 0.5003208748 0.2485362121
0.1424645489 0.7489610816 0.7458629962
0.1724629901 0.7494427192 -0.0054065182
0.1625489281 0.5005415169 0.7454773246
0.1723322851 0.5003742454 -0.0035390667
0.1624292687 0.7510959078 0.2435077537
0.1825077569 1.0011569455 0.7454791655
0.172360267 0.7507444425 0.4935509113
0.1624428914 0.4992183152 0.2423737502
0.1623471639 0.752007114 0.741982348
0.1823280837 0.751584054 0.2456717489
0.1822791153 0.7513497438 0.7435719779
0.1625537145 1.0004214719 0.245098304
0.1724449491 1.0003563857 0.4937570937
0.1725038584 0.9991457831 -0.0076553823
0.192410037 1.0006427648 0.4903329924
0.2024665858 0.9968222071 0.7409348676
0.1923971506 0.7482451338 -0.0065025896
0.2024665858 0.7483557803 0.2414210769
0.1923433959 0.7490326764 0.4940709697
0.2024599585 0.7480433667 0.7411741865
0.2325423454 0.7488439265 0.9872345251
0.2324874861 0.5011207837 0.9908611271
0.2324543496 0.7502758221 0.487136244
0.2325327726 0.5010023269 0.486445901
0.2224419828 0.9992434123 0.2381589761
0.2125430164 0.9976683272 0.4891354774
0.2125669483 0.9983126802 -0.0094472891
0.2123644477 0.7484534095 -0.0121793538
0.2324650269 1.0011244024 0.9879248682
0.2224243101 0.7499959516 0.2371556776
0.212487789 0.7468392727 0.4887590103
0.222456342 0.5004764307 0.2365316075
0.2225093603 0.7477179359 0.7350844407
0.2524308512 0.7488569438 0.9952609132
0.2525122197 0.5006176677 0.9951504583
0.2424829165 0.750412503 0.2393620138
0.2524798196 0.7513302179 0.4911273471
0.2426294533 0.498673544 0.2457729992
0.2425477167 0.749904831 0.7409864132
0.2524072875 0.5023522139 0.4945072664
0.2624299635 0.4963135197 0.7449526639
0.2625499911 0.7492279349 0.2456662261
0.2622440311 0.74873328 0.7464143501
0.2823784832 0.4997669915 0.7458657576
0.282317733 0.7499373741 0.248765406
0.2824859926 0.5000344957 0.2471012191
0.2822175872 0.7521372864 0.747398319
0.2725181759 0.7514864247 0.9939998866
0.2724183984 0.5038902 0.999623881
0.2724990304 0.7508095286 0.4962101125
0.2824370243 0.9978831115 0.2492422029
0.2824156696 1.0028426771 0.7494150411
0.3124443018 0.9988203523 1.0010321807
0.2924736911 0.7515905626 0.9990716066
0.302470226 0.4996146899 0.7496368713
0.2922947542 0.5019922874 1.0008296801
0.3022979164 0.7509071579 0.2484165527
0.2924162546 0.7505947443 0.4995394067
0.3023262665 0.4999186423 0.2524748491
0.302484217 0.7491823746 0.747551115
0.3024352487 0.9999658687 0.2532581583
0.3124674973 0.7530159496 0.9961169385
0.3126199251 0.5007296159 1.0017501374
0.3124726519 0.751447373 0.4987588589
0.2925259731 0.9993670761 0.997055805
0.3324624081 0.7489740988 0.9975896703
0.3325408311 0.5006983745 0.9975620565
0.3224783914 0.7490977626 0.249252328
0.3325717584 0.7486096163 0.4939485488
0.3225623371 0.7521828467 0.749966395
0.3325198446 0.500348211 0.4993958154
0.3525655646 0.9961778541 0.4925577378
0.3426110026 0.9984233267 0.7450760052
0.3625440586 0.7507965114 0.2435178787
0.352558201 0.9992694468 0.9938710226
0.3626508316 0.7493971589 0.7431494879
0.3626397862 0.9964772504 0.2441106532
0.3526804377 0.7504906064 0.9930334064
0.3626471498 1.0000830238 0.7430519195
0.3526288921 0.4994383064 0.9931806796
0.34267838 0.7505817271 0.2446389958
0.3524974508 0.7476203067 0.4952648028
0.3424210202 0.7479522461 0.7469104766
0.3926540592 0.9980978959 0.4873921312
0.3724592251 0.7492409521 0.9905757853
0.3724481796 0.4980298418 0.9943036375
0.3826394833 0.7477114273 0.2427529787
0.3726469984 0.7470410398 0.4899712527
0.3823596643 0.4972195191 0.2375220196
0.3826284378 0.7466700487 0.7411649819
0.3826505288 0.99765531 0.2357805143
0.3825695285 0.9983126802 0.7389457593
0.3726249074 0.9977203961 0.9899038514
0.3724518614 0.4987568543 0.4942624248
0.3926061954 0.7493776331 0.9889281667
0.3925325588 0.748173539 0.485733467
0.4126942565 0.7489480644 0.9785730216
0.4125653924 0.7499373741 0.4831663115
0.4125433014 0.5000266853 0.4831791979
0.402606044 0.9989960849 0.2331443245
0.4025765893 0.4987145483 0.7318177376
0.4025324074 0.7475747463 0.2331378813
0.4025581802 0.4952174688 0.2330053354
0.4024845436 0.7496314691 0.7351829296
0.4324767257 0.7500219861 0.9778826785
0.4225173772 0.7492019004 0.2297745301
0.4324619983 0.7494947882 0.4736635099
0.4225689228 0.4989195697 0.2289884596
0.4224400588 0.7480954357 0.7305290973
0.4423698012 0.74831022 0.2294229154
0.4424250286 0.7486812111 0.7263953234
0.4324730438 0.9983191888 0.4771879411
0.422565241 0.9988008264 0.7308420528
0.4424728924 0.9999593601 0.2276593192
0.4524580137 1.0019314709 0.9800457533
0.4624873169 0.9973103533 0.233628485
0.472409847 0.9985274645 0.4812269079
0.4625683171 0.9988333695 0.7308945189
0.4524543318 0.7492669866 0.9787202947
0.4524764228 0.7465138419 0.4807188154
0.472560802 0.7492344435 0.9860839535
0.4624689077 0.7510438388 0.2292756422
0.4725239837 0.7479587547 0.4870985053
0.4625241352 0.7507704769 0.7324804669
0.4723840742 0.4983826089 0.4828782084
0.4825275141 1.0002912996 0.2347100224
0.492369044 0.9997510844 0.4859101949
0.4925273627 0.9991457831 0.9857802025
0.4823765591 0.4972891613 0.7357849087
0.4923948168 0.7496965553 0.4875081088
0.4825127868 0.7517272435 0.2354684792
0.4925089535 0.7490782367 0.9860379306
0.4824575594 0.7502302618 0.7319788176
0.5125049689 0.9985404818 0.4941446062
0.5125344235 1.0000830238 0.9887808935
0.5025566659 0.9977724651 0.2353405357
0.5224900901 0.7487267714 0.7455850181
0.5225011356 1.0005841873 0.2425329894
0.5224937719 0.9977724651 0.7439953882
0.5024793475 0.7486551767 0.2384958634
0.5025640296 0.4955194685 0.242616751
0.5023431198 0.7477049187 0.7384809283
0.5024425292 0.4994187806 0.7386125537
0.5124313323 0.7506272874 0.9903180572
0.5125086507 0.4999869828 0.9927848829
0.5124129231 0.7499438827 0.4914071661
0.5223685897 0.4963284896 0.2429103769
0.5223244078 0.7489350472 0.2447328824
0.5323463473 0.7494492278 0.4955197695
0.5323978929 0.5008819175 0.4983437326
0.5325120297 0.999894274 0.9998539953
0.5424124688 0.9993475502 0.2506118434
0.552508045 1.0012741006 0.5025124839
0.55235709 0.7500675464 1.0024220713
0.542430878 0.9997771189 0.7494058365
0.5424824236 0.74831022 0.2538463306
0.5524675448 0.7497160811 0.50614737
0.5425192419 0.7520136227 0.7544784769
0.5323168927 0.7506207788 0.9995318352
0.5624305751 0.9998812567 0.2569482718
0.5622464837 0.9986771627 0.7586048872
0.562434257 0.7523715966 0.2593745974
0.562345893 0.7507118994 0.755253502
0.5725592877 1.0005451356 0.5082681037
0.5725003784 1.0022503931 1.0100066398
0.5722463322 0.7524431913 1.0125102838
0.5724156964 0.7506207788 0.5108518275
0.602459424 1.0035586249 0.2649129892
0.5925184847 0.7513497438 1.0127311935
0.5925405757 0.9990546625 0.5146735664
0.6023600146 1.0005060839 0.7677312217
0.5924853483 1.0013196609 1.0177200723
0.6024115603 0.7502172446 0.2620190713
0.6024667877 0.5020768995 0.2609522612
0.5925221666 0.7490587109 0.5129633566
0.6024851968 0.7496900466 0.7630037528
0.5822719536 0.9989375074 0.261766866
0.5825149543 1.0030900046 0.7602801195
0.5824044995 0.7516556488 0.2581770823
0.5824928634 0.7530875443 0.7579467602
0.6125513183 0.7496119432 1.0096660706
0.6124960909 0.7487593145 0.5105572811
0.6124924091 1.0010202646 1.016238136
0.6224812122 0.999503757 0.2629284832
0.6226726673 0.7504710806 0.2613250465
0.6225290759 0.7496249605 0.7603307447
0.6424588183 1.0008445319 0.7565393809
0.6523776666 1.0000830238 1.005708104
0.6326430612 0.9986706541 1.0096292523
0.6324773789 0.7510373302 1.0097949346
0.632517879 0.500221293 1.0083866349
0.6325252427 0.74976815 0.5109438732
0.6525323035 0.7505556926 1.0061223098
0.6525654399 0.4984932553 1.0058185589
0.6427018191 0.7492344435 0.2555988813
0.6425987278 0.4985140829 0.2550825048
0.652477076 0.7484013406 0.505672414
0.6426060915 0.7497811673 0.7561638343
0.6724951823 0.7496119432 1.0036094613
0.6724988642 0.5024251104 1.0042905997
0.6826680769 0.9993996191 0.2515948919
0.6725909099 1.0004214719 0.5014604012
0.6825686675 0.9990156108 0.7516462297
0.6825392128 0.7498267276 0.2522787917
0.6725540916 0.750327891 0.5039382724
0.6824398035 0.7508941407 0.7510424097
0.6624548336 0.748700737 0.2520495978
0.6624953338 0.7522869845 0.7551283198
0.7025020917 0.9977464306 0.2427796719
0.7025315463 0.5009105554 0.7450327437
0.6925169704 0.7502562963 0.9981235355
0.6926605618 1.0012415575 0.496555284
0.7026199102 1.0003759116 0.7447022995
0.692439652 0.9991718176 0.9956014824
0.7024689552 0.7505882357 0.2445294613
0.7024468643 0.5003774997 0.2450145423
0.6925022431 0.7524106482 0.4978420834
0.702516819 0.7525212947 0.7438407514
0.7225864709 0.4988037163 0.7406927873
0.7323911825 0.7493776331 0.9867374782
0.7224870615 0.7491888832 0.2399326974
0.7224907433 0.5008851718 0.2376067017
0.7325274102 0.7489610816 0.4856745578
0.7224944252 0.7513237093 0.7407912762
0.7225017888 1.0003303513 0.7355732036
0.7125534859 0.7497160811 0.9900603292
0.712549804 0.7509852613 0.4920505658
0.742435213 0.5010446329 0.7374085955
0.7424057584 0.7511219422 0.2362296975
0.7425935317 0.4985030183 0.2362149702
0.7425346224 0.7505752185 0.7376617213
0.7525823348 0.49879135 0.4846648161
0.7525234255 0.750633796 -0.0120006654
0.7624201829 0.4994435133 0.7377887444
0.7624017737 0.753178665 0.2355080589
0.7623428645 0.5014260378 0.2337831219
0.752534471 0.7522479328 0.4854959891
0.7623907282 0.7512521146 0.7355998968
0.7825892442 0.7508746148 0.2385418863
0.7826002896 0.5032588642 0.2405365174
0.7725857138 0.752228407 0.4896628994
0.7825266531 0.7536993543 0.7372180608
0.7724494861 1.0014563419 0.4840149732
0.7723832131 0.5027694162 0.4867468906
0.7726041229 0.751278149 -0.0119329934
0.7825119257 0.5021667184 0.7385858604
0.7725047135 0.5014006542 -0.0126269354
0.7926369565 0.7498722879 0.4888105559
0.8124267894 0.5023255286 0.489909582
0.8125188351 0.7516947005 -0.0088532895
0.8025778958 0.4995509055 0.7358999659
0.8026220778 0.7513432352 0.2430539682
0.8024637591 0.4990432334 0.2411338942
0.7925412289 0.502502563 0.488734158
0.7925633199 0.7515450023 -0.0118053351
0.8125077896 0.7514213386 0.4950328476
0.792474956 0.5021452399 -0.0129462788
0.8025410775 0.7493320727 0.7422179851
0.8325590324 0.5031371531 0.4941832655
0.8325479869 0.7510828905 -0.0053713199
0.822533411 0.5014039085 0.7440220815
0.8325038049 0.5008213874 -0.0063988264
0.822577593 0.7511740112 0.2455410439
0.8223787742 0.5009860554 0.2427741492
0.8325185323 0.7531461219 0.4957848612
0.8226107294 0.7502107359 0.7457764732
0.8625254416 0.7530745271 0.745339256
0.862451805 0.4999661552 0.7471249432
0.8525845023 0.7502823307 -0.002822012
0.8525219112 0.5003618791 -0.0034846677
0.8624444414 0.7483362545 0.2492247142
0.8624223504 0.49842882 0.2472043104
0.8525992296 0.7499243568 0.4957544861
0.8424594716 0.7511609939 0.2438731752
0.8425036535 0.5006508616 0.2425734895
0.8424152896 0.7496770294 0.7447179473
0.8524298655 0.4992469531 0.4933824676
0.8725400175 0.4985238458 0.5002766931
0.8824441385 0.7495598743 0.7482911627
0.8926170331 0.5004217583 0.5028438486
0.8724995174 0.7510047871 -0.0019938398
0.8924476689 0.7482776769 -0.0010452072
0.8826245482 0.4982667555 0.7500418725
0.8725841995 0.4988369103 -0.0013521153
0.8926096694 0.5005747108 -7.2413328805e-04
0.8824478203 0.7485965991 0.249294669
0.8824146839 0.5002440731 0.2481496201
0.8724626991 0.7487593145 0.4977564809
0.8926243967 0.7485835819 0.4976202532
0.8824920023 0.9986185852 0.246424683
0.8825987753 0.99911324 0.7497372011
0.9125099572 0.7499503913 0.5002628862
0.9125688664 1.0012090145 0.0012241435
0.9125762301 0.5007113918 0.5022878924
0.9024916994 0.749293021 0.750970614
0.9125835937 0.7506858649 0.0018414022