POSCAR file written by Ovito 3.7.11
1
271.6063667827 0.0 0.0
0.0 15.3643763012 0.0
0.0 0.0 10.8642546713
Sr Ti O 
800 800 2400 
Direct
0.0224973532 0.5028624657 0.7620930865
0.0124556151 0.2497900387 0.5077222084
0.0223992333 0.2495381573 0.765532807
0.0025537117 0.2515584151 0.7621906541
0.012559405 0.2524331658 0.0090133541
0.0224040196 5.2310295335e-04 0.2610370854
0.0025260614 5.441256095e-04 0.2608263024
0.0026791138 0.5005766586 0.2584202469
0.0125678732 0.5021810192 0.5104900007
0.0126139325 3.6913351278e-05 0.5071147116
0.0226146185 6.7891793426e-04 0.7623535737
0.0026461985 0.0017110457 0.7593032034
0.0224807851 0.2497184445 0.2648910083
0.0025546322 0.2508268527 0.2599040118
0.0325499894 0.4991721109 0.0143977088
0.0425803139 0.5001275678 0.2643838405
0.0325363668 0.5017208639 0.5184344021
0.0324483718 0.250789103 0.5121596964
0.0424669145 0.248376379 0.7672733774
0.0324903443 0.2497822284 0.0162123753
0.0526393565 0.4979608674 0.0130377443
0.0425320824 -0.0010818434 0.7651673885
0.0426370136 0.2463222767 0.2639825245
0.0525325843 0.2489458782 0.5151465557
0.0525940704 0.2503029134 0.0177864364
0.0624848547 0.2479559258 0.2642605003
0.0623762416 0.4993068381 0.7661145312
0.0723925753 0.4984359925 0.0132421762
0.0624042233 0.4985505432 0.2643157273
0.0724536932 0.495654233 0.5128886926
0.0723288802 0.2493741416 0.5168116493
0.0625452362 0.2504259252 0.7631967057
0.0725240155 0.2481186399 0.0167439351
0.0923593385 0.2516619012 0.5087558734
0.1023314906 0.2524709155 0.7574641449
0.0824578769 0.2479995332 0.7634792837
0.0923505022 0.2507474482 0.0086510651
0.1024308992 0.0018279395 0.2536863741
0.0924064655 0.0021008435 0.5077654696
0.1024710308 0.2498694431 0.2582370774
0.0824505133 0.2508346629 0.2643387385
0.102487967 0.5009548061 0.7548316587
0.082408909 0.4999088801 0.7641392462
0.1023521087 0.5006449985 0.2539045207
0.0823463184 0.4997344507 0.2637349235
0.1224683529 0.2487343499 0.2544227338
0.1123673378 0.5000377497 0.0044275816
0.1124402374 0.2500328081 0.5023348163
0.1224797664 0.5005089696 0.2528266741
0.1124766872 0.4998197128 0.5053676981
0.1224131259 0.2514672952 0.7505340791
0.1124387647 0.2511893796 0.0023741504
0.1226240929 9.7245409294e-04 0.2504878114
0.1523490957 0.249191251 0.4935270331
0.1324117869 0.251409369 0.4986511766
0.1423832027 0.2481121313 0.7477285484
0.1523870182 0.2485840021 -0.0039826409
0.1323922734 0.2479175253 -1.6525067452e-04
0.1424214934 -0.0023127297 0.2483321181
0.1424476341 0.249485438 0.2486561164
0.1424262797 0.4968101536 0.7460045461
0.1524065318 0.5005382581 -0.0027408714
0.1324633321 0.4986319002 8.7295216049e-04
0.1523925409 0.4985147461 0.494763197
0.1324268823 0.4994825693 0.4995983193
0.182572614 0.2492576383 0.2385164425
0.172500317 0.4990256682 0.4918582578
0.1824452238 0.5013160313 0.7410249132
0.1724664444 0.2502059358 0.4925973789
0.1625289012 0.2499260676 0.7484059994
0.1724590808 0.2497802758 -0.0055706836
0.1825884457 0.4993595575 0.2406841016
0.1624335427 -6.9237105183e-04 0.7443854751
0.1624405381 0.2490090112 0.2444340136
0.1824908781 0.2496429452 0.7410801402
0.1825052371 9.3928356822e-05 0.2360726485
0.1924880664 8.8823329708e-04 -0.0102844078
0.2024996137 0.2509134165 0.2392178252
0.2024808366 0.4978319979 0.7421892821
0.1925749569 0.5002662002 -0.0089806617
0.202553368 0.499393402 0.2423915358
0.1924943255 0.4996277102 0.4901830393
0.1925145754 0.249987899 0.4924022435
0.2024075688 0.2504311321 0.7407984826
0.1924564029 0.2500093772 -0.0107771245
0.2023935779 0.0010830997 0.2382559552
0.2123381165 0.250386223 0.4859443684
0.2224284544 0.2499429899 0.7348026732
0.2122655851 0.2491333247 -0.0141455931
0.2223632865 -0.0011916429 0.7372547512
0.2224840495 0.2473187376 0.2379227524
0.2324959651 0.247335009 0.4865178086
0.232401711 0.2484356069 0.9908110312
0.232379252 6.2522229547e-04 0.4888631144
0.2224008409 0.5006599682 0.7408886866
0.2123745664 0.4986475208 -0.0126106511
0.2124482023 0.4987972177 0.4881276751
0.2424648035 0.5012971565 0.739947987
0.2624543939 0.2509218777 0.7447923138
0.2625040982 0.001245293 0.2431895656
0.2624926846 -0.0014635706 0.7420668622
0.2524840827 0.2495309979 0.4941050755
0.2424570718 0.2493376936 0.7377444304
0.2524104467 0.2501135142 0.9895408107
0.2624691211 0.25193461 0.2451933847
0.2424813716 -8.5684242057e-04 0.2393678585
0.2624521848 0.502018956 0.2434822687
0.2523868832 -0.0012470958 0.4915830433
0.2424298265 2.6588457217e-04 0.7382957798
0.252427383 -0.001570311 0.994640102
0.2425675257 0.2499657699 0.2387502367
0.2724298596 0.2495811138 0.4963518932
0.2724618912 0.2477945135 0.9925138632
0.272535159 0.0016889817 0.4963518932
0.2723827326 3.1274622057e-04 0.9996565529
0.2823600392 0.2493936672 0.7487925882
0.272686481 0.5009365821 0.4977123179
0.2823471529 0.2525887205 0.2474576909
0.312347186 -4.941853305e-04 0.5021562491
0.2924993449 0.5000097628 0.4959054751
0.2924665769 0.2496702811 0.5009725507
0.3023290114 0.2492426686 0.749053996
0.2925140721 0.2509296879 0.9964717969
0.2924371225 0.0015461839 0.4997400686
0.3025381376 0.0014314379 0.750488977
0.3123309861 0.498777692 0.5014732754
0.3023879202 0.2507461465 0.2504749251
0.3123339315 0.2497470822 0.5019040458
0.3125058715 0.249657264 1.0028965359
0.3225347233 2.6965953829e-04 0.2493897149
0.3325046663 -0.0011892998 0.4977353291
0.3224599828 -0.0030505859 0.7493494603
0.3323986305 -1.1694906094e-04 0.9945572615
0.3225203643 0.2511412162 0.2481922098
0.3223793514 0.4984314365 0.750984179
0.3224677146 0.4999830777 0.2499088485
0.3326640882 0.2500490795 0.5015146956
0.3225439278 0.2497216988 0.7492822675
0.3324269804 0.2476181315 0.9995368944
0.3625525629 0.2496898068 0.2440492657
0.3525480109 0.4982062402 0.4921205859
0.3525388064 0.2513123914 0.4957259874
0.3426653265 0.2488938097 0.7459263079
0.3625157449 0.4973991785 0.7404174164
0.3525885107 0.249394969 0.9948886234
0.3625599265 0.4988460319 0.245077408
0.3425972133 -0.0027659339 0.2468649213
0.3425055365 0.2475829852 0.2495102938
0.3624973359 0.2481733118 0.7416802734
0.342510691 0.5007855835 0.7482808182
0.3425081137 0.498266119 0.249240602
0.3825115942 0.2496475012 0.2336334568
0.3926034048 0.2484544817 0.484981578
0.3924671782 0.250666742 0.9842390204
0.3924855872 -0.0010498213 0.9879668417
0.3827067296 0.4988844324 0.7340948474
0.392489269 0.5003677338 0.9813027858
0.372651737 0.2488671246 0.4892220898
0.382533685 0.2486347689 0.737679999
0.372614919 0.2484264949 0.9913448921
0.3925518596 0.5007042264 0.4817940607
0.372743782 -0.0021650114 0.4881525273
0.4125256182 0.4992293862 0.9782653018
0.4025442616 0.2460729988 0.7324868217
0.4026142158 -2.9515349608e-04 0.7318995748
0.4024890346 0.2474046506 0.2316434446
0.412418846 0.2499957093 0.4800185132
0.412474073 0.2484753091 0.9816433522
0.4125440272 -5.5588650089e-04 0.4813522448
0.4125329818 -0.0011551949 0.9835302741
0.4425690966 3.4359680576e-04 0.7267109998
0.44243287 0.2488912062 0.2307248358
0.4225290656 0.4999531384 0.7290167263
0.4325435584 0.4994519791 0.9804743811
0.4324551952 0.4973829071 0.4826233859
0.442506506 0.4977434815 0.7272954854
0.4425727784 0.499502095 0.229722466
0.4326613759 0.2484583868 0.4785117371
0.4225143384 0.2487506213 0.7320845852
0.4325730128 0.2499397356 0.9770963307
0.4226395196 -4.6190286161e-04 0.2313801959
0.4323521048 -2.8500013893e-04 0.9788175716
0.422521702 0.2483034831 0.2300473848
0.4423629158 0.2464530988 0.7314089751
0.4725094845 0.2491554539 0.4807668388
0.4622630384 0.2497646553 0.7287985798
0.4724358486 0.2506075141 0.9801246102
0.4723843034 -9.8890114916e-04 0.982306076
0.4623293108 0.2482852591 0.2296239779
0.4523810904 0.4970737504 0.9793330234
0.452425272 0.4975879268 0.4799982633
0.4625833549 0.4975443195 0.7305594
0.4724137578 0.4969370706 0.9809161969
0.462362447 0.499076435 0.2323162933
0.4524179084 0.2466913122 0.4785798503
0.4523774086 0.2487083156 0.9775381465
0.452480499 -0.0025837527 0.4758976599
0.4825018865 0.2490129163 0.7306054225
0.4824392959 -0.002806326 0.7351818985
0.4923948799 0.5031202048 0.9887124059
0.4924942885 0.4990692756 0.4880752095
0.482328842 0.2480698257 0.2349220864
0.4924501069 0.2492511297 0.4833045187
0.4925973789 0.2488293749 0.9845335643
0.4826049769 0.49938429 0.2355710034
0.5024645997 0.2496806948 0.7383749385
0.512250821 0.2513768262 0.4901839598
0.5122839572 0.2507487499 0.9904980783
0.5023246914 2.7649352868e-04 0.740480007
0.5024130545 0.2500620966 0.2354449018
0.5225046307 0.2501851084 0.2426023187
0.5223720859 0.2492895302 0.7489039627
0.5123833657 0.5000377497 0.4896077582
0.522261632 0.5011350933 0.7456888318
0.5424747075 0.4998769882 0.7520334916
0.5525002456 0.5008981816 1.0073146944
0.5424452531 0.5000540211 0.2536403516
0.5524266097 0.5016121709 0.5068993264
0.5324381239 1.8303057439e-04 0.4970726053
0.5322724429 0.2503549819 0.4966123805
0.5323497607 0.2503289476 1.0001535957
0.5324933509 0.4984509622 0.9996657574
0.5525149728 -4.8716185389e-06 1.0067808336
0.5424562985 0.2521825862 0.2545331878
0.5525002456 0.2535467808 0.50838033
0.5424342077 0.2496689794 0.7515134376
0.5524376551 0.2513625073 1.0069189011
0.572440868 0.2495772087 0.5145022409
0.5725365948 0.2506042598 1.0130951186
0.5623564211 0.5002785665 0.7564129913
0.5623858755 0.4991721109 0.2588086767
0.57240405 0.5002655493 1.01334364
0.5723819593 0.5010023186 0.5128067726
0.5624447842 0.2513559988 0.2622078974
0.5626251924 0.2517946759 0.7627337195
0.6024843464 0.4999934914 0.7637710663
0.5923004909 0.4986403613 1.0182496369
0.5924845808 0.5008311434 0.5132430658
0.5825658148 0.2502222072 0.766320712
0.6025800732 0.2469158576 0.2633188802
0.5925398078 0.2493363919 0.5141165725
0.602528528 0.2481284027 0.7651011161
0.592536126 0.2493565684 1.0137210244
0.5823927702 0.5008675914 0.7638437818
0.5823559522 0.4990738316 0.2662275013
0.582451679 0.2502183021 0.2644565561
0.6124914756 0.4995906114 1.0123127363
0.6125724751 0.4968088519 0.5125269559
0.6224912412 0.5016811616 0.7609388425
0.6126755655 -0.001843599 0.5104016375
0.6225280591 0.5021953381 0.2612938909
0.6123037038 0.2499508002 0.5123944111
0.612392067 0.2516645046 1.011751262
0.6225943315 7.9099537666e-04 0.7598481096
0.6224986048 0.2502143969 0.261328868
0.6224912412 0.2495264419 0.7623333238
0.6425349539 -5.3034979387e-05 0.2616721957
0.6525310377 0.0014633299 0.5058279229
0.6325130975 0.5034000729 0.5089979517
0.6424686815 0.2502287158 0.2582840203
0.6523837658 0.2516397721 0.5109759981
0.6424392271 0.2514991871 0.7596419289
0.6324762795 0.0023333945 0.508251467
0.6524574017 0.2527260511 1.0091832073
0.6424760451 0.5025650244 0.7558818919
0.6524905379 0.5009873489 0.506018456
0.6324946885 0.2503120254 0.5115485178
0.6324615524 0.2507643705 1.0087966185
0.6824824711 0.4996550462 0.7522700472
0.6625528941 0.0015750819 0.257667319
0.682629743 0.4990510516 0.252151064
0.6626081211 -0.0013168025 0.7551179186
0.6726704772 0.4980539399 0.5027536209
0.6625823485 0.2507298751 0.2556137958
0.6625455305 0.2497360176 0.7568907047
0.6724827055 0.0024362297 1.0011937039
0.6626928024 0.5003501607 0.7576841324
0.6624903035 0.5012886953 0.2557629086
0.6825266527 0.2502658146 0.2509774906
0.6725158417 0.251979519 0.503566378
0.6825745161 0.2492595909 0.7539332998
0.6724679783 0.2517289394 1.0059156109
0.7026108652 0.2514510238 0.2475340883
0.6925264183 0.2482761471 0.4980731342
0.7026403196 0.2510917511 0.7450288694
0.6924638277 0.251219319 0.9996105304
0.6925374637 0.5006560631 0.9968859993
0.6925411455 0.4996973519 0.4994878654
0.7323561179 0.502000732 0.9896880826
0.7324407992 0.5002388642 0.4885299116
0.7124412681 0.2529896479 0.4939062584
0.7125848582 0.2497321125 0.9922745463
0.7225367604 7.4077241878e-05 0.2406104656
0.732573344 -0.0013137435 0.4866144558
0.7325512532 -6.568343018e-04 0.9867518481
0.7125590856 0.5022656305 0.9981654244
0.72261776 0.2510253638 0.2422083663
0.7324039813 0.2498362495 0.4917956672
0.7224189429 0.2516619012 0.7433527305
0.7323634815 0.249779625 0.9898721725
0.7125296312 0.5021829718 0.4989797771
0.7125590856 0.0016958808 0.4937939635
0.7124670407 0.00235663 0.9950635089
0.7525544662 0.499823618 -0.0140633877
0.7425252462 3.6787374305e-04 0.2362907951
0.7424700192 -6.1693681504e-04 0.7368902531
0.7425215644 0.2514542781 0.2377607533
0.7424957918 0.2499683733 0.7369703322
0.7624474596 0.0014119773 0.2358775132
0.75252133 0.0011548891 0.4856166883
0.7624548232 2.3047799339e-04 0.7340497453
0.7523851034 9.5566200226e-04 -0.0183363361
0.7624842776 0.2504864548 0.2314216162
0.7525360572 0.2487916252 0.4834057681
0.7625615954 0.2508275035 0.7331624318
0.7526538747 0.2495160282 -0.0149230141
0.7825795355 5.9033640167e-04 0.2369673256
0.782480127 -2.2668342093e-04 0.7374057049
0.772561361 0.0016606695 -0.0171959634
0.7825648083 0.2528243304 0.2338368762
0.7724030436 0.2502671163 0.4822423197
0.7825832173 0.2530501775 0.7344096412
0.7725282248 0.2515245705 -0.0181944028
0.7924983015 0.0020679102 0.4883283332
0.7924578018 0.0023230459 -0.0098866539
0.8125530597 0.4999453281 -0.0107075201
0.7925424831 0.2555253838 0.4882758675
0.7924651654 0.2521975559 -0.0143779698
0.8024833399 9.0880035387e-04 0.239696459
0.8125677869 -2.1353612513e-04 0.4900127561
0.8026158847 4.1037465472e-04 0.7389216856
0.8125125599 9.8709835806e-04 -0.0084374168
0.8024207494 0.2525561777 0.2378325484
0.8126451047 0.2514354032 0.4906589118
0.8024391584 0.2509622307 0.7378318732
0.8124941509 0.250897796 -0.0096622666
0.832677772 5.0255903945e-05 0.4939706898
0.8225528253 -7.1807987282e-04 0.7415228765
0.8326225451 4.2703657415e-04 -0.0084678193
0.8226338249 0.2479298916 0.2425296032
0.8326888174 0.2502170004 0.4919825185
0.8226117341 0.2516710132 0.7438488529
0.8325047275 0.2493695856 -0.003138248
0.8225454617 -4.1710081025e-05 0.2415576083
0.8425670837 8.5139483459e-04 0.7459990234
0.8426223106 0.2506029581 0.245644405
0.8426296742 0.2492537332 0.7458756831
0.8625592512 1.9403004464e-04 0.2469578867
0.8426039017 0.5009769352 0.7423117019
0.8525079405 4.7825895926e-04 0.4975429551
0.8625850238 8.1618351267e-04 0.7466930425
0.8525778946 -5.9832232693e-04 -0.0042719935
0.862562933 0.2499293219 0.247400623
0.8425265839 4.197469844e-04 0.2464157419
0.8526920304 0.2498720466 0.4954931137
0.8624672063 0.2517764519 0.74855051
0.8525153041 0.2487974829 -0.0032844614
0.8724522447 -0.0025566576 0.4988969367
0.8925070028 -5.7176739284e-04 0.5029708471
0.8725111534 5.5017857242e-04 -7.4670795725e-04
0.8824188741 0.2516241515 0.244162481
0.89252173 -6.4589991718e-04 -3.5811250107e-04
0.8726694708 0.2509394508 0.4992236963
0.8925511844 0.2508782703 0.501554275
0.8825035554 0.249562239 0.7484382151
0.8726731526 0.2506231347 -1.7997786979e-04
0.8924444122 0.2502384786 0.0010433642
0.9024110416 -8.8984083131e-04 0.2486653209
0.9124733978 6.396062181e-04 0.5018644665
0.9025435864 0.0028255069 0.7497342083
0.902477314 0.2518643175 0.2524640169
0.9124770796 0.2505847341 0.50119622
0.9024883594 0.2498362495 0.7479614222
0.9026356314 0.5031514459 0.7524430918
0.9124733978 0.2509492136 0.0013135162
0.922498936 8.5276163267e-04 0.2535980109
0.9224915724 2.0066877816e-04 0.7548196929
0.9225467994 0.251622199 0.2533467281
0.922406891 0.2513644599 0.7530266569
0.942446922 0.0019415139 0.2584579853
0.9326238827 9.7889756959e-04 0.5057616506
0.942373286 2.651035447e-04 0.7573316001
0.9324103384 -1.402497139e-04 0.0043336037
0.9425095126 0.2503608396 0.2503515848
0.9325134288 0.2522294478 0.5020181816
0.9424211494 0.2516384704 0.7559389597
0.9324582018 0.2513703176 0.0023481017
0.9524871874 6.1832321946e-04 0.5080324
0.9526160503 -1.1575437684e-05 0.0089267398
0.9624906347 0.2498303918 0.2571988101
0.9525865959 0.2494769768 0.5056484352
0.9724204462 0.2498681414 0.5064197721
0.9624464532 0.2519814716 0.7556379727
0.9525681869 0.2496422943 0.0072849337
0.9726266269 0.2488365343 0.0056509513
0.9625348163 0.0019209469 0.2569300388
0.9826889831 0.4986865721 0.7602374599
0.9825711655 0.4971811417 0.2563464737
0.9825343475 5.6829551845e-05 0.2590995388
0.9924641589 -2.7261072771e-05 0.5071947907
0.9825895745 0.2500041704 0.2584506217
0.9924273409 0.0015071976 0.0084015312
0.9925967037 0.250983709 0.5093109046
0.9824938477 0.252120104 0.7558588806
0.9925672493 0.2510247129 0.0075403585
0.012591363 0.7512630467 0.0100131466
0.0027565052 0.5000299394 0.7579888012
0.0125214088 0.5011370458 0.0127975069
0.0226252221 0.7518423087 0.2614512878
0.0025660458 0.7497205174 0.2592790265
0.0126394105 0.7481324282 0.5117685053
0.0226247434 0.7505210706 0.7594615208
0.0226152812 0.4997233861 0.2617660816
0.0025448386 0.750098014 0.7589046487
0.0125808699 1.0033591894 0.007152481
0.0525215389 0.9997143945 0.5126410916
0.052597384 0.9999812455 0.0121238298
0.0326416662 0.7498246544 0.0125521151
0.0424415101 0.4988121874 0.763565806
0.042615291 0.7499808599 0.2614015835
0.0326468207 0.7496684489 0.5131528617
0.0425357642 0.7490501355 0.7608771724
0.0525082844 0.7483407022 0.0115671418
0.0525377388 0.7466289504 0.5134980303
0.0524666801 0.4966148968 0.5117905961
0.0424798008 1.0013675693 0.2655242777
0.0324833489 1.0013089922 0.5163164473
0.0326335663 0.9995646976 0.0152903609
0.0723870526 0.9996818517 0.5113230077
0.0625268272 0.9972932093 0.7642745523
0.0724592159 1.0005084391 0.0111231169
0.0725376382 0.7483667365 0.0117226058
0.0626019359 0.7477028631 0.258254566
0.0723255666 0.7508464987 0.5108011127
0.062469023 0.7483537194 0.7601822329
0.0627160717 0.997937557 0.2623579307
0.0826357078 0.9988812985 0.2587037454
0.1024644035 1.0006255932 0.7521236957
0.0823927091 0.998354105 0.7593630326
0.0924396017 1.0005865418 0.0075877616
0.0923228887 0.7490566441 0.0065309933
0.0924775242 0.4992853599 0.0090780617
0.1024386309 0.7485099249 0.2524032672
0.0822910914 0.748835353 0.2610490513
0.0923729611 0.7518813601 0.5077995262
0.1024316355 0.7514843378 0.7529079189
0.082353682 0.7464597277 0.7604105044
0.0923431386 0.5006306797 0.5092142574
0.1123511379 1.0025260934 0.0066834198
0.1124269829 0.749727026 0.0012386836
0.1224683529 0.5012385794 0.7511728712
0.1223803579 0.7499418086 0.2508909683
0.1123938468 0.7496033633 0.5013269239
0.1224098123 0.7496749575 0.751440722
0.1123570288 1.0019207971 0.5020798517
0.1222923629 1.0007752901 0.7523307969
0.1524319362 0.9983345793 0.4966179032
0.1325086182 0.998620956 0.5005436212
0.1423758391 0.9963299421 0.7472839712
0.1523884909 0.9982629851 -0.0056926984
0.1324184142 0.9982564765 0.0030265652
0.1524271498 0.7489459985 -0.0057523712
0.132526659 0.7497725859 -0.0044751736
0.1424873976 0.7486596218 0.2488705812
0.1525136721 0.7501045226 0.4963426887
0.132469223 0.7496033633 0.4972180364
0.1424284888 0.4989202295 0.2454244175
0.142486293 0.7495512948 0.74879627
0.1725143078 0.749043627 -0.0081018862
0.1623838384 0.4996752227 0.7449128927
0.1725868393 0.5001867957 -0.0081099236
0.1624795651 0.7475596748 0.2457162001
0.1824128239 0.9983280707 0.7381641555
0.1726196073 0.7486986732 0.4931312397
0.1624869287 0.500543465 0.2440060045
0.1625241149 0.7479762227 0.7480847624
0.1825994911 0.7500589627 0.2396458343
0.1825958093 0.7486726389 0.7408297778
0.1623411295 0.9982825108 0.2408764755
0.1724947943 0.999037504 0.4932352505
0.1724889034 0.9995191376 -0.0085725628
0.1924788619 0.9992653037 0.4899667336
0.2024329732 1.0019273057 0.7382479164
0.1925223071 0.7513671837 -0.0107722645
0.2024488049 0.7512500296 0.2374754139
0.192605884 0.7502672367 0.4890582498
0.202403887 0.7511133498 0.7388701404
0.2324536244 0.7498441801 0.9903323974
0.2325268922 0.497886019 0.9870555965
0.2325482466 0.7478135087 0.4888695576
0.2324031837 0.4987601189 0.4912526019
0.222472636 0.9993824578 0.2361481254
0.2123498983 1.0012699409 0.4867856594
0.2122567488 1.0010356326 -0.0149251863
0.2125674926 0.7490175927 -0.0114866992
0.2325059059 0.9990570297 0.9867978705
0.2225282311 0.7474750634 0.2381289332
0.2124879658 0.7508009388 0.4885271503
0.2225090858 0.4983715577 0.2394184832
0.2224074681 0.7495317691 0.7393349675
0.2525363642 0.7507553788 0.9888872914
0.2524343784 0.5015138916 0.9938393108
0.2424695899 0.7481975139 0.2397001408
0.2525157461 0.7481259197 0.4926618104
0.2424154674 0.5016792091 0.2362935565
0.2424511809 0.7482300567 0.7401182702
0.252492919 0.4991272018 0.4924878454
0.2625862023 0.5054437615 0.7460588526
0.2623756034 0.7516795947 0.243851369
0.2626734609 0.7521742454 0.744176533
0.2825621699 0.5015008745 0.7502312511
0.2826173969 0.7512630467 0.2484425721
0.282494793 0.5012802342 0.2481369828
0.2826151878 0.7489459985 0.7487520885
0.2723893598 0.7492779352 0.9967663408
0.2725053365 0.4981144695 0.9952383943
0.2724475322 0.7499092657 0.4945800275
0.2825614336 1.002591179 0.2469532845
0.2825220383 0.9971370038 0.7470345293
0.3124152993 1.0000918911 1.0010740455
0.2924349135 0.7494862092 1.0003008677
0.3024078019 0.5002642476 0.7513238249
0.2925030267 0.4993445878 0.9997025754
0.3024880651 0.7502086596 0.2529435712
0.2924864586 0.7505666305 0.498387928
0.3025499193 0.5003085059 0.248636787
0.3023783475 0.7522913995 0.7539277771
0.3024516153 1.0012178724 0.2493897149
0.3124974034 0.7478330344 1.0039274395
0.3123243588 0.4983396658 1.0008715465
0.3124160356 0.749251901 0.5019095685
0.292292796 1.0014391635 1.0035316462
0.3324424439 0.7502867624 0.9974658826
0.3324218259 0.4971245172 0.9985520133
0.3224043877 0.7501956425 0.2489009561
0.3325061391 0.7500849969 0.5000502601
0.3224467283 0.7470715326 0.7496734586
0.3324973027 0.4971128018 0.4958603731
0.3525064066 1.0003717593 0.4934267041
0.3423774099 0.9994605606 0.7472305851
0.3627440164 0.744715433 0.2397618109
0.3526470513 0.9975926032 0.9904888739
0.3625599265 0.7475922176 0.7379303613
0.3624605179 0.9997794801 0.2401888996
0.3524338752 0.7466875274 0.9918235259
0.3624494725 0.9971239867 0.7420779076
0.3524025799 0.4968368387 0.9935539714
0.3424374232 0.7479762227 0.2432088951
0.352517452 0.7491217297 0.4929296612
0.3426145177 0.7502802538 0.7418100568
0.392489269 0.9983280707 0.4857345059
0.3726480552 0.7477158803 0.9876354798
0.3726554188 0.4981112152 0.9870371875
0.3826110028 0.7472863151 0.2346523946
0.3725339194 0.7486400961 0.4875974961
0.382736184 0.4995242241 0.2376088791
0.382570503 0.7488158273 0.7342789373
0.3825410486 0.9990895725 0.2364233399
0.3825999574 0.9975991117 0.7355795327
0.3725891464 0.9991546581 0.9916118225
0.3726664642 0.4981463615 0.4864432522
0.3925702686 0.7470585155 0.9802350641
0.392544496 0.7496424147 0.4835972217
0.4124446186 0.749727026 0.9826742559
0.4125182546 0.7481519539 0.4783626242
0.4125513908 0.4990328276 0.4792968807
0.4025479434 0.9995907318 0.2313498211
0.4025111254 0.4992795022 0.7323285044
0.4025700342 0.750306288 0.2336693544
0.4025516252 0.5030056541 0.2309411414
0.4025663524 0.7479306628 0.7337128607
0.432569331 0.7485489762 0.9784585962
0.4225622018 0.7492649181 0.2303225992
0.4326098308 0.7493755636 0.4814562557
0.422521702 0.501045926 0.2269537533
0.4226174288 0.7518813601 0.7297015409
0.4426685051 0.7491607811 0.2303833489
0.4426758687 0.7492323753 0.7305179798
0.432440468 1.000078874 0.4802486256
0.422521702 1.000241588 0.7277529489
0.4424623244 0.9975145004 0.2290459355
0.4523847722 0.9962258051 0.9772896251
0.4623734924 0.9995842232 0.2281135199
0.4724984391 0.9999812455 0.48244758
0.4623550834 0.9983345793 0.7316354057
0.4525983165 0.7476507946 0.9779155309
0.4525946347 0.7511133498 0.4797884008
0.472446894 0.7477679488 0.9806860845
0.4625428551 0.7459325342 0.2311077428
0.4725536661 0.7488288444 0.4805947147
0.462454492 0.7472537723 0.7295689962
0.4726088931 0.4987197658 0.4836828235
0.4823730236 0.9976511802 0.2329753353
0.4924942885 1.0002285709 0.487736484
0.4923654256 0.9998380572 0.9872857089
0.4825644771 0.5001125981 0.7330142394
0.4924574705 0.7489785413 0.4857206991
0.4824797957 0.7475726919 0.2332422657
0.4924096071 0.7493950893 0.986991165
0.4824724321 0.7482821252 0.7370366046
0.5124091383 1.0010551583 0.4904315607
0.5123428659 0.9985558704 0.9953856663
0.5023246914 1.0019142885 0.2408396576
0.5224641309 0.7494927178 0.7462530675
0.5223499951 0.9989724184 0.2481130511
0.5224346765 1.0024610078 0.7470842336
0.5024830087 0.7499613342 0.2392840976
0.5022805098 0.5026991008 0.2363957264
0.5025492811 0.7519008858 0.7407616646
0.5024020091 0.4999583452 0.7409420727
0.5123980929 0.7486466047 0.9933422679
0.5123465477 0.4992137657 0.9900562625
0.5123760021 0.7489459985 0.4921960628
0.5223573587 0.5033343365 0.2455164625
0.5226003574 0.7496293976 0.2462647881
0.5324528511 0.7501045226 0.501333367
0.5324896691 0.4990237157 0.4986751083
0.5323792151 0.9993694407 0.9976223591
0.5423752989 1.0001309425 0.2519007016
0.5524045189 0.9992132352 0.5108342489
0.5524192461 0.7506447333 1.0073423079
0.5423973897 1.0010291241 0.7534390183
0.5423679353 0.7520440742 0.2540554744
0.5523198375 0.7513736923 0.5057101054
0.5424562985 0.7489785413 0.7537188351
0.5325080781 0.7492128496 0.9990398516
0.5624705568 1.0009119699 0.2603706798
0.5625662836 1.001699506 0.7593280556
0.5624963294 0.7487181988 0.2589007217
0.5625147384 0.750560122 0.7636955894
0.5724077318 1.0000007712 0.5115163021
0.5725071404 0.9973322607 1.0121286464
0.5725550038 0.7491607811 1.0118709205
0.5723451413 0.7502867624 0.5112935533
0.602473301 0.996212788 0.2633299256
0.5923814904 0.7481194111 1.0150188585
0.5924477628 1.0000853825 0.5117326078
0.6024990736 0.9994475434 0.7590602047
0.5924956262 0.9980221683 1.0093488883
0.6026058457 0.7480738512 0.2644547152
0.6025690278 0.4996537445 0.2645660896
0.5923925358 0.7512044696 0.5126079555
0.6024291194 0.7492388838 0.76306232
0.5825694966 1.0019403228 0.2624913959
0.5823301797 0.998041694 0.7644273469
0.5824737698 0.7484383307 0.2666591922
0.5824295882 0.7472537723 0.7662691668
0.6124693848 0.7498051287 1.014991245
0.6124546576 0.7506577504 0.5132255772
0.6125724751 0.9987316016 1.0116500126
0.6224323324 1.0006125761 0.2600485224
0.6224102416 0.7486010447 0.2599813296
0.6225980133 0.7499157743 0.7619964392
0.6425386357 1.0003066737 0.7595820997
0.6526525371 1.0007687816 1.0071121955
0.63239528 1.0014717063 1.0107755853
0.6325609609 0.7497856031 1.0092752523
0.6324762795 0.501430582 1.0101036571
0.6325204611 0.7511524011 0.5092437118
0.6526046737 0.7503323223 1.005529022
0.6524979015 0.5021400153 1.0076460563
0.6424429089 0.7517511889 0.2585132123
0.6424502725 0.5028605131 0.2608677227
0.6526120373 0.7526233362 0.5046966902
0.6424539543 0.750664259 0.7565436952
0.6726447046 0.7525257078 1.000862342
0.6726262957 0.4990770859 1.001028023
0.6823609717 1.0031899667 0.2531617177
0.6725526597 1.0011267525 0.50352956
0.6824456531 1.0035479377 0.753106736
0.682629743 0.7516665776 0.2475985197
0.6726042049 0.7510938241 0.5027370528
0.6826186976 0.7497921116 0.7494976527
0.6626633481 0.7524996735 0.2561973609
0.6626670299 0.7496033633 0.7534657114
0.7025519564 1.0032485438 0.2467360584
0.7024046845 0.4990653705 0.7470833131
0.6925890088 0.7515624406 0.996214071
0.6925190547 0.9998836171 0.4969741172
0.7024488661 1.0005930504 0.7442418849
0.6926884174 1.0034438007 0.9983311053
0.7026550468 0.7516340347 0.2437059379
0.7025335474 0.5004588536 0.2464231055
0.6926000542 0.7491542725 0.4969658332
0.7025703654 0.7490891869 0.7423117019
0.7223821249 0.5019896675 0.741988624
0.7326175256 0.7504039165 0.9865953716
0.7225293968 0.7521677369 0.239065951
0.7224668062 0.4996940976 0.2440207317
0.7325144352 0.7506121905 0.4881387205
0.7225772602 0.7507488703 0.739354297
0.7224631244 1.0002741308 0.7441572035
0.7124854496 0.7518097659 0.9913172786
0.7124670407 0.749518752 0.489940961
0.7424405648 0.4976328359 0.7372676375
0.7425547006 0.7499743514 0.2357560138
0.7422859293 0.5012984582 0.2393080292
0.742400065 0.7485945362 0.7339218028
0.7524403304 0.5014767928 0.4860640269
0.7523777398 0.7500784884 -0.0162135858
0.7625063684 0.5012483422 0.7341960968
0.7624474596 0.7486661303 0.2319913745
0.7625063684 0.4998750356 0.236530112
0.7523666944 0.7492844438 0.4840233899
0.7625468682 0.7505666305 0.7339577004
0.7824580362 0.7524996735 0.2340034776
0.7824727634 0.4997800106 0.2346744854
0.772358862 0.7513671837 0.4833836773
0.782443309 0.750098014 0.7349158885
0.7724803614 1.0024479906 0.4840040604
0.7726570877 0.5005922792 0.4842212866
0.7723919982 0.751080807 -0.0164347883
0.7824911724 0.501109059 0.7359808488
0.7724987704 0.5012939022 -0.017310182
0.7923583932 0.7525777763 0.4871547598
0.8126340593 0.4989065615 0.4890527271
0.8126082867 0.7495838376 -0.0096886651
0.8025275215 0.5030355934 0.7419214312
0.8023949768 0.752076617 0.2355056515
0.8026821571 0.5030050032 0.2385007949
0.7925756193 0.5004425822 0.4865426607
0.7924614836 0.7513086066 -0.0108598729
0.8126082867 0.7504429678 0.4852632356
0.7926013919 0.4994923321 -0.0116465813
0.8024870217 0.7548948244 0.7358492245
0.8325783635 0.4977656106 0.492925059
0.8325378637 0.7502086596 -0.0102237225
0.8225896433 0.4991708092 0.7393791491
0.8326041361 0.4991864297 -0.0083057967
0.8224865529 0.7498116373 0.2391672004
0.8227111426 0.4988603507 0.2396651637
0.8326519994 0.7478655772 0.4906349801
0.8224497349 0.7511589097 0.741276196
0.8626107964 0.7479697142 0.7488560993
0.8626255236 0.4999980474 0.7468642461
0.8525410767 0.7503974079 -0.0042811336
0.8525963036 0.5005831672 -0.0046539065
0.8625555694 0.7518748515 0.2445941719
0.8626402508 0.5018594962 0.246422185
0.8524895315 0.7507423617 0.4953614893
0.8426554468 0.7491282383 0.2461524932
0.8425744473 0.5001275678 0.2431196115
0.8427143556 0.7510612813 0.7460680571
0.8526294398 0.5010530854 0.4970311851
0.8725700622 0.5012470405 0.4973570243
0.8826361002 0.7502802538 0.7533202803
0.8925732752 0.5003117601 0.4986981195
0.87264738 0.7490110841 -8.1835576223e-04
0.8926542748 0.7524215708 0.0011589727
0.8825587824 0.5028494486 0.7485182942
0.8725074716 0.5016141234 -0.0022901456
0.89252173 0.5004321685 0.0011200377
0.8826250548 0.7507879216 0.2496630884
0.882695009 0.50059293 0.2492074658
0.872610562 0.7511198583 0.500629223
0.892503321 0.7518618344 0.5024213386
0.88249251 1.0014001121 0.2499189734
0.8824851464 1.0010421412 0.7488027132
0.9125470338 0.7521417026 0.5036225254
0.9124807614 0.9995712061 -8.0409799631e-04
0.912598579 0.5014312328 0.5026652577
0.9026024952 0.7509636528 0.7533589392