POSCAR file written by Ovito 3.7.11
1
271.581090727 0.0 0.0
0.0 15.3629464716 0.0
0.0 0.0 10.863243629
Sr Ti O 
800 800 2400 
Direct
0.0225635236 0.4996888618 0.8105901105
0.0126269702 0.2490325175 0.5636288813
0.022538485 0.2508941395 0.8108138006
0.0025639721 0.2498149195 0.8183180049
0.0126068289 0.2492154251 0.0643193578
0.0227256482 -8.7950343502e-04 0.3073048868
0.0026558783 -9.5734512679e-05 0.3153568097
0.0025746871 0.4989552785 0.3176664329
0.0126823496 0.4989253364 0.5632514618
0.012596077 -1.7456053751e-04 0.5594901542
0.0225305316 0.0017898413 0.8086560657
0.0026139388 -4.9193961274e-05 0.8148862491
0.0226229165 0.2504938257 0.31442891
0.0026262003 0.2491047692 0.3142061405
0.0324332092 0.5005025078 0.05937461
0.0426021794 0.4981461889 0.30875473
0.0325212124 0.4985849069 0.5610872831
0.0325333635 0.2482663884 0.558832892
0.0425381101 0.2490657142 0.8039852692
0.0325528788 0.2503968391 0.0549355123
0.052326715 0.4981878476 0.0512237295
0.0426253768 -0.0016967946 0.8040092031
0.0425454744 0.2480997537 0.3024941689
0.0525318103 0.2461645781 0.5549500738
0.0526006663 0.2473180026 0.0502111406
0.0626138819 0.2487519723 0.2945030014
0.062492003 0.4959792869 0.7971539762
0.0725486678 0.4969576149 0.0477939068
0.0624264609 0.4968651847 0.3005251438
0.072361615 0.4983043617 0.5502774362
0.0723756072 0.2479552502 0.544338142
0.0626024672 0.2482123623 0.7978333313
0.0723829715 0.2491177876 0.0468687687
0.0924874639 0.2481082156 0.5439828154
0.1023946338 0.2498520217 0.7934368544
0.0825917087 0.2480574441 0.7966872648
0.0925364364 0.2487923292 0.0459095709
0.102618508 -2.1628430457e-04 0.2904425199
0.0923803136 -3.4236688929e-04 0.5443979768
0.1024075213 0.2494849047 0.2914762811
0.0825600423 0.2472106014 0.291850939
0.1023813781 0.4985478046 0.7939643212
0.0824112838 0.49762155 0.7973813485
0.1023655449 0.498278976 0.2941080917
0.0823958188 0.4967441142 0.2977396037
0.122543312 0.2486777678 0.2879791672
0.1122671916 0.500140598 0.0445502163
0.1124376747 0.2496925471 0.5395826563
0.1224748242 0.4978780112 0.2874434156
0.1123537219 0.5000696481 0.5398247571
0.1224346888 0.2504619308 0.7855432636
0.1125577125 0.2482911232 0.036107342
0.1225392617 -0.0023552685 0.2833829341
0.1524301498 0.2494614717 0.5212768899
0.1325082915 0.2480353129 0.5291723218
0.1423885817 0.2495753821 0.7778669191
0.1524596069 0.2481576853 0.0217189139
0.1325097644 0.247197583 0.0330718767
0.1425237163 -8.8366930256e-04 0.2732239058
0.1424136203 0.2483438475 0.2786430975
0.1424706935 0.498263354 0.7771986104
0.1523830184 0.4980921629 0.0227037027
0.1323639516 0.4986669224 0.0340160698
0.152353193 0.4979782524 0.5250170251
0.1322744755 0.4976964054 0.5331131337
0.1824440214 0.2493957291 0.2632591104
0.172377783 0.499554122 0.5140930319
0.1823582275 0.5005975416 0.7607201068
0.1724392748 0.2507554943 0.5158770294
0.1623833464 0.2499242735 0.7656753487
0.1724212323 0.250491873 0.0154975677
0.1824410757 0.5010655508 0.2609964344
0.1623936564 1.4328213734e-04 0.7653154194
0.1624164857 0.2511818448 0.2693033456
0.1825239239 0.2517097383 0.7606547488
0.18257216 0.0024746058 0.2613821387
0.1927297154 0.003131511 0.0094312396
0.2024641929 0.250139076 0.2609706594
0.2024737665 0.5005298463 0.7603675417
0.1924866941 0.5012933717 0.0129406886
0.2025231071 0.4974770465 0.2607147506
0.1924981087 0.499405713 0.5144391532
0.1924450859 0.250601227 0.5115560364
0.2023968097 0.2509156198 0.7588357709
0.1924447177 0.2501761783 0.0083518198
0.2024774486 0.0010788449 0.2593652457
0.2125359545 0.2491841811 0.5075360585
0.2224129308 0.2501872439 0.7522208037
0.2125580473 0.2479845414 0.0043147199
0.2225127168 0.0013478688 0.7498955314
0.2224898876 0.2510907164 0.2548518608
0.2324257781 0.2516134026 0.4977406416
0.2324614949 0.2523873427 0.9993900739
0.2323885885 0.0013492357 0.4984540565
0.2225244997 0.4993516869 0.7491959245
0.2124497924 0.4996953709 0.0106846406
0.2124111299 0.4979749978 0.5058634457
0.2423487812 0.4999225409 0.7452054036
0.2623085655 0.2492766113 0.7392789969
0.2624959865 -0.0018752369 0.234478572
0.2625051919 -2.4004276788e-04 0.7380261483
0.2525545728 0.250131916 0.4918685464
0.2424901754 0.2484167502 0.7499590483
0.2523999228 0.249896935 0.9945756739
0.2624241848 0.2465863721 0.2378173538
0.2424375208 4.1165513516e-04 0.2436158061
0.2623365498 0.4976124372 0.236234033
0.2524945538 0.0015544698 0.4929814737
0.2424680826 5.143777645e-05 0.7451289992
0.2524739339 0.0015365696 0.9903043898
0.2425336247 0.2491548898 0.2458738794
0.2722989518 0.2495825422 0.4884018102
0.2724057339 0.249842258 0.9837685887
0.2723711218 8.0448342569e-04 0.4871498821
0.2723221493 -0.0012488336 0.9859226415
0.2822970706 0.2470778143 0.728960716
0.2723273043 0.4982926452 0.4835330987
0.2822654042 0.248746765 0.2308801992
0.3123459226 0.0020638122 0.4714805291
0.2923213326 0.4994668991 0.4803977552
0.2923084451 0.2486016106 0.481382728
0.3022866803 0.2513699597 0.7272835005
0.2923154411 0.2496547939 0.9787056441
0.2924163318 -0.0013824668 0.4766981235
0.3024450123 7.4505472159e-04 0.7245209739
0.3124434993 0.5029759916 0.4749086028
0.3024019313 0.2499789505 0.2267838168
0.3125469675 0.2533969146 0.4738315764
0.3124368715 0.2499255753 0.975631056
0.3224736527 0.001478638 0.2204045067
0.3324216944 0.0011157518 0.4647652235
0.3225855898 9.4241269622e-04 0.7157970602
0.3324750854 -4.7443790859e-04 0.9650080778
0.3224430909 0.2514357023 0.2204597388
0.3225056874 0.5010290995 0.719696448
0.3224673931 0.5039204719 0.222676388
0.3325494647 0.2514708518 0.4654767974
0.3225255709 0.2525045077 0.7219204614
0.3325479918 0.2506005761 0.9661219256
0.3624845385 0.2500557587 0.2078355168
0.3525339194 0.500508366 0.4611309499
0.3526267093 0.249184832 0.4592254417
0.3426068659 0.2529712151 0.7141907259
0.3625655456 0.5000455642 0.7064701958
0.3525228729 0.2507092792 0.9611234186
0.36241826 0.4992664168 0.205421873
0.3425431649 9.6747299313e-04 0.210795038
0.3424673128 0.2502926924 0.21501109
0.3625655456 0.2498826148 0.7064628315
0.3424389603 0.5012855607 0.716508634
0.342459212 0.5010740127 0.2136054325
0.3824527918 0.2501846402 0.1975982429
0.392401938 0.2474455823 0.449956571
0.3925492237 0.2510907164 0.9468827364
0.3923540702 0.0025074771 0.9474350576
0.3823607382 0.4980426932 0.7003108936
0.3923467059 0.5021441199 0.9462107456
0.3725478312 0.2495337234 0.4512895062
0.3825448453 0.2479513447 0.7017082663
0.3724189562 0.2464867819 0.9530319127
0.3923614345 0.498920129 0.4476478683
0.372492599 4.967299613e-04 0.4551999405
0.412491702 0.5021050649 0.9486133429
0.4024910057 0.2510523123 0.6980647873
0.40234372 0.0027181137 0.6959291453
0.4024063164 0.2491783228 0.1974408314
0.4125469341 0.2493345429 0.4455287959
0.4125027484 0.2493221755 0.9443696748
0.4123665092 7.0951466415e-04 0.4485325028
0.4124548806 7.2592572544e-05 0.9480149949
0.4424974729 -6.2095928092e-04 0.6907253588
0.44257848 0.2495304688 0.1893751005
0.4224739875 0.49961661 0.6937493175
0.4326072409 0.5001653329 0.9482727448
0.4325262338 0.4997272659 0.4465597955
0.4425232479 0.4999199372 0.6886615185
0.4424606515 0.5001972278 0.1923263368
0.4324231338 0.248528057 0.4408276217
0.422485034 0.2503063617 0.6962577764
0.4324930945 0.2515645838 0.9430809253
0.4223672054 0.0016773629 0.1922959592
0.4324157695 1.8370407079e-04 0.9449772282
0.4225365839 0.2523626078 0.1957047017
0.4425563872 0.2516231664 0.6937318273
0.4725879331 0.2468011747 0.4304016381
0.4626056475 0.2501872439 0.6842088889
0.4725658403 0.2499874124 0.9313440993
0.4726026617 3.2495301702e-04 0.9313256886
0.4626792904 0.2508349061 0.1818856247
0.4525681299 0.4989923808 0.9408532297
0.4526712298 0.4984019992 0.4368297366
0.4626240583 0.4979333392 0.6882693704
0.472532701 0.4996068463 0.9310311173
0.462539369 0.5003326185 0.1847632182
0.4525865406 0.2501586036 0.4350494212
0.4524576656 0.2471728482 0.9377049987
0.4528221976 -6.5278911258e-04 0.4367855509
0.48271014 0.2499711395 0.6793364952
0.4825849472 -9.6698665332e-04 0.6795344103
0.4926335113 0.4984768547 0.9294385911
0.4926961077 0.4998457327 0.4295483019
0.4824781651 0.250115643 0.1806465841
0.4925525042 0.2495506473 0.4308066737
0.4925451399 0.2459907833 0.9322922508
0.4825702187 0.4959890507 0.181205349
0.5026121148 0.2491998031 0.680906008
0.5126017646 0.2497823736 0.4310156352
0.5125244396 0.2494009364 0.933314045
0.5027115326 -0.0013170497 0.6793272898
0.502435372 0.249654143 0.1818801015
0.5225693216 0.2484987657 0.1864947453
0.5223962609 0.2488710901 0.6869014549
0.5124434325 0.4996699852 0.4321718277
0.522554593 0.4967792637 0.6867827058
0.5425523034 0.4990099555 0.6885464516
0.5526155961 0.5002870543 0.9397762033
0.5426296284 0.4986519513 0.1902763046
0.5526892389 0.5011924796 0.4435993537
0.5326547071 0.0010531336 0.4384204218
0.5327430785 0.2504118102 0.4372053151
0.5326657535 0.2495363271 0.9392422928
0.5325368786 0.5011996397 0.9382757307
0.5525566818 -0.0018321853 0.9426114523
0.5428174176 0.2491262495 0.1929863607
0.5527150139 0.2487500196 0.4424302738
0.5426222641 0.2502842305 0.6898352011
0.5527407889 0.2489173052 0.9402732924
0.5725249351 0.2492024068 0.4432053646
0.5727090422 0.2466677367 0.9443052373
0.5625757888 0.4990047482 0.6914185219
0.5625463317 0.4963197164 0.1930434339
0.5725654386 0.5005780141 0.9454282905
0.5724623387 0.5004719147 0.4465690009
0.5625684245 0.2500264674 0.1940007907
0.5627046637 0.2491464279 0.6965173674
0.6024717918 0.4989162235 0.7024143169
0.5924048169 0.5009588005 0.9522126362
0.5924526848 0.5014775811 0.4536387125
0.5827097384 0.2492896296 0.697926707
0.6024460168 0.2482859159 0.2116428511
0.592588924 0.2498025521 0.4502750763
0.6026264417 0.2487975365 0.7042995734
0.5925300098 0.2493117608 0.9480518163
0.5823820278 0.497496574 0.6964326781
0.5824556707 0.4978415599 0.1988124291
0.5826140027 0.2500622679 0.1999621777
0.6124135738 0.5006424549 0.9575333306
0.6124062095 0.4989318455 0.4594049461
0.62241427 0.4983030599 0.7078197006
0.6125976808 -0.0027264734 0.4603291636
0.6224621379 0.4975134978 0.2061730299
0.612575588 0.2483431966 0.4544340551
0.6125719058 0.2492219343 0.9576253842
0.6225247343 -8.3094504152e-04 0.7104082461
0.6224326807 0.2484271649 0.2109229924
0.6226131057 0.2491288532 0.7117255322
0.6424929875 0.0015070179 0.213840169
0.6524973659 -6.3684165091e-04 0.4712154149
0.6324959734 0.5002564612 0.4639827685
0.6425113982 0.250992428 0.2161580771
0.6524494981 0.2504352432 0.4708472007
0.6424929875 0.2506096889 0.7194396186
0.6325880269 -4.717691497e-04 0.4645719111
0.652578373 0.2497335549 0.9691228709
0.6424193447 0.5018355854 0.7177918603
0.6525673266 0.500969866 0.4711491363
0.6325917091 0.2489492001 0.4620791013
0.6326358948 0.2483523094 0.964023105
0.6824736797 0.4974601226 0.7285915813
0.6624538765 6.3368285662e-04 0.2233695512
0.6825399583 0.4998939006 0.2311029688
0.6623470944 7.1700020739e-04 0.7209557404
0.6724913942 0.4990203702 0.4814149468
0.6625348836 0.250593416 0.2253892058
0.6624686051 0.2514259386 0.7255887949
0.6725944941 2.355170483e-04 0.9770486805
0.6624244194 0.5002128498 0.7272890237
0.6623434123 0.4984709964 0.225668128
0.6825510047 0.2515255288 0.2287749348
0.6725429442 0.2490240556 0.4775956455
0.6826430583 0.2511837975 0.7295111961
0.6724840299 0.2500603151 0.9766620556
0.7025560794 0.2512540965 0.2324579969
0.6924559653 0.2499470556 0.4803738213
0.7026812722 0.2515144633 0.7325452807
0.692500151 0.2520768554 0.9825074552
0.6923933689 0.4998385726 0.9796722063
0.6925406546 0.5004074739 0.4839675914
0.7326281289 0.5012679859 0.9943915669
0.7325360753 0.4999108244 0.4953030639
0.7126635578 0.2514734555 0.4891603314
0.7126856506 0.2510490577 0.9875796051
0.7226568897 0.0015623459 0.2418539014
0.7326465396 3.8164787055e-04 0.4979044969
0.7325066182 8.7159294807e-04 0.9971255569
0.7126230542 0.5007166594 0.9859778736
0.7226200683 0.2510633779 0.2408864187
0.7324882075 0.246728272 0.4980094379
0.7226200683 0.25062466 0.7427650644
0.7325323932 0.2490019244 0.9973464854
0.7125494114 0.5014300642 0.4858362782
0.7126746042 5.7503525268e-04 0.4910686012
0.7126193721 0.0011836425 0.9894390866
0.7525301036 0.5004667073 1.6512135198e-04
0.7425846394 -7.1690441766e-04 0.253203182
0.7426546001 -0.0021504575 0.7510802604
0.7424815395 0.247534107 0.2527889411
0.7424925859 0.2486693059 0.7492299843
0.7626559927 -0.0021341456 0.2553784071
0.7525374679 -8.3634765099e-04 0.5034718948
0.7626449462 -0.0018368719 0.7541778619
0.7524859179 3.0034836187e-04 0.0026678821
0.7626412641 0.2484766345 0.2577285339
0.7526258393 0.2483275746 0.5027906986
0.7625676213 0.2487090118 0.7551527089
0.75254115 0.2498377016 0.0036498172
0.7826868423 0.0016444916 0.2599129643
0.7826389745 -0.001724068 0.7596191465
0.7726566889 6.5770168665e-04 0.0074160036
0.7825837424 0.2495402326 0.258566221
0.7725683175 0.2485879413 0.5068530212
0.7825984709 0.2514012037 0.75821533
0.7725572711 0.2495330725 0.0032654016
0.79272436 5.6416494207e-04 0.5124075316
0.7925586636 9.883674225e-04 0.0104728254
0.8123391277 0.4981325197 0.0195042899
0.7926249422 0.249865691 0.5130988537
0.7926433529 0.2493931254 0.0129168468
0.8026955991 -1.7058994501e-04 0.2651434463
0.8125600562 0.0018900174 0.5160896731
0.8025704063 3.5079441409e-04 0.7673930677
0.8126373811 3.7572452764e-04 0.021445699
0.8025740885 0.2494692827 0.2701511587
0.8125895133 0.2479519956 0.5212170551
0.8025924992 0.2486263454 0.7669153098
0.8124937776 0.2497791191 0.0193992569
0.8324325738 -6.8500949432e-04 0.52299645
0.8224392418 0.0022861653 0.7721918186
0.8324767595 0.0017675799 0.0260624601
0.8223655989 0.2482976324 0.2708627325
0.8324215273 0.2511668737 0.5258675998
0.8225791631 0.2514252877 0.775703661
0.8324473023 0.2510275775 0.0261956616
0.8225165667 0.0015810272 0.2745025294
0.8423964486 0.0015990576 0.7859206831
0.8424811379 0.2515964788 0.2824117693
0.84248482 0.2510516614 0.7830734672
0.8625193518 9.1546474058e-04 0.2880196708
0.8423633093 0.5009796298 0.781142184
0.8524560591 8.7439189032e-04 0.5356528908
0.8623794304 -6.3143904144e-04 0.7901229271
0.8523897806 7.7995182008e-05 0.0376682018
0.8623757483 0.2518490345 0.2899491129
0.842355945 0.0021719945 0.2819929257
0.8523566413 0.251907617 0.5388029628
0.8625046232 0.2499789505 0.7915377899
0.8524302841 0.2528312679 0.0362296812
0.8725126838 0.0027777377 0.5462703458
0.8925877192 0.0042205599 0.5476437845
0.8725568695 0.0032577889 0.0473175297
0.8825060158 0.2526763497 0.2965189738
0.8925398513 0.0037600363 0.0484807182
0.872464816 0.252337873 0.5399591553
0.8925030299 0.251946672 0.54402516
0.8824471015 0.2530649471 0.7947753128
0.8725090016 0.2513582432 0.0401440738
0.8924146585 0.2537614281 0.0440608597
0.9025700047 0.0033495681 0.299371713
0.9125117867 0.0030554839 0.5516379875
0.9025331833 0.0015001182 0.8014178961
0.9023932619 0.2518972023 0.2977303984
0.9125301974 0.2529302073 0.5488800636
0.9025184547 0.2523821354 0.7995501298
0.9025147726 0.5006971319 0.8016038442
0.9124786474 0.2521920676 0.0538950311
0.922538258 0.0035245997 0.3039964827
0.922538258 0.0033401298 0.803965938
0.9225677151 0.2522337263 0.3018074495
0.9225603508 0.2523918991 0.8026928375
0.9425212398 0.0047578917 0.3066733995
0.9325389542 0.0013655086 0.5570534971
0.9425948826 0.0016815287 0.8079444918
0.9324174436 0.0023491741 0.0530392094
0.9425138755 0.2523463349 0.3116083896
0.9325868221 0.2528683702 0.5537515367
0.9426096112 0.2486348073 0.8077705106
0.9326383721 0.2527720345 0.0545314893
0.9524556575 -6.7614906795e-05 0.5623244826
0.9524814325 7.6575387592e-04 0.0593799491
0.962592593 0.2511746847 0.3109851872
0.9525256182 0.2523346184 0.5582474315
0.9725527857 0.2502054696 0.5663637918
0.9624489895 0.2530727581 0.8142326689
0.9525587575 0.2497231402 0.061341702
0.9725196465 0.2504280831 0.0633088861
0.9626220501 -1.5125771596e-04 0.3123733545
0.9824945677 0.4994024584 0.8143854778
0.982605032 0.5008240607 0.3144316716
0.9825976677 0.0011041655 0.3178827587
0.992598364 -1.8146025562e-04 0.5686522428
0.9824945677 0.2485840358 0.3188364334
0.9924510783 -5.1518530045e-04 0.0674638145
0.9926572782 0.25031938 0.5673920299
0.9825129784 0.2499307827 0.8172833232
0.9925431318 0.2514402587 0.06752816
0.0126443131 0.7497763048 0.0604681139
0.0026167004 0.4989337983 0.8159568317
0.0125714067 0.5006203237 0.064472811
0.0226159941 0.7508763542 0.3079639901
0.0025514896 0.7505508958 0.3124939447
0.0126528188 0.749086333 0.559823388
0.0225011481 0.7519829127 0.8086275291
0.02260075 0.498599878 0.3125749518
0.0025752026 0.7501994007 0.812528758
0.0126264915 0.998524161 0.0636677108
0.0526385924 0.9983744501 0.5497140686
0.0525748913 0.999415917 0.0511590159
0.0325352045 0.7492555713 0.055679673
0.0426007065 0.5002610176 0.8073249715
0.0423506891 0.7504467491 0.3064635174
0.0325933824 0.7490472779 0.5580016485
0.0424445837 0.7475111143 0.803979746
0.0525329149 0.7484028703 0.0522295985
0.0524338653 0.7482791961 0.553913551
0.0523826836 0.4997090402 0.555983835
0.0425907647 0.9984590693 0.3040885362
0.0326033242 0.999533082 0.5573103265
0.0326165799 0.9995526095 0.056995026
0.0726569228 0.9995591187 0.5455182684
0.0625476033 0.9981336109 0.8001696501
0.0725247339 0.997092144 0.0470296783
0.0723343672 0.7496786672 0.0506989323
0.062438612 0.7474525318 0.3020504709
0.0724021186 0.7508177717 0.5490522037
0.0623634963 0.7477779902 0.8005802089
0.0623288841 0.9975608041 0.3019427682
0.082452892 0.9994028987 0.295963891
0.1024325599 0.9982182301 0.788300267
0.0825048102 0.9984655785 0.7984850704
0.0924819407 0.9975347674 0.0448187365
0.0923847322 0.7497047039 0.0475652458
0.0923195583 0.4987352687 0.0473927375
0.1024712224 0.7498283781 0.2964269203
0.0823380092 0.7478691185 0.2986711855
0.0924075615 0.7512799226 0.5470481982
0.1023243049 0.7500366715 0.7950450297
0.0823479509 0.7472051834 0.79845009
0.0922970972 0.4990971784 0.5482577816
0.1125028486 1.0005680397 0.0407148977
0.1124222097 0.7491318971 0.0411957854
0.1224567817 0.5014541481 0.7867970328
0.122479611 0.7491188788 0.2882645332
0.1124855426 0.7493336813 0.5388793673
0.122500231 0.7511757759 0.7869553648
0.1124671318 0.9993117703 0.539573451
0.1225234284 1.0000668338 0.781714757
0.1524971648 1.0012710299 0.5188503587
0.1326419532 0.9989928211 0.5323325197
0.1424813717 0.9994354445 0.7748530863
0.1525844315 0.9979513542 0.019205208
0.1326180193 0.9987259452 0.0273370334
0.1524529791 0.7476673343 0.0203470401
0.1324828847 0.7471010367 0.0321866899
0.1424257714 0.7510000284 0.2761005788
0.1524802269 0.7489561496 0.5193824281
0.1324560051 0.746723505 0.5327660919
0.1425078831 0.4998860896 0.2753079978
0.1424581742 0.749939034 0.775937477
0.172413868 0.7506420241 0.0131915345
0.1623520482 0.4990704908 0.7673820213
0.172475728 0.4995990352 0.0161702029
0.1624334235 0.7506875883 0.2679602845
0.1824263472 1.002358061 0.7628143247
0.1724481119 0.7522432794 0.5134017098
0.1622964479 0.5000969866 0.2667525421
0.1624367375 0.7505313683 0.7652215247
0.1825647957 0.7524711003 0.2589611307
0.1825349703 0.7506355149 0.7594856688
0.1625575117 0.9982377576 0.267244108
0.1725328012 1.0026639919 0.5108858867
0.1725320648 0.9989016927 0.0108936941
0.192479698 1.0009390623 0.5078784976
0.2024785532 1.0015248874 0.7588551021
0.192484853 0.7510325742 0.0109005061
0.2025065375 0.7447316995 0.2618378038
0.1924465588 0.7484354162 0.5118036604
0.2025120607 0.7518722569 0.761845001
0.2324099449 0.7501798732 0.9968770124
0.2324368246 0.4997285677 0.9986444403
0.2325288781 0.7513254868 0.4973954408
0.2324184138 0.5006131636 0.4960164788
0.2224810504 1.0003337097 0.2511062024
0.2124380095 0.9984525601 0.5073648389
0.2124207035 0.9997674121 0.008965909
0.2126239577 0.750791735 0.0021991455
0.2324673863 1.0007242598 0.9981013244
0.2225314957 0.748467962 0.2533357391
0.2126206437 0.7496070664 0.5035501403
0.2224965154 0.4996114027 0.2529859356
0.2223149858 0.7507461708 0.7553009151
0.2523421132 0.7522758253 0.9928910942
0.2524190699 0.5002369337 0.9917680411
0.2425417254 0.7503751482 0.241882438
0.2524131785 0.7506485333 0.4905788764
0.2424165326 0.5011098131 0.2462457756
0.2425034312 0.7516509452 0.7456537044
0.2523653107 0.4979470084 0.4937602466
0.2622942052 0.5004309069 0.7409368811
0.2623689527 0.7497763048 0.2378164333
0.2624981958 0.7505313683 0.7365698613
0.2823511981 0.498685799 0.7338303481
0.2824366237 0.7495810297 0.2334420492
0.2823928063 0.4999980472 0.2320170604
0.2823773413 0.7488259662 0.7304206851
0.2724164121 0.7496981947 0.9857845611
0.2723917418 0.498067428 0.9843669367
0.2724775357 0.750212419 0.4828123195
0.2823983295 0.9991034769 0.2295776417
0.2823482523 0.9987324544 0.7294937059
0.3123496047 1.0001970172 0.9715899057
0.2923423208 0.7487934204 0.9800588311
0.3023540634 0.5010967948 0.7236832867
0.2924719321 0.5000527243 0.9773248411
0.3023813113 0.7490928421 0.2251194889
0.2923091815 0.7492881172 0.4835045621
0.3023949352 0.5006053526 0.2292444079
0.3023680556 0.7493271722 0.7232939002
0.3023529588 0.9990058394 0.2268712677
0.3123617558 0.7505964599 0.9727313696
0.3124022593 0.5024051376 0.9757783417
0.3124512318 0.753076453 0.4753513803
0.2923257511 0.9997543937 0.975032708
0.3325395229 0.7531675813 0.9633695249
0.3324426826 0.5037668555 0.9666558361
0.3223595063 0.7534539847 0.2215956795
0.3323355323 0.7511237025 0.4651067421
0.3224162113 0.7506875883 0.7225574719
0.3324121208 0.5025763287 0.4649281583
0.3523693276 1.000886989 0.4608778027
0.3425302774 0.9982898309 0.710794871
0.3624698099 0.7482010861 0.2070291278
0.3525169815 0.9999431596 0.9634615784
0.3624882206 0.749476883 0.7058359469
0.3623630278 0.9971051624 0.2076026213
0.3524904701 0.7503165657 0.9609853383
0.3624882206 0.9988170735 0.707373241
0.3525468069 0.5018023886 0.9621820342
0.3423693678 0.7522172428 0.213099138
0.3525059351 0.7509089 0.4592318854
0.3424448517 0.7494703739 0.7142459581
0.3922841095 0.9986673627 0.4506534163
0.3724520955 0.7490733146 0.954108939
0.3723011277 0.4981657164 0.9521389933
0.3823607382 0.7494052822 0.201687261
0.3724889169 0.7519048027 0.4532502466
0.3823791489 0.4998541946 0.1989689201
0.3822870954 0.7474069676 0.7016585574
0.3823828311 1.0005875672 0.2024190867
0.3824380632 0.9997023204 0.7014413111
0.3724115919 0.9990383853 0.9529306538
0.3723489955 0.4997943103 0.4525736531
0.3924755809 0.7489821863 0.9482175127
0.3924461237 0.7470164175 0.4475420067
0.4123554627 0.7496721581 0.9444064962
0.4123075949 0.7494964105 0.444841156
0.4123407342 0.5024370325 0.4469482614
0.4024431379 0.9984720876 0.198927496
0.4025867414 0.5002095952 0.6935348328
0.4021927522 0.7480318477 0.1967062441
0.4026235628 0.5006222765 0.1929845196
0.4023326736 0.7505508958 0.6971313645
0.4323310803 0.7526208112 0.9426390683
0.4223672054 0.7530634346 0.2001766625
0.432375266 0.7500496898 0.4434318163
0.4224703054 0.5007889112 0.1928639295
0.4223598411 0.7504532582 0.6959539997
0.4425637515 0.749320663 0.193229382
0.4425195658 0.7499585615 0.694958901
0.4326330159 0.9973329832 0.444205066
0.4225476304 0.9994289353 0.6946229056
0.4424606515 0.9972678916 0.1935975962
0.4526417727 0.9973720382 0.9358455173
0.4626498332 1.0004573839 0.1830013135
0.4726394831 0.997632405 0.4323522526
0.4626719261 0.9975998591 0.6840634443
0.4524981692 0.749203498 0.938597918
0.4526123156 0.753076453 0.4370156848
0.472481151 0.7504337307 0.9322922508
0.462565144 0.7515793443 0.184339772
0.4724921974 0.7489756771 0.4306004738
0.4626571975 0.7497047039 0.6865378434
0.4724737867 0.5001360416 0.432337524
0.4825333972 0.9999822146 0.1787880232
0.4926040542 0.9989212202 0.4263347129
0.4926408756 0.9975347674 0.9299080641
0.4825407615 0.4979652341 0.6799937575
0.4925009542 0.7504011849 0.4324967766
0.482500258 0.7481815586 0.1786646714
0.4925856435 0.7460465515 0.931960858
0.4825149865 0.7489040763 0.6809952999
0.5125502146 0.9996046829 0.4325998766
0.5124507968 0.9994354445 0.9327341077
0.5026047505 0.9995395912 0.1805333582
0.5225214537 0.7499064881 0.6880484419
0.5225730037 0.9985957618 0.1834394884
0.5224404466 0.9994224262 0.6854442474
0.502593704 0.7495419747 0.1822694879
0.5026599826 0.4994987941 0.1796579291
0.5025826576 0.7513840693 0.6807826563
0.5025789755 0.4997741319 0.6795187612
0.5126606789 0.749164443 0.9327433131
0.512587036 0.5002857525 0.9332956343
0.5125538968 0.7464566291 0.4336980753
0.5226466466 0.5001698893 0.1828586306
0.522554593 0.7497177223 0.1890777675
0.5326178857 0.7513385051 0.4360785798
0.5325810643 0.50130639 0.4392001152
0.5325810643 0.9987389635 0.9406138905
0.5426001713 0.9996372287 0.1890004426
0.5526119139 0.9980620101 0.4429595817
0.552508814 0.7487478562 0.9425838362
0.5426738141 1.0015899791 0.6879784813
0.5425081177 0.749515938 0.1947206493
0.5525382711 0.7507656983 0.4423943729
0.5426480391 0.7490082229 0.6918953593
0.5326031571 0.7497828139 0.9404113727
0.5625684245 0.9995461004 0.1902707814
0.5625647424 1.0000863613 0.691642212
0.5624211389 0.7490537871 0.1929909634
0.5624947817 0.7496526306 0.6925342108
0.5725764851 1.000926044 0.4435846252
0.5725654386 0.9986217985 0.9453086209
0.5725985779 0.748585127 0.9442868266
0.5725875315 0.7497828139 0.4425241684
0.6024276061 0.9998259946 0.2022046019
0.5924121812 0.7493792455 0.9501414316
0.5925336919 0.9996827929 0.4491437383
0.6025196596 1.0000668338 0.7062870092
0.5924600491 0.9996242104 0.9539616534
0.6023429168 0.7502775107 0.2084209773
0.6023318704 0.5003072327 0.2037768763
0.5924784598 0.7488064387 0.4496850131
0.6023944668 0.7491904796 0.7044864421
0.5823967564 0.9993508253 0.195064009
0.5825403599 1.0021823134 0.6977877062
0.582569817 0.7497697956 0.1948173056
0.5825882277 0.7498544148 0.6941653995
0.6124577595 0.747732426 0.9557566974
0.6124062095 0.7490407688 0.4562475097
0.6125461308 0.9998390129 0.9578371073
0.6225210521 1.0002751272 0.2112221664
0.6225063236 0.7476087518 0.2123636303
0.6224768664 0.749359718 0.7097951695
0.6425813589 0.9998455221 0.7170756838
0.6525673266 0.9986478352 0.9695371119
0.6325843448 0.9986738718 0.9637193283
0.6323008199 0.7481815586 0.9638297926
0.6325659341 0.5000943829 0.9643176763
0.6324996555 0.7489691679 0.4647486539
0.6523869017 0.7506420241 0.9722250751
0.6524826374 0.5004803766 0.9736150835
0.6425445375 0.750056199 0.2195971972
0.6424856232 0.5015172871 0.2199387158
0.6524016303 0.75083079 0.4718846441
0.6424856232 0.7505183499 0.7177771317
0.6723220157 0.7507071158 0.9819275179
0.6725061227 0.5008943597 0.9811726789
0.682455269 1.0002881455 0.2299421737
0.672539262 0.9977625883 0.4775164795
0.6825178654 0.997788625 0.7311488285
0.6825252297 0.751878766 0.2335617188
0.6723772478 0.750056199 0.4799476134
0.6823963548 0.7500041256 0.7330119921
0.6623434123 0.7503491116 0.226202959
0.6624612408 0.7510716292 0.7280880484
0.7024898008 1.0018633642 0.2341609873
0.7025339865 0.5002395374 0.7306278055
0.6925922045 0.7505964599 0.9832807049
0.6925958867 1.0004964389 0.4827856239
0.7026186758 1.0014467774 0.7353676421
0.6926511188 1.0014858324 0.9859226415
0.7024382509 0.7514817068 0.234244756
0.702467708 0.5016129718 0.232083339
0.6925848403 0.7537794431 0.4847049402
0.7024898008 0.7519308394 0.7376597752
0.7224580541 0.5010538343 0.7390820024
0.7325287111 0.7496981947 0.9956895217
0.7226532076 0.750251474 0.2424909119
0.7224801469 0.5010375614 0.2387839159
0.7324882075 0.7500431807 0.4943512303
0.7225243326 0.7497307406 0.7424042145
0.7225537898 1.0004378564 0.7444542468
0.7124831328 0.7532587097 0.9868247661
0.7125899149 0.7498153598 0.4852683078
0.7424925859 0.500586476 0.7500777974
0.7425073145 0.7500431807 0.2472776958
0.7424889038 0.4995729986 0.2487542345
0.742573593 0.7477779902 0.7485377417
0.752515375 0.4992423328 0.503451643
0.75254115 0.7487218195 0.0012981255
0.762586032 0.5010772673 0.7532002533
0.7626338998 0.7515923626 0.2526803179
0.7625749856 0.499100433 0.252228335
0.7524785536 0.7473158393 0.5015627044
0.7625749856 0.7500366715 0.7496147681
0.7825800602 0.7515793443 0.2540335049
0.782443821 0.4988979979 0.2553029232
0.7726014568 0.7496851764 0.5039220366
0.7825653317 0.7519829127 0.7540471459
0.7726272318 0.9997413754 0.5068723524
0.7726898282 0.4994304478 0.5049898576
0.7725609533 0.7487738929 1.7880971294e-04
0.7825027353 0.4992052306 0.7579428516
0.7725719997 0.5002968181 0.0033071939
0.7925071137 0.7499064881 0.5092767908
0.8125379633 0.4997168512 0.5212106114
0.8124790491 0.7487869112 0.0183995554
0.8025593599 0.4996309302 0.7652647899
0.8025151742 0.7519633852 0.263392588
0.8024231207 0.5006600296 0.266308844
0.7926065315 0.4980505042 0.5142430792
0.7925439351 0.7516183993 0.0089983118
0.8125121883 0.7518852752 0.5173204289
0.7925255244 0.497566873 0.0123700488
0.8025740885 0.7496396122 0.7642503599
0.8325724951 0.5012002906 0.5310327238
0.8323736595 0.7497958323 0.0287030158
0.8224355596 0.5016045099 0.7732485932
0.8323773416 0.5018323308 0.0274148186
0.8224061025 0.7488324754 0.2707743611
0.8224686989 0.4980778427 0.275077864
0.8323589309 0.7487608746 0.5263214238
0.8225570703 0.7506680608 0.7694762392
0.8623794304 0.7491839705 0.7890845632
0.8622505555 0.5007088484 0.7881078751
0.8524045092 0.7510846475 0.0352189334
0.852426602 0.5001809549 0.0338185229
0.8624898947 0.7523344078 0.2900291995
0.8623352447 0.4990522651 0.2874305281
0.8523934627 0.7528160862 0.5368569511
0.8424038129 0.7511757759 0.282574704
0.8423780379 0.5001087031 0.2830358923
0.8422491629 0.7511367209 0.7792090597
0.8524302841 0.500313091 0.5355810891
0.8724611338 0.5047119867 0.5431810291
0.882642255 0.7520545136 0.7985900114
0.8923594264 0.5037447244 0.5485090878
0.8724500874 0.7515728351 0.0466535476
0.8925251227 0.7524450637 0.0485691817
0.8823881872 0.5019501467 0.7950956591
0.8725016374 0.5020536425 0.0408636563
0.8924330692 0.5045232209 0.0478127778
0.8824434194 0.7513710509 0.2998991797
0.882539155 0.500391201 0.2927309708
0.8725752802 0.7521326236 0.542646198
0.8925288049 0.7510911567 0.5528319219
0.8824360551 1.0015509241 0.295936275
0.8824728765 1.0004313472 0.7944015755
0.9125412438 0.7515012343 0.5543544874
0.9125817474 1.0012710299 0.0530543982
0.9125486081 0.5027117194 0.5525889006
0.9025479119 0.7536557689 0.8000831198
0.9124823296 0.7513254868 0.0538897841
0.9123939582 0.5029453985 0.0511413416
0.9024889976 0.7532847463 0.3011400614
0.9025589583 0.500579316 0.2997703048