POSCAR file written by Ovito 3.7.11
1
32.6671699896 0 0
0 15.3789908628 0
0 -1.631290053e-05 10.9269078185
Sr Ti O
96 96 288
Direct
0.2493229295 0.2493956975 0.07957130680000001
0.0830333488 0.2480783141 0.0779347963
0.1670562379 0.2516425345 0.3300440889
0.2492568081 0.2524419386 0.5770069117
0.08381915299999999 0.2491075193 0.5767332753
0.1675123533 0.2518491857 0.8258311944
0.0822135655 0.5003458408 0.0772100716
0.1677557169 0.4994734813 0.3218953974
0.0836217071 0.5011201538 0.5769940993
0.1674900067 0.4993036495 0.8220066907
0.4161622976 0.2523542709 0.07186583320000001
0.3328492956 0.2506073535 0.3276939272
0.4181214511 0.2480950978 0.575443798
0.3325431779 0.2503952537 0.8253772691
0.4160980129 0.5006768096999999 0.07527118820000001
0.2491380344 0.5017516519 0.0744933835
0.3340951948 0.499946856 0.3234365471
0.4165235166 0.4961490864 0.5769895234
0.250143325 0.5014270602999999 0.5716202094
0.3332564322 0.5008226036 0.8208709622
0.5825923864 0.2496655351 0.0691490536
0.6667074169 0.2492893205 0.3265765022
0.5837740008 0.2490177818 0.5723358739
0.6671604711 0.2502151381 0.825610638
0.5832842123999999 0.5031568138 0.07275409920000001
0.7488020703 0.499734617 0.0768904935
0.666260485 0.4974011819 0.3295929091
0.5833944148 0.5003008547 0.5774214846
0.7502193954 0.4967232461 0.576768967
0.6664135438 0.4982821286 0.8244364722999999
0.7495459364 0.2510225898 0.0772409129
0.9156546015 0.2497468237 0.0776042362
0.8341599387999999 0.2469536668 0.3267540455
0.7499438895 0.2484156685 0.5787786847
0.9174637573 0.2490216836 0.5727339737
0.8326875124999999 0.2506533987 0.8259785371
0.916542343 0.4989959487 0.0785113546
0.8329079173 0.5005502815 0.3280178981
0.9162576535 0.498627146 0.5804223336
0.8330915879 0.4991710057 0.8263921948
0.0840811898 0.997732182 0.0769982093
0.1666414483 0.9993775476 0.3260209928
0.08310681709999999 1.0022323555 0.5751793132
0.166645734 1.0012832714 0.8231625529
0.2495280284 0.7495039271 0.0730507064
0.08429302330000001 0.7518057691 0.07353693729999999
0.1668009357 0.7524497704999999 0.324361786
0.2517247292 0.7502327244 0.5737223594
0.0842911866 0.7502197232 0.5770965986
0.1668058336 0.7490560617000001 0.8259529123
0.4168633072 0.9987010348000001 0.07564714090000001
0.2495812929 1.0000275178 0.0738514819
0.3343247831 1.0004309358 0.3289696769
0.4163184177 1.0012765061 0.5752827277
0.2494453766 1.0040790261 0.5709512186
0.3334982652 1.0023756731 0.8253534746
0.4158776081 0.7478458220999999 0.0742080329
0.3339543806 0.7548621516 0.3235710774
0.4171051403 0.7487696923 0.5763772734
0.3348023267 0.7480091827000001 0.8295413017
0.58296585 0.9992927485999999 0.0732434416
0.7509785674 0.9998519557 0.07577425829999999
0.6667747628 0.9981160824999999 0.3223676262
0.5833087018999999 1.0000085395 0.5723660745
0.7494204282 0.995873032 0.5765630533
0.6652992753 0.9983181872 0.8229731123
0.583881142 0.7505117944 0.0720151893
0.6668451698 0.7485938649 0.3281515132
0.5838260408 0.750154697 0.5748150748
0.6658625319 0.7486529132999999 0.8250706865
0.9179566069 0.9973615482 0.0786179722
0.8328926114 0.9964254715999999 0.329150881
0.9170290702 0.9975831593 0.5785151152
0.8327150631 0.9981296212 0.8256902578999999
0.7495275694 0.7483204972 0.0756408262
0.9163984676 0.74517985 0.0766185044
0.8339425952 0.7494261675 0.3266213456
0.7496836894 0.7502717407 0.5756131048000001
0.9178525269 0.7448227502 0.5771926916
0.832592616 0.7493356632 0.8253452381
6.15461561e-10 0.2499980806 0.3274989955
6.15461561e-10 0.2499973105 0.8275032136
6.15461561e-10 0.4999982283 0.3267677731
6.15461561e-10 0.4999987587 0.8267701609
0.499998761 0.2499948251 0.3234832208
0.499998761 0.2499947052 0.8234828631
0.499998761 0.4999969236 0.3227986722
0.499998761 0.4999968038 0.8227992296
6.15461561e-10 1.0000017766 0.3267686883
6.15461561e-10 0.9999958046 0.8267674154
6.15461561e-10 0.7499983776 0.3275017411
6.15461561e-10 0.749998908 0.8274986378
0.499998761 0.99999527 0.322797757
0.499998761 0.9999958004 0.8228001448
0.499998761 0.749991871 0.3234823057
0.499998761 0.7499924014 0.8234837782
0.1661583946 0.1254506332 0.0789356284
0.0823158088 0.1278385698 0.3274889287
0.1656104438 0.1268472213 0.5763781886
0.0826433548 0.1268754498 0.8292960356
0.1669487905 0.3746483835 0.0743335945
0.08377997 0.3761598046 0.3275383479
0.1663188002 0.375739364 0.5757009613
0.08216030100000001 0.3760068765 0.8253186981
0.333599284 0.126736152 0.0778462992
0.4170806508 0.1246881642 0.3238840662
0.2497992487 0.1249196518 0.3266433097
0.3335778558 0.1262223447 0.5781307429
0.4170133049 0.1257446842 0.8272899786
0.2501338354 0.1263734658 0.8288631592
0.3325033826 0.3765691869 0.0754309772
0.41611638 0.3743696948 0.3224756165
0.2501482229 0.3767931311 0.3228288729
0.3333850016 0.3765528087 0.5731814928
0.41632454 0.3744352507 0.824205849
0.2501564881 0.3754970903 0.8255108842
0.6662329344 0.1256996698 0.07472702689999999
0.5832964572 0.126043259 0.3232791375
0.7495765482 0.1241517178 0.3236140904
0.6670104734 0.1233053756 0.5755911406000001
0.5835627796 0.1249975561 0.8225548787
0.7511775439 0.1245931122 0.8263116597
0.666018652 0.3762947852 0.0740737772
0.5826658546 0.375428285 0.3255011751
0.7496622612 0.374660356 0.3271521454
0.6659390614 0.3739999787 0.5763177872
0.5830668689 0.3758651228 0.8235643134
0.7493438987 0.3736133542 0.8279324293
0.8332262797 0.1232996453 0.077505123
0.9167015242 0.1243864557 0.3256064199
0.833541581 0.1253341156 0.5740801917
0.9158321498000001 0.1249071773 0.8266017691999999
0.8333272986 0.3741886697 0.0783371059
0.9162607146 0.3757033398 0.3295434898
0.8331191385 0.3758531564 0.5764266927
0.9172647808 0.3729052437 0.8264535114
0.0840309865 0.6256202554 0.3271484847
0.1668064458 0.6265106944 0.5756286627
0.0834961988 0.6252976168 0.8264342928
0.1673513354 0.8771455938 0.0746587551
0.083241815 0.8755007582 0.3252394359
0.167498578 0.8765283989 0.5752031077
0.0835384431 0.8769773291 0.8261039157
0.1667011413 0.6250016138 0.07683649839999999
0.2501806714 0.6268446519 0.3261298982
0.3342145807 0.6256328716 0.5738587201000001
0.4168480014 0.6247429613 0.8238361195
0.251079433 0.6241161319 0.8235798713
0.3342145807 0.8758581212 0.0729094954
0.416704126 0.8748895322 0.3229350328
0.2511372893 0.8767622155 0.3215988817
0.3337829547 0.8742785774 0.5762015604
0.4171724862 0.8745844531 0.8250542134
0.250769948 0.8747925251999999 0.8212763834
0.3337829547 0.6258430203999999 0.07583786269999999
0.4174051356 0.6249140976999999 0.3275767852
0.6664900733 0.6234566486000001 0.0764684162
0.5825311627999999 0.6258426357 0.326235143
0.7492092069 0.6226090041 0.3267998041
0.6661594661 0.6230072129000001 0.5749990243999999
0.5833331913000001 0.6239054550000001 0.8236814554
0.7490102304 0.6252065843 0.8271655152
0.6666339486 0.8749868029 0.0730776125
0.5836148195999999 0.8753967168 0.3221251056
0.7514469275 0.8718919356 0.3222239442
0.667953316 0.8733942511 0.5732977196
0.5831403371 0.8732384559 0.8202001410999999
0.749677567 0.8750071101 0.8273970537000001
0.8324395572 0.6243897393 0.07609658179999999
0.9169066231 0.6247762459 0.3262964595
0.8323691501 0.6247004351 0.5780291588000001
0.9158229663 0.6244458059 0.8269120125
0.8342456518 0.8737123398 0.07575531420000001
0.9166035665 0.8735760558 0.3265142705
0.8342701412 0.8735633184 0.57848766
0.9168392772 0.8746559833000001 0.828830213
6.15461561e-10 0.1247984428 0.077065932
6.15461561e-10 0.1247996234 0.5770673131
6.15461561e-10 0.3751965368 0.0770660235
6.15461561e-10 0.375196417 0.5770682282
0.499998761 0.125173506 0.5731741714
0.499998761 0.1251736258 0.073173431
0.499998761 0.3748186247 0.5731732562
0.499998761 0.3748187446 0.0731728819
6.15461561e-10 0.6247979698 0.5770663979
6.15461561e-10 0.8751948832000001 0.0770662981
6.15461561e-10 0.8751954135 0.5770663979
6.15461561e-10 0.6247987399 0.07706657259999999
0.499998761 0.625173803 0.5731732562
0.499998761 0.6251732727 0.0731733394
0.499998761 0.8748182715 0.5731732562
0.499998761 0.8748177412 0.07317297339999999
0.2083453976 0.3819941276 0.6953935607
0.2073633719 0.3676384472 0.9480816995
0.0419554103 0.3840729426 0.7000609378
0.0823944811 0.499455824 0.8397820763
0.1249004588 0.3663990965 0.9503513260999999
0.042201529 0.1367526907 0.9517515392
0.1259235043 0.1168357636 0.2014807273
0.1657362582 0.2500394458 0.091839462
0.2096408878 0.114953324 0.2001656252
0.2086916168 0.1314514211 0.4505749858
0.2493492556 0.2502575092 0.3121826771
0.0406596139 0.1176427107 0.2034245527
0.0418051065 0.1319787673 0.453736905
0.0829050855 0.2498576081 0.3075766164
0.1247721955 0.1366201619 0.4515743536
0.1249962737 0.1177953935 0.700439819
0.1671401141 0.2530564226 0.5857806656
0.207881017 0.1222209153 0.7040373601
0.2075121451 0.1338994434 0.9478620582
0.2504365858 0.2524870525 0.8103647877
0.0419682672 0.1156437557 0.6993352064
0.08321273379999999 0.2482559562 0.8108278648
0.125649835 0.1313102012 0.9520169391
0.041093995 0.3637799377 0.9491249956
0.1249466826 0.3829071882 0.201915434
0.1672420513 0.4989621186 0.061842778
0.2091544668 0.3838292176 0.1946425622
0.2064367535 0.3683297621 0.4408403013
0.0426031554 0.3834670379 0.1972608693
0.0400415622 0.3668946941 0.4471110598
0.0822919317 0.4998018822 0.3509438716
0.1240904713 0.3646871418 0.4516210274
0.1246430138 0.3812001899 0.6978032085
0.1662024755 0.5021371033000001 0.5559890717
0.3736547893 0.3848935455 0.7027780835
0.3747445684 0.3707433362 0.9517423875
0.4154765939 0.5011581443999999 0.837955393
0.2490158934 0.4984108886 0.8366320543
0.4583055258 0.3654107331 0.9484111614
0.2905735184 0.3685630905 0.9530144766
0.459689178 0.1182123156 0.2002699548
0.2929297066 0.1147211902 0.2011512654
0.3327605215 0.252973319 0.0924224265
0.3761802606 0.1166192286 0.1959869499
0.3756874111 0.1332941953 0.4509694249
0.4156786316 0.250837512 0.3035205742
0.4581279776 0.1354776907 0.4483044441
0.4574637021 0.1166366686 0.6992189796
0.2919758437 0.1335503882 0.450246439
0.2917624797 0.1202682471 0.6999922999
0.3344778419 0.2512578667 0.5873886228
0.3751670109 0.1168343431 0.7013128931
0.3743435542 0.1388366987 0.9481274581
0.4160612788 0.2529181609 0.8111307867000001
0.4579443069 0.133222548 0.9498479815
0.2913519758 0.1330716968 0.9535086694
0.4582596082 0.3836718643 0.1986867073
0.292397674 0.3843949327 0.202484671
0.3351421174 0.5032887997 0.0611185109
0.3749251779 0.385421008 0.2026292682
0.3745211025 0.3697960562 0.4484572778
0.4172398321 0.5006419806 0.3427485065
0.2493905815 0.5006614853 0.3404248848
0.4600503969 0.365826352 0.4457245742
0.4579718575 0.3857785109 0.6951537856
0.2898633253 0.367200963 0.4536371513
0.2912436101 0.382600804 0.6997552704
0.3332380651 0.4990504305 0.561268699
0.6239274638 0.3889056246 0.1956794521
0.625053977 0.3686835018 0.4506024409
0.5823199416 0.4995144677 0.3420575516
0.7482541196 0.4999481768 0.3426121458
0.5417685256 0.3637416929 0.4485561164
0.5413797561 0.3802157293 0.6971470302
0.7077884165 0.3673817273 0.4519816051
0.7082598379 0.3793132039 0.7014602358000001
0.6669768005 0.5003665096 0.5593935115000001
0.6245550050999999 0.3866654409 0.7005743493
0.6258896784 0.3675005978 0.9489968715
0.5819709674 0.5000247826000001 0.8403860898
0.7486918679 0.4980513119 0.8410624019
0.5411226172 0.3678725317 0.9470933137999999
0.7088077886 0.3682607273 0.9505526639
0.5430511589 0.1166575925 0.1958039155
0.7102832761 0.120419868 0.1958295403
0.6651064211 0.2504933111 0.0912354484
0.6260274313999999 0.1142770784 0.2016793197
0.6237774661 0.133608912 0.4525517573
0.5840954244 0.2493809797 0.3036615107
0.541223636 0.1337831703 0.4474094059
0.5413338384 0.1167049395 0.6954246764999999
0.7084465697 0.1366312122 0.4480930393
0.7089026851 0.1202734481 0.69914119
0.6648156093000001 0.250067938 0.5933354104
0.6251366288 0.1147022139 0.7016130695
0.6254886642 0.1354183993 0.9484111614
0.5834617607 0.2502021162 0.8094395489
0.5409573136 0.1364262673 0.947999334
0.7087373815 0.1372644253 0.9494727609
0.5420562762 0.3819968515 0.1982318668
0.7074455647 0.3814311478 0.2012436978
0.6669584334000001 0.4993847641 0.053267891
0.7922707883 0.3856167322 0.2051569732
0.7909024421 0.3718729211 0.453725923
0.9583304746 0.3819493878 0.2016884714
0.9570692695 0.3641012807 0.4545687964
0.9180882375 0.4987387408 0.3484308094
0.8731103591 0.363384059 0.4456174991
0.8761317411 0.3818588798 0.6969072551
0.8341476941 0.4994171646 0.5613409975
0.7922616048 0.3818738417 0.7029528813
0.7918207953 0.366610426 0.9524836768
0.9603171787 0.3856432721 0.7052270837
0.9161535734 0.4997633919 0.8449573739
0.8750082890000001 0.364460738 0.9504886019
0.9584621052 0.1320007495 0.9480816995
0.8751093079 0.1146379593 0.2007083222
0.8332875033 0.2512560469 0.0977642854
0.7926595578 0.1148538366 0.1991763243
0.7927636379 0.1289785628 0.4465189435
0.7521173254 0.2530925454 0.3119740179
0.9571611048999999 0.1142764225 0.1963429518
0.958061091 0.1335562404 0.4503544293
0.9161382675999999 0.2486618258 0.3122201991
0.8748154349 0.1317316718 0.4488883238
0.8765327553 0.1169292692 0.6931669472
0.8317324252 0.249840355 0.5935623731
0.7918881412 0.1145448574 0.7025822367
0.7917412047 0.1282176704 0.9518613598
0.7524081372 0.2485192987 0.8073126891
0.959028423 0.1173668879 0.7013989193
0.9153423614 0.2491506809 0.8085774568
0.8744450324 0.1327628299 0.9498022229
0.9576692603 0.3623117057 0.9536825521
0.8758195009999999 0.3858020444 0.1999231046
0.8338813717 0.5008296016 0.0620709304
0.0418654117 0.6320790814 0.9540394692
0.124040268 0.6149536177 0.1970000453
0.1657582987 0.7498355669 0.0906004106
0.2075782666 0.6182438256 0.2017571093
0.2092827301 0.6351665283 0.4524483428
0.2501010808 0.7522546782 0.3045272634
0.0405803294 0.6158145404000001 0.2045136073
0.0427926423 0.635485795 0.4524153967
0.0835488511 0.7507006128 0.3071281822
0.1262988046 0.6378968727 0.4489029666
0.1256954466 0.6204928776999999 0.7014245441
0.1678102058 0.7531718171 0.5909138653
0.208653352 0.6167715611 0.6956946522
0.209498237 0.6336481004 0.9496466436
0.2509839243 0.7481001903 0.8052727708
0.0410254246 0.6187593474999999 0.704754855
0.08318977499999999 0.7495047103 0.8114666548
0.1254980006 0.6295802092 0.9459127419
0.041476336 0.8679456577 0.9492348162000001
0.1266839007 0.8856378329 0.2013654157
0.1678503073 1.0001705555 0.06004657
0.208759881 0.8841227775 0.1999908273
0.2080879526 0.8700844076000001 0.4474533341
0.0417711274 0.8820550257000001 0.2039352186
0.0406902257 0.8696032346 0.4502272204
0.0842621054 1.0007105546 0.3445449891
0.1236508862 0.8681076921999999 0.4543491551
0.1254141244 0.8832975092000001 0.7030123675
0.1672408269 1.00056123 0.5614910858
0.2079716279 0.8833625305 0.7006905762
0.2090794679 0.8686219033 0.9476607204
0.0419716345 0.8846434971 0.6991228865
0.08356599369999999 1.0017059509 0.8466614241
0.1247045435 0.866320067 0.9526667112
0.4584187894 0.616632532 0.197472274
0.2907776989 0.6166318796 0.1953902577
0.3333513287 0.7499461055 0.08888885589999999
0.3751057874 0.6221751615 0.200382521
0.3771720821 0.6347412745 0.4539794256
0.4176990087 0.7517279928 0.3113443795
0.4607605901 0.6323282302 0.4426166501
0.4567596313 0.6179588931 0.6936904256
0.2930766431 0.6327118724 0.4444122176
0.2918736004 0.6181923319 0.6969255586000001
0.3343860066 0.7495564967 0.5921374503
0.3746343661 0.6182137953 0.7022042706
0.3762874018 0.633566822 0.9508638224
0.4160674011 0.7492511169 0.8107720393
0.4598881545 0.63155498 0.9447504735
0.2925455288 0.6288415402999999 0.9469926448
0.4580912434 0.8832839647 0.1941739942
0.2921867589 0.8858003939 0.2029257839
0.334272743 0.999377264 0.0587045618
0.3740588647 0.8833359946 0.2044257508
0.3760027123 0.8697007733 0.4531319763
0.4176041122 1.0009966512 0.3370277663
0.2513099397 1.0018809813 0.3434092606
0.458360627 0.866898242 0.4468236958
0.4575034974 0.8847865501 0.6997140876
0.291765847 0.8641867535 0.4493953291
0.2919173752 0.882614754 0.697779414
0.3339574418 0.9998979842 0.5583081176
0.3738292764 0.8790904736 0.7053927299
0.3761435265 0.8647204865 0.9567300748000001
0.4154796551 0.9997097151 0.8410422681
0.2504947482 1.0031689792 0.8405050621
0.4594044885 0.8671978812 0.9462788107
0.2920685974 0.8670418268 0.9488321405
0.5427236129 0.6178809907 0.1995707634
0.7073935247000001 0.6174895548 0.2063988616
0.6651798893999999 0.7493738999 0.09223481629999999
0.6247692875 0.6142858249000001 0.1982016661
0.6262539585 0.6321039019 0.4460668485
0.5842729727 0.749218069 0.3054570781
0.5431429942 0.6382083413 0.4532930466
0.5397512097 0.6173021607 0.7009459091
0.7087863604 0.6347620834 0.4552332112
0.707105774 0.6154632917 0.7040291236
0.6647329575000001 0.7499336376 0.5949726531
0.6228162564 0.6136361171 0.6978718464
0.6242580709 0.6299235396 0.9504611467
0.584294401 0.7490885524999999 0.8060662249
0.5419736245 0.6326655906 0.9491341473
0.709074111 0.6355747603 0.9548905791
0.5424419846 0.8829913617 0.197918878
0.7085139156 0.8841032693999999 0.1991031105
0.6676196477 1.000138042 0.0585617949
0.6250968335 0.8853322171 0.1976003981
0.6238815461 0.8660529357 0.4493495705
0.5836668596 0.9999042579 0.3427384396
0.7494479787 1.000463462 0.3424217901
0.540360384 0.8676070014 0.4470351005
0.5407767041 0.8817824522 0.7000938840000001
0.7084986097 0.8641997611 0.4520960016
0.706915981 0.8823416618 0.7050184245
0.6672492453 0.9989031226 0.5603864732
0.6236611413000001 0.8820295393000001 0.6970930351
0.6253754006 0.8712163534 0.9491432990000001
0.5823260639 1.0000088231 0.8397399784
0.7479357571 0.9979475715 0.8416645851
0.5426807564 0.8642067911 0.949536823
0.7081037178 0.8607020111 0.950808912
0.9581070087 0.6341995021 0.9497473125
0.8752164491 0.6200735939000001 0.2010615786
0.8305967284 0.7495429609000001 0.0915356249
0.7903789807 0.6185435821 0.1987699879
0.7910310115 0.6330578068 0.4519047307
0.7507000002999999 0.7496797414 0.3089127675
0.9585355735 0.618012339 0.1998956495
0.9593804584 0.6312644467 0.4476821271
0.9174362067 0.7498748156 0.3115667663
0.8764898989 0.6347770359 0.4524803739
0.8733583145 0.6172872084 0.7039092361
0.8326783290000001 0.7465654023 0.5912964072
0.7900789854 0.6159776225 0.6972650874
0.7921054848 0.6312734297 0.9473221068
0.7511683604 0.7491730904 0.8127094584
0.9575896697 0.6171194407 0.6979285871000001
0.9176351833 0.7495372165999999 0.8061458449
0.8755164445 0.6339075508999999 0.9549912481
0.9569713119 0.8665281463 0.9556501719
0.8754307314999999 0.881515324 0.1998077929
0.8334405622 0.9991496804 0.0583339171
0.7912605998 0.8847665109 0.1981247917
0.7904034702 0.8673599152 0.4509511215
0.9594294373 0.8863140821 0.2032543307
0.9583121075 0.8671648441000001 0.4511643565
0.9156852133 0.9979210372 0.3468896597
0.8745307454 0.8636340551 0.4528446123
0.8744174818 0.8800983422999999 0.7056242684
0.8329324067 0.9981943652 0.5619193862
0.7920320165 0.8816849192 0.7025822367
0.7924269084 0.8673214317 0.9513305600999999
0.9590559735999999 0.8838372094 0.7057880842000001
0.9161566346 0.9990204579 0.8361186428
0.8745919689 0.8637256185 0.9526575595
6.15461561e-10 0.2499978325 0.0936515025
6.15461561e-10 0.2499983629 0.5936566358000001
6.15461561e-10 0.499997945 0.0596870904
6.15461561e-10 0.4999984754 0.5596827059
0.499998761 0.4999959914 0.0569639962
0.499998761 0.2499958781 0.0901682664
0.499998761 0.2499957582 0.5901698305
0.499998761 0.4999965218 0.5569618996
6.15461561e-10 0.7499981296 0.0936533328
6.15461561e-10 0.74999866 0.5936520599
6.15461561e-10 0.9999949909 0.0596843449
6.15461561e-10 0.9999955213 0.5596845362
0.499998761 0.7499981259 0.090166253
0.499998761 0.7499986563 0.5901725759999999
0.499998761 0.9999955184 0.5569618996
0.499998761 0.999994988 0.056965735
