Tetragonal STO                          
   1.00000000000000     
     5.4298963889347309    0.0000000000000007   -0.0000000597962548
     0.0000000000000007    5.4298963889511924   -0.0000000597901107
    -2.7149482372977793   -2.7149482373015990    3.8685235219750225
   Sr   Ti   O 
     2     2     6
Direct
  0.2500000000000000  0.7500000000000000  0.5000000000000000
  0.7500000000000000  0.2500000000000000  0.5000000000000000
 -0.0000000000000000 -0.0000000000000000 -0.0000000000000000
  0.5000000000000000  0.5000000000000000 -0.0000000000000000
  0.2500000000000000  0.2500000000000000  0.5000000000000000
  0.7500000000000000  0.7500000000000000  0.5000000000000000
  0.7240914709011805  0.2240914709011738 -0.0000000000000000
  0.2759085290988334  0.7759085290988195  0.0000000000000000
  0.2240914709011738  0.2759085290988334  0.0000000000000000
  0.7759085290988195  0.7240914709011805 -0.0000000000000000
 
  0.00000000E+00  0.00000000E+00  0.00000000E+00
  0.00000000E+00  0.00000000E+00  0.00000000E+00
  0.00000000E+00  0.00000000E+00  0.00000000E+00
  0.00000000E+00  0.00000000E+00  0.00000000E+00
  0.00000000E+00  0.00000000E+00  0.00000000E+00
  0.00000000E+00  0.00000000E+00  0.00000000E+00
  0.00000000E+00  0.00000000E+00  0.00000000E+00
  0.00000000E+00  0.00000000E+00  0.00000000E+00
  0.00000000E+00  0.00000000E+00  0.00000000E+00
  0.00000000E+00  0.00000000E+00  0.00000000E+00
