Sr Ti O 
 1.0000000000000000
    34.9546388237903614    0.0000000000000000    0.0000000000000000
     0.0000000000000000   15.6192183281608035    0.0000000000000000
     0.0000000000000000    0.0000000000000000   11.6371520466789136
 Sr  Ti  O  
  96  96 288
Direct
  0.4166666666666666  0.0000000000000000  0.0207545336265937
  0.2500000000000000  0.0000000000000000  0.0776104873068462
  0.0833333333333334  0.0000000000000000  0.1344664409870987
  0.5000000000000000  0.0000000000000000  0.2442449175898505
  0.3333333333333333  0.0000000000000000  0.3011008712701030
  0.1666666666666667  0.0000000000000000  0.3579568249503556
  0.0000000000000000  0.0000000000000000  0.4148127786306081
  0.4166666666666666  0.0000000000000000  0.5245912552333599
  0.2500000000000000  0.0000000000000000  0.5814472089136125
  0.0833333333333334  0.0000000000000000  0.6383031625938650
  0.5000000000000000  0.0000000000000000  0.7480816391966162
  0.3333333333333333  0.0000000000000000  0.8049375928768687
  0.1666666666666667  0.0000000000000000  0.8617935465571213
  0.0000000000000000  0.0000000000000000  0.9186495002373738
  0.4166666666666666  0.2500125113789752  0.0207545336265937
  0.2500000000000000  0.2500125113789752  0.0776104873068462
  0.0833333333333334  0.2500125113789752  0.1344664409870987
  0.5000000000000000  0.2500125113789752  0.2442449175898505
  0.3333333333333333  0.2500125113789752  0.3011008712701030
  0.1666666666666667  0.2500125113789752  0.3579568249503556
  0.0000000000000000  0.2500125113789752  0.4148127786306081
  0.4166666666666666  0.2500125113789752  0.5245912552333599
  0.2500000000000000  0.2500125113789752  0.5814472089136125
  0.0833333333333334  0.2500125113789752  0.6383031625938650
  0.5000000000000000  0.2500125113789752  0.7480816391966162
  0.3333333333333333  0.2500125113789752  0.8049375928768687
  0.1666666666666667  0.2500125113789752  0.8617935465571213
  0.0000000000000000  0.2500125113789752  0.9186495002373738
  0.4166666666666666  0.5000250227579504  0.0207545336265937
  0.2500000000000000  0.5000250227579504  0.0776104873068462
  0.0833333333333334  0.5000250227579504  0.1344664409870987
  0.5000000000000000  0.5000250227579504  0.2442449175898505
  0.3333333333333333  0.5000250227579504  0.3011008712701030
  0.1666666666666667  0.5000250227579504  0.3579568249503556
  0.0000000000000000  0.5000250227579504  0.4148127786306081
  0.4166666666666666  0.5000250227579504  0.5245912552333599
  0.2500000000000000  0.5000250227579504  0.5814472089136125
  0.0833333333333334  0.5000250227579504  0.6383031625938650
  0.5000000000000000  0.5000250227579504  0.7480816391966162
  0.3333333333333333  0.5000250227579504  0.8049375928768687
  0.1666666666666667  0.5000250227579504  0.8617935465571213
  0.0000000000000000  0.5000250227579504  0.9186495002373738
  0.4166666666666666  0.7500375341369255  0.0207545336265937
  0.2500000000000000  0.7500375341369255  0.0776104873068462
  0.0833333333333334  0.7500375341369255  0.1344664409870987
  0.5000000000000000  0.7500375341369255  0.2442449175898505
  0.3333333333333333  0.7500375341369255  0.3011008712701030
  0.1666666666666667  0.7500375341369255  0.3579568249503556
  0.0000000000000000  0.7500375341369255  0.4148127786306081
  0.4166666666666666  0.7500375341369255  0.5245912552333599
  0.2500000000000000  0.7500375341369255  0.5814472089136125
  0.0833333333333334  0.7500375341369255  0.6383031625938650
  0.5000000000000000  0.7500375341369255  0.7480816391966162
  0.3333333333333333  0.7500375341369255  0.8049375928768687
  0.1666666666666667  0.7500375341369255  0.8617935465571213
  0.0000000000000000  0.7500375341369255  0.9186495002373738
  0.5833333333333333  0.0000000000000000  0.0207545336265937
  0.7500000000000000  0.0000000000000000  0.0776104873068462
  0.9166666666666666  0.0000000000000000  0.1344664409870987
  0.6666666666666667  0.0000000000000000  0.3011008712701030
  0.8333333333333334  0.0000000000000000  0.3579568249503556
  0.5833333333333333  0.0000000000000000  0.5245912552333599
  0.7500000000000000  0.0000000000000000  0.5814472089136125
  0.9166666666666666  0.0000000000000000  0.6383031625938650
  0.6666666666666667  0.0000000000000000  0.8049375928768687
  0.8333333333333334  0.0000000000000000  0.8617935465571213
  0.5833333333333333  0.2500125113789752  0.0207545336265937
  0.7500000000000000  0.2500125113789752  0.0776104873068462
  0.9166666666666666  0.2500125113789752  0.1344664409870987
  0.6666666666666667  0.2500125113789752  0.3011008712701030
  0.8333333333333334  0.2500125113789752  0.3579568249503556
  0.5833333333333333  0.2500125113789752  0.5245912552333599
  0.7500000000000000  0.2500125113789752  0.5814472089136125
  0.9166666666666666  0.2500125113789752  0.6383031625938650
  0.6666666666666667  0.2500125113789752  0.8049375928768687
  0.8333333333333334  0.2500125113789752  0.8617935465571213
  0.5833333333333333  0.5000250227579504  0.0207545336265937
  0.7500000000000000  0.5000250227579504  0.0776104873068462
  0.9166666666666666  0.5000250227579504  0.1344664409870987
  0.6666666666666667  0.5000250227579504  0.3011008712701030
  0.8333333333333334  0.5000250227579504  0.3579568249503556
  0.5833333333333333  0.5000250227579504  0.5245912552333599
  0.7500000000000000  0.5000250227579504  0.5814472089136125
  0.9166666666666666  0.5000250227579504  0.6383031625938650
  0.6666666666666667  0.5000250227579504  0.8049375928768687
  0.8333333333333334  0.5000250227579504  0.8617935465571213
  0.5833333333333333  0.7500375341369255  0.0207545336265937
  0.7500000000000000  0.7500375341369255  0.0776104873068462
  0.9166666666666666  0.7500375341369255  0.1344664409870987
  0.6666666666666667  0.7500375341369255  0.3011008712701030
  0.8333333333333334  0.7500375341369255  0.3579568249503556
  0.5833333333333333  0.7500375341369255  0.5245912552333599
  0.7500000000000000  0.7500375341369255  0.5814472089136125
  0.9166666666666666  0.7500375341369255  0.6383031625938650
  0.6666666666666667  0.7500375341369255  0.8049375928768687
  0.8333333333333334  0.7500375341369255  0.8617935465571213
  0.3333333333333333  0.1250062556894876  0.0491825104667199
  0.1666666666666667  0.1250062556894876  0.1060384641469724
  0.0000000000000000  0.1250062556894876  0.1628944178272250
  0.4166666666666666  0.1250062556894876  0.2726728944299768
  0.2500000000000000  0.1250062556894876  0.3295288481102293
  0.0833333333333334  0.1250062556894876  0.3863848017904818
  0.5000000000000000  0.1250062556894876  0.4961632783932337
  0.3333333333333333  0.1250062556894876  0.5530192320734862
  0.1666666666666667  0.1250062556894876  0.6098751857537388
  0.0000000000000000  0.1250062556894876  0.6667311394339912
  0.4166666666666666  0.1250062556894876  0.7765096160367425
  0.2500000000000000  0.1250062556894876  0.8333655697169950
  0.0833333333333334  0.1250062556894876  0.8902215233972476
  0.5000000000000000  0.1250062556894876  0.9999999999999993
  0.3333333333333333  0.3750187670684628  0.0491825104667199
  0.1666666666666667  0.3750187670684628  0.1060384641469724
  0.0000000000000000  0.3750187670684628  0.1628944178272250
  0.4166666666666666  0.3750187670684628  0.2726728944299768
  0.2500000000000000  0.3750187670684628  0.3295288481102293
  0.0833333333333334  0.3750187670684628  0.3863848017904818
  0.5000000000000000  0.3750187670684628  0.4961632783932337
  0.3333333333333333  0.3750187670684628  0.5530192320734862
  0.1666666666666667  0.3750187670684628  0.6098751857537388
  0.0000000000000000  0.3750187670684628  0.6667311394339912
  0.4166666666666666  0.3750187670684628  0.7765096160367425
  0.2500000000000000  0.3750187670684628  0.8333655697169950
  0.0833333333333334  0.3750187670684628  0.8902215233972476
  0.5000000000000000  0.3750187670684628  0.9999999999999993
  0.3333333333333333  0.6250312784474379  0.0491825104667199
  0.1666666666666667  0.6250312784474379  0.1060384641469724
  0.0000000000000000  0.6250312784474379  0.1628944178272250
  0.4166666666666666  0.6250312784474379  0.2726728944299768
  0.2500000000000000  0.6250312784474379  0.3295288481102293
  0.0833333333333334  0.6250312784474379  0.3863848017904818
  0.5000000000000000  0.6250312784474379  0.4961632783932337
  0.3333333333333333  0.6250312784474379  0.5530192320734862
  0.1666666666666667  0.6250312784474379  0.6098751857537388
  0.0000000000000000  0.6250312784474379  0.6667311394339912
  0.4166666666666666  0.6250312784474379  0.7765096160367425
  0.2500000000000000  0.6250312784474379  0.8333655697169950
  0.0833333333333334  0.6250312784474379  0.8902215233972476
  0.5000000000000000  0.6250312784474379  0.9999999999999993
  0.3333333333333333  0.8750437898264130  0.0491825104667199
  0.1666666666666667  0.8750437898264130  0.1060384641469724
  0.0000000000000000  0.8750437898264130  0.1628944178272250
  0.4166666666666666  0.8750437898264130  0.2726728944299768
  0.2500000000000000  0.8750437898264130  0.3295288481102293
  0.0833333333333334  0.8750437898264130  0.3863848017904818
  0.5000000000000000  0.8750437898264130  0.4961632783932337
  0.3333333333333333  0.8750437898264130  0.5530192320734862
  0.1666666666666667  0.8750437898264130  0.6098751857537388
  0.0000000000000000  0.8750437898264130  0.6667311394339912
  0.4166666666666666  0.8750437898264130  0.7765096160367425
  0.2500000000000000  0.8750437898264130  0.8333655697169950
  0.0833333333333334  0.8750437898264130  0.8902215233972476
  0.5000000000000000  0.8750437898264130  0.9999999999999993
  0.6666666666666667  0.1250062556894876  0.0491825104667199
  0.8333333333333334  0.1250062556894876  0.1060384641469724
  0.5833333333333333  0.1250062556894876  0.2726728944299768
  0.7500000000000000  0.1250062556894876  0.3295288481102293
  0.9166666666666666  0.1250062556894876  0.3863848017904818
  0.6666666666666667  0.1250062556894876  0.5530192320734862
  0.8333333333333334  0.1250062556894876  0.6098751857537388
  0.5833333333333333  0.1250062556894876  0.7765096160367425
  0.7500000000000000  0.1250062556894876  0.8333655697169950
  0.9166666666666666  0.1250062556894876  0.8902215233972476
  0.6666666666666667  0.3750187670684628  0.0491825104667199
  0.8333333333333334  0.3750187670684628  0.1060384641469724
  0.5833333333333333  0.3750187670684628  0.2726728944299768
  0.7500000000000000  0.3750187670684628  0.3295288481102293
  0.9166666666666666  0.3750187670684628  0.3863848017904818
  0.6666666666666667  0.3750187670684628  0.5530192320734862
  0.8333333333333334  0.3750187670684628  0.6098751857537388
  0.5833333333333333  0.3750187670684628  0.7765096160367425
  0.7500000000000000  0.3750187670684628  0.8333655697169950
  0.9166666666666666  0.3750187670684628  0.8902215233972476
  0.6666666666666667  0.6250312784474379  0.0491825104667199
  0.8333333333333334  0.6250312784474379  0.1060384641469724
  0.5833333333333333  0.6250312784474379  0.2726728944299768
  0.7500000000000000  0.6250312784474379  0.3295288481102293
  0.9166666666666666  0.6250312784474379  0.3863848017904818
  0.6666666666666667  0.6250312784474379  0.5530192320734862
  0.8333333333333334  0.6250312784474379  0.6098751857537388
  0.5833333333333333  0.6250312784474379  0.7765096160367425
  0.7500000000000000  0.6250312784474379  0.8333655697169950
  0.9166666666666666  0.6250312784474379  0.8902215233972476
  0.6666666666666667  0.8750437898264130  0.0491825104667199
  0.8333333333333334  0.8750437898264130  0.1060384641469724
  0.5833333333333333  0.8750437898264130  0.2726728944299768
  0.7500000000000000  0.8750437898264130  0.3295288481102293
  0.9166666666666666  0.8750437898264130  0.3863848017904818
  0.6666666666666667  0.8750437898264130  0.5530192320734862
  0.8333333333333334  0.8750437898264130  0.6098751857537388
  0.5833333333333333  0.8750437898264130  0.7765096160367425
  0.7500000000000000  0.8750437898264130  0.8333655697169950
  0.9166666666666666  0.8750437898264130  0.8902215233972476
  0.0366628300276089  0.1261574784599657  0.0076802407627341
  0.4533241644082917  0.1227697581627754  0.1174142830612986
  0.5000000000000000  0.2498817074080406 -0.0000000000000006
  0.2866693191996171  0.1253300121050371  0.1743452282992552
  0.3353169058769674  0.2498416184199148  0.0556181018410686
  0.1200020240192579  0.1252816874215584  0.2311992989049362
  0.1686503364764898  0.2498538801293245  0.1120299670402947
  0.0000000000000000  0.2499624658630746  0.1676415636475596
  0.3795118374122153  0.1185219283168064  0.1476936110821670
  0.3699985028406442  0.1252070674867796  0.3978221192768840
  0.4151183005844654  0.2498520056747544  0.2655586122928585
  0.2128502485637071  0.1185555999656861  0.2045328091833548
  0.2033365638102758  0.1246101541217497  0.4546931388647750
  0.2479452492861395  0.2498422579160992  0.3233211691087365
  0.0461482628875789  0.1207454109533709  0.2613144683587144
  0.0366628300276089  0.1261574784599657  0.5115169623695004
  0.0817846549455468  0.2499023259524950  0.3810965906722392
  0.4628160216780902  0.1304553764104315  0.3711731412554803
  0.4533241644082917  0.1227697581627754  0.6212510046680649
  0.5000000000000000  0.2498817074080406  0.5038367216067657
  0.2961840303401118  0.1315330116138535  0.4280291096266466
  0.2866693191996171  0.1253300121050371  0.6781819499060215
  0.3353169058769674  0.2498416184199148  0.5594548234478349
  0.1295091712587628  0.1309897481013525  0.4848580444992129
  0.1200020240192579  0.1252816874215584  0.7350360205117025
  0.1686503364764898  0.2498538801293245  0.6158666886470611
  0.0000000000000000  0.2499624658630746  0.6714782852543258
  0.3795118374122153  0.1185219283168064  0.6515303326889321
  0.3699985028406442  0.1252070674867796  0.9016588408836502
  0.4151183005844654  0.2498520056747544  0.7693953338996242
  0.2128502485637071  0.1185555999656861  0.7083695307901205
  0.2033365638102758  0.1246101541217497  0.9585298604715407
  0.2479452492861395  0.2498422579160992  0.8271578907155023
  0.0461482628875789  0.1207454109533709  0.7651511899654807
  0.0817846549455468  0.2499023259524950  0.8849333122790043
  0.4628160216780902  0.1304553764104315  0.8750098628622459
  0.2961840303401118  0.1315330116138535  0.9318658312334117
  0.1295091712587628  0.1309897481013525  0.9886947661059785
  0.0366628300276089  0.3738675442979846  0.0076802407627341
  0.4533241644082917  0.3772552645951749  0.1174142830612986
  0.2866693191996171  0.3746950106529133  0.1743452282992552
  0.3313497607896992  0.4998544145932258  0.0427568817230616
  0.1200020240192579  0.3747433353363919  0.2311992989049362
  0.1646829968568435  0.4998666566281049  0.1000569248624759
  0.0000000000000000  0.4999749772420498  0.1581472720068904
  0.3795118374122153  0.3815030944411438  0.1476936110821670
  0.3699985028406442  0.3748179552711707  0.3978221192768840
  0.4182150327488679  0.4998640106960112  0.2798031692137464
  0.2128502485637071  0.3814694227922642  0.2045328091833548
  0.2033365638102758  0.3754148686362005  0.4546931388647750
  0.2520547507138605  0.4998541476143625  0.3357590538260520
  0.0461482628875789  0.3792796118045794  0.2613144683587144
  0.0366628300276089  0.3738675442979846  0.5115169623695004
  0.0848820117211199  0.4999144607973419  0.3916890120096639
  0.4628160216780902  0.3695696463475188  0.3711731412554803
  0.4533241644082917  0.3772552645951749  0.6212510046680649
  0.5000000000000000  0.4998942187870157  0.4884898351797017
  0.2961840303401118  0.3684920111440969  0.4280291096266466
  0.2866693191996171  0.3746950106529133  0.6781819499060215
  0.3313497607896992  0.4998544145932258  0.5465936033298279
  0.1295091712587628  0.3690352746565978  0.4848580444992129
  0.1200020240192579  0.3747433353363919  0.7350360205117025
  0.1646829968568435  0.4998666566281049  0.6038936464692422
  0.0000000000000000  0.4999749772420498  0.6619839936136567
  0.3795118374122153  0.3815030944411438  0.6515303326889321
  0.3699985028406442  0.3748179552711707  0.9016588408836502
  0.4182150327488679  0.4998640106960112  0.7836398908205121
  0.2128502485637071  0.3814694227922642  0.7083695307901205
  0.2033365638102758  0.3754148686362005  0.9585298604715407
  0.2520547507138605  0.4998541476143625  0.8395957754328184
  0.0461482628875789  0.3792796118045794  0.7651511899654807
  0.0848820117211199  0.4999144607973419  0.8955257336164296
  0.4628160216780902  0.3695696463475188  0.8750098628622459
  0.5000000000000000  0.4998942187870157  0.9923265567864674
  0.2961840303401118  0.3684920111440969  0.9318658312334117
  0.1295091712587628  0.3690352746565978  0.9886947661059785
  0.0366628300276089  0.6261825012179161  0.0076802407627341
  0.4533241644082917  0.6227947809207258  0.1174142830612986
  0.5000000000000000  0.7499067301659909 -0.0000000000000006
  0.2866693191996171  0.6253550348629874  0.1743452282992552
  0.3353169058769674  0.7498666411778651  0.0556181018410686
  0.1200020240192579  0.6253067101795087  0.2311992989049362
  0.1686503364764898  0.7498789028872750  0.1120299670402947
  0.0000000000000000  0.7499874886210249  0.1676415636475596
  0.3795118374122153  0.6185469510747567  0.1476936110821670
  0.3699985028406442  0.6252320902447299  0.3978221192768840
  0.4151183005844654  0.7498770284327048  0.2655586122928585
  0.2128502485637071  0.6185806227236365  0.2045328091833548
  0.2033365638102758  0.6246351768797000  0.4546931388647750
  0.2479452492861395  0.7498672806740495  0.3233211691087365
  0.0461482628875789  0.6207704337113211  0.2613144683587144
  0.0366628300276089  0.6261825012179161  0.5115169623695004
  0.0817846549455468  0.7499273487104454  0.3810965906722392
  0.4628160216780902  0.6304803991683818  0.3711731412554803
  0.4533241644082917  0.6227947809207258  0.6212510046680649
  0.5000000000000000  0.7499067301659909  0.5038367216067657
  0.2961840303401118  0.6315580343718038  0.4280291096266466
  0.2866693191996171  0.6253550348629874  0.6781819499060215
  0.3353169058769674  0.7498666411778651  0.5594548234478349
  0.1295091712587628  0.6310147708593028  0.4848580444992129
  0.1200020240192579  0.6253067101795087  0.7350360205117025
  0.1686503364764898  0.7498789028872750  0.6158666886470611
  0.0000000000000000  0.7499874886210249  0.6714782852543258
  0.3795118374122153  0.6185469510747567  0.6515303326889321
  0.3699985028406442  0.6252320902447299  0.9016588408836502
  0.4151183005844654  0.7498770284327048  0.7693953338996242
  0.2128502485637071  0.6185806227236365  0.7083695307901205
  0.2033365638102758  0.6246351768797000  0.9585298604715407
  0.2479452492861395  0.7498672806740495  0.8271578907155023
  0.0461482628875789  0.6207704337113211  0.7651511899654807
  0.0817846549455468  0.7499273487104454  0.8849333122790043
  0.4628160216780902  0.6304803991683818  0.8750098628622459
  0.2961840303401118  0.6315580343718038  0.9318658312334117
  0.1295091712587628  0.6310147708593028  0.9886947661059785
  0.0366628300276089  0.8738925670559349  0.0076802407627341
  0.4533241644082917  0.8772802873531251  0.1174142830612986
  0.2866693191996171  0.8747200334108636  0.1743452282992552
  0.3313497607896992  0.9998794373511762  0.0427568817230616
  0.1200020240192579  0.8747683580943422  0.2311992989049362
  0.1646829968568435  0.9998916793860553  0.1000569248624759
  0.0000000000000000  1.0000000000000000  0.1581472720068904
  0.3795118374122153  0.8815281171990941  0.1476936110821670
  0.3699985028406442  0.8748429780291210  0.3978221192768840
  0.4182150327488679  0.9998890334539614  0.2798031692137464
  0.2128502485637071  0.8814944455502144  0.2045328091833548
  0.2033365638102758  0.8754398913941508  0.4546931388647750
  0.2520547507138605  0.9998791703723129  0.3357590538260520
  0.0461482628875789  0.8793046345625297  0.2613144683587144
  0.0366628300276089  0.8738925670559349  0.5115169623695004
  0.0848820117211199  0.9999394835552923  0.3916890120096639
  0.4628160216780902  0.8695946691054691  0.3711731412554803
  0.4533241644082917  0.8772802873531251  0.6212510046680649
  0.5000000000000000  0.9999192415449660  0.4884898351797017
  0.2961840303401118  0.8685170339020472  0.4280291096266466
  0.2866693191996171  0.8747200334108636  0.6781819499060215
  0.3313497607896992  0.9998794373511762  0.5465936033298279
  0.1295091712587628  0.8690602974145479  0.4848580444992129
  0.1200020240192579  0.8747683580943422  0.7350360205117025
  0.1646829968568435  0.9998916793860553  0.6038936464692422
  0.0000000000000000  1.0000000000000000  0.6619839936136567
  0.3795118374122153  0.8815281171990941  0.6515303326889321
  0.3699985028406442  0.8748429780291210  0.9016588408836502
  0.4182150327488679  0.9998890334539614  0.7836398908205121
  0.2128502485637071  0.8814944455502144  0.7083695307901205
  0.2033365638102758  0.8754398913941508  0.9585298604715407
  0.2520547507138605  0.9998791703723129  0.8395957754328184
  0.0461482628875789  0.8793046345625297  0.7651511899654807
  0.0848820117211199  0.9999394835552923  0.8955257336164296
  0.4628160216780902  0.8695946691054691  0.8750098628622459
  0.5000000000000000  0.9999192415449660  0.9923265567864674
  0.2961840303401118  0.8685170339020472  0.9318658312334117
  0.1295091712587628  0.8690602974145479  0.9886947661059785
  0.9633371699723912  0.1261574784599657  0.0076802407627341
  0.5466758355917084  0.1227697581627754  0.1174142830612986
  0.7133306808003829  0.1253300121050371  0.1743452282992552
  0.6646830941230325  0.2498416184199148  0.0556181018410686
  0.8799979759807421  0.1252816874215584  0.2311992989049362
  0.8313496635235103  0.2498538801293245  0.1120299670402947
  0.6204881625877846  0.1185219283168064  0.1476936110821670
  0.6300014971593557  0.1252070674867796  0.3978221192768840
  0.5848816994155346  0.2498520056747544  0.2655586122928585
  0.7871497514362928  0.1185555999656861  0.2045328091833548
  0.7966634361897241  0.1246101541217497  0.4546931388647750
  0.7520547507138605  0.2498422579160992  0.3233211691087365
  0.9538517371124212  0.1207454109533709  0.2613144683587144
  0.9633371699723912  0.1261574784599657  0.5115169623695004
  0.9182153450544531  0.2499023259524950  0.3810965906722392
  0.5371839783219098  0.1304553764104315  0.3711731412554803
  0.5466758355917084  0.1227697581627754  0.6212510046680649
  0.7038159696598881  0.1315330116138535  0.4280291096266466
  0.7133306808003829  0.1253300121050371  0.6781819499060215
  0.6646830941230325  0.2498416184199148  0.5594548234478349
  0.8704908287412372  0.1309897481013525  0.4848580444992129
  0.8799979759807421  0.1252816874215584  0.7350360205117025
  0.8313496635235103  0.2498538801293245  0.6158666886470611
  0.6204881625877846  0.1185219283168064  0.6515303326889321
  0.6300014971593557  0.1252070674867796  0.9016588408836502
  0.5848816994155346  0.2498520056747544  0.7693953338996242
  0.7871497514362928  0.1185555999656861  0.7083695307901205
  0.7966634361897241  0.1246101541217497  0.9585298604715407
  0.7520547507138605  0.2498422579160992  0.8271578907155023
  0.9538517371124212  0.1207454109533709  0.7651511899654807
  0.9182153450544531  0.2499023259524950  0.8849333122790043
  0.5371839783219098  0.1304553764104315  0.8750098628622459
  0.7038159696598881  0.1315330116138535  0.9318658312334117
  0.8704908287412372  0.1309897481013525  0.9886947661059785
  0.9633371699723912  0.3738675442979846  0.0076802407627341
  0.5466758355917084  0.3772552645951749  0.1174142830612986
  0.7133306808003829  0.3746950106529133  0.1743452282992552
  0.6686502392103008  0.4998544145932258  0.0427568817230616
  0.8799979759807421  0.3747433353363919  0.2311992989049362
  0.8353170031431565  0.4998666566281049  0.1000569248624759
  0.6204881625877846  0.3815030944411438  0.1476936110821670
  0.6300014971593557  0.3748179552711707  0.3978221192768840
  0.5817849672511320  0.4998640106960112  0.2798031692137464
  0.7871497514362928  0.3814694227922642  0.2045328091833548
  0.7966634361897241  0.3754148686362005  0.4546931388647750
  0.7479452492861395  0.4998541476143625  0.3357590538260520
  0.9538517371124212  0.3792796118045794  0.2613144683587144
  0.9633371699723912  0.3738675442979846  0.5115169623695004
  0.9151179882788800  0.4999144607973419  0.3916890120096639
  0.5371839783219098  0.3695696463475188  0.3711731412554803
  0.5466758355917084  0.3772552645951749  0.6212510046680649
  0.7038159696598881  0.3684920111440969  0.4280291096266466
  0.7133306808003829  0.3746950106529133  0.6781819499060215
  0.6686502392103008  0.4998544145932258  0.5465936033298279
  0.8704908287412372  0.3690352746565978  0.4848580444992129
  0.8799979759807421  0.3747433353363919  0.7350360205117025
  0.8353170031431565  0.4998666566281049  0.6038936464692422
  0.6204881625877846  0.3815030944411438  0.6515303326889321
  0.6300014971593557  0.3748179552711707  0.9016588408836502
  0.5817849672511320  0.4998640106960112  0.7836398908205121
  0.7871497514362928  0.3814694227922642  0.7083695307901205
  0.7966634361897241  0.3754148686362005  0.9585298604715407
  0.7479452492861395  0.4998541476143625  0.8395957754328184
  0.9538517371124212  0.3792796118045794  0.7651511899654807
  0.9151179882788800  0.4999144607973419  0.8955257336164296
  0.5371839783219098  0.3695696463475188  0.8750098628622459
  0.7038159696598881  0.3684920111440969  0.9318658312334117
  0.8704908287412372  0.3690352746565978  0.9886947661059785
  0.9633371699723912  0.6261825012179161  0.0076802407627341
  0.5466758355917084  0.6227947809207258  0.1174142830612986
  0.7133306808003829  0.6253550348629874  0.1743452282992552
  0.6646830941230325  0.7498666411778651  0.0556181018410686
  0.8799979759807421  0.6253067101795087  0.2311992989049362
  0.8313496635235103  0.7498789028872750  0.1120299670402947
  0.6204881625877846  0.6185469510747567  0.1476936110821670
  0.6300014971593557  0.6252320902447299  0.3978221192768840
  0.5848816994155346  0.7498770284327048  0.2655586122928585
  0.7871497514362928  0.6185806227236365  0.2045328091833548
  0.7966634361897241  0.6246351768797000  0.4546931388647750
  0.7520547507138605  0.7498672806740495  0.3233211691087365
  0.9538517371124212  0.6207704337113211  0.2613144683587144
  0.9633371699723912  0.6261825012179161  0.5115169623695004
  0.9182153450544531  0.7499273487104454  0.3810965906722392
  0.5371839783219098  0.6304803991683818  0.3711731412554803
  0.5466758355917084  0.6227947809207258  0.6212510046680649
  0.7038159696598881  0.6315580343718038  0.4280291096266466
  0.7133306808003829  0.6253550348629874  0.6781819499060215
  0.6646830941230325  0.7498666411778651  0.5594548234478349
  0.8704908287412372  0.6310147708593028  0.4848580444992129
  0.8799979759807421  0.6253067101795087  0.7350360205117025
  0.8313496635235103  0.7498789028872750  0.6158666886470611
  0.6204881625877846  0.6185469510747567  0.6515303326889321
  0.6300014971593557  0.6252320902447299  0.9016588408836502
  0.5848816994155346  0.7498770284327048  0.7693953338996242
  0.7871497514362928  0.6185806227236365  0.7083695307901205
  0.7966634361897241  0.6246351768797000  0.9585298604715407
  0.7520547507138605  0.7498672806740495  0.8271578907155023
  0.9538517371124212  0.6207704337113211  0.7651511899654807
  0.9182153450544531  0.7499273487104454  0.8849333122790043
  0.5371839783219098  0.6304803991683818  0.8750098628622459
  0.7038159696598881  0.6315580343718038  0.9318658312334117
  0.8704908287412372  0.6310147708593028  0.9886947661059785
  0.9633371699723912  0.8738925670559349  0.0076802407627341
  0.5466758355917084  0.8772802873531251  0.1174142830612986
  0.7133306808003829  0.8747200334108636  0.1743452282992552
  0.6686502392103008  0.9998794373511762  0.0427568817230616
  0.8799979759807421  0.8747683580943422  0.2311992989049362
  0.8353170031431565  0.9998916793860553  0.1000569248624759
  0.6204881625877846  0.8815281171990941  0.1476936110821670
  0.6300014971593557  0.8748429780291210  0.3978221192768840
  0.5817849672511320  0.9998890334539614  0.2798031692137464
  0.7871497514362928  0.8814944455502144  0.2045328091833548
  0.7966634361897241  0.8754398913941508  0.4546931388647750
  0.7479452492861395  0.9998791703723129  0.3357590538260520
  0.9538517371124212  0.8793046345625297  0.2613144683587144
  0.9633371699723912  0.8738925670559349  0.5115169623695004
  0.9151179882788800  0.9999394835552923  0.3916890120096639
  0.5371839783219098  0.8695946691054691  0.3711731412554803
  0.5466758355917084  0.8772802873531251  0.6212510046680649
  0.7038159696598881  0.8685170339020472  0.4280291096266466
  0.7133306808003829  0.8747200334108636  0.6781819499060215
  0.6686502392103008  0.9998794373511762  0.5465936033298279
  0.8704908287412372  0.8690602974145479  0.4848580444992129
  0.8799979759807421  0.8747683580943422  0.7350360205117025
  0.8353170031431565  0.9998916793860553  0.6038936464692422
  0.6204881625877846  0.8815281171990941  0.6515303326889321
  0.6300014971593557  0.8748429780291210  0.9016588408836502
  0.5817849672511320  0.9998890334539614  0.7836398908205121
  0.7871497514362928  0.8814944455502144  0.7083695307901205
  0.7966634361897241  0.8754398913941508  0.9585298604715407
  0.7479452492861395  0.9998791703723129  0.8395957754328184
  0.9538517371124212  0.8793046345625297  0.7651511899654807
  0.9151179882788800  0.9999394835552923  0.8955257336164296
  0.5371839783219098  0.8695946691054691  0.8750098628622459
  0.7038159696598881  0.8685170339020472  0.9318658312334117
  0.8704908287412372  0.8690602974145479  0.9886947661059785
