Tetragonal STO                          
   1.00000000000000     
     5.4490420409621230    0.0000000000000000   -0.0000000079694265
     0.0000000000000000    5.4490420409643550   -0.0000000079686074
    -2.7245210264028308   -2.7245210264033415    3.8791420069029661
   Sr   Ti   O 
     2     2     6
Direct
  0.2500000000000000  0.7500000000000000  0.5000000000000000
  0.7500000000000000  0.2500000000000000  0.5000000000000000
  0.0000000000000000  0.0000000000000000  0.0000000000000000
  0.5000000000000000  0.5000000000000000  0.0000000000000000
  0.2500000000000000  0.2500000000000000  0.5000000000000000
  0.7500000000000000  0.7500000000000000  0.5000000000000000
  0.7252280253570283  0.2252280253570279  0.0000000000000000
  0.2747719746429789  0.7747719746429717 -0.0000000000000000
  0.2252280253570279  0.2747719746429789  0.0000000000000000
  0.7747719746429717  0.7252280253570283  0.0000000000000000
 
  0.00000000E+00  0.00000000E+00  0.00000000E+00
  0.00000000E+00  0.00000000E+00  0.00000000E+00
  0.00000000E+00  0.00000000E+00  0.00000000E+00
  0.00000000E+00  0.00000000E+00  0.00000000E+00
  0.00000000E+00  0.00000000E+00  0.00000000E+00
  0.00000000E+00  0.00000000E+00  0.00000000E+00
  0.00000000E+00  0.00000000E+00  0.00000000E+00
  0.00000000E+00  0.00000000E+00  0.00000000E+00
  0.00000000E+00  0.00000000E+00  0.00000000E+00
  0.00000000E+00  0.00000000E+00  0.00000000E+00
