Compact cell: LocalUC (first) + RotatedPristineUC (second)
1
141.8238116082056                 0                 0
                0 6.857500000000001                 0
                0                 0 9.228473284900208
Sr Ti O Sr Ti O
8 1 6 8 1 6
Direct
9.9647449893e-019.2708713088e-016.4660980426e-01
9.9647449893e-013.5763762304e-016.4660980426e-01
9.7700490529e-019.2708713088e-019.4581985724e-01
9.7700490529e-013.5763762304e-019.4581985724e-01
9.5753531165e-019.2708713088e-016.4660980426e-01
9.5753531165e-013.5763762304e-016.4660980426e-01
9.7700490529e-019.2708713088e-013.5338592645e-01
9.7700490529e-013.5763762304e-013.5338592645e-01
9.7700490529e-016.4236237696e-016.4660980426e-01
9.7737479154e-013.5738828535e-016.5565720709e-01
9.7663501903e-019.2672492388e-016.3758183829e-01
9.8674441525e-016.5459867043e-017.9641888386e-01
9.6728169784e-016.2767127592e-014.9722529954e-01
9.8673745918e-016.3653688029e-014.9690762664e-01
9.6726887761e-016.4392571789e-017.9619133665e-01
4.2464132749e-026.4236237696e-013.5498430343e-01
4.2464132749e-027.2912869121e-023.5498430343e-01
2.2890810545e-026.4236237696e-016.5259171015e-01
2.2890810545e-027.2912869121e-026.5259171015e-01
3.5255010730e-036.4236237696e-013.5178754948e-01
3.5255010730e-037.2912869121e-023.5178754948e-01
2.3098823277e-026.4236237696e-015.4180142756e-02
2.3098823277e-027.2912869121e-025.4180142756e-02
2.2994816911e-023.5763762304e-013.5338592645e-01
2.1613723217e-026.3951299302e-013.7438510627e-01
2.4375910604e-027.5762253064e-023.3238674664e-01
3.2677471647e-023.5763762304e-015.0378800679e-01
1.3312162175e-023.5763762304e-012.0298384612e-01
1.3306095853e-023.1745726347e-015.0070047625e-01
3.2683537968e-023.9781798261e-012.0607137666e-01
