LocalUC (first) + RotatedPristineUC (second)
1
276.1251980533468                 0                 0
               0 15.6192183281608                0
                0                 0 10.98976466443488
Sr Ti O Sr Ti O
8 1 6 8 1 6
Cartesian
1.3806259903e+023.9050000000e+002.7060087228e+00
1.3806259903e+020.0000000000e+002.7060087228e+00
1.3530134705e+023.9050000000e+005.4672607034e+00
1.3530134705e+020.0000000000e+005.4672607034e+00
1.3254009507e+023.9050000000e+002.7060087228e+00
1.3254009507e+020.0000000000e+002.7060087228e+00
1.3530134705e+023.9050000000e+006.1005448828e-16
1.3530134705e+020.0000000000e+006.1005448828e-16
1.3530134705e+021.9525000000e+002.7060087228e+00
1.3535380572e+02-1.7098332089e-032.7895024382e+00
1.3524888837e+023.9025161655e+002.6226943801e+00
1.3668264147e+022.0364103825e+004.0885178118e+00
1.3392236470e+021.8517557746e+001.3274178119e+00
1.3668165494e+021.9125516566e+001.3244861760e+00
1.3392054649e+021.9632206104e+004.0864178984e+00
2.7612125815e+001.9525000000e+001.4750579240e-02
2.7612125815e+00-1.9525000000e+001.4750579240e-02
-1.4750579240e-021.9525000000e+002.7612125815e+00
-1.4750579240e-02-1.9525000000e+002.7612125815e+00
-2.7612125815e+001.9525000000e+00-1.4750579240e-02
-2.7612125815e+00-1.9525000000e+00-1.4750579240e-02
1.4750579240e-021.9525000000e+00-2.7612125815e+00
1.4750579240e-02-1.9525000000e+00-2.7612125815e+00
0.0000000000e+000.0000000000e+000.0000000000e+00
-1.9587197181e-011.9329603496e+001.9379036995e-01
1.9587197181e-01-1.9329603496e+00-1.9379036995e-01
1.3732310011e+000.0000000000e+001.3879815804e+00
-1.3732310011e+000.0000000000e+00-1.3879815804e+00
-1.3740913500e+00-2.7553681574e-011.3594883872e+00
1.3740913500e+002.7553681574e-01-1.3594883872e+00
