Lattice-aligned supercell (a0=3.905): LocalUC + RotatedPristineUC
1
11.715 0 0
0 7.81 0
0 0 7.81
Sr Ti O Sr Ti O
8 1 6 8 1 6
Direct
4.8847665054e-015.2582712333e-013.7738819041e-01
4.8847665054e-012.5827123330e-023.7738819041e-01
2.5277439014e-015.2582712333e-017.3094158100e-01
2.5277439014e-012.5827123330e-027.3094158100e-01
1.7072129748e-025.2582712333e-013.7738819041e-01
1.7072129748e-022.5827123330e-023.7738819041e-01
2.5277439014e-015.2582712333e-013.0908200291e-02
2.5277439014e-012.5827123330e-023.0908200291e-02
2.5277439014e-012.7582712333e-013.7738819041e-01
2.5725229700e-012.5608194622e-023.8807880697e-01
2.4829648329e-015.2550909074e-013.6672054089e-01
3.7068257852e-012.8657109036e-015.5440599949e-01
1.3506356287e-012.6292773467e-012.0087206865e-01
3.7059836705e-012.7071209857e-012.0049669914e-01
1.3490835900e-012.7719980072e-015.5413712454e-01
8.2180662075e-015.2582712333e-013.8104521905e-01
8.2180662075e-012.5827123330e-023.8104521905e-01
5.8484860446e-015.2582712333e-017.3270488644e-01
5.8484860446e-012.5827123330e-027.3270488644e-01
3.5040882621e-015.2582712333e-013.7726786201e-01
3.5040882621e-012.5827123330e-023.7726786201e-01
5.8736684249e-015.2582712333e-012.5608194622e-02
5.8736684249e-012.5827123330e-022.5608194622e-02
5.8610772348e-012.7582712333e-013.7915654053e-01
5.6938796489e-015.2332524748e-014.0396964808e-01
6.0282748206e-012.8328999180e-023.5434343298e-01
7.0332761261e-012.7582712333e-015.5687505274e-01
4.6888783435e-012.7582712333e-012.0143802832e-01
4.6881439441e-012.4054712132e-015.5322675656e-01
7.0340105254e-013.1110712535e-012.0508632449e-01
