POSCAR file written by Ovito 3.11.1
1
19.72565 0.0 0.0
0.0 7.89026 0.0
0.0 0.0 7.89026
Sr Ti O 
20 20 60 
Direct
0.0 0.0 0.0
0.0 0.0 0.5
0.0 0.5 0.0
0.0 0.5 0.5
0.2 0.0 0.0
0.2 0.0 0.5
0.2 0.5 0.0
0.2 0.5 0.5
0.4 0.0 0.0
0.4 0.0 0.5
0.4 0.5 0.0
0.4 0.5 0.5
0.6 0.0 0.0
0.6 0.0 0.5
0.6 0.5 0.0
0.6 0.5 0.5
0.8 0.0 0.0
0.8 0.0 0.5
0.8 0.5 0.0
0.8 0.5 0.5
0.1 0.25 0.25
0.1 0.25 0.75
0.1 0.75 0.25
0.1 0.75 0.75
0.3 0.25 0.25
0.3 0.25 0.75
0.3 0.75 0.25
0.3 0.75 0.75
0.5 0.25 0.25
0.5 0.25 0.75
0.5 0.75 0.25
0.5 0.75 0.75
0.7 0.25 0.25
0.7 0.25 0.75
0.7 0.75 0.25
0.7 0.75 0.75
0.9 0.25 0.25
0.9 0.25 0.75
0.9 0.75 0.25
0.9 0.75 0.75
0.1 0.0 0.25
0.1 0.25 0.0
0.0 0.25 0.25
0.1 0.0 0.75
0.1 0.25 0.5
0.0 0.25 0.75
0.1 0.5 0.25
0.1 0.75 0.0
0.0 0.75 0.25
0.1 0.5 0.75
0.1 0.75 0.5
0.0 0.75 0.75
0.3 0.0 0.25
0.3 0.25 0.0
0.2 0.25 0.25
0.3 0.0 0.75
0.3 0.25 0.5
0.2 0.25 0.75
0.3 0.5 0.25
0.3 0.75 0.0
0.2 0.75 0.25
0.3 0.5 0.75
0.3 0.75 0.5
0.2 0.75 0.75
0.5 0.0 0.25
0.5 0.25 0.0
0.4 0.25 0.25
0.5 0.0 0.75
0.5 0.25 0.5
0.4 0.25 0.75
0.5 0.5 0.25
0.5 0.75 0.0
0.4 0.75 0.25
0.5 0.5 0.75
0.5 0.75 0.5
0.4 0.75 0.75
0.7 0.0 0.25
0.7 0.25 0.0
0.6 0.25 0.25
0.7 0.0 0.75
0.7 0.25 0.5
0.6 0.25 0.75
0.7 0.5 0.25
0.7 0.75 0.0
0.6 0.75 0.25
0.7 0.5 0.75
0.7 0.75 0.5
0.6 0.75 0.75
0.9 0.0 0.25
0.9 0.25 0.0
0.8 0.25 0.25
0.9 0.0 0.75
0.9 0.25 0.5
0.8 0.25 0.75
0.9 0.5 0.25
0.9 0.75 0.0
0.8 0.75 0.25
0.9 0.5 0.75
0.9 0.75 0.5
0.8 0.75 0.75
