POSCAR file written by Ovito 3.7.11
1
271.6038294426 0.0 0.0
0.0 15.3642327676 0.0
0.0 0.0 10.8641531777
Sr Ti O 
800 800 2400 
Direct
0.02247695 0.5006371942 0.7779651566
0.0122836107 0.2480863471 0.5277017485
0.022496206 0.2510835681 0.7766801968
0.002476422 0.2509599042 0.7770005163
0.0124429236 0.2504066713 0.0263475324
0.0226279052 0.0011312237 0.2745204876
0.0025272681 -0.0015559915 0.2732373687
0.002358051 0.4991818661 0.2777917964
0.0125088284 0.5003586251 0.5290778337
0.0126223761 -0.0010172077 0.5256684561
0.0225885832 5.2533594918e-04 0.7779789634
0.0026067589 -0.0012293888 0.7768053791
0.0224810737 0.251755258 0.2761469374
0.0024945366 0.250648792 0.2746907724
0.0324988632 0.4996693619 0.0287572922
0.0423304624 0.5017579791 0.2733110054
0.032498495 0.4994012067 0.527668612
0.0325596134 0.2507490248 0.5249182826
0.0424836267 0.2483649162 0.7712872316
0.0323806763 0.2515984001 0.0243521629
0.0524650765 0.4993270084 0.0240145388
0.0425922408 7.6094810468e-04 0.7712973566
0.0423945263 0.251178594 0.2687795892
0.0524260491 0.2499868651 0.5200444559
0.05242789 0.2487176836 0.0202700224
0.0624737719 0.2479691919 0.2682862235
0.0625996906 0.4993393748 0.7661648811
0.0724125125 0.5016551428 0.0172784408
0.0625109584 0.498917616 0.2666468873
0.072409567 0.4999401207 0.5186886208
0.0725575767 0.2492058303 0.5150012648
0.0625312085 0.2507692016 0.7672952039
0.0725907132 0.2508394947 0.0158917704
0.0925547175 0.2502387488 0.5156612334
0.1025921312 0.2512911931 0.760239891
0.082604195 0.2512488871 0.7655113557
0.0924383715 0.2511297793 0.0153380227
0.1024198214 -0.0013742057 0.2645427196
0.0925399901 8.4490934242e-04 0.5160054848
0.1025207036 0.2509781284 0.2637934665
0.0825184083 0.2509130421 0.2672129691
0.1025207036 0.5008656469 0.7649866945
0.0825143583 0.5010556987 0.76511832
0.1024073031 0.5022461258 0.2649265507
0.0824171579 0.4995619697 0.2661378738
0.1224534122 0.2502101108 0.2590236516
0.1124425077 0.5001659699 0.0151002683
0.1125165126 0.2538451768 0.5120254231
0.1224298485 0.5025259966 0.2600416785
0.1124020076 0.5039064756 0.5141774546
0.122314239 0.2503624126 0.7606007107
0.1124321986 0.2518457278 0.0128197408
0.1225090079 0.0031546895 0.2622332897
0.1526116763 0.2497343305 0.5065928782
0.1325681444 0.2538738148 0.5070052435
0.1425853081 0.2517812925 0.7569676617
0.1525564488 0.2516830122 0.0058511351
0.1324676304 0.2541673537 0.0060432347
0.1425827308 4.0368978381e-04 0.2566700397
0.1425514352 0.2499686409 0.2597637001
0.1425547489 0.5020651861 0.7566767969
0.1525678625 0.4980220294 0.0072089952
0.1324794123 0.498184745 0.0104514936
0.152600999 0.4968218393 0.5064382412
0.1324617395 0.4999023707 0.5127185282
0.1823686205 0.2496744512 0.2539896652
0.1725134575 0.4981984131 0.5051726111
0.182454039 0.5027127941 0.7520551758
0.1725583759 0.2493542269 0.5046148133
0.1626509309 0.2500753823 0.7560600899
0.1725881987 0.250422292 0.0057414165
0.1824672936 0.4983507149 0.2533149692
0.1625673533 0.0020278516 0.7535233068
0.1625279577 0.2504730592 0.2544305647
0.1825814304 0.2497929081 0.7569630595
0.1824776028 3.9952426504e-04 0.2537972894
0.1926276806 0.003052439 0.0037972244
0.2024213569 0.2520234132 0.2564546525
0.2024659071 0.5016082808 0.7550254947
0.1925105983 0.4999453276 0.0042350864
0.202479898 0.5017000523 0.2555977058
0.1924914527 0.4996153404 0.5067281856
0.1925098619 0.2504854256 0.5033519445
0.2024452888 0.2529710688 0.7560352375
0.19249403 0.2525577712 0.0050184885
0.2025086163 -4.1665706921e-04 0.2543514053
0.2125191527 0.2499478133 0.5065551394
0.2224387477 0.2523833401 0.7565939557
0.2124687116 0.249921128 0.0087954971
0.2225701892 0.0013194531 0.7563371478
0.222357011 0.252837642 0.2573668267
0.2325048797 0.25020946 0.5024765887
0.2325262343 0.2514083484 1.0003883828
0.23236092 5.076324944e-04 0.4999149532
0.2224148158 0.5023867121 0.7584606451
0.2124606115 0.4996530904 0.0025655592
0.2124462524 0.5014715997 0.5016362103
0.2423957565 0.5014742031 0.7454785012
0.262555266 0.2481514334 0.7423682726
0.262384429 -6.0729463923e-04 0.2460424282
0.2623174196 1.9463281048e-04 0.7437959034
0.2524294883 0.2526944523 0.4948054892
0.2424616613 0.2529710688 0.7499721786
0.2524184428 0.2511655767 0.9961910929
0.2625269159 0.2482653343 0.2444086147
0.2425165206 5.2689801872e-04 0.2492465435
0.2623866381 0.5025813199 0.2448817302
0.2524180746 0.0014991561 0.4976312962
0.2425330888 0.002585185 0.7479204771
0.252290315 0.0032916309 0.9995599703
0.2425408207 0.2485621275 0.2503170365
0.2723971744 0.2493028088 0.4921656148
0.2723552015 0.2502003479 0.9929602843
0.2723334787 -8.1322747348e-04 0.491985205
0.2723820789 0.0010633387 0.993650628
0.2824647791 0.2499439082 0.7414910758
0.2723334787 0.500340401 0.4932112554
0.2824931292 0.2479626833 0.2405417693
0.3124518379 6.4330176415e-05 0.4893315237
0.2925437976 0.4993152929 0.4900034582
0.2925331202 0.2504398652 0.4885371682
0.3024552926 0.2486649637 0.7406902771
0.2923608104 0.2496711969 0.9925552826
0.2925283339 7.1115713812e-04 0.491884875
0.3024343061 -3.7135705257e-04 0.7383062901
0.3126289341 0.5008265951 0.4912635656
0.3025108882 0.2519453098 0.2384652154
0.3124890244 0.2523683703 0.4906017561
0.3125306291 0.2503383307 0.9892600419
0.3224929335 0.0010958818 0.239577129
0.3325027334 0.00133976 0.4926672646
0.3224509606 6.6820022579e-04 0.7415509056
0.3324504514 6.6478022032e-05 0.994313358
0.3225315927 0.2513660423 0.241432773
0.322560311 0.500718552 0.7399658764
0.322481888 0.5020144188 0.2455573466
0.3325807883 0.2518619994 0.4929516862
0.3225754065 0.2518196933 0.7388640878
0.3324869015 0.2521060727 0.9917820977
0.362635961 0.2511798957 0.2307968773
0.3526604021 0.5017456127 0.4854692806
0.3526025973 0.2503363781 0.4862286587
0.3425191607 0.2507451197 0.7383799268
0.3624886876 0.4997019051 0.7332787469
0.3525381652 0.2502114126 0.9835808142
0.3624040055 0.4980740984 0.2332443759
0.3424558331 3.3834320809e-04 0.2414281707
0.3427463298 0.251707745 0.2336751504
0.3626028245 0.2492585501 0.7297819258
0.3424812378 0.5004549528 0.7376518443
0.3425084834 0.500614414 0.2386723185
0.3825178603 0.251168831 0.2272954539
0.3924514463 0.2491563648 0.4782464443
0.392635538 0.2503396324 0.9781777239
0.3926097652 0.0022118504 0.9755912361
0.3826062243 0.501030315 0.7280698733
0.392635538 0.5007380779 0.9774137435
0.372613729 0.2502088091 0.4772974518
0.3826504063 0.2479106143 0.7295067087
0.3725400923 0.2491609208 0.9822093313
0.3925619013 0.5010101383 0.4773554407
0.3724995922 0.0020961921 0.4837885238
0.4125726648 0.5009997245 0.9776622673
0.402613306 0.2517851976 0.7251004748
0.402591215 0.0024294987 0.7217104269
0.4025654422 0.2508089042 0.2231331415
0.4125947558 0.2501248479 0.4733624926
0.412546892 0.2491160113 0.9744590724
0.412591074 -0.0034451519 0.4729749796
0.4126315742 6.7744247056e-04 0.9727838383
0.4424986052 -0.0019453439 0.7244000061
0.4424986052 0.2496178261 0.2274915115
0.4225062509 0.501111022 0.7266219924
0.4325318827 0.498959922 0.9743762311
0.432524519 0.5004419355 0.4769716096
0.4425391054 0.4986299348 0.7225213507
0.4425575145 0.5017618843 0.224963933
0.4326276104 0.2492572484 0.4749346353
0.4224694325 0.2509533956 0.7244027674
0.4325502919 0.2475864849 0.9764288532
0.4225357055 -0.0025992522 0.2219199774
0.4326828379 -0.0036137057 0.973032362
0.4225062509 0.2500337272 0.2256680836
0.4425170144 0.2473248382 0.7254631354
0.4724908186 0.2529248575 0.4678139699
0.4626382329 0.2515586975 0.7189039495
0.4724687276 0.2486291663 0.9695806434
0.4724760912 -3.2208677585e-04 0.9672242701
0.4626198237 0.2498944426 0.2224934229
0.4525868282 0.50035472 0.9718081525
0.4526420557 0.4978749346 0.4743289738
0.462479914 0.5021868974 0.7177193197
0.4724760912 0.4999837284 0.9687338217
0.4624872777 0.4998372844 0.2154528374
0.4525610554 0.247656778 0.4731968101
0.4525721009 0.2510015594 0.9723420183
0.4526162829 -0.0020679598 0.4724493979
0.4824354501 0.2502621798 0.7187548353
0.4824538592 8.0774510463e-04 0.71535006
0.4924279454 0.4999895862 0.9692860967
0.4924831729 0.502486294 0.4687482351
0.4824869957 0.2529079351 0.2150607221
0.4923727179 0.2478090798 0.4684960295
0.4923948089 0.2509592534 0.9684392751
0.4825274959 0.503100708 0.215020222
0.5024388499 0.2493568304 0.7182614696
0.5124939364 0.2520266675 0.4674614344
0.5124055724 0.2503337747 0.9667548364
0.5024093952 0.0027379424 0.7145170453
0.5024020316 0.2483792352 0.2187324303
0.5225563866 0.247642459 0.2203883348
0.5224312043 0.249514339 0.7209611738
0.5125491639 0.5006977244 0.4694404197
0.5226373869 0.5006879615 0.7205552517
0.5425192863 0.4993250558 0.7247893599
0.5526443276 0.5012913108 0.9778923819
0.5425634683 0.5004673191 0.2239477471
0.5526480094 0.5028774623 0.4758900711
0.5324752453 8.3814037441e-04 0.4732511171
0.5325083818 0.2488133603 0.4702900027
0.5325341546 0.2503109945 0.9730139529
0.5325488819 0.4981704261 0.9755360086
0.5526774641 0.0012949155 0.975968624
0.5425818774 0.2500883996 0.2256119357
0.5523387354 0.2515938441 0.4745112245
0.5425156044 0.2536668406 0.7260531492
0.5524823269 0.250644236 0.9773032885
0.5724709994 0.2511187146 0.4776601124
0.5725998636 0.2511798957 0.9783065881
0.5625263679 0.5003605777 0.7284592272
0.5624085493 0.501928505 0.2256984587
0.5724047264 0.5004256639 0.9813348959
0.5724636358 0.5030551477 0.4777088967
0.5625079588 0.251149956 0.2278909904
0.5623901401 0.2503663178 0.7270711761
0.6025589405 0.4989150125 0.7362131679
0.5924928085 0.5008734572 0.9803408009
0.5925296268 0.5003033018 0.4825210527
0.5825334496 0.2508362404 0.7264903669
0.6024853038 0.2504014644 0.2303256026
0.5924743993 0.2489031793 0.4806994657
0.6025552586 0.2515905898 0.7272976088
0.5924670356 0.2479633342 0.9813901234
0.5824082673 0.5007074873 0.731762752
0.5823898581 0.5004315217 0.2316556649
0.5825886771 0.2515339648 0.2308843208
0.6124409808 0.5013505393 0.9890023136
0.612525663 0.5008545822 0.4853523824
0.6222898847 0.4991070169 0.7404527989
0.6124741173 0.0014330285 0.4849888014
0.6224482035 0.5008669486 0.2380473273
0.6125624813 0.2505869601 0.4823783816
0.6125293448 0.2501040203 0.9838569517
0.6222788392 0.0023113672 0.7349475378
0.6225365675 0.2515209475 0.2337230142
0.6224666126 0.250861624 0.7365592602
0.6424000577 0.0018419002 0.2381899984
0.6524993262 -5.4546271996e-04 0.4909717804
0.6323449712 0.5017879188 0.489567161
0.6425215582 0.248351899 0.2371296304
0.6523962348 0.2492201493 0.4906321312
0.6424258305 0.2495032744 0.7399760015
0.6323744258 7.7168733277e-04 0.4892891826
0.652370462 0.2502791022 0.9907051614
0.6424221487 0.5013778755 0.7400468768
0.6525398263 0.5009261771 0.4940958158
0.6325216991 0.2518561416 0.4859690895
0.6323560167 0.2504685032 0.9862409387
0.6823663572 0.5002375647 0.740539322
0.6623666392 -3.464941124e-04 0.2423845269
0.6823663572 0.5004237114 0.2418828771
0.6623850483 -1.1836687344e-04 0.7403911282
0.6723738618 0.5002655518 0.4923938884
0.6625139125 0.247742041 0.2427315396
0.662414503 0.2518971459 0.7399336604
0.6724217257 -9.1007578491e-04 0.9915243693
0.6624034575 0.5012249229 0.7416576788
0.6624844578 0.5013928453 0.2394878446
0.6823994937 0.2503884471 0.241410682
0.6723885892 0.2493151752 0.4911208946
0.6824031755 0.25075293 0.7420562372
0.672414362 0.2498807745 0.9908064119
0.7025428032 0.2485601749 0.243497361
0.6924987622 0.2494368864 0.493694496
0.7023108477 0.247184252 0.7437839375
0.692436171 0.249254645 0.992702556
0.692480353 0.4996316119 0.9932456264
0.6925429442 0.4994949308 0.4904977443
0.7322993792 0.4989638272 0.9968538229
0.732435607 0.4960857141 0.4995707018
0.7124248435 0.2495748692 0.4956320608
0.71245798 0.2482366963 0.9967709817
0.722325293 -5.0471873948e-04 0.2475234456
0.7325534257 -8.7577534128e-04 0.5021038031
0.7325607894 0.0010478482 0.9997716757
0.7125132075 0.4987151978 0.9954731354
0.7224541572 0.2493529252 0.2511150739
0.7323730159 0.2507425162 0.4987560962
0.7223768387 0.2497291236 0.750804273
0.7323766977 0.2493672442 0.9966052992
0.7124616619 0.4981932062 0.4946876705
0.7125942079 -0.0011217362 0.4988150056
0.7124616619 -9.9188917703e-04 0.9981424645
0.7523469611 0.4980695424 3.617656888e-05
0.7424133751 -0.0016178885 0.2495033514
0.7425901031 -0.0016305153 0.7511632517
0.7424133751 0.2514656242 0.2507358451
0.7424501934 0.2478676574 0.7505161695
0.7625640482 -0.0015013191 0.2517124513
0.7524353251 -0.001605392 0.503407172
0.7623725929 -8.1251152494e-04 0.7541004341
0.7524021886 -0.0011956091 -0.0017580452
0.7624388659 0.2496451624 0.2493754077
0.7524279614 0.2494759382 0.4985351862
0.7624315022 0.2489057828 0.74830799
0.7523727339 0.252369672 -0.0025302361
0.7824238566 -0.0010757853 0.2548466118
0.7824533112 -3.0164969938e-04 0.7531956236
0.7724166339 5.2774413972e-04 0.0015282947
0.7824349021 0.2473664934 0.2557017176
0.7724166339 0.2494726838 0.5034200585
0.7824754022 0.2471575666 0.75352975
0.7724019066 0.2503025333 0.0032564552
0.7923684881 -0.0031126199 0.4996240884
0.7923905791 -8.7128439136e-04 0.0028488762
0.8125302068 0.4980519691 0.0022646613
0.7924273974 0.2476014547 0.5039585266
0.7924789431 0.2490554811 0.0033469362
0.8025156204 -0.0014570605 0.2496616702
0.8124160699 -0.0016266752 0.5035084225
0.8025413933 -4.9440555026e-05 0.7506974998
0.8125375704 -0.00219301 6.6190412342e-04
0.8025008931 0.2492045286 0.2529836042
0.8125154794 0.2484449723 0.5028631812
0.8024346201 0.247585834 0.7511669335
0.8123682061 0.2471204675 -5.5013235221e-05
0.8326109251 4.7033808415e-04 0.5093395258
0.8226405208 -0.0016534256 0.7515664124
0.8324452426 -8.0398522871e-04 0.0056695287
0.8226073843 0.2493307959 0.2524193633
0.8324746973 0.2471894589 0.5036897527
0.8224122471 0.2497284727 0.7534174541
0.8325851523 0.2483623128 0.0028615786
0.8224969293 -0.0024705767 0.2528998425
0.8426144659 -5.8256187152e-04 0.7594455355
0.8425518748 0.2504906325 0.2563708908
0.8425445111 0.2497766365 0.753804967
0.8626252295 1.9853798433e-04 0.255594024
0.84248192 0.4971746067 0.7567182175
0.8526953253 8.9509082637e-04 0.5076274734
0.8626178658 6.7041315764e-04 0.758827908
0.8526180068 5.240993108e-04 0.0105153734
0.8625736838 0.2494739856 0.2561334125
0.8425997386 -0.0012874458 0.2599809283
0.8526658706 0.2480987135 0.505935671
0.862547911 0.2502882143 0.7578319721
0.8526069613 0.2478116832 0.0062148082
0.8725440881 0.002783698 0.5076771781
0.8926211246 -6.0677394938e-04 0.5108233046
0.8726508613 0.0012199362 0.0036284124
0.8826544021 0.2507867748 0.259058629
0.8926211246 -5.6218988128e-04 0.0084273138
0.8725367245 0.2511395422 0.5060295577
0.892459124 0.250351348 0.5122932765
0.882591811 0.2487027137 0.7582424965
0.8726434976 0.2513849173 0.0094352156
0.8925327606 0.2498827271 0.0103249306
0.9025178923 1.1763579944e-04 0.2642049114
0.9125103877 -0.0022704756 0.5169802502
0.9024773922 -0.0013530527 0.7667742245
0.9026835748 0.2481442739 0.2627275758
0.912591388 0.2480036876 0.513971272
0.9026983021 0.2502680376 0.7599278557
0.902591529 0.4971290464 0.7622648993
0.91263557 0.2479242824 0.0147579499
0.9224844738 -0.001555601 0.2667205239
0.9225654742 -0.002389271 0.7650143082
0.9226317472 0.248795787 0.2668687177
0.9226059743 0.246451381 0.7669334638
0.942502601 -0.0011387237 0.2681619616
0.9325653332 -0.001366851 0.5200932402
0.942458419 5.0401723024e-05 0.770936537
0.9324291053 -0.0025029637 0.0199067175
0.9426719653 0.2485146145 0.2691302838
0.9325653332 0.2484788171 0.515439403
0.942590965 0.2500220116 0.7671534533
0.9325579695 0.2470775106 0.0129412413
0.9525650512 -0.0011524569 0.524302496
0.9525760967 -0.0020567455 0.0213130857
0.9625428192 0.2474882047 0.2732474938
0.952635006 0.2500142013 0.520438412
0.9723880412 0.2473007563 0.5255653648
0.9623992277 0.2485797008 0.7731263073
0.9524619599 0.2514057449 0.0211835772
0.9724727234 0.2487437181 0.023852262
0.96252441 0.0012712892 0.2745444195
0.982590401 0.4997839137 0.7739685266
0.982502037 0.4978957622 0.2722883762
0.9823731729 4.3193720798e-04 0.2756084693
0.9926454875 -0.0012865345 0.5250186125
0.9825094007 0.2482718429 0.2771677257
0.9927080787 1.1997890375e-04 0.0269438973
0.9923104407 0.2492175458 0.5220427708
0.9824063094 0.2470527778 0.7744407217
0.9924908505 0.2493613864 0.0247434497
0.0125509854 0.7508748766 0.0267797796
0.0023727416 0.5003065561 0.774170107
0.0124629159 0.4997123189 0.0298918491
0.0225161615 0.748727031 0.278795096
0.0027143789 0.7501524195 0.2808872977
0.0125381726 0.749071988 0.5281039888
0.0225256238 0.7500678074 0.7802202794
0.0223591313 0.501092147 0.2795213376
0.0025838947 0.7504843592 0.7796357884
0.0125400872 0.9997125542 0.0301163489
0.0525515996 0.9997385887 0.5202810137
0.0525044721 1.0002983303 0.018076202
0.0323854627 0.750419273 0.0268390571
0.0423444534 0.5000013017 0.7714216185
0.0426080726 0.7490784967 0.2716265667
0.0325021768 0.7514997044 0.526421391
0.0425705179 0.7491696174 0.7740458451
0.0527283276 0.7492151777 0.0184395069
0.0525666951 0.7491305656 0.5208885161
0.0525169904 0.4992039954 0.520096922
0.0425591043 1.000389451 0.2730643226
0.0325356815 1.0016260894 0.524567588
0.0326280955 0.9982090623 0.022512627
0.072568254 1.0009557012 0.5176936054
0.0624837129 1.0002462613 0.7672979653
0.0724658991 1.0011769944 0.0155138302
0.0724684764 0.7508488421 0.0168986597
0.0623957171 0.7481672894 0.2672847649
0.0724714218 0.7519878512 0.5158977912
0.0624741401 0.7492542295 0.7703327163
0.0625625041 0.9999338474 0.2688127257
0.0824720172 0.9997841491 0.265581917
0.1024735761 1.0012420806 0.7662237904
0.0824720172 0.9981830278 0.7667153152
0.0926003722 0.999302511 0.0148661037
0.092427326 0.7534848345 0.0118365072
0.0924692989 0.5003377975 0.0142169045
0.1025291718 0.7500612987 0.2639729559
0.0824874809 0.7469111252 0.2642297638
0.0923614212 0.7488376776 0.5149359123
0.102621954 0.7511937992 0.7606246426
0.0825522812 0.749625221 0.7663020294
0.0925094309 0.5014546773 0.5166019418
0.1125566446 0.9997125542 0.0098171138
0.1124399305 0.749228195 0.0107105106
0.1225929537 0.502235712 0.7608335866
0.1226102583 0.753562938 0.2584538879
0.1124929489 0.7512328509 0.5111463855
0.1224099666 0.7511287129 0.7582185646
0.1125489127 1.0012681151 0.5087320233
0.1225484035 1.0007669512 0.7596590818
0.152653281 0.9992960023 0.5054966124
0.1325077624 1.0026023829 0.5075575185
0.1425606398 1.0019905723 0.7596001725
0.1525774352 0.9998492353 0.0059557912
0.1325795581 1.0010923823 0.0092826036
0.1525420896 0.7489938846 0.0058638374
0.1325644626 0.7516363855 0.0083829477
0.1425473852 0.7488962552 0.2578491468
0.1526179354 0.7501394022 0.5062486268
0.1325747717 0.7499766866 0.5112908974
0.142542967 0.5003521165 0.2556915926
0.1425378124 0.7527103083 0.7559652827
0.1724950484 0.7491045311 0.0036134089
0.1625769261 0.5003696898 0.7531256688
0.1724990984 0.4981600123 0.0070922811
0.1624716256 0.7501979798 0.2558066498
0.1825810623 1.0010012616 0.7540847863
0.1724755346 0.7502825919 0.5044813469
0.1624926121 0.5004204571 0.254656077
0.1625482078 0.75057548 0.7525724734
0.1825766441 0.7508813852 0.2509484709
0.1824271616 0.7508293163 0.7553366096
0.1624734665 1.0000314768 0.2549174871
0.172701231 1.001391779 0.5054901692
0.172542544 1.0022834603 0.0025011271
0.19248998 1.0003959596 0.506984073
0.2024036841 1.0006042356 0.7565065121
0.1924145024 0.750816299 0.0040787926
0.2024916799 0.7499376349 0.2525408638
0.1924034569 0.7511287129 0.5043635282
0.2023764385 0.7498269883 0.7489541518
0.2323933202 0.7534653086 1.000802589
0.232312688 0.5026314363 0.9988328083
0.2324253521 0.7512523768 0.501872768
0.2324242476 0.5007087891 0.4996240884
0.2225112798 1.0011053996 0.2567906198
0.2124753389 1.0015935463 0.5039612879
0.2124215841 1.001443848 0.0048312673
0.2123825567 0.7493128071 0.0033868841
0.232423143 1.0029538485 1.0002595186
0.2223352882 0.7521570754 0.2537144481
0.212361202 0.7504973765 0.5046405862
0.2224586296 0.5012119056 0.2554771258
0.2223916202 0.7503021178 0.7497724392
0.2524817704 0.7502891005 0.9957400684
0.2523599017 0.5007283149 0.9975441666
0.2424222657 0.7501654367 0.2457626088
0.2523319197 0.7506926352 0.4967209629
0.2423629881 0.5004048364 0.2449360373
0.2425308797 0.7528274635 0.7459608214
0.2525631389 0.5015529575 0.4991482115
0.2623590243 0.5015991687 0.7453772508
0.2623752244 0.7504778506 0.2464584753
0.2623851653 0.7497879366 0.7450339198
0.2823314968 0.4987308185 0.7416162582
0.2825601386 0.7514736699 0.2407902931
0.2823679469 0.4995971162 0.2419887298
0.2823697878 0.7507902645 0.7445552815
0.2723051286 0.7500352642 0.993871538
0.2724568201 0.5009066512 0.995307453
0.2723448924 0.7487465569 0.4892192278
0.2824080789 0.9983457434 0.2405500535
0.2823767833 0.9989835884 0.741133938
0.3125015427 1.0008190201 0.9881739011
0.2924823109 0.7498790573 0.9914323235
0.3026445388 0.5017208799 0.7409038234
0.2924546972 0.4990080858 0.988661744
0.3025458657 0.749521083 0.2406844404
0.29246427 0.7498400056 0.4899068101
0.3025616975 0.4997318447 0.241256045
0.302556543 0.7497358676 0.7395479884
0.3025650112 1.001892943 0.2395062538
0.3125037518 0.7511937992 0.990383001
0.3125832794 0.5003046036 0.9892232236
0.3124989654 0.75166242 0.4897770255
0.2924337107 0.9988143642 0.9884500386
0.3323679783 0.75166242 0.9916164152
0.3326621568 0.5007361253 0.990272546
0.3224513287 0.7508878939 0.2398330165
0.3325494927 0.7514736699 0.4922558197
0.3226460977 0.7489808673 0.7379832092
0.3326577386 0.5013479358 0.4889688631
0.3526456747 1.0002983303 0.4862986136
0.342477556 0.9993610886 0.742879127
0.3625181423 0.7495275916 0.2341988912
0.3524682104 0.9980138036 0.9861396883
0.3625586425 0.7501003505 0.7328544156
0.3625402333 0.9993285455 0.2361962857
0.3524770468 0.7509920318 0.9850259337
0.3624923695 0.9999859164 0.7346456274
0.3525506834 0.502434225 0.9854493445
0.3426421339 0.750920437 0.2380086681
0.3525146015 0.7505689713 0.485516224
0.3424845514 0.750523411 0.7378948452
0.392436719 0.9997060456 0.4763484593
0.3726468655 0.7489938846 0.9806721659
0.372680002 0.5007836382 0.9849154787
0.3825104967 0.7488637121 0.2321794057
0.3726395018 0.7513500061 0.4786983893
0.382679861 0.4999108319 0.2287157211
0.3825620423 0.7518772046 0.7321843219
0.3825657242 1.0001291061 0.2304369781
0.3825104967 1.0010403133 0.7313632731
0.3724001827 1.0005391494 0.9826695605
0.3726063653 0.5013069315 0.4836734665
0.3925214012 0.7517079804 0.9768798777
0.392547174 0.7529966877 0.4798130644
0.412524801 0.7508813852 0.9751218024
0.4124622098 0.7494169451 0.4761284698
0.4124953463 0.4997474654 0.474644691
0.4027384883 1.0005847097 0.2237342007
0.4026169878 0.4997741508 0.7270546078
0.402414487 0.7491566001 0.2242597824
0.4024733963 0.5012372892 0.2285454363
0.4025323057 0.7510441008 0.7297359028
0.4325171554 0.746585694 0.975637259
0.4225614783 0.7490850053 0.2244153399
0.4326717924 0.7485252637 0.4735125273
0.42252466 0.4995125041 0.2235924501
0.4226829788 0.7475815133 0.7247120414
0.4426900605 0.7493974192 0.2248074551
0.4426495604 0.7459934093 0.726101013
0.432590792 1.000389451 0.4742893941
0.4225762057 1.0000184595 0.7219506665
0.4426495604 0.9987232435 0.2245386813
0.4526162829 0.9983132003 0.9713387187
0.4625609144 0.9988729418 0.2160400898
0.4725865462 1.0001225975 0.4654815286
0.4626308692 1.0008190201 0.7207614344
0.4526641467 0.7483755654 0.9704458742
0.4525647372 0.7461040559 0.4707907321
0.4724945004 0.7473732374 0.9655950589
0.4624467775 0.7500678074 0.2174695615
0.4725791825 0.7500938419 0.4632797923
0.4625866872 0.7488116431 0.7195270998
0.472546046 0.500089819 0.464478229
0.4824722684 1.0012225548 0.2149962901
0.4924794911 1.0005912183 0.4692489644
0.4923727179 1.0019385033 0.9651992619
0.4824759502 0.4987412323 0.712415639
0.4924979002 0.7502630661 0.4628950407
0.4824943594 0.75166242 0.2201876749
0.4924426727 0.7527103083 0.9658251735
0.4825827234 0.7512784113 0.7178813204
0.5124681636 1.000545658 0.4703259006
0.5124350271 0.9982285882 0.9722867908
0.5024093952 0.9998817784 0.2182473488
0.5226005686 0.7503802213 0.7195639181
0.5225490229 1.0024591932 0.2188741809
0.5225011591 1.0019840637 0.7198952831
0.5025529867 0.750315135 0.2179454385
0.5024167589 0.4997923749 0.2205696651
0.5025566686 0.7511026784 0.7209989126
0.5024719864 0.5017358498 0.7194737132
0.5126412097 0.7512393595 0.9668192685
0.5125233911 0.4986025986 0.9724984962
0.5126228006 0.7517079804 0.4693916354
0.5226263414 0.498690465 0.2206626314
0.5225122046 0.7501589281 0.2231331415
0.5325930639 0.7515387562 0.4741062229
0.5325452001 0.4990250083 0.4754473306
0.5324973363 1.0016911756 0.9755636224
0.5425413773 1.0030970382 0.2234985634
0.5526075093 1.0021663051 0.476863916
0.5524786451 0.7518837132 0.9786287485
0.5425045589 1.0011249254 0.7267508566
0.5425818774 0.7506210403 0.2244420332
0.5524602359 0.7515387562 0.4734158791
0.5426150139 0.7513630234 0.723032205
0.5326298822 0.7502630661 0.9724616779
0.5624858678 1.0009817357 0.2274620569
0.5624269584 1.0009687185 0.7276308147
0.5624895496 0.7519878512 0.2279093996
0.5625374134 0.7521961271 0.7257760912
0.5725777726 1.0007604425 0.4806184654
0.5724673176 1.0032467366 0.9759778286
0.5723310898 0.7520984978 0.9803868239
0.5725814544 0.7520529374 0.4797624391
0.6025110766 0.9994196662 0.2313868911
0.5925885361 0.7496317296 0.9827800154
0.5925296268 1.0001746665 0.4827355195
0.602459531 1.0013657445 0.7331959056
0.592548036 0.99954333 0.9806353476
0.602525804 0.7501589281 0.2343360395
0.6025368495 0.4972559645 0.2351681338
0.5925333086 0.7506145317 0.4829094861
0.6025147585 0.7510766439 0.732546062
0.5824303583 1.0015089342 0.2281616052
0.5824782221 1.0004219941 0.7288614675
0.5824966313 0.751161256 0.2333198535
0.5825592225 0.7505299196 0.7310714878
0.6124962083 0.75057548 0.987050942
0.6123783896 0.751024575 0.4874160499
0.6123820715 1.0005586752 0.98301013
0.6223745668 1.0035916936 0.2385259657
0.6224224306 0.7525150496 0.2410434191
0.6224297943 0.7506796179 0.7394761926
0.6422859208 1.0009622099 0.742734615
0.6524882807 0.9995368214 0.9961634792
0.6324075623 1.0023420379 0.9905026606
0.6324701535 0.750315135 0.990714366
0.632437017 0.5003872631 0.9912482318
0.6324627898 0.7517730666 0.4921518079
0.6524293713 0.7489938846 0.9906775477
0.6524845988 0.5009203193 0.9922975543
0.6423558757 0.7514541441 0.243298542
0.6424663307 0.5000260345 0.2416435579
0.6524330532 0.7509074197 0.4909303597
0.6425178763 0.752957636 0.7431874805
0.6724622258 0.7501914712 0.9929786934
0.6725100897 0.5022344103 0.9933100584
0.6822779932 0.9998687612 0.2429312791
0.6723149525 0.9983327261 0.4972345787
0.682414221 0.9982546227 0.7394743517
0.6825320397 0.7494494882 0.2431015639
0.6723738618 0.7487465569 0.4918683068
0.6824289484 0.750074316 0.7429269908
0.662370321 0.7498009538 0.2412772155
0.6624218667 0.7499311263 0.7438796651
0.7025170304 0.9992439334 0.2447142068
0.702502303 0.4983136158 0.7439781542
0.6923735799 0.7506145317 0.992039826
0.692436171 0.9995693645 0.495096354
0.7023734389 0.9991137609 0.7420866124
0.692391989 1.0001421233 0.9932272172
0.7024397119 0.7501849626 0.2441113066
0.7024470755 0.5000553233 0.2426910395
0.692391989 0.7493453502 0.4916878969
0.7025612124 0.7484797033 0.7436375846
0.722369475 0.4998463965 0.7471159965
0.7323472431 0.7498269883 0.9984738295
0.7223989297 0.7496317296 0.2482598122
0.7224725664 0.5002681553 0.2481916983
0.7323877432 0.7510375922 0.5000042377
0.722413657 0.7512458681 0.7465186191
0.7225130665 1.0002397527 0.7474335546
0.7125205712 0.7516428941 0.9980136004
0.7124690255 0.7483950912 0.4972870448
0.7424133751 0.4987119435 0.7472328947
0.7424244206 0.7474057805 0.2483951196
0.7423655112 0.5007497934 0.2481245048
0.7424060114 0.7503606954 0.749257903
0.7524058704 0.4989371419 0.4989806881
0.7524242796 0.7505819886 -0.0024813966
0.7624499114 0.5003534182 0.7491676981
0.7624315022 0.7474708668 0.2499810692
0.7624130931 0.4984952063 0.2515255983
0.7524316432 0.7471519442 0.4983428105
0.7623615474 0.747138927 0.7497236549
0.7823354926 0.746585694 0.2532514576
0.7824606749 0.4978267708 0.2545465424
0.7723429972 0.7495666434 0.5013158908
0.7823465381 0.7473406943 0.7508355685
0.7723798156 0.9994261748 0.4972437832
0.7724092702 0.4961768348 0.5029607498
0.7724129521 0.7489808673 0.001902369
0.7823686291 0.4996758706 0.7527620878
0.7724129521 0.4973106369 0.0029967018
0.7924789431 0.7481933239 0.4999029873
0.8125154794 0.4985720081 0.5011189127
0.8124344791 0.749918109 0.0030059064
0.8022947104 0.4990113402 0.7468601091
0.8023720289 0.7480761687 0.2498586483
0.8024603929 0.5005265476 0.2494278738
0.7923206243 0.4986214736 0.5029064427
0.7924053064 0.7484081085 5.670324861e-04
0.8124271154 0.7487075051 0.5030481933
0.7925783526 0.4980864648 0.0036916479
0.8024714384 0.749228195 0.7495644156
0.8324857428 0.4982791201 0.5022989402
0.8325446521 0.7486554362 0.0060654178
0.8223643833 0.4969643782 0.7524601774
0.8325777886 0.5004399829 0.0055788635
0.8223975198 0.7500352642 0.2551153857
0.8224711564 0.4996719654 0.2512945632
0.8325483339 0.7481607808 0.5060525692
0.8222797011 0.7483690567 0.7532582148
0.8624779561 0.7493583674 0.7588748514
0.8625000471 0.4975970164 0.7575935734
0.8525664611 0.7503086264 0.0058450601
0.8524854608 0.5001451423 0.0075107214
0.8624300923 0.7507056524 0.2577313282
0.8626399568 0.4984646158 0.2559732528
0.8525149155 0.7479004359 0.5098825962
0.8426034204 0.7486554362 0.2570980528
0.8424745563 0.4995632714 0.2555921831
0.8426365569 0.7484797033 0.7589337607
0.8525995976 0.5011207849 0.5035010588
0.872525679 0.5003527674 0.5055840559
0.8824666286 0.7519813425 0.7566565468
0.8925327606 0.4981893011 0.5132459508
0.8726029975 0.7511222043 0.0067136045
0.8924996241 0.7511547474 0.0146246675
0.8825365835 0.4979614993 0.7599103669
0.8724262695 0.4978098483 0.0076236616
0.8926174428 0.4991128747 0.0106827128
0.8824114011 0.7494039278 0.2571744509
0.8825108106 0.4981964605 0.2595943358
0.8726508613 0.7510441008 0.5068275951
0.8924738513 0.7476010392 0.5121874238
0.8825108106 1.00044152 0.2599800078
0.8827390843 1.0018213481 0.7622741039
0.9125729788 0.7467549182 0.5134300425
0.912613479 0.997799019 0.0152257268
0.912613479 0.4976438784 0.5155434148
0.9025436652 0.7444508656 0.763519484
0.9124514783 0.7453034953 0.0142321841
0.9125877062 0.4988330039 0.0125946887
0.9025768017 0.746930651 0.260118997
0.9025178923 0.4983175209 0.26351917