POSCAR file written by Ovito 3.7.11
1
271.6002743347 0.0 0.0
0.0 15.3640316603 0.0
0.0 0.0 10.8640109734
Sr Ti O 
800 800 2400 
Direct
0.0224262223 0.502297574 0.7685542242
0.0123764902 0.2492064528 0.52141806
0.0223788365 0.2492292332 0.7679826121
0.0024081277 0.2533681208 0.7728288885
0.0124106581 0.2516075152 0.0162449694
0.0225519954 -7.5137633699e-04 0.2664569773
0.0023385401 -8.5369323107e-04 0.2737176475
0.0024237389 0.5021172828 0.2732629351
0.0124126831 0.500952224 0.5209164037
0.012305614 0.0023517805 0.5202444603
0.0223894035 0.0026265782 0.769105586
0.0023206462 0.0020288835 0.7714647515
0.0222672387 0.2486974718 0.2673305037
0.0024051085 0.252833105 0.2746767776
0.0324275745 0.5011709166 0.0188093077
0.0424448693 0.5018159296 0.2634479597
0.0324658661 0.4985811016 0.5175511641
0.0324445112 0.2513523739 0.5151192814
0.0424732198 0.2498059048 0.7632790086
0.0324769117 0.2513152742 0.0138499976
0.0524989828 0.4976894086 0.0116990425
0.0424710106 -0.001612869 0.7621284207
0.0424739561 0.2511317287 0.2649740996
0.0524433864 0.2533388316 0.5070983027
0.0524533275 0.2519576837 0.008584539
0.0625449963 0.2490671664 0.2620414811
0.0624912408 0.4996791207 0.7562456947
0.0724853397 0.4994252811 0.0113180598
0.0625195913 0.4988434025 0.2571151237
0.072487917 0.4999290551 0.5111879525
0.0724441026 0.2495162673 0.5087082054
0.0624573675 0.2511766388 0.7633195093
0.0724072838 0.2503122823 0.0060331793
0.0924367186 0.2518561479 0.5046351241
0.1022802286 0.251452608 0.7530912428
0.0823807641 0.2504821596 0.7581547502
0.0924183092 0.2500350113 0.007420144
0.102645103 -1.7372847762e-04 0.2554831298
0.0924731693 -6.2666948645e-04 0.5064558144
0.1024212446 0.2507659393 0.2522145396
0.0823141221 0.2516459166 0.2585630236
0.1025924521 0.5004803427 0.7517896977
0.0825619127 0.501985156 0.7577515842
0.1025096098 0.5005272054 0.2539275349
0.0825177301 0.5003189267 0.2548940288
0.1225596632 0.248545168 0.2504693278
0.1126149015 0.49934978 6.8865225256e-04
0.1124735173 0.2505518028 0.5028761052
0.1223921376 0.5012412107 0.2499207275
0.11252985 0.5023411824 0.50002817
0.1224462612 0.2516940811 0.7469167277
0.1124742536 0.2487606062 0.0044426065
0.1224838164 0.001577114 0.2503551895
0.152436658 0.2479112198 0.4948045007
0.1324300508 0.2525870758 0.4984688932
0.1424495547 0.2514910094 0.7459474724
0.1524506492 0.2502198586 -0.0065513809
0.1324687106 0.250021343 -0.0039734472
0.1425055193 0.0035779561 0.2450100181
0.1424355636 0.2504860648 0.2449649151
0.1424274634 0.5003833629 0.7437024452
0.1524539629 0.5012483702 -0.0091562356
0.1324613468 0.5013290782 -0.0033612976
0.1523516066 0.4976047954 0.4920449306
0.1324458829 0.5004406396 0.4947879323
0.1824756557 0.2507125679 0.2351941223
0.1723965053 0.5005350158 0.48658378
0.18240975 0.5017287129 0.7329559539
0.172450629 0.2502803896 0.4902684228
0.162423025 0.2515508895 0.7450702641
0.1725467261 0.2469720132 -0.0103627449
0.1825198383 0.4991779501 0.2359627151
0.1624278114 0.0010167794 0.7412585964
0.1626351013 0.2493691705 0.2416070392
0.182484124 0.2500499814 0.7335514982
0.1823574673 0.0015306419 0.2355558672
0.1923659255 2.1282370682e-04 -0.0152580824
0.2025441185 0.2514799446 0.2393205909
0.2023419832 0.5002603483 0.7371413325
0.1924159991 0.5009053613 -0.0122876601
0.2023633381 0.5017560495 0.2391558267
0.1923475161 0.5015861722 0.4875189779
0.192511728 0.2518515918 0.4886244628
0.2024829992 0.2515671613 0.7374588948
0.1924012716 0.2514760393 -0.012013001
0.2024384485 5.4613465756e-04 0.2400229098
0.2125205443 0.2499966099 0.4898367222
0.2226228905 0.2521705185 0.744889852
0.2125194398 0.2510197789 -0.0097230456
0.2225433619 0.0032298703 0.7426908483
0.2225717124 0.2508837469 0.2466116365
0.2325801706 0.2490450368 0.4977813018
0.2326228804 0.2498540692 0.9952587081
0.2325256788 0.0026593821 0.4972253378
0.2224678833 0.5004862005 0.7412328233
0.2124159789 0.5019194181 -0.0074241636
0.2124859346 0.5007283245 0.4911548358
0.2424682313 0.4960837102 0.7438184245
0.2626931741 0.2471178083 0.7508922391
0.2625956042 -0.0031694461 0.2524557028
0.2625856631 -0.0029251092 0.7500840662
0.2525827277 0.2487801324 0.4997271762
0.2426184521 0.2497889822 0.7474680894
0.2525849368 0.2486414969 1.0004685702
0.2626405232 0.2477211655 0.2494503671
0.2425797923 -0.002315497 0.2468933005
0.2625753539 0.4990197885 0.2480181152
0.2526504743 5.0363279253e-04 0.5013232718
0.2425484963 5.7200491969e-05 0.7496210696
0.2525407543 -0.0026330699 0.9970720346
0.242596729 0.2482926301 0.2478064071
0.2725642981 0.2499477946 0.5005620428
0.2726408812 0.2502921053 1.0001464056
0.2727877883 6.6247596471e-05 0.5017724613
0.272585653 8.3206221207e-04 0.9990510459
0.2826393984 0.2492897642 0.7550233101
0.2726666544 0.4984131769 0.5043691082
0.2826261436 0.2494414171 0.2495884377
0.3125819307 2.1985311175e-04 0.5003908353
0.2926404929 0.4987568367 0.502959868
0.2926695797 0.2524816348 0.5024757006
0.3025661087 0.2491563357 0.751549455
0.2926640569 0.2505804411 1.0007447113
0.2926191379 0.0010026555 0.4988665364
0.3026611013 7.9525361351e-05 0.7536407636
0.3125657305 0.5011963006 0.5058381788
0.3026305417 0.2507177748 0.2555687335
0.3126923872 0.2511896562 0.5005611223
0.3125937128 0.2495761474 1.0009472148
0.3227906833 7.3703507126e-04 0.2508715733
0.332467404 -0.0011333073 0.5015552303
0.3225723477 -7.5905661276e-04 0.7536582525
0.332479186 -7.2885620636e-04 1.0025488332
0.3226124803 0.2486102551 0.2477254057
0.3226087984 0.4993120295 0.7532983486
0.3226982681 0.4999570425 0.255197784
0.3326732212 0.2491472235 0.4980160218
0.3225215378 0.2491081713 0.7478510051
0.3327737366 0.2485822676 1.000164815
0.3624868877 0.24889794 0.2451490092
0.3524721703 0.4987991433 0.5006237143
0.3526238638 0.2485009088 0.4998569625
0.3424659212 0.2500454253 0.7516019218
0.3625678891 0.4996394176 0.7406381994
0.3525340259 0.247592944 1.0003304997
0.3626157535 0.5009457153 0.2439542386
0.3424810169 -0.0010704332 0.2488842778
0.3425185721 0.2471073943 0.2489238581
0.3624979333 0.249457038 0.7492878593
0.3425402952 0.5008259551 0.751036753
0.3426595881 0.4986787322 0.2494586513
0.3824537306 0.2485972377 0.2421353892
0.3926046776 0.2503715115 0.4888555009
0.3925825863 0.2508173581 0.9891467849
0.3926083595 -8.8467468246e-04 0.9883459757
0.3826488703 0.4999381673 0.7417068655
0.3925825863 0.499213748 0.9920646759
0.3725605152 0.2506435755 0.4911796885
0.3825973239 0.2480869549 0.7421440889
0.3724574225 0.2486870578 0.992902304
0.3925531313 0.4997715443 0.4897575618
0.3724647863 -0.0021261001 0.4926018152
0.412461064 0.4987939364 0.9844615908
0.4026451682 0.2478279083 0.7393596661
0.4024463466 5.9963623958e-04 0.7408729193
0.4026304407 0.2504242321 0.2376453349
0.4126562037 0.2497538351 0.4841362494
0.4125715205 0.2491563357 0.9859895716
0.4125273379 -7.2534150389e-04 0.4869933893
0.4124978828 0.001640639 0.9886221168
0.4425493989 0.0024420563 0.7358333442
0.4425862177 0.2492279315 0.2316383453
0.4225751922 0.4998105966 0.7364601845
0.4323469055 0.5015295464 0.9851979671
0.4324279069 0.5003514702 0.4839107341
0.4424352605 0.5016232718 0.7356041471
0.4424352605 0.5021250933 0.2335400371
0.4325089083 0.2506617999 0.485808744
0.4225972835 0.2487339205 0.7352092653
0.4326193647 0.2499438894 0.984829779
0.4226083292 6.598724814e-05 0.2355080027
0.4323653149 0.0010971619 0.9850691013
0.4225678285 0.2500682057 0.2328340363
0.4426230365 0.2472577455 0.7349616587
0.47263037 0.249028765 0.4816334905
0.4626156525 0.2524913978 0.7349736249
0.4723358194 0.2504619826 0.9835411205
0.472442594 0.0013494394 0.9870573172
0.4625604243 0.2504483143 0.2344476209
0.4524978424 0.499878938 0.9823629184
0.4524057954 0.5024140799 0.4819952353
0.4624720592 0.5006814618 0.7319231861
0.4723910477 0.5011292609 0.9867259479
0.4625236055 0.5005122353 0.2347246824
0.4526303902 0.2488686508 0.4795983305
0.4526819365 0.2502921053 0.9839645368
0.4525309794 3.4625222645e-04 0.4827408163
0.4825346309 0.2512781746 0.7376779668
0.4825162215 -0.0013562306 0.735341813
0.4924720289 0.5012288441 0.9896438389
0.4924168006 0.5003573281 0.49251345
0.4824978121 0.2516934302 0.2381718439
0.4924168006 0.2513679948 0.4879405533
0.4924094369 0.2517656769 0.987499143
0.4823947195 0.5024882792 0.2374327062
0.5025714296 0.2490066354 0.7412724035
0.5124388717 0.2536727284 0.4943286176
0.5125456463 0.2525877267 0.9949457481
0.5024720188 -4.9486814389e-04 0.7381713389
0.5025346107 0.2494225419 0.2402024015
0.5224020428 0.2482737549 0.2400523648
0.5223357689 0.2495475091 0.7427203033
0.5124388717 0.5017365234 0.4926874189
0.5223357689 0.4999023694 0.746504357
0.5424277958 0.4985895629 0.747621808
0.5524425132 0.4965647038 0.9966117995
0.5424241139 0.4974108358 0.2465766587
0.5525198327 0.5001939595 0.4974241594
0.5323909871 -0.0017741548 0.4907231352
0.5325051254 0.2495149655 0.4951662456
0.5323247132 0.2514858024 0.9954704162
0.5324020327 0.5005434771 0.9946511976
0.552387285 -0.0017986926 0.9969339641
0.5424314777 0.2476847168 0.2445691128
0.5526486986 0.2506207951 0.4986594306
0.542390977 0.2485549311 0.744189374
0.5525713791 0.2478780254 0.9942738048
0.572413038 0.247547383 0.4969804926
0.5723872648 0.2501358963 0.9989589989
0.5625235045 0.4995398343 0.7471367201
0.5623430923 0.498307085 0.2458108273
0.5725308582 0.4997897687 0.9995665093
0.5724019923 0.5007471997 0.4966141454
0.5623615017 0.2498228274 0.2475422321
0.5624645944 0.2493340234 0.74760616
0.6025345097 0.5010921612 0.7529283195
0.5924461547 0.4998776363 1.0018308664
0.5924608822 0.50199557 0.5009836182
0.5823357083 0.2504502669 0.7483278087
0.6025308279 0.250157375 0.2525219767
0.5925161104 0.2518502901 0.5010885518
0.6026044655 0.2516478692 0.7518329598
0.5923872446 0.2503090279 0.9992259353
0.5824645742 0.5031150678 0.7478740168
0.5824977111 0.4998053896 0.2531976019
0.5824793017 0.2510386541 0.2490407578
0.6125565909 0.5013017417 1.0013798359
0.6124166794 0.500070294 0.5026680789
0.6225381714 0.5015191325 0.7528031356
0.6124866352 0.0028238571 0.5038978273
0.6225050345 0.5012678964 0.2542855979
0.6124166794 0.2507412062 0.5005832136
0.6124350888 0.2500174378 1.0041412469
0.622427715 0.0022229732 0.7537714704
0.6224866251 0.2496457906 0.2513879572
0.6225344895 0.2502276691 0.7519065974
0.6424755592 8.1266626141e-04 0.2477824748
0.6524829129 -0.0015123094 0.4990101298
0.6325897077 0.4995320239 0.5037118923
0.6426633352 0.2476502206 0.2502677448
0.6526301882 0.2501378489 0.4984477224
0.6426044251 0.2477192129 0.7493799063
0.6324682056 0.0011699943 0.5002987883
0.6525491868 0.2507542236 0.9978176156
0.6425823338 0.502111425 0.7516488658
0.652387184 0.4972155746 0.4993645109
0.632549207 0.2513302443 0.5001404674
0.6325823439 0.2495859105 0.9996861704
0.6824644732 0.4997604795 0.7441810898
0.6624902666 0.0018041378 0.2459222043
0.6825123376 0.4981645443 0.2441954019
0.6625749498 -0.0024492054 0.7461380098
0.6725086659 0.4993126804 0.4952895886
0.6625565404 0.2512397732 0.2479840578
0.6625270854 0.2516556797 0.7502525122
0.672504984 0.001900727 0.9950285905
0.6624939484 0.4991480101 0.7465890402
0.6624644934 0.5008194464 0.2483126658
0.6824497457 0.2498488623 0.2448544586
0.6725013021 0.2498944232 0.4971581434
0.6825417927 0.2500974949 0.7427525198
0.6726007129 0.250585648 0.9969523735
0.7024497255 0.2498417027 0.2379463287
0.6925307369 0.2507770041 0.4911870523
0.7024607711 0.2484351708 0.7402838183
0.6924165986 0.2500167869 0.989827933
0.6924534174 0.4983064341 0.9924696829
0.6924497356 0.5003391037 0.492638634
0.7326374711 0.5011989041 0.983927718
0.7324386495 0.4989228088 0.4847299527
0.7124718066 0.2483049967 0.4863205255
0.712523353 0.2503773694 0.9874347101
0.722582253 0.0011852898 0.2411596907
0.7325748791 -0.0010068431 0.4853300994
0.732578561 0.0012776484 0.9900580506
0.7123723958 0.4986637622 0.9873242536
0.7225307066 0.2494882798 0.2321473654
0.7324165582 0.2503676063 0.4831771193
0.7224865241 0.250575885 0.734022779
0.7325196509 0.2500623479 0.9822248479
0.7126227638 0.4998047388 0.4888021136
0.7125196711 -0.0017408953 0.4901413979
0.7126043544 -0.0012022996 0.9910337491
0.7526264053 0.4993387152 -0.0208477767
0.7425638234 8.8152839496e-04 0.2343923926
0.7426116878 0.0013523033 0.7323410797
0.7426779617 0.2510145719 0.2342414355
0.7425159589 0.2508212633 0.7335174408
0.7624386192 1.6869466471e-04 0.2339441236
0.7526079959 0.0012291585 0.482159079
0.7624533467 -1.5999510316e-04 0.7319913009
0.7525343582 0.0014392596 -0.0194540005
0.7626337589 0.2478715167 0.2335335938
0.7525159488 0.250535531 0.4815828646
0.7626190314 0.2472570946 0.7321947249
0.7524386293 0.2527608583 -0.01790715
0.7825601011 2.7289908419e-04 0.2310124255
0.7826006018 -6.9787475498e-04 0.7322343051
0.7725637931 -3.9476421062e-04 -0.0192191885
0.7826153293 0.2492487594 0.2339395212
0.7724754279 0.2476918763 0.4818580852
0.7826079656 0.248368782 0.7338092299
0.7725306561 0.2492513628 -0.0180400659
0.7926374105 -0.0031436781 0.4814070548
0.7926595018 -8.1919707722e-04 -0.0167781287
0.8124680238 0.4993354609 -0.0193832163
0.7925858642 0.2489454536 0.4861502385
0.7926337286 0.2482158274 -0.0147284621
0.8025195802 -0.0035483635 0.2330503469
0.8125711164 -0.002727635 0.4841482155
0.8026447642 -0.0013436037 0.7295805891
0.8124717056 -5.9471172882e-04 -0.0174460772
0.802526944 0.2464610796 0.2317902229
0.8125747983 0.2487977059 0.4839365073
0.8025379896 0.2479626386 0.7285349348
0.8124717056 0.2482158274 -0.0169151407
0.8325600506 2.9431273442e-04 0.4894694546
0.8226668353 -0.0016138453 0.732950431
0.8325305955 5.5713437455e-04 -0.0139385329
0.8225968795 0.2480400922 0.2349557205
0.8325563687 0.2500421709 0.4848367273
0.8225526969 0.2504828105 0.7349533745
0.832703644 0.2490762786 -0.0153426092
0.8225931976 -7.0314680868e-04 0.232162093
0.8426226325 -9.5236524852e-04 0.7333471538
0.8426594513 0.2489389449 0.2404785426
0.8425600405 0.247048816 0.7391488784
0.8624937464 -0.0011543956 0.2457169394
0.8425821318 0.499621844 0.7426761208
0.8524643015 -0.0020879721 0.493816836
0.8625084739 0.0011601662 0.7433397799
0.8524458921 -0.0021891435 -0.0100878464
0.8624900645 0.247607914 0.2429794605
0.8425416311 -0.0012580142 0.2419503747
0.8525489847 0.2475193956 0.4933630442
0.8625637022 0.2484618565 0.7450905145
0.8526226224 0.2481032267 -0.0110084641
0.8724385081 -0.0014776831 0.4990690399
0.8923943053 0.0010320748 0.5053733413
0.8724900544 -7.0275628618e-04 -1.1795591651e-04
0.8824863625 0.2504561247 0.2536826898
0.8924937161 -9.2174362934e-05 0.0041463991
0.872471645 0.2503949429 0.4983842099
0.8925636719 0.2512606011 0.510132173
0.882438498 0.2478324644 0.7501825565
0.8724642813 0.2491934353 -8.4820186521e-04
0.8925047618 0.2491888792 0.0069631305
0.9025305248 -3.6755781004e-04 0.2574133561
0.9125121053 3.6135242964e-04 0.5081844578
0.9025121154 -3.6589994269e-05 0.7594277607
0.9024605691 0.2483915625 0.2588621765
0.9124458315 0.2495410004 0.5100594559
0.9025857531 0.2478259557 0.7589656846
0.9024532053 0.5010928121 0.7610588342
0.9124568771 0.2504079603 0.0097504067
0.9225341865 -7.8964754165e-04 0.2641226645
0.9224347757 6.0503846745e-04 0.7620216461
0.922519459 0.2486597213 0.263035589
0.9224973677 0.2497030672 0.7624330964
0.9424458012 -1.6598311477e-04 0.2677585224
0.9325084032 -0.0014463111 0.5170531896
0.9424016186 -4.5933059671e-04 0.7669148665
0.9325268127 -4.6323582167e-04 0.0160318805
0.942574667 0.2491843232 0.2646491736
0.9324936757 0.2504476634 0.5147731845
0.9424789381 0.2504079603 0.7662834239
0.9324826301 0.2498859619 0.0144658843
0.9525820207 0.0023840637 0.5193350356
0.952353744 0.0011548291 0.0193531216
0.9624420991 0.2494290506 0.2710685338
0.9524936555 0.2511877036 0.5185747271
0.9725599092 0.2514910094 0.5224084861
0.962412644 0.2493437865 0.7700923302
0.9524236998 0.2507125679 0.0184818044
0.9726556381 0.249598277 0.0226013694
0.9625415099 0.0027465337 0.2696289182
0.9825819904 0.5005246019 0.7719645669
0.9824163057 0.4996992977 0.2712526279
0.9824862615 0.002021008 0.2752032866
0.9923684311 0.0016566505 0.5296719176
0.982438397 0.2531377126 0.2788474287
0.9926077534 0.0018101909 0.0284856603
0.9924641601 0.2507861163 0.5211805787
0.9823389862 0.2526196194 0.7776153344
0.9924752057 0.2510516716 0.0238194279
0.0124068289 0.7524793027 0.0186966422
0.0023290409 0.500700337 0.7740466708
0.0124199732 0.5001854982 0.0214873242
0.022447835 0.7500710806 0.2677106579
0.0024457933 0.7512621742 0.2737517049
0.0124505329 0.7502272896 0.5193414789
0.0225027687 0.7516852403 0.7673493285
0.0223993078 0.500005207 0.2684893759
0.0024634295 0.7500059935 0.7725729978
0.0124415491 1.0017888644 0.0203720823
0.0524905145 1.0022054218 0.5120909339
0.0525159195 1.0002202657 0.00881346
0.0324165289 0.7496545233 0.0128574544
0.0425221888 0.4971914924 0.7620796358
0.0425442801 0.7505722512 0.2622108476
0.0324073242 0.7481640291 0.5153613651
0.0424629105 0.7483527816 0.7622545251
0.0524835189 0.7474155276 0.0101566103
0.0524050949 0.748456921 0.5078779411
0.0525240196 0.4981124746 0.5125870675
0.0425486983 1.0025113311 0.2632730704
0.0323646144 0.9993025379 0.5165340443
0.0326403873 0.9986777019 0.0145665837
0.0725041173 1.0016977425 0.5068194002
0.0624842452 1.0019841257 0.7599404627
0.0724385798 0.9983913187 0.0092156134
0.0724466799 0.7501947461 0.0083236777
0.0624816679 0.7499213803 0.261221342
0.0723653103 0.7525313723 0.5070117785
0.0624673086 0.7487628303 0.7602764344
0.0625125957 1.0009622585 0.256827937
0.0825714856 1.0015415335 0.2539965702
0.1024407586 1.0008060495 0.7523824806
0.082441147 1.0018930038 0.7569167176
0.0925814166 1.0005066489 0.0033074824
0.0925066744 0.74977168 0.0051986808
0.0925033607 0.5022637287 0.0026635214
0.1026730853 0.7473764754 0.252186005
0.0824139011 0.750754495 0.2596086779
0.0925582207 0.7515941184 0.5036879601
0.1023881077 0.7511189827 0.7515678644
0.0824694975 0.7492835269 0.7590789024
0.0924389278 0.4995294204 0.5052610439
0.1125600415 1.0010078194 3.9774680266e-04
0.1124668899 0.7500645719 7.175366122e-04
0.1224271154 0.501441028 0.7502359438
0.1224628297 0.7512166133 0.248103719
0.1125195408 0.7498823281 0.500523383
0.1224304291 0.7510864391 0.7470630825
0.1124661535 1.0008581192 0.5028724234
0.1223520051 1.0005196663 0.7488405107
0.1525629466 0.9988599457 0.4908731719
0.1324447784 1.0014373942 0.4971535411
0.1425397608 1.0005847534 0.7431363559
0.1524469673 1.0005196663 -0.0106545708
0.1323354265 1.0012876939 -0.0013076546
0.1523667023 0.7514314007 -0.0094914369
0.1323748226 0.7509172127 -0.0062914493
0.1424675959 0.7509953172 0.2431884073
0.1524351853 0.7508846692 0.4932130075
0.1325246752 0.7525704246 0.4926193041
0.1424083176 0.5016792467 0.2420129667
0.1424871099 0.751223122 0.7404090023
0.1723733095 0.7494332272 -0.0132026537
0.162403511 0.5029848936 0.7407440535
0.1724093919 0.5004250187 -0.0106010639
0.1624458526 0.7479752766 0.2394393316
0.1824616645 0.9997516387 0.7374542925
0.172474193 0.7510278607 0.4872649281
0.1624351752 0.5021205372 0.2389321524
0.1624653666 0.7505657425 0.7368283726
0.182378454 0.7506047947 0.2343196755
0.1823140211 0.7498107323 0.7354918497
0.1624627893 0.9996995691 0.2380190458
0.1722930445 1.0013853245 0.4877941985
0.1723110857 0.9989510676 -0.0137072187
0.1923327886 0.9989966286 0.4850465945
0.2023957386 1.0011314849 0.7394738044
0.1924719637 0.7523686546 -0.0161200845
0.2023257829 0.7499018542 0.2368113887
0.1924075308 0.7510929478 0.4835213752
0.2023489788 0.7514639442 0.7342547375
0.2325256788 0.7502012548 0.9950285905
0.2324251634 0.4997546217 0.9959950843
0.2324568276 0.7513207526 0.4946323728
0.2325021147 0.5001789895 0.4922142972
0.2225139068 1.0012226068 0.2455659822
0.2125761407 1.0003439312 0.4887275555
0.2125967593 1.0004741054 -0.0111795611
0.2124623706 0.7513663136 -0.0114133237
0.2324914373 1.002133826 0.9960226984
0.2224671469 0.749081757 0.2412167598
0.2124561114 0.7517112751 0.489051561
0.2224649378 0.4992176533 0.2420378194
0.2223754681 0.7526940901 0.7432661423
0.2525308132 0.7493616314 0.99923514
0.2525319178 0.4997761004 0.9968419171
0.2423640341 0.7473374231 0.245403059
0.2525286041 0.7502077635 0.4997023235
0.2425727967 0.4993810218 0.2448618224
0.242526405 0.7485480429 0.7434272246
0.2524903125 0.5002336626 0.4965469511
0.2625816131 0.4998887011 0.7472711088
0.2625020844 0.7487367954 0.2522983024
0.2624833068 0.7489060218 0.7497241622
0.2826511804 0.4997741478 0.7495078517
0.2827023586 0.7517177838 0.2565711258
0.2827296045 0.500801222 0.2535105618
0.282656335 0.7476563499 0.7546882589
0.2726581861 0.7519911496 1.0032852095
0.2726784364 0.4995443904 1.0048960326
0.2726213673 0.7504160422 0.5010443692
0.2826909447 1.0021533521 0.2499428188
0.2827281317 0.9987232628 0.7506538373
0.3126552002 1.0006238057 1.0013890406
0.2925845283 0.7520692541 1.0044542069
0.3027159613 0.4989813872 0.7538110506
0.2926861482 0.5001972139 1.0056876371
0.3025638996 0.7494852969 0.2578137607
0.292660375 0.7522384805 0.5030565174
0.3025370219 0.5003495176 0.2530834636
0.3026051367 0.750865143 0.7557007762
0.3025793635 1.0001681961 0.2558255448
0.3126658776 0.7496675407 1.0061018488
0.3125915036 0.500841576 1.0060742347
0.3127141103 0.7508586343 0.5045679298
0.2927454265 1.0011379936 1.0020241651
0.3326036336 0.7496545233 1.0039571529
0.3324640903 0.5004790409 1.003082706
0.3225635112 0.7487563215 0.2512305568
0.3327026762 0.7483332555 0.5004479045
0.3224512138 0.7469989703 0.7518614944
0.3324950181 0.4974863369 0.5037183356
0.3524799022 0.999165855 0.4979571117
0.3426452288 0.9979747614 0.7529016259
0.3625531616 0.7485285168 0.2480853096
0.3524688566 0.9974019951 0.9964737289
0.3626304811 0.7481770465 0.7472490175
0.3624611145 1.0007084189 0.2480089105
0.35256164 0.7471551793 0.9994376435
0.3625789347 0.9974605734 0.7481151801
0.3526268093 0.4984619922 0.9950838187
0.3425807959 0.7486196387 0.2512756598
0.3525653219 0.7501687112 0.4993967273
0.3424961126 0.7491989137 0.7530571854
0.3924868574 1.0010208369 0.4886594407
0.3725384239 0.749661032 0.995507235
0.3725862884 0.4991558205 0.9931416262
0.3826378246 0.7479101895 0.2415554929
0.3726636079 0.7498823281 0.4933878969
0.3825973239 0.5006534743 0.2386725798
0.3825494595 0.7517112751 0.7415890453
0.382626779 0.9991593463 0.2424216555
0.3824831856 1.0007344537 0.7428049866
0.372505287 0.9972783296 0.994329033
0.3727151542 0.4979718865 0.490914593
0.3925531313 0.7473309144 0.993242878
0.392468448 0.7509757911 0.4921323753
0.4124205633 0.7518870102 0.9873242536
0.4124058358 0.7478451024 0.484798988
0.4124757915 0.4978000566 0.4854396354
0.4025752124 0.9994652556 0.239254317
0.4025347118 0.4980597541 0.7387595194
0.402402164 0.7517112751 0.2373848417
0.4025310299 0.5006892722 0.2392708855
0.4024058459 0.7502077635 0.7357698317
0.4324536801 0.7501817287 0.9852992189
0.4224500083 0.749862802 0.2379454082
0.4325052264 0.75133377 0.4823496164
0.4224500083 0.4998724293 0.2337885641
0.4224941909 0.7495568927 0.7365936527
0.442236439 0.749394175 0.2351858381
0.4423505773 0.7494983143 0.7309272372
0.4324389525 1.0003960009 0.4827408163
0.4224794633 0.9995433601 0.734285113
0.4425604445 1.000369966 0.2315877195
0.4525530707 1.0008971714 0.9808073235
0.4626340619 1.0016782164 0.2336118338
0.4725788236 1.0005391924 0.4863628671
0.4626119707 1.0013983419 0.7336426247
0.4523505672 0.75017522 0.979178091
0.4524242048 0.7521343411 0.4807074973
0.4724867766 0.7507024253 0.9840657886
0.462383694 0.749927889 0.2324520411
0.4725825055 0.7499409065 0.4841436131
0.4623800121 0.7515811009 0.7344995826
0.4725162316 0.5002753184 0.4847327141
0.4825051759 1.0011184675 0.2336081519
0.4925383027 1.0006954014 0.4897004926
0.4925383027 0.9987167541 0.9909232927
0.4824352201 0.5019884104 0.7363524894
0.4924720289 0.7513142439 0.4883639697
0.4824683571 0.7522124456 0.2348112066
0.4923652543 0.7491989137 0.9878857405
0.4823542188 0.7505852686 0.736335921
0.5125125094 1.0002072483 0.4899591448
0.5123799616 0.9994652556 0.9895978154
0.5024241543 1.0015675684 0.2431810435
0.5225161811 0.7480729072 0.7429384548
0.5224462254 0.9966404762 0.2450707692
0.5223468146 0.9994522382 0.7437447868
0.5024977919 0.7492509834 0.2411109057
0.502339471 0.5023691698 0.2423268471
0.5025751114 0.7507805298 0.7403915134
0.5022842428 0.4997396517 0.7396220001
0.5124020529 0.7493746488 0.988990305
0.5123836435 0.4999186411 0.9874163007
0.5126008745 0.7500385371 0.4925953719
0.5224094066 0.5007953642 0.2461596856
0.5224351797 0.7498367671 0.2445359759
0.5323836233 0.7505657425 0.4966353163
0.5324130784 0.4967775385 0.4950999717
0.5323504864 1.0006107882 0.9888430297
0.5424130683 0.9973889776 0.2448102761
0.5523799212 0.9990617157 0.4961713992
0.5524388313 0.748144503 0.9955532586
0.5424977515 0.9983001968 0.7463902186
0.5424682965 0.7513467874 0.2454785375
0.5523357386 0.7523296024 0.4986704762
0.5423946588 0.746738622 0.744889852
0.5323688958 0.7501687112 0.991751716
0.5625455958 0.9982676533 0.2492432613
0.5625676871 0.9976948869 0.74932836
0.5623651836 0.749504823 0.2482611194
0.5625235045 0.7485024819 0.7523631507
0.5723541279 0.998541019 0.4990533919
0.5723762191 0.9994977991 0.9972193099
0.5725271763 0.7494332272 0.9986460389
0.5725124488 0.7471681967 0.4996360496
0.60233937 1.0005326837 0.2485363401
0.5924756097 0.7506633731 0.9980109144
0.5924240634 1.0028042229 0.5005970207
0.6024866453 1.0025048223 0.7475205562
0.5923946083 1.0009036801 0.9965933901
0.6025823742 0.7533970305 0.2519853425
0.6025529191 0.5017625582 0.2536210183
0.592468246 0.7509888085 0.4999388844
0.6025823742 0.7514444181 0.7522747856
0.5824240735 1.0017888644 0.2498167143
0.5824756198 1.0009687672 0.7515512959
0.5825676669 0.749237966 0.2515564033
0.5825529393 0.749394175 0.753533989
0.6125308178 0.7510343694 1.0032668001
0.6124682258 0.7509497562 0.5028346841
0.612460862 1.0043663129 1.0041320422
0.6225308077 1.0019906344 0.2527336849
0.6224534881 0.7510799304 0.2547200599
0.6224645338 0.7509627737 0.754496801
0.6425676063 0.9997125865 0.7520253381
0.6524424122 0.9989120154 0.9996309422
0.6325234338 1.0013592897 1.0036718071
0.6323798404 0.7477735066 1.0010484666
0.6325749801 0.4982530627 1.0004869797
0.6323908861 0.751489979 0.4999839874
0.6525786418 0.7501687112 0.9987288813
0.6525123679 0.4982133596 1.0016743864
0.6424019216 0.7502142722 0.2524557028
0.6425086962 0.5006176764 0.2483559279
0.6525455049 0.7505657425 0.4958473936
0.6424534679 0.749927889 0.7509520697
0.6724387101 0.7509888085 0.9952863222
0.6725638941 0.5005350158 0.9963356584
0.6825675659 0.9994457295 0.2431782821
0.6724350282 0.9984433884 0.4948560471
0.6824607913 0.9992569769 0.7444130483
0.6824792007 0.7513207526 0.2449676765
0.6724387101 0.7496935755 0.497310021
0.6825417927 0.7499474152 0.7474303501
0.6624424021 0.7518609754 0.2497688499
0.6624829028 0.7487107606 0.749064185
0.7024828624 1.0009882933 0.234692466
0.7025380906 0.4990269481 0.7377672524
0.6924129167 0.7505917773 0.9913375044
0.6924828725 0.9994131859 0.4915589223
0.7025012718 1.0002658267 0.7371431735
0.6924791906 1.0002853528 0.9903341917
0.7025380906 0.7509172127 0.2413134092
0.7024791805 0.5002688097 0.2379573743
0.6924386899 0.75017522 0.4901285113
0.7026006826 0.747942733 0.7370879453
0.7225012516 0.4997272851 0.7376098519
0.7325601516 0.7492770182 0.987407096
0.7226153899 0.7498367671 0.2396961428
0.7226006624 0.4969350493 0.2359700788
0.732670608 0.750129659 0.4869197517
0.7225159791 0.7505787599 0.7407771904
0.7224055227 1.0007474711 0.7371569805
0.7124865342 0.7508260908 0.987499143
0.7124865342 0.7480143288 0.4889134905
0.7425049133 0.5004497517 0.733557021
0.7426742798 0.7498237497 0.2337360973
0.7425270046 0.501053109 0.2336845509
0.742608006 0.7520367105 0.7342022707
0.7526558603 0.5000462118 0.4804617317
0.7525859046 0.7490427047 -0.0191806208
0.7627000328 0.5007816959 0.7303620684
0.7626079858 0.7493551227 0.2298894517
0.7625233025 0.501536706 0.2300625001
0.7525932683 0.7479687678 0.4791739937
0.7626484864 0.7496349972 0.7302562143
0.782530646 0.74841136 0.2297366536
0.7825895561 0.4982999254 0.2292175083
0.7726411126 0.7487107606 0.4794749875
0.7825711467 0.7490687395 0.7305839018
0.7725711568 0.9990226634 0.4811364365
0.7724791098 0.4972390059 0.4767209402
0.7727184321 0.7497781887 -0.0195044422
0.7824496447 0.4980037792 0.726153678
0.7726374307 0.4979061485 -0.0192547186
0.7925195903 0.7471486706 0.4769133185
0.8124385687 0.499531373 0.4804331971
0.8123833405 0.7483462729 -0.0189128559
0.8024496245 0.4995437395 0.7293072094
0.8025048527 0.7469924616 0.2300017491
0.8024606701 0.4980174475 0.2282648215
0.7925122265 0.4992775334 0.4820283723
0.7924459527 0.747675876 -0.0215895837
0.8123612492 0.7481379943 0.4798855173
0.7926005917 0.4983890947 -0.0232918095
0.8024974889 0.749036196 0.7282284181
0.8325379593 0.4981502251 0.4867798402
0.8325453231 0.7492249485 -0.0141827889
0.8224643318 0.498816066 0.7340973371
0.8324127753 0.5000104139 -0.0120402469
0.8224091036 0.7487172693 0.2346952274
0.8225048325 0.4997214273 0.2351444169
0.8322802276 0.7490492134 0.4892890424
0.8225416513 0.7489580915 0.7358333442
0.8624827008 0.7461072773 0.7466028473
0.8624827008 0.497898989 0.7453933492
0.8524569377 0.7495634014 -0.0088618167
0.8525268935 0.4994825577 -0.0068350699
0.8625047921 0.749237966 0.2454159456
0.8625931572 0.4979067994 0.2477907591
0.852633668 0.7481705378 0.4936474695
0.8424716753 0.7485936038 0.243088076
0.8425232217 0.5014455841 0.2375762996
0.8425084942 0.7487172693 0.7412190162
0.8525968492 0.4995307221 0.4903586289
0.872534237 0.5000943763 0.501067381
0.8824421799 0.7495764188 0.7538340624
0.8925194893 0.4999511847 0.5073449888
0.8725305551 0.7499994848 -9.9982174152e-04
0.8924826705 0.7497781887 0.0075912594
0.8825968189 0.4991701397 0.7508452951
0.8725821015 0.5011468344 6.0534048104e-04
0.8924826705 0.4992853438 0.0073893082
0.8825231813 0.7507675124 0.253379855
0.882593137 0.4989221579 0.253491232
0.8724569175 0.74997345 0.5007166818
0.8923648503 0.7516526967 0.5077140974
0.8824900443 0.9985345103 0.2523682581
0.8825194994 0.9999208652 0.7538368238
0.912490014 0.7518609754 0.5106559207
0.9125268329 0.9980333398 0.0100845375
0.9124642409 0.4992456407 0.5131559181
0.9025636618 0.7501101329 0.7598916777
0.9124421496 0.7509172127 0.009876235
0.9124200583 0.5013440483 0.0133946409