POSCAR file written by Ovito 3.7.11
1
271.5937758356 0.0 0.0
0.0 15.3636640497 0.0
0.0 0.0 10.8637510334
Sr Ti O 
800 800 2400 
Direct
0.0225010638 0.4990464514 0.770252515
0.0123565015 0.2508231118 0.5208506287
0.0223571357 0.2506701534 0.768738305
0.0023391143 0.2518840566 0.7729872978
0.0122926561 0.2505263076 0.019141506
0.0224347884 -6.3532859816e-04 0.2654931567
0.0023689383 3.3912799384e-05 0.2706018894
0.002381862 0.5016350266 0.2718832148
0.0123699775 0.5007426614 0.5191615252
0.0123522672 0.0038337876 0.5186027863
0.0223092332 0.0016067798 0.7663385814
0.0023408817 0.0025931981 0.7727866305
0.0224252153 0.2502724619 0.2671132233
0.0025171744 0.2529886108 0.2731037877
0.032685907 0.4996784621 0.0145587427
0.0425447485 0.4992827232 0.2635140981
0.0324900262 0.4988681085 0.517734762
0.0324642524 0.2508231118 0.5174853086
0.0425068242 0.2496319896 0.7596475223
0.0324572567 0.2499574328 0.0157787633
0.0526193535 0.497954264 0.0124370077
0.0425373846 -7.0217463154e-04 0.7662198379
0.0424788413 0.250082403 0.2645027069
0.0525313544 0.2508211591 0.5093085748
0.0525876885 0.2505790294 0.0107955857
0.0624424799 0.2519185536 0.259174897
0.0625378429 0.4991844393 0.759504846
0.0724640645 0.4985719552 0.0103991297
0.0626784942 0.5000956803 0.2604055954
0.0724581734 0.4991141436 0.5085132694
0.0725170849 0.2510372534 0.5101406999
0.0625094918 0.2494595047 0.7587049381
0.0725465406 0.2498611017 0.009880064
0.0924004566 0.2523351209 0.5028715716
0.10243861 0.2533960657 0.7546151905
0.0824296832 0.2534175449 0.7583413436
0.0924457448 0.2519992635 0.0052928823
0.1025446508 0.0013827447 0.2539455799
0.0924792507 -0.0010395291 0.5064090238
0.1024732205 0.2535698524 0.2541517702
0.0824657665 0.252483523 0.256221037
0.1025630606 0.5021882801 0.7475209558
0.0825497154 0.5013343171 0.7545222208
0.1025811023 0.4997376928 0.2493873016
0.0825710708 0.5020581028 0.2588149845
0.1225741967 0.2510808628 0.2511859437
0.1124955415 0.4986005942 0.0020271595
0.1125194743 0.2516210985 0.5004884168
0.1224972435 0.5016519497 0.2480314163
0.1124587218 0.501208696 0.5009053999
0.1225454773 0.2510261883 0.7489780952
0.1124624038 0.2494432326 0.0021020875
0.122481411 3.5121991989e-04 0.249584287
0.1524957218 0.2490357777 0.4941232121
0.132404687 0.2515996192 0.4995881753
0.1425150071 0.2526638185 0.7473304138
0.1525318051 0.2489609258 -0.0061757163
0.1324908451 0.251222756 -0.002510288
0.1424166985 0.001248597 0.2447747143
0.1423931339 0.2516204476 0.2486895684
0.1424553592 0.5013538437 0.7447272614
0.1525049268 0.5028007642 -0.0081146709
0.1325501248 0.5017626004 -0.0037155624
0.1524537474 0.5013538437 0.4954717334
0.132484954 0.5029413556 0.4976063552
0.1825218149 0.2493618718 0.2339754978
0.172396767 0.4988733156 0.4853960238
0.182325566 0.4996830183 0.7326108203
0.1725701878 0.2503941776 0.4846476635
0.1624539766 0.2515573116 0.7457655768
0.1726062711 0.249417848 -0.0122768502
0.1824426526 0.5002590528 0.2346354908
0.1623858601 0.0014400227 0.7411778428
0.1625508123 0.2508667211 0.2411636227
0.1824511211 0.2493599191 0.7330176779
0.1824971457 6.6260397414e-04 0.2329786045
0.1923883886 0.0021219564 -0.013504382
0.202680598 0.2502067223 0.2392784543
0.2023065099 0.5011852641 0.7414696389
0.1924929565 0.4997415981 -0.0127397843
0.2024177053 0.5002681652 0.2384601366
0.1924841198 0.5000136686 0.4884667864
0.1924421454 0.2520220445 0.4876742425
0.2024629936 0.2527972502 0.7405795228
0.1925190985 0.2518521632 -0.0109735527
0.2023819902 9.4717150867e-04 0.2387942754
0.212553431 0.2514525189 0.4916949532
0.2225304638 0.2516992048 0.7452344527
0.2124308214 0.2519120447 -0.0085885192
0.2225054264 0.0016567028 0.7416261226
0.2225278864 0.2519055358 0.2439554761
0.2324876139 0.2481544775 0.499557799
0.2325524166 0.2511147089 0.9958872881
0.2325954956 9.7834896728e-04 0.4950924905
0.22250469 0.499856805 0.7407985999
0.2124790552 0.5012750865 -0.0078619055
0.2124680093 0.500549999 0.4895502059
0.2424322453 0.4987659194 0.7458456596
0.2626797638 0.2479858979 0.7502207599
0.2625821916 -0.0015082324 0.2500003495
0.2625983923 -0.0024465957 0.7492211052
0.2525477201 0.248363412 0.5005151111
0.2425968294 0.248930985 0.7467192069
0.2525186326 0.249240156 1.0006462337
0.2627162153 0.2496306879 0.2520051819
0.242525031 -0.0047363816 0.2488432906
0.2625346942 0.499604912 0.2518063556
0.2526290917 5.7043845976e-04 0.5005013037
0.2424926296 -0.0026047351 0.745859467
0.252517528 -0.002602789 0.9959241078
0.2426259169 0.2470928818 0.2472011322
0.2726873569 0.2483529979 0.4993985539
0.2727963432 0.2498448295 1.0024043742
0.2725444965 0.0011779758 0.5029249602
0.2725680611 4.5379961669e-04 1.0007751027
0.2826091602 0.2513744125 0.7524741252
0.2725905211 0.4990008894 0.5045523907
0.282535889 0.2517415125 0.2492786835
0.3125914378 -7.1096159796e-04 0.5002776241
0.2926572549 0.5005200582 0.5046379965
0.292666828 0.2514206255 0.5002702601
0.3026943038 0.2509597979 0.7519853438
0.292644368 0.2499815156 0.9996889217
0.2925445867 0.0014503718 0.5032149153
0.3027175002 8.9107966191e-05 0.7495257882
0.3125104345 0.5014000566 0.502221704
0.3026306057 0.2504885561 0.253990684
0.3126636044 0.2489069022 0.4995605605
0.3125303171 0.2506239405 1.0004437254
0.3226837162 -0.0017639656 0.2483333378
0.3324571361 -1.8706313377e-04 0.4996388024
0.322638428 -1.3980878105e-04 0.7500578328
0.3325532355 -2.3151867496e-04 0.9995600527
0.3226200182 0.2496795043 0.2473889127
0.3226266457 0.5030370359 0.7548204603
0.3226549969 0.4992078712 0.2561685689
0.332544767 0.2489745944 0.4981789015
0.3226450555 0.2513971936 0.7498691318
0.3325815866 0.2477437682 1.0007566928
0.3626198303 0.2486589145 0.2430027665
0.352679249 0.4984547957 0.4961188395
0.3525680535 0.2489739435 0.4979128792
0.3425707699 0.2483588558 0.7490121534
0.3624799154 0.4997760951 0.7449113599
0.3524667993 0.2480399215 0.9990629868
0.3625388269 0.500464082 0.2470225567
0.3426042758 -3.1359545013e-04 0.2504302195
0.3426937477 0.248306134 0.2485349257
0.3626713778 0.2486263701 0.7456348669
0.3423929308 0.4994226638 0.7526140401
0.3425674561 0.4983265711 0.2538268363
0.3824730098 0.2486856008 0.2408709062
0.3924806029 0.2498025219 0.4889104637
0.3924585111 0.2503095624 0.9915057444
0.3925137407 -8.8676601488e-04 0.988781087
0.3825613771 0.4985752097 0.740492076
0.3924401013 0.4988238483 0.989259743
0.3726531971 0.2497803917 0.4913690989
0.3825908328 0.248306134 0.7413573388
0.3725427381 0.2486725831 0.9908245801
0.3925726522 0.4986917183 0.4889767392
0.3725132823 -8.9386067665e-04 0.4934521731
0.4125473367 0.4995632552 0.9873727337
0.4025802453 0.2478667857 0.7385884977
0.4025618354 -4.3797984137e-04 0.7385305067
0.4024550583 0.2516484357 0.2391035608
0.4125289269 0.2510346498 0.4864278958
0.4125473367 0.2509344133 0.9848874042
0.4124957891 -0.0010276178 0.4871026167
0.4124773793 6.7646785448e-04 0.9866731595
0.4425406603 -7.3510948344e-04 0.7340477089
0.4426842571 0.2513971936 0.2346990048
0.4225549298 0.5001614198 0.7351762325
0.4324778376 0.4988876351 0.9841786251
0.4324704737 0.5005168038 0.4850407138
0.4424302012 0.5016805887 0.7345024321
0.4423823356 0.5009600574 0.2338760846
0.4325146573 0.2512103892 0.483080065
0.4227058906 0.2499893263 0.7387182872
0.4325036114 0.2508699756 0.9830648293
0.4226212053 -5.2083768022e-04 0.2329951734
0.432555159 -3.1183805684e-04 0.9833041574
0.4225254741 0.2506122246 0.2340537396
0.4426142997 0.2495994453 0.7335883832
0.4726591708 0.2496378476 0.48206108
0.4625963482 0.2516113352 0.7362228323
0.4724677084 0.2527197947 0.9847401255
0.4724640265 0.0014346854 0.9870229466
0.4625484826 0.2515000336 0.237505586
0.4524414763 0.5009906491 0.9826506078
0.4523420631 0.5017554406 0.4791486421
0.4624196136 0.5007608862 0.7317464779
0.4722467903 0.5011722464 0.9868848727
0.4624232956 0.5001926624 0.2362214992
0.4526623945 0.2484883822 0.4828131222
0.4526771223 0.2519628138 0.9871149958
0.4525224796 0.0019462821 0.4825010753
0.482545259 0.2525726944 0.7412413568
0.4825599868 -0.0042562812 0.7366747941
0.4924755307 0.5006521882 0.9919844005
0.4925528521 0.5002362718 0.4930545204
0.482545259 0.2506018104 0.2371567194
0.4924571209 0.2513255961 0.4875269637
0.4925344422 0.2522439968 0.9883484556
0.4824458458 0.5007901761 0.2372837474
0.502586219 0.2488821685 0.7433483638
0.5124612612 0.2507599758 0.4931355237
0.5126269498 0.2498226994 0.9956847798
0.502464714 0.0010054909 0.7399186092
0.5024352582 0.2491737656 0.2427864508
0.5226161331 0.2497589125 0.2445731265
0.522387851 0.248220217 0.7414576725
0.5123103004 0.5019617716 0.4920336944
0.5224872641 0.497576099 0.7472374441
0.5423956732 0.4963882314 0.7470312538
0.5524621779 0.4949849203 0.9949852056
0.5423956732 0.4962808351 0.2446117872
0.5524143123 0.5006534899 0.4975382388
0.5324175359 -0.0016542262 0.4931566951
0.5324543556 0.2480607499 0.4965514709
0.5324433097 0.2499151252 0.9951508942
0.5323291686 0.499398581 0.9948931564
0.5524364041 -7.4012130872e-04 0.9955743207
0.5424582667 0.247217852 0.2415428656
0.5523369909 0.2500394445 0.49370807
0.5423551716 0.2480470813 0.7433529663
0.5523369909 0.2490383812 0.9935768523
0.5723484951 0.2500557167 0.4994657498
0.5724110886 0.2481329983 0.9996336921
0.5625213185 0.500206331 0.7486881401
0.5624918628 0.4987353277 0.2459418987
0.5724479083 0.4989924279 0.9970655184
0.5725141838 0.4983623698 0.4951771758
0.562344584 0.2485736483 0.247593262
0.5624292693 0.2492030555 0.7459966204
0.6025038254 0.5019721858 0.7547753562
0.592533052 0.5028827759 0.9978939615
0.5924815044 0.503587035 0.5023680623
0.5824591834 0.2511609218 0.7470432202
0.6024559598 0.2517675479 0.2507569943
0.59228636 0.252368967 0.5021232113
0.6026142845 0.2530035812 0.750692052
0.5923305436 0.2510587326 0.9995968724
0.5826359179 0.5015751451 0.7483153407
0.5825291408 0.5001275737 0.2494839533
0.5824039539 0.2503596806 0.2474423012
0.6124782808 0.5002889936 1.0026713169
0.6123125921 0.5011833115 0.504515571
0.6225742411 0.5022611794 0.7540536902
0.6123604577 0.0017015488 0.5057343029
0.622467464 0.5016220089 0.2540173783
0.6124120053 0.2526019843 0.5005721816
0.6124193693 0.2520715119 1.0045215066
0.6225006018 0.0024098434 0.7548250628
0.6223827787 0.2480490339 0.2528722858
0.622474828 0.2494731734 0.7513796598
0.6423648272 9.7177501463e-04 0.2505885442
0.6525602008 -0.0018172732 0.4994206457
0.6325560605 0.4988583453 0.5030483061
0.642515788 0.2486829973 0.2501043652
0.6525270631 0.249945066 0.4980877727
0.6425378798 0.2472757809 0.749127215
0.6325045129 0.0024230564 0.5008851491
0.6525565188 0.2502379649 1.0009407913
0.6424568765 0.5004445554 0.7509138907
0.652534427 0.5004133129 0.4998431517
0.6325118768 0.2499476695 0.4978806619
0.632618654 0.251715477 0.9995876675
0.6825719342 0.4995287582 0.7465507568
0.6624757447 -0.0012518482 0.2484014543
0.6824982948 0.5001750884 0.2441220852
0.6624941545 -0.0019733428 0.7479609511
0.6723691967 0.4997741424 0.4940265604
0.6625714759 0.2507066031 0.2453905237
0.6625309742 0.2494113391 0.7471030522
0.6725312034 0.0019347614 0.9951877139
0.6624867906 0.4976789391 0.7461337738
0.662549384 0.4998691718 0.2488414496
0.6825608883 0.2500804504 0.2445206584
0.6726637543 0.2491841798 0.4937439692
0.6825240686 0.2509174903 0.7445551293
0.6726048428 0.2485684413 0.9950404352
0.7025723926 0.2511765431 0.2388955295
0.6925500716 0.2502932902 0.4932993714
0.7027012615 0.2509292062 0.7396341771
0.6925463896 0.248879565 0.9899409074
0.6925647994 0.498842724 0.9915977937
0.6924911601 0.4996472196 0.4913129488
0.7327792704 0.5021700553 0.9854212898
0.7325215325 0.5015087547 0.4882523117
0.7124547987 0.2494002741 0.4891065286
0.7125173922 0.2511095018 0.9874095534
0.7225875788 0.0011739403 0.2415778443
0.7325951719 0.0024651688 0.4857237191
0.7325878079 0.0016287147 0.988422095
0.7125173922 0.4992729599 0.9892873578
0.7226317624 0.2498903915 0.2360180703
0.7324810308 0.2508185555 0.4843291732
0.7226280804 0.2495454217 0.7378438194
0.7325362604 0.2489036478 0.9874739878
0.712660989 0.4992996462 0.489959825
0.7124437528 -9.382511292e-04 0.4919149509
0.7125468479 2.722023108e-04 0.99022626
0.7526434958 0.4997669827 -0.0208907074
0.7426101289 -1.4000404697e-04 0.2333191867
0.7426359027 2.8984133227e-04 0.7319618731
0.7427500438 0.2505712187 0.232674842
0.7425659453 0.2528076644 0.7338157448
0.7624375347 -0.0021773175 0.2327668913
0.7525183089 3.8005418745e-04 0.4821945514
0.7624780364 -2.0587375076e-04 0.7317510804
0.7524851711 0.0026767719 -0.0204135242
0.7627063185 0.2498669596 0.2301655798
0.752499899 0.2491308071 0.4833009832
0.7627026365 0.2481492704 0.7270197496
0.752507263 0.2508550052 -0.0197006028
0.7825005865 -9.1911506901e-04 0.2328828733
0.7824932226 -0.001412552 0.7340550728
0.7725261312 -4.1233491716e-04 -0.020134615
0.7825779079 0.2512273122 0.2327503224
0.772540859 0.2472764318 0.4831334536
0.7826294555 0.2496398003 0.7335156643
0.7725114033 0.2482787968 -0.0188449131
0.7925044977 -0.0017159953 0.4801694681
0.7926517765 -9.3766533144e-04 -0.0156645291
0.8126117331 0.4975370459 -0.0169727145
0.7926223207 0.248856133 0.4848142727
0.792585501 0.2465708709 -0.0166485447
0.8024458153 -0.0020561615 0.2319863137
0.812622779 -0.0014944336 0.4845206356
0.8024973629 -0.0024326082 0.7318744264
0.8125270478 -3.219918847e-04 -0.0179815833
0.8025599564 0.2482208679 0.233039357
0.8126522348 0.2501142965 0.4839352024
0.8025710023 0.247659153 0.7330397697
0.8125565036 0.2504683787 -0.0189521505
0.8325311882 -7.4207396793e-04 0.4884778323
0.8226193262 -3.5355987515e-04 0.7335948266
0.83255328 9.1163311118e-04 -0.0114877581
0.8226598279 0.2490156002 0.2352255264
0.832674785 0.252065003 0.4873778439
0.8225788246 0.2489381447 0.736080156
0.8326600571 0.2495708063 -0.0148857742
0.8225604147 -0.0010263161 0.2347726442
0.8425608731 5.4407756051e-04 0.7392033867
0.842564555 0.2488502751 0.2390649001
0.8424982796 0.2496437056 0.7367603999
0.8625355576 -3.0942977716e-04 0.245232199
0.8425976928 0.4999297043 0.7425539789
0.8524175054 -0.0031242661 0.4935386994
0.8624692822 -4.6811588173e-04 0.7456459128
0.8523770038 -0.0018638311 -0.0073126072
0.8625723773 0.2487643581 0.2457255829
0.8425940108 -0.001911489 0.2448805709
0.8525758301 0.2488027604 0.4912724472
0.8625429216 0.2493208659 0.7438168944
0.8526457876 0.2485573762 -0.0102671484
0.8724731933 -7.8099697471e-04 0.4993111071
0.8924184221 2.0216693405e-04 0.5055824216
0.8724400556 -1.7547735583e-04 -0.0030018494
0.8825986095 0.2504937632 0.2554100832
0.8924736517 6.6689982439e-04 0.0079518166
0.8725615606 0.2502125803 0.4980647604
0.8925841108 0.2497198593 0.5065535411
0.8825102422 0.2470447162 0.7495202652
0.8724290097 0.2482879092 -4.8514038459e-04
0.8924441959 0.2498695632 0.0076428073
0.9024812448 8.098995667e-04 0.2579856209
0.9124041526 0.0024856717 0.5106110715
0.9024002415 0.0021927728 0.7575073775
0.9026469334 0.2515332288 0.2609256735
0.9125219756 0.2491952449 0.5092938469
0.902702163 0.2492837654 0.7616008071
0.9025291104 0.4995977522 0.7598877708
0.9125551133 0.2489973754 0.0084691333
0.9224412015 0.0011761533 0.2630768642
0.9224743392 0.0018260634 0.7656482121
0.9224301556 0.2486113998 0.265759179
0.9224780212 0.2485378496 0.7639517447
0.9425005713 0.0010427216 0.2658438643
0.9323530634 -3.2407472118e-04 0.5133679462
0.9424895254 -0.0018355892 0.7680792325
0.932518752 -0.0016185576 0.0152572123
0.9424269319 0.248861991 0.2657959987
0.9324672044 0.2514030515 0.5140794868
0.9425005713 0.2483204535 0.7675149707
0.9325297979 0.2503831125 0.0140129827
0.95255603 0.0025206894 0.5212832601
0.9524271611 0.0018798917 0.0179681544
0.9624163444 0.2510346498 0.273792316
0.9525081644 0.2514206255 0.5209307115
0.9724644391 0.2505484377 0.5210282837
0.9622617016 0.2491269018 0.7732036135
0.9523608856 0.2504521065 0.0154214281
0.972479167 0.2474918752 0.024071295
0.9625194395 5.372432533e-04 0.2704279163
0.9824499404 0.500590354 0.7711094934
0.982379983 0.5020620081 0.2706985411
0.98250517 0.0016819572 0.2734434494
0.9923949401 -3.4028179257e-04 0.5276383395
0.9824793962 0.2503336452 0.277045336
0.9925790385 9.3057390545e-04 0.0242282389
0.992405986 0.2526384339 0.5250747682
0.982379983 0.2520819261 0.7773872514
0.9924207138 0.2519257133 0.0256102662
0.0123430623 0.751040376 0.0179106236
0.0024441977 0.500429585 0.7737246122
0.0123589684 0.50057278 0.0207682001
0.0223616645 0.7508190746 0.270227249
0.0024948985 0.7515871206 0.273001613
0.0123951253 0.7511249912 0.5174724217
0.0222441728 0.7520362322 0.7718965144
0.0223555524 0.5002466859 0.2684727905
0.002337752 0.7490616814 0.7719535849
0.0124866591 1.0007334172 0.0216308856
0.0525077898 1.000407974 0.5120405962
0.0525482915 0.9985008768 0.0108509994
0.0323434838 0.7514764699 0.0137670272
0.0426136013 0.4965516038 0.763666392
0.0424383396 0.7514504344 0.2633005439
0.0322816267 0.7489770661 0.5168529303
0.0424880462 0.7491853498 0.764937592
0.0525412957 0.7468877208 0.0126279179
0.0524555058 0.7490356459 0.5105006124
0.0525865839 0.4987034343 0.5132620895
0.0424567494 1.000407974 0.2670276175
0.0324370058 1.0012866706 0.5167268228
0.0325353144 1.0003298676 0.0165448891
0.0725200304 0.9992884494 0.50451373
0.0625021278 1.000310341 0.7595720419
0.072498675 0.9982665577 0.0058909262
0.0724427091 0.7496474791 0.0100230165
0.0623835684 0.7493090182 0.2590202543
0.0723145765 0.7503374187 0.5092386174
0.062382832 0.7497841653 0.7580256148
0.0626151643 1.0003624119 0.2610941237
0.0825025862 1.0007789792 0.2558068154
0.1023844851 1.0011434756 0.7517920404
0.0825375649 1.0022955445 0.7572211044
0.0924814599 1.002562408 0.0059324404
0.0923964064 0.7496735146 0.0056339247
0.0924715186 0.5014508258 0.0034297137
0.1024662248 0.7494066511 0.2521138
0.0823457343 0.7504285428 0.2559522532
0.0923835195 0.7515806117 0.5009348556
0.1024021585 0.7512616774 0.7547578668
0.0824083277 0.7513332749 0.7572542421
0.0924129753 0.5004491116 0.5032047898
0.1125441435 1.0009156654 -1.1333510412e-04
0.112298188 0.7488794332 -3.9648776387e-04
0.1224611602 0.5012711811 0.7469944341
0.1223952529 0.7487687825 0.2484355125
0.1125018009 0.748358724 0.5013325083
0.1223127768 0.7484433393 0.7461788779
0.1124027559 1.000935192 0.504268879
0.1223624834 0.9987872668 0.7513492836
0.1525130271 1.0010653692 0.4912862546
0.1325188281 1.0002061992 0.497931289
0.1424789238 1.0022825268 0.7446711114
0.1524515382 1.0010718781 -0.0069017547
0.1324212559 1.0016316404 -0.002569264
0.152307205 0.7493220359 -0.0088712162
0.1324205195 0.7512291331 -0.0088909773
0.1423809834 0.749510793 0.2455727812
0.1523609617 0.7498557628 0.4917529442
0.1324595484 0.7523161134 0.4940256399
0.1424056526 0.5000390532 0.2447885217
0.1425102205 0.7497906741 0.7405279752
0.1723625247 0.7516587181 -0.0142881997
0.1624289392 0.5001855026 0.7421112221
0.1723754116 0.4995951487 -0.0108649622
0.1624282028 0.748983575 0.2406094863
0.182413565 1.0001346017 0.7362550496
0.1723485332 0.7520817943 0.4827532902
0.1624131067 0.4999622486 0.2397009603
0.1624234162 0.7510859381 0.7377968743
0.182366804 0.7508906721 0.2327853011
0.1822688636 0.7500510287 0.7329302311
0.1624635497 1.0018399241 0.2414462139
0.1723345417 1.0011760199 0.4887171603
0.1722815214 0.9993730646 -0.0139815745
0.1924218945 1.0009872629 0.4862097391
0.2023414886 1.0015014631 0.7422750697
0.1924200536 0.7520427411 -0.0168145555
0.2023922998 0.7487036938 0.2380956216
0.1923847066 0.7507084239 0.4836268375
0.20246373 0.7511315001 0.7381135237
0.2324916641 0.7483457063 0.991560974
0.2323767866 0.4979581694 0.9957031897
0.2324666267 0.7489054686 0.4944085647
0.2324938732 0.4986194699 0.493590247
0.2225194179 1.0004795715 0.2449937915
0.2125269208 1.0022890357 0.491107679
0.2124669047 0.9999002826 -0.0065323243
0.2124481267 0.7488533977 -0.0102921582
0.232499028 1.0024908105 0.995298173
0.2224936441 0.7502462946 0.2445353863
0.2124875237 0.7505001403 0.4890144794
0.2224814936 0.4995320127 0.242340012
0.2224954851 0.7504090162 0.7398817895
0.2525668664 0.7481960024 0.9970471085
0.2526416104 0.4992182854 0.9988420687
0.2424937342 0.7475255894 0.2416938263
0.252586749 0.7484889013 0.4945236262
0.2425728966 0.4999179883 0.245781733
0.242566269 0.7476622756 0.7456597202
0.2525565569 0.4991531968 0.4984624131
0.2626462579 0.5006866852 0.7511449342
0.262702592 0.7486125697 0.2492124081
0.2625759323 0.7491853498 0.7497154096
0.2827159373 0.5004107093 0.7493499741
0.2826437707 0.7487818002 0.2535230739
0.2826382477 0.5001503548 0.2542272505
0.2825782316 0.7472066551 0.7503708002
0.2726144539 0.7515350497 1.0026897268
0.2725953077 0.4987828424 1.0024135791
0.2725706385 0.7511510267 0.5018976907
0.2826364067 1.0021979116 0.2492556712
0.2826993684 1.0011044224 0.7491051231
0.3126536631 0.9998351939 0.9988236588
0.2925677831 0.7515155231 1.0029198499
0.3027049815 0.4980551514 0.7513087819
0.2926016572 0.4997734915 1.004236154
0.3026029909 0.7498557628 0.2570301498
0.29267051 0.752478835 0.5024822033
0.3026515929 0.5006528391 0.2555785333
0.3026177188 0.749269965 0.7511633441
0.3025595437 0.9989304618 0.2563867256
0.3126264165 0.7504480694 1.0028554154
0.3124912882 0.5006378687 1.0069331966
0.3127438714 0.7490616814 0.504515571
0.2925504778 1.0015274986 1.0016311606
0.3325941053 0.7503504364 1.0047240149
0.332615829 0.4992254452 1.0015575212
0.3224222964 0.7469202651 0.2520153073
0.3326441801 0.7488013268 0.5012616304
0.3224329741 0.7491007345 0.7527751262
0.3325882142 0.4979510096 0.5025678091
0.3526126053 0.9971405242 0.4983850918
0.3426079578 0.9959233667 0.7537158695
0.3624762334 0.7491332789 0.2490430375
0.3525993502 0.9995488039 0.9973600759
0.362652968 0.7506888974 0.7468324275
0.3625461909 0.9988848998 0.2466746106
0.3524675357 0.7477143465 1.0024319889
0.3625425089 0.9983902261 0.7482582702
0.3525945637 0.4970469284 0.9956847798
0.3426779152 0.7491658232 0.2493863811
0.3525496437 0.7493480714 0.5027924093
0.3424871892 0.7489575395 0.7537361203
0.392591062 1.0004405183 0.4902755539
0.3725316922 0.7488989598 0.9973140513
0.3726016496 0.4976216611 0.9915241543
0.3825429672 0.7488338711 0.2405220395
0.3726090135 0.7484042861 0.4981696965
0.3826276525 0.500801892 0.2378526117
0.3824951016 0.7493480714 0.7417798448
0.3825540131 1.0005316424 0.2436885333
0.3823404589 0.9988523555 0.7455308512
0.3724396429 0.9977718841 0.9922881629
0.3727084267 0.4991317175 0.4909484339
0.3924990128 0.7473758856 0.9941383526
0.3923775078 0.7511054647 0.4908204854
0.4124921072 0.7523616754 0.9862313231
0.4124736973 0.7509752874 0.4858166889
0.4123779661 0.4976717793 0.4877828606
0.4025581535 1.0021718761 0.2418208543
0.4024624223 0.499558699 0.737587002
0.4024071927 0.7502137503 0.2387252384
0.4026428388 0.5022279842 0.238591767
0.4024219206 0.7498752894 0.7373605609
0.4325698869 0.7504871226 0.9832949524
0.4224812904 0.7480658252 0.2368952996
0.4325919787 0.7518149308 0.4843089223
0.4225991135 0.5002245558 0.2321409565
0.4224260609 0.750083573 0.7360829175
0.4422755585 0.7487167116 0.2368658438
0.4422976503 0.7519646347 0.7334806856
0.4325477951 1.0007138906 0.4838219819
0.4225880676 0.999978389 0.7351375718
0.4426842571 0.9991387455 0.2350386665
0.4525372075 1.0023150711 0.9842982891
0.4626442138 0.9997180344 0.2342884652
0.4726481249 1.0008310501 0.4856160215
0.4626920794 1.0002061992 0.734631301
0.4524193845 0.7507149328 0.9832857475
0.4525703452 0.7514374167 0.4828840002
0.472522938 0.7505196669 0.9851819618
0.4623496562 0.7501226262 0.2358348924
0.4724640265 0.7507800215 0.4837695138
0.4623938399 0.7533249873 0.7381420589
0.472401433 0.5011143175 0.4886481234
0.4825636688 1.0026730587 0.2364939649
0.4925712619 1.001267144 0.4868798576
0.4925160324 0.9993730646 0.9907785555
0.4823427506 0.5008793475 0.734275991
0.4923908454 0.750369963 0.4884262847
0.4825084393 0.7510924469 0.2353378265
0.4924092553 0.7512356419 0.9855501588
0.4824900294 0.7498687805 0.7390735972
0.5126122219 0.9989564973 0.4897020872
0.5125017628 0.9997180344 0.9932546799
0.5024683959 1.0004144828 0.2407742545
0.5223620772 0.7480528074 0.743201085
0.5224651723 0.999451171 0.2438965646
0.5225314478 0.9997766142 0.7431127178
0.5023505729 0.7495758816 0.2394257331
0.5024094844 0.5004614785 0.2406067248
0.5023837106 0.7503634542 0.7415239479
0.5023616188 0.5022878657 0.741337088
0.5124244415 0.750467596 0.9922697531
0.5123434381 0.5016259142 0.9913032361
0.5123139824 0.7509362342 0.4934595371
0.5223657591 0.5009919509 0.2452515294
0.5224136247 0.7506238087 0.2472536003
0.5323365326 0.7484433393 0.4950805241
0.5324138539 0.4973827858 0.4949295634
0.5324433097 1.0010718781 0.9935952621
0.5423257158 0.9978174461 0.2431224305
0.5525505451 0.998442297 0.4959172517
0.552329627 0.7493936334 0.9932362701
0.5424104011 0.99911271 0.7446453376
0.5423588535 0.7491593143 0.2466469958
0.5522633515 0.7493285448 0.4965680398
0.542421447 0.7494522132 0.745072446
0.5324433097 0.749367598 0.9925735156
0.5626023219 0.9984227705 0.247712926
0.5624329513 0.9972576838 0.7481358447
0.5624034955 0.7494001423 0.2475941825
0.5625250005 0.7483001443 0.745382652
0.5724147706 0.998780758 0.4975474437
0.5725473215 0.9960340174 0.9964027639
0.5724479083 0.749940378 1.0006922583
0.5724957739 0.7480462986 0.4985664288
0.6024522778 1.0026860764 0.2486306569
0.5924373208 0.7512681863 0.9975717892
0.5924741405 0.9998482117 0.4998219804
0.6024854155 1.0027576739 0.7527852517
0.5924741405 1.0009091565 0.9978203221
0.6024633237 0.7517563511 0.2520373992
0.6025148713 0.5041793416 0.2529772219
0.5924225929 0.7521468829 0.5000217272
0.6024743696 0.7510924469 0.7522173079
0.5825144129 0.9994056089 0.2483673961
0.5824996851 1.0001541283 0.747611164
0.5824665473 0.7496084259 0.2485128339
0.5824555014 0.750226768 0.7485666351
0.6126034677 0.7524397818 1.003628629
0.6125408742 0.7522640424 0.5052731362
0.6124377791 1.0038967251 1.0027173416
0.6225705592 1.0019310482 0.2517253523
0.6224969198 0.7513528015 0.2544463277
0.622471146 0.7507279505 0.7526784745
0.6426115192 1.0011044224 0.7518619978
0.6524976073 0.9982470311 0.9967065264
0.6325302867 1.0007464349 1.001216939
0.63236828 0.7491007345 0.9979123714
0.6325229227 0.4989911261 1.0017968492
0.632371962 0.7508125658 0.499509013
0.6523061449 0.748742747 1.0016587753
0.652530745 0.4982946776 1.0001123481
0.6424863322 0.7499924489 0.2510469494
0.6423721912 0.5005122476 0.2467095893
0.6524239679 0.7500510287 0.4973826756
0.6424495125 0.7488338711 0.7495653693
0.6724796558 0.7508320924 0.9962370752
0.6725017476 0.4997930181 0.9945985988
0.6826161178 0.9994902242 0.2487015348
0.6724023344 0.9995813482 0.4926973694
0.6824835669 0.9999133003 0.7453660831
0.6825387965 0.7521664095 0.2448409898
0.6725569772 0.7485409722 0.4986860928
0.6824172915 0.7493220359 0.7458079195
0.6625383381 0.7496019171 0.2499276306
0.6625420201 0.7489510307 0.7487884738
0.7024582515 0.9999393358 0.2387372048
0.7024619335 0.4999108286 0.7409458787
0.692494842 0.7503569453 0.992886483
0.6925832093 0.9992689228 0.4946313239
0.7025245269 1.001267144 0.738620715
0.6926089831 1.0011760199 0.9896831695
0.7025981663 0.7501877148 0.238774945
0.7025981663 0.4981072223 0.2408046307
0.6925095699 0.7511054647 0.4920603886
0.7025650286 0.7494522132 0.7394068155
0.7225176214 0.5000488165 0.7375584668
0.7325583522 0.7483522152 0.9890388249
0.7225397132 0.7499338691 0.2421365832
0.7224660738 0.4988622506 0.2376832411
0.7326761752 0.74998594 0.4876199334
0.7225213033 0.7503764719 0.7412367543
0.7224329361 1.0002387435 0.7415009356
0.7125100282 0.7507865303 0.9858539212
0.7124842545 0.747785944 0.4884446946
0.7425954011 0.5002323664 0.730527746
0.7426174929 0.7523942197 0.2353111322
0.742602765 0.5016285178 0.2332796055
0.7425659453 0.7516717358 0.7344159058
0.752739227 0.5000371005 0.4828260091
0.7525698564 0.7510729203 -0.0190178736
0.762647407 0.4989299428 0.7302423934
0.7625958594 0.7509752874 0.2281515425
0.76252222 0.499552841 0.228578651
0.7524593974 0.750324401 0.4804492978
0.7626253152 0.7513983635 0.7287732875
0.7824269471 0.7462173078 0.2284055984
0.7825300423 0.4974739099 0.2297697681
0.7725739968 0.74884038 0.4799826082
0.7825742259 0.7483717418 0.7289767164
0.772540859 0.998780758 0.4805155733
0.7724966754 0.4972604191 0.476678961
0.7725187672 0.7475646426 -0.0210561199
0.7824379931 0.4968353903 0.7292694329
0.7725997705 0.497960122 -0.0197676147
0.7924308583 0.7461977812 0.4792554192
0.8125601856 0.496550953 0.4818567307
0.812390815 0.7484498481 -0.0174473387
0.8024679072 0.4975272826 0.7304761984
0.8024679072 0.7473173058 0.2288446733
0.8024973629 0.4961122555 0.2330273906
0.7925192256 0.4980707727 0.480614066
0.7924087665 0.7489965927 -0.0187410816
0.8124129068 0.7488664154 0.4821743005
0.7925302715 0.4981137312 -0.025862839
0.8025746843 0.7484498481 0.7292206468
0.8325127783 0.4990223686 0.4865392754
0.8324833225 0.7500184844 -0.0122223479
0.8225456869 0.4985211861 0.7346285395
0.832431775 0.4999817752 -0.0117725401
0.8223358146 0.7486060609 0.2334903983
0.8225493688 0.4978995896 0.2344964965
0.8323912733 0.7486060609 0.4876834474
0.8225015032 0.7501877148 0.7351274464
0.8625024199 0.7489640484 0.7456017292
0.8624692822 0.4976021345 0.7434809147
0.8524985088 0.7487948179 -0.0094414852
0.8525132366 0.498951422 -0.0053682236
0.8624582363 0.7491918586 0.2464316006
0.8625760593 0.4990015403 0.2436646005
0.8526678794 0.7488078357 0.4932469033
0.8424945976 0.747740382 0.2393797085
0.8425093255 0.5010446727 0.2348223508
0.8424945976 0.7491593143 0.7401441299
0.8525316465 0.4985966889 0.4910819053
0.8726352 0.4980414828 0.4994721933
0.8824292389 0.7490486636 0.7513465221
0.8926025206 0.497536395 0.5068886003
0.8725652426 0.7491007345 -0.0018215296
0.8923374188 0.7495628639 0.0084305647
0.8825065602 0.5001894079 0.7521565554
0.8725652426 0.4993139657 4.1361916632e-04
0.8926835239 0.4999576924 0.0069083464
0.8825544258 0.7498752894 0.2529496071
0.8825581078 0.4990991732 0.2504946539
0.8724584654 0.7489445218 0.4974093698
0.8923963303 0.7509297253 0.5078670837
0.8825028783 0.9977198131 0.2531281826
0.8824660586 1.0004470272 0.7565334966
0.9124336084 0.7515090142 0.5133210011
0.9124372903 0.9984292793 0.010958697
0.912477792 0.500040355 0.5123204258
0.9023450119 0.7491983675 0.7601988973
0.9125256576 0.7533314961 0.0129864496
0.9125330215 0.5021934872 0.0110121776