POSCAR file written by Ovito 3.7.11
1
271.5769695049 0.0 0.0
0.0 15.3627133401 0.0
0.0 0.0 10.8630787802
Sr Ti O 
800 800 2400 
Direct
0.012396654 0.251177418 0.5464643633
0.0223057417 0.250937226 0.7988246799
0.0024475777 0.2508473982 0.8013672372
0.0123674542 0.2503168929 1.047210985
0.0225154796 -2.6455808094e-04 0.2953569144
0.0024860935 0.9997684869 0.2971722377
0.0124800189 2.0931654256e-04 0.5439512636
0.0224454074 3.9294295917e-04 0.7950292549
0.0025823829 -4.3438287531e-05 0.7984352875
0.0125257887 0.999260764 1.0498161396
0.0223328058 0.2519084086 0.3000931407
0.0023216097 0.2499321952 0.2999283624
0.0323679351 0.2493587288 0.5461550587
0.0423209146 0.2501046908 0.7984435724
0.032350997 0.2528411866 1.0452502149
0.0425138617 0.9989222822 0.2946959599
0.032421327 -8.3209907718e-05 0.545441633
0.0424527372 1.0006146915 0.7938306997
0.0324938663 -6.788078205e-04 1.0455355852
0.0422192859 0.2507940222 0.2927821379
0.0724114632 0.2498820739 0.5434385176
0.0525206013 0.2508467472 0.5463888782
0.0622773196 0.2497968025 0.7949372
0.0724136725 0.250591584 1.0443296655
0.0523681583 0.2510687132 1.0459774488
0.062345072 1.0006342193 0.2956165093
0.0724258237 1.0001460243 0.5443342121
0.0522367038 0.0011516631 0.5458006472
0.0623712156 1.0014153314 0.79683077
0.0723079934 -3.8517479486e-04 1.041614045
0.0522624792 1.0019751283 1.0455171742
0.0622265053 0.2513043487 0.2940359261
0.0924507176 0.2481447506 0.5393761334
0.1024858101 0.2474586739 0.7848093162
0.0824156252 0.2500037972 0.7933584579
0.0925339353 0.2517176871 1.0386682871
0.1024195306 0.9998465981 0.2865988079
0.0824067879 0.9992477455 0.2921773369
0.0922662396 -7.6674801505e-04 0.5404771104
0.1023919141 -0.0018930399 0.784143759
0.0823578147 0.9965073442 0.793799401
0.0923837017 0.9977180678 1.0399754671
0.1023723984 0.249561818 0.2864137775
0.0823905862 0.2482866526 0.2902607532
0.1123014436 0.2505844238 0.5310921099
0.1224142304 0.2498775174 0.7777496233
0.1123334787 0.2483387267 1.0316905231
0.1223508966 0.0022928678 0.2783028173
0.1124940225 0.9971192153 0.5304642952
0.1224551028 0.9991240694 0.7772608116
0.1124641967 -0.001722048 1.0307331518
0.1223936101 0.2509027269 0.2801126173
0.1522937891 0.2487253772 0.5203428552
0.132387462 0.2490775285 0.523538082
0.1423658486 0.2492383074 0.7731772547
0.1523821619 0.2519708976 1.0211134112
0.1323432756 0.2494257743 1.0257898018
0.1425274971 0.002495371 0.270134783
0.1524046233 0.9994560421 0.5171034421
0.1325546337 5.2677348471e-04 0.5259305897
0.1424892022 -6.3825508829e-04 0.7719575268
0.1524101466 0.9990264304 1.0198706696
0.1323962993 -0.002229875 1.0231662362
0.1424512756 0.2500024953 0.2716960347
0.1725138395 0.249632118 0.5141862212
0.1624375064 0.2508389361 0.7661727948
0.1724497693 0.2515627666 1.0153507723
0.1625568096 -0.0025716115 0.2635823128
0.1725377738 -8.0717056192e-04 0.514397027
0.1624960534 0.9994560421 0.7619345856
0.1724166295 -0.0020873806 1.0145314834
0.1624934758 0.2486687466 0.2647624571
0.1926171642 0.2495214605 0.5094647237
0.2025602017 0.2489265135 0.758779863
0.182356353 0.2499016017 0.7620781913
0.1924684034 0.2495598652 1.0133439747
0.2023134945 0.0020544333 0.2602324338
0.1824171093 3.8252813228e-04 0.26046073
0.1923826082 -5.7133982553e-04 0.5102674427
0.2025340581 0.9993779308 0.760700129
0.1825544552 0.9972038357 0.7626185538
0.192400651 -3.9077276432e-04 1.0140804142
0.2024442125 0.2523686138 0.2579881345
0.1822911781 0.2497258515 0.2605297712
0.2124947702 0.2516395759 0.5042065458
0.2225725762 0.2482677757 0.7538144199
0.2124343822 0.2489017783 1.0021224783
0.2223895709 0.9996187737 0.2525900331
0.2125787243 1.0009596827 0.5045572751
0.2224330209 0.9992151992 0.7549273641
0.2123868818 0.9990980324 1.0063662107
0.2224543776 0.2512848209 0.2533430425
0.2525187826 0.250671648 0.4958746538
0.2323672211 0.2494830558 0.5002187261
0.242513516 0.2483777823 0.7499886168
0.2525073678 0.2479201809 0.9989741995
0.2324942569 0.2513622812 0.9982837875
0.2425179346 0.9965529091 0.2493432556
0.252529461 4.7242110687e-04 0.4971413297
0.2326463317 -0.0014187813 0.5028855575
0.2424836902 0.9971517616 0.7479615672
0.2524687047 4.0915103351e-04 0.9957430714
0.2325818932 -0.0014685121 0.999093871
0.2425194075 0.2485353066 0.2497169986
0.2724939669 0.2485717585 0.4897815377
0.2624920142 0.247795203 0.74277151
0.2725466223 0.2485990974 0.9873568669
0.2625697085 0.998772569 0.2436662278
0.2725650333 8.9044622118e-04 0.4857495316
0.2625501929 0.9967872427 0.7416014918
0.2725661379 8.7085332809e-04 0.9861693582
0.2626161042 0.2498410655 0.2427088565
0.2926551021 0.2511364096 0.4825561459
0.3027152335 0.2503279587 0.7317663427
0.2826196414 0.2502146974 0.7340032776
0.2925457408 0.2523061249 0.9830855179
0.3025462206 -0.0018914842 0.2286861284
0.2824970242 0.9995732089 0.2351226094
0.2927246956 0.0022715825 0.4819108408
0.3026765704 0.0014624806 0.731614452
0.2826715604 0.9984471057 0.7342665547
0.2925729891 0.0010214127 0.9806736787
0.3026371709 0.2490254544 0.2298874453
0.2826119088 0.2496601079 0.2357283309
0.3324938999 0.2521336293 0.4717673077
0.3126354414 0.25242915 0.4778539799
0.322573692 0.2506143664 0.7258435282
0.3325469236 0.2490697174 0.9715786512
0.3126623214 0.2507803527 0.9798820062
0.3225221413 -0.0011231955 0.2236792606
0.3325288808 0.0016604925 0.4705457387
0.3125282894 8.0107398792e-04 0.4799933366
0.3224179351 -5.3592743749e-05 0.7243052903
0.3324556051 -0.0012349596 0.9720481314
0.3125816813 0.9983429574 0.9764943847
0.3225552811 0.2485925881 0.2264786511
0.3525489879 0.2494049446 0.4677399043
0.3425639733 0.2511233911 0.7181882399
0.3524528825 0.2521069413 0.9646837366
0.34246124 0.0013680962 0.21866779
0.3524613516 -3.9741221646e-04 0.4651457963
0.3423842821 0.9994039679 0.7190517152
0.3524830765 7.3988687994e-04 0.9641406125
0.3425451941 0.2494947725 0.2183179812
0.3726674096 0.2507744944 0.4614240153
0.3825209697 0.2468669815 0.7154772221
0.3625119093 0.2512919811 0.7123363077
0.3725458971 0.2482007303 0.9626309116
0.382340542 0.9988116246 0.2130146965
0.3624787695 0.9988051154 0.2137382482
0.3724207024 6.9796720171e-04 0.4643384745
0.3823184489 -0.0027944302 0.71101624
0.3625303202 0.9989157729 0.710587264
0.3722365925 -9.225798624e-04 0.9621061985
0.3825909315 0.2521427423 0.211252765
0.3625303202 0.2509482918 0.2124918244
0.3924481738 0.2473558274 0.4589725924
0.4024821616 0.2500545695 0.7110005907
0.3925439109 0.2502752336 0.9607806074
0.4024195642 0.9956220839 0.2091428659
0.3924960424 0.9983429574 0.4586789371
0.4023753779 -1.6529176215e-04 0.7087645763
0.392470267 1.0010573217 0.961332937
0.4025042548 0.2479976412 0.2106148243
0.4324810235 0.2488152051 0.4484755683
0.412471963 0.2526927753 0.4586402741
0.4223181588 0.2483836407 0.7087572119
0.4325104811 0.2509587066 0.9511700723
0.4124830096 0.2475263702 0.9562975322
0.422491222 1.0009141178 0.2009996865
0.4325620318 1.0003152653 0.4526272458
0.4124240945 0.0017217447 0.4605099098
0.4225427728 0.997796179 0.7028012577
0.4324847057 1.0030751944 0.9496327549
0.4124498698 8.5256228836e-04 0.958644933
0.4224949042 0.2509014251 0.2087461092
0.4525342703 0.2521284219 0.4492690818
0.442584973 0.2527031901 0.6997533188
0.4525416347 0.2503559485 0.9448274874
0.4426365238 0.9979524014 0.1976194293
0.4526115964 0.0029810274 0.4464365515
0.4424266386 7.4652633209e-04 0.6964089631
0.4526189608 1.0007318583 0.9447354324
0.4425334223 0.2498710081 0.198155189
0.4725985637 0.2487214716 0.442705565
0.4824447595 0.2492233361 0.6896696214
0.4624283346 0.2508122481 0.6914425994
0.4726427501 0.2503064781 0.9434742798
0.4825404966 -4.3562161261e-04 0.1954478534
0.4626419021 -1.9191466338e-04 0.1953557985
0.4724770512 0.99894181 0.444515365
0.4825736364 1.0002306448 0.6926402341
0.4624872498 0.0012103767 0.6971776218
0.4725801527 0.0013220106 0.9435663348
0.4823416579 0.2495481485 0.1927874658
0.4625424827 0.2512548783 0.1931879048
0.5125062187 -0.0030829469 0.4391117404
0.5125172653 -0.0018605652 0.9422591547
0.4923756457 0.2480445079 0.4407687292
0.5025753324 0.2482736341 0.6901271344
0.4924308787 0.2474547683 0.938365231
0.5124804433 0.2479585856 0.4386744794
0.5124804433 0.2501131529 0.9422775657
0.5024317267 -0.0021875582 0.1918199685
0.4923756457 -0.0020284197 0.4432845905
0.5024759131 -0.0013531028 0.6907356175
0.4925634378 -2.1053116645e-04 0.9412649614
0.5025421926 0.2477847881 0.1893455318
0.5225070667 1.0002371541 0.193126228
0.5324600462 0.0044766617 0.4491761063
0.5224812913 0.9989548285 0.6940017265
0.5323569447 1.0000093297 0.9472669431
0.5224886557 0.2492571843 0.1951210584
0.5324858216 0.2501255205 0.4420261996
0.5224150118 0.2474495609 0.6925113572
0.5324784572 0.2497870386 0.9456191598
0.5424351188 9.4915980777e-04 0.2001251646
0.5624294505 -4.6465294257e-04 0.2041875488
0.5523917805 0.0019208632 0.4558666589
0.5425234916 0.9988962451 0.7001003659
0.5623926285 0.9983755038 0.7059311254
0.5524359669 0.0044944971 0.9549167081
0.5425234916 0.249445953 0.2002577237
0.562606196 0.2514716368 0.2034041614
0.5524175559 0.2486693975 0.454992137
0.5424019791 0.2517795252 0.7006112708
0.5625067766 0.252313936 0.7045751563
0.552476471 0.2508233139 0.9524220194
0.5823611848 -8.6757655788e-04 0.2085150513
0.5725444466 1.8816142544e-04 0.4618621968
0.5824274644 0.9999507463 0.7108661905
0.5725297179 5.7910798983e-04 0.9597864141
0.5827404511 0.2495754874 0.2135173164
0.5724781671 0.2476741306 0.4577767988
0.582626303 0.2509840928 0.709104259
0.572662277 0.24846045 0.9593813724
0.6025433085 0.9965984739 0.2110125017
0.5925461427 0.9988636988 0.4652120758
0.6124189618 0.0011931271 0.4675263369
0.6023555165 -0.002393225 0.7135201342
0.5924945919 7.1502148074e-04 0.9643523389
0.6126104361 -3.8641155556e-04 0.9671784253
0.6025212153 0.2481454015 0.2180767973
0.5925645537 0.2502420363 0.4611809903
0.6125772963 0.2490371711 0.466026762
0.6026979608 0.2489636163 0.7128978428
0.5925093207 0.2495143003 0.9603387438
0.6123784577 0.2489824932 0.9673993572
0.6223535303 -0.0017632517 0.216467677
0.6324574799 5.3497516088e-04 0.4683143271
0.622460314 -5.6359379803e-04 0.7139813294
0.6324427511 1.0002046077 0.9687617702
0.6225081826 0.2478186363 0.2185748145
0.6323764715 0.2474619285 0.465616197
0.6226002375 0.2480907237 0.7203441665
0.6323985647 0.2477626566 0.969728347
0.642366273 0.9984861613 0.2174940896
0.662367969 2.2383220754e-04 0.2222745023
0.6524591759 2.420581546e-04 0.4717323268
0.642347862 0.9973730767 0.719233984
0.6624268842 0.9984015408 0.7233856615
0.6524886335 0.9995146255 0.9690103185
0.6425061965 0.2490456331 0.218939352
0.6625557611 0.2496920033 0.225964064
0.6523339812 0.2492409111 0.4725138732
0.6424620101 0.2477587511 0.7213061405
0.6624894815 0.2493352955 0.7233893437
0.6523523922 0.2494791503 0.9717535556
0.6824506734 0.9988832266 0.2261380479
0.6725529269 0.9987855876 0.4776477768
0.6825243174 -0.001466364 0.7261832109
0.6725271515 -4.2611808308e-04 0.975997288
0.6825758681 0.2476838945 0.2291289127
0.6724829652 0.2500461074 0.477968128
0.6825500928 0.2483563018 0.7289899659
0.6724645542 0.248922608 0.9765588231
0.7026659369 0.0010055301 0.2359777997
0.6926945465 0.9993453845 0.4828571656
0.7125415902 1.0006602564 0.4878088005
0.7026070218 1.0000874409 0.7351079368
0.6926614067 0.999332366 0.9810879259
0.7126189164 0.0014840263 0.9899067885
0.7027211699 0.2491269989 0.2368744148
0.6925767162 0.2512991413 0.4817543474
0.7126925603 0.2511917384 0.4863064639
0.702573882 0.2523367184 0.7363212208
0.6925509408 0.2504366634 0.9811523643
0.7127514755 0.250254404 0.9911587357
0.7226786796 9.1895680979e-04 0.2456297596
0.7425478165 0.9994234957 0.2497934042
0.7326832098 0.0018120933 0.4982680821
0.7225424383 0.9974446786 0.7450314587
0.7425956851 0.0010366444 0.752510922
0.7326022015 0.9999377278 0.9983758425
0.7226455398 0.2500552204 0.2452394467
0.7426582825 0.2505160765 0.2520828104
0.7325874727 0.2504216921 0.4990726422
0.7226565864 0.2490671137 0.7428166169
0.7425809563 0.2497805293 0.7499232578
0.7325727439 0.2505277932 0.9971146899
0.762520055 0.0019963056 0.2570059083
0.7526775415 0.0019287394 0.5017855011
0.7624721864 7.3292196446e-04 0.7579789851
0.7525928509 0.9992021806 1.0015517377
0.7625642414 0.2502491965 0.2535860675
0.7525449824 0.2525437131 0.5024252829
0.7625789702 0.2514866082 0.7555183567
0.7525302536 0.2512333977 1.0056389768
0.7826543102 0.0032486885 0.2608004127
0.7725614072 1.0001069687 0.5077791978
0.792596243 1.0017538132 0.5182071808
0.7826358992 0.001956599 0.7596359739
0.7725650894 1.0008555344 1.009486873
0.7925815143 0.0025217987 1.0157834305
0.7825622552 0.2536236005 0.2620781352
0.7724583057 0.2537355598 0.5089501366
0.7925778321 0.2545485673 0.5129526851
0.7824996579 0.2522013257 0.7599498813
0.7724988099 0.2510309595 1.0083453918
0.7926257006 0.2542270095 1.0147708262
0.8025860445 1.0016822113 0.2665787009
0.8124616978 0.0049584125 0.5182937124
0.8026302308 0.0023133069 0.7700271349
0.8125537527 1.0021899341 1.0182689137
0.8025013539 0.2550933929 0.268445575
0.8125058842 0.2523595008 0.5183544687
0.8024608498 0.2539477619 0.7642470056
0.8123696429 0.2500246268 1.0180203654
0.8223778553 1.0014869333 0.2724628523
0.8425305214 1.0014869333 0.2721811642
0.8324007965 0.0019303016 0.5232471884
0.8225325076 0.0033191188 0.7681252799
0.842523157 0.001496459 0.7728099555
0.8324118431 0.0024852166 1.0195576828
0.82250305 0.2507738434 0.2698098291
0.8424090089 0.2508584639 0.2766458285
0.8323934321 0.2519702467 0.5209366096
0.822466228 0.2525027047 0.7718056362
0.8424495131 0.2498892341 0.7748839532
0.8324486651 0.2508656241 1.0232030582
0.8625837683 -0.0016699739 0.2832848303
0.8525203229 1.0033616021 0.5295492692
0.8625837683 1.0003413023 0.7833235495
0.8525019119 0.0010793451 1.0297021365
0.8625211709 0.2498918378 0.2852437593
0.8524982297 0.2491022637 0.5275719292
0.8625322175 0.2524447722 0.7839080984
0.8524466789 0.2522573054 1.0265630633
0.8824529052 0.9998075425 0.2870655265
0.8725477943 9.878248526e-04 0.5363429233
0.8926304987 0.0037878511 0.5361201504
0.8825523245 0.9998400888 0.786523379
0.8726914 7.6026088505e-04 1.036053927
0.8826812014 0.2505993951 0.2876500753
0.8925273972 9.7259316827e-04 1.0380239025
0.8725330655 0.2512867737 0.5342900983
0.8925200328 0.2511279476 0.5369983544
0.882467634 0.2518081659 0.7857795752
0.8725698875 0.2502856484 1.0337341426
0.8924242957 0.2512086625 1.03527146
0.9026166179 0.0022570017 0.2848921095
0.9225299413 6.7472911921e-04 0.2906455428
0.9124517671 0.0013645812 0.5348875348
0.9025834782 1.0007448769 0.786586897
0.9224599795 1.0008750622 0.7908425966
0.9124849069 1.0001264965 1.0367811609
0.9025208808 0.2516975084 0.2872293842
0.9225078481 0.2501704344 0.2887068659
0.9125106822 0.2499445629 0.5339135936
0.9024619657 0.2515048341 0.7855825776
0.9224231575 0.2517645539 0.7880873924
0.9125033179 0.2501014362 1.0397269188
0.942450629 1.0023917214 0.2920401751
0.9325050139 0.9990199212 0.5427701988
0.942413807 0.9990199212 0.7950301755
0.9324902851 1.0025349253 1.0420927306
0.9425721415 0.2495514031 0.294659138
0.9324645097 0.2481799006 0.5437119208
0.9425353195 0.2482267673 0.7956073599
0.9324387344 0.2501964715 1.0412366197
0.9624375962 -5.4068117887e-04 0.3000323845
0.9524772524 1.0010443032 0.550041618
0.9725746856 1.0004194135 0.5483413634
0.9625149224 1.0004389413 0.8002128683
0.9525508963 0.9993649123 1.0455816126
0.9626437993 0.2474456553 0.2976684138
0.9725783678 3.2732954976e-04 1.0506906615
0.9525693073 0.251133155 0.5456386305
0.9725673212 0.2510635058 0.5533473107
0.9625038758 0.2507790509 0.7983229805
0.9526134937 0.2473649404 1.0493190429
0.9726041432 0.2498085192 1.0509484153
0.982582898 0.0029544696 0.3024506676
0.9925690172 0.9995341533 0.5480587548
0.9825976268 1.0001525336 0.8023614304
0.9826270844 0.2511214383 0.3010514326
0.9926794832 6.3280944098e-04 1.0481775618
0.9926168858 0.2500955778 0.5484886513
0.9825571226 0.250919651 0.7990787515
0.992583746 0.250005099 1.0502119758
0.0126287797 0.7514985416 1.0462352027
0.0223158309 0.4999661518 0.7976031109
0.0024648472 0.5028510589 0.7957942314
0.0123767333 0.5014776036 1.0505433736
0.0225181308 0.7492072797 0.2954959173
0.002431781 0.7524098389 0.3018385023
0.0124790616 0.7496173635 0.5441804804
0.0225667358 0.7489989831 0.797408875
0.0222687724 0.5013604368 0.2980117787
0.0023543076 0.5005025154 0.300303026
0.0026239181 0.7511144949 0.7997194538
0.0122949885 0.5000768093 0.5492692771
0.0325096997 0.7495262338 1.0427739371
0.0423868259 0.5011879412 0.7951839072
0.0324485752 0.4998346646 1.0472754234
0.0424693071 0.7511405319 0.2892444668
0.0325347386 0.750509133 0.5461780725
0.0424232797 0.7485433345 0.7923237604
0.0423606823 0.4989051413 0.2951258565
0.0324073346 0.5004471866 0.5468638817
0.072295474 0.750873652 1.0417060999
0.0623384441 0.5002968226 0.7949372
0.0524105036 0.750216216 1.0433538832
0.0723400285 0.5013578331 1.042958047
0.0523537977 0.4992234445 1.0433814997
0.0624113516 0.7508345964 0.2883294407
0.0723864242 0.7495848172 0.5425584724
0.0524116082 0.7492268075 0.5430040183
0.0623966228 0.5008813547 0.2938969231
0.0724155136 0.4999336055 0.5410957195
0.0624437549 0.7501381048 0.7919629051
0.0524719963 0.5017861428 0.5441786393
0.0924868032 0.7506262998 1.0381619849
0.1024832326 0.4977595104 0.781858035
0.0823681248 0.5003593115 0.7934698444
0.0923730233 0.5006587378 1.0390273013
0.102490597 0.7483806028 0.2845358569
0.0824340362 0.7492658631 0.2925473978
0.0924374617 0.7471308236 0.5388689107
0.1024154801 0.7475604352 0.7845000116
0.1022913901 0.5002538614 0.2853661924
0.0824027375 0.4998470322 0.2935692075
0.0824207803 0.7509647817 0.7921147957
0.0923137399 0.4998444285 0.5395455145
0.1124111731 0.749923299 1.0316629066
0.1223556835 0.4998639563 0.7737010473
0.1122683038 0.5001581752 1.0318930439
0.1224727774 0.7512837358 0.2765804695
0.1125698758 0.7494416133 0.5287861338
0.122328067 0.5006782656 0.2745488171
0.1224757231 0.7485888993 0.7765952544
0.1124082273 0.5002740401 0.5308444821
0.1525504383 0.7470722402 1.0196589432
0.1423478058 0.4993458187 0.7724840811
0.1324975597 0.7493049187 1.0222917143
0.1526067759 0.4992058694 1.017900694
0.1324526369 0.4999752648 1.0255044315
0.1425414894 0.7512381709 0.2735279279
0.1525228218 0.7471503514 0.5209274041
0.1325321723 0.7486279549 0.5221747484
0.1424825743 0.5006776147 0.2700215554
0.142549222 0.7487255939 0.7716371757
0.1524775308 0.4966789721 0.5202038523
0.132402559 0.4990229591 0.5264875221
0.1725075798 0.7480356117 1.0194932443
0.1625755888 0.4982496582 0.7665759954
0.1724015325 0.4981097089 1.0146787713
0.1625129915 0.7479444819 0.2691341459
0.1724549243 0.7498907527 0.5172645382
0.1624190954 0.4973735108 0.26614144
0.162530666 0.7503008365 0.7675885997
0.1724181024 0.4986083188 0.5130097592
0.1924949152 0.7488167237 1.0145130724
0.2025115967 0.4997331201 0.7597620892
0.1824955401 0.4977367279 0.7638971968
0.1924061743 0.4983316749 1.009523695
0.2024950268 0.7506132813 0.2589050016
0.182341256 0.7503789477 0.2615276467
0.1924882873 0.7480291024 0.5112726826
0.2024832438 0.5004497903 0.2569184561
0.2025613064 0.7506262998 0.7582146457
0.1824723422 0.4990711276 0.265461154
0.1823508297 0.7473456294 0.7661203235
0.1924035967 0.5009815974 0.5106688022
0.2123920369 0.7498907527 1.0045067011
0.2224153463 0.5007244814 0.7525265714
0.2124712041 0.5017867937 1.0052155241
0.2225512194 0.7496954747 0.2518167717
0.2125157587 0.7513683563 0.5030871579
0.2226001926 0.5011234995 0.2520947776
0.2225099788 0.7485693715 0.7547736323
0.2125772514 0.5011514893 0.5034572187
0.2527732225 0.7485628623 0.9946936451
0.2425503379 0.4997005737 0.7474874843
0.2325086175 0.7496824562 0.9993240083
0.2525508177 0.4986213373 0.9972435668
0.232429082 0.500479082 0.9995817621
0.2425271401 0.7470266753 0.2494509599
0.2525368254 0.7485433345 0.4960937445
0.2326282889 0.7501120678 0.5051114459
0.2426596992 0.5006457193 0.2509100306
0.2427016762 0.7487060661 0.7525937715
0.2525471355 0.498632403 0.499265037
0.2326282889 0.4998541924 0.5011429576
0.2726471463 0.7511470412 0.9856814671
0.2627394578 0.4988569727 0.7398579714
0.2726434641 0.4980439653 0.990698461
0.2624441456 0.748458714 0.2435088139
0.2726029599 0.7498647156 0.4844846968
0.2626580813 0.4986870809 0.2422577873
0.2625999025 0.7466686656 0.7423066326
0.2725469905 0.4985464807 0.489302852
0.2926017102 0.7503789477 0.9821649686
0.3026971907 0.5018544901 0.7312397884
0.2827639835 0.499218888 0.7361693302
0.2927151219 0.5000312445 0.9825515993
0.3026736246 0.7504700774 0.228380506
0.2826763472 0.749506706 0.2341201312
0.2927007613 0.7501381048 0.4796343223
0.3026029264 0.5021083515 0.2314183189
0.302613973 0.7507890315 0.729402372
0.2825942342 0.5016527028 0.235227552
0.282612277 0.7510298744 0.7338200882
0.2926355864 0.5003599625 0.4806119457
0.3325196753 0.7509322354 0.9696086756
0.3225147769 0.4991752759 0.7192643621
0.3125684254 0.7493049187 0.9752608486
0.3325708579 0.4985634048 0.971891638
0.3124962543 0.4983251657 0.9745704365
0.3224860557 0.7507890315 0.2247075142
0.3324552369 0.7503073458 0.4715261237
0.3125231343 0.7488753071 0.4778355689
0.3224753774 0.4984156445 0.2235991728
0.3224993117 0.750190179 0.7239591637
0.3326290366 0.4996751876 0.4698498034
0.3125467004 0.4977992169 0.4753758611
0.3525574569 0.7511795875 0.9613973755
0.3424170536 0.4995684356 0.714711325
0.3524090644 0.5006281442 0.9638644477
0.3424538756 0.7520908849 0.2156005196
0.352562612 0.7489338905 0.4627836667
0.3425989542 0.4990379304 0.2131260829
0.3424859107 0.7496108542 0.7156217483
0.3525095884 0.4979853819 0.4667733275
0.3726710918 0.7482569267 0.9552665169
0.3825762027 0.4986174317 0.7092423414
0.3625560956 0.4993978928 0.709849904
0.3724575243 0.4992117278 0.9634870225
0.3826977152 0.7498582064 0.2080317629
0.3624456297 0.7491877519 0.2134933821
0.3726121766 0.7504310218 0.4561685991
0.3825651561 0.50003515 0.2080833137
0.3824804655 0.7481072136 0.708162537
0.3625671422 0.4988940756 0.2115215654
0.3624714051 0.7500404658 0.7098526656
0.3724464777 0.4991349184 0.4590996282
0.3925733685 0.7473195923 0.955100818
0.4024195642 0.5000748566 0.7097090599
0.392433445 0.4989370367 0.9604400042
0.4026184029 0.7474953425 0.2077648036
0.3926506946 0.7490836036 0.453470469
0.402415882 0.4995586717 0.2094015403
0.4026515427 0.7490185109 0.7096529064
0.3924997246 0.4985139344 0.462762494
0.432547303 0.7516091991 0.9482795474
0.4224102137 0.4993204325 0.7035266506
0.4125308782 0.7473521386 0.9540145698
0.4324957523 0.5010603596 0.9529283216
0.4125014206 0.498668204 0.9619497051
0.4225354084 0.7526181355 0.2061427956
0.4325215277 0.7464213135 0.4505523276
0.4125566536 0.749435104 0.4547399065
0.4225169974 0.5008709399 0.2028858921
0.4224985864 0.7498321693 0.7022259143
0.4325178455 0.4994004965 0.4514691947
0.4124240945 0.5009139011 0.4591861598
0.4525895033 0.7479835375 0.9430968546
0.4425739264 0.501136518 0.6952776079
0.4527073336 0.5005116284 0.9429679777
0.4425886552 0.749044548 0.1975347388
0.4525931855 0.7517393845 0.448788555
0.4424413673 0.4995554171 0.1993611087
0.4427506719 0.7500469751 0.6977106198
0.4526557828 0.5008338371 0.4447519462
0.4725212376 0.7501250863 0.9463371883
0.4825994117 0.5006502758 0.694047754
0.4625829869 0.4990346757 0.6924257461
0.4725359664 0.499565181 0.9441831028
0.4826288693 0.7498647156 0.195252697
0.4625424827 0.7515896713 0.1919285933
0.4726574789 0.7476190186 0.4408000279
0.4825920473 0.4977920567 0.1925324737
0.4823711155 0.7500274473 0.6918209452
0.4626124445 0.4993679502 0.1924210872
0.4625756225 0.7486474827 0.6922526828
0.4724954622 0.5000195278 0.4422738274
0.4924271965 0.4972029681 0.9410808516
0.5025164173 0.7482959823 0.19019704
0.4924271965 0.7495197245 0.4420602599
0.5024243623 0.4984839918 0.1922885281
0.5023691294 0.7485303159 0.6906601324
0.4925597556 0.7483871121 0.9398473154
0.4925082048 0.4981396515 0.443302081
0.5024206801 0.4984657658 0.6914738981
0.5124399391 0.7512902451 0.9416515922
0.5125467229 0.4990223081 0.9423235932
0.5122226895 0.746434332 0.4422959205
0.5124473035 0.4982535637 0.4403231833
0.5223781898 0.4970532549 0.6955998002
0.5323164405 0.7506458276 0.943980582
0.5324084954 0.4999212379 0.9458677081
0.5224739269 0.5003573587 0.1923483638
0.5223008637 0.7498516971 0.193724585
0.5324048132 0.7515896713 0.4440541698
0.5323532625 0.5028120033 0.4484267791
0.5222971815 0.7490901129 0.6893732045
0.5423909325 0.4992514343 0.6993814169
0.552270268 0.749630382 0.952283937
0.5625435986 0.498730042 0.7048071347
0.5525096108 0.5011410745 0.9519157173
0.5424498476 0.4986721096 0.2002485182
0.5423577927 0.7507629944 0.2036122055
0.562514141 0.4984983121 0.2046165248
0.5624147217 0.7513748655 0.2041396803
0.5524286025 0.5004738746 0.4548255176
0.5523770517 0.7476645834 0.4511516052
0.5424793052 0.7502031975 0.6999650452
0.5623963107 0.7506458276 0.7032422008
0.5823501382 0.499014497 0.7121880993
0.5723677012 0.7491552055 0.9557820245
0.5724413451 0.4997728266 0.9580741924
0.5824569219 0.5011879412 0.209992533
0.5824348287 0.7489794553 0.2110152633
0.5723382436 0.4997305164 0.4592846586
0.5724523917 0.7497150025 0.4555582749
0.5823501382 0.7495587801 0.7085611349
0.6024843934 0.4999622463 0.7143532314
0.5922810245 0.7494285948 0.9567486013
0.6123269069 0.7476971298 0.9639196807
0.5923767616 0.5007153684 0.9607990184
0.6124447372 0.4992149824 0.9665984793
0.6023444699 0.7528199228 0.2145391262
0.6024880756 0.5012881839 0.2135872782
0.5923362574 0.7489599275 0.4570256305
0.5924283124 0.499173974 0.4620361806
0.6122569452 0.7493700114 0.4631638535
0.6124189618 0.4978024715 0.4640742768
0.6022597793 0.7483285287 0.711118421
0.6223719413 0.4988660857 0.7176662884
0.6322696878 0.7461674521 0.9646929421
0.6324280223 0.4991277582 0.9668010001
0.6222762042 0.750020938 0.2154044426
0.6223535303 0.4983915602 0.2166315348
0.6323028276 0.7475669444 0.4634437005
0.632310192 0.498784069 0.466661941
0.622309344 0.7507499759 0.7152516875
0.6421600699 0.4981461608 0.7159255296
0.6522308797 0.7487255939 0.969111579
0.6623421936 0.4996484996 0.7230073157
0.6523560744 0.4994004965 0.9719008435
0.6422705358 0.7508411056 0.2177371146
0.6423552264 0.5002649272 0.2195303447
0.6623974266 0.7488297422 0.2215297779
0.6623127361 0.4992527362 0.2225506671
0.6523413456 0.748263436 0.4701968505
0.6524444471 0.4983512027 0.4683575929
0.6423589086 0.7509973281 0.718190081
0.6624784349 0.7502487624 0.7243844575
0.6824138515 0.4991251545 0.7281844852
0.6724535076 0.7500079195 0.9767153165
0.6725639735 0.4999075684 0.97817899
0.6825500928 0.75080205 0.2275787076
0.6826090079 0.5009314761 0.2312931242
0.6724203678 0.7497410396 0.4731960002
0.6725271515 0.4985998567 0.4759576483
0.6823365253 0.7500339566 0.7270172286
0.7026953945 0.5019065642 0.7381678428
0.6924036529 0.7502031975 0.9822109961
0.7124642641 0.750483096 0.9914533114
0.6925803984 0.4986402142 0.9831223399
0.7125158149 0.4995365402 0.9888113348
0.702610704 0.750411494 0.2352385986
0.7025775642 0.502983197 0.2368900641
0.6924772968 0.7511340227 0.4828046942
0.6925767162 0.5004634598 0.4824208252
0.7125857766 0.5003202559 0.4896232032
0.7124937217 0.747091768 0.4866838892
0.7024450051 0.7510038373 0.7339176665
0.7225240273 0.5015485546 0.7424382712
0.7325432863 0.7474172313 0.994095288
0.7425109946 0.502565953 0.7513040819
0.7324180916 0.5008012907 0.9961297021
0.7225645315 0.7502943272 0.242223727
0.7225534849 0.5026531772 0.245741146
0.7424852192 0.74982566 0.2484871447
0.7425846385 0.5020562774 0.248772515
0.7324917355 0.4993581863 0.4984963783
0.7325653795 0.7509192169 0.4963284846
0.7226013534 0.7491031314 0.7435723879
0.7424778548 0.7499037712 0.7519714801
0.7524897494 0.5024976057 0.5033476733
0.7526296729 0.7507239388 1.0021132728
0.7624942796 0.502752118 0.7573263156
0.752556029 0.499423279 1.0021685058
0.7626121099 0.7524684224 0.2552982893
0.7625163728 0.5013767099 0.2575241776
0.7525302536 0.7516287269 0.5018324491
0.7625789702 0.7510233651 0.756912989
0.7724693523 0.4997962599 0.5072277888
0.7726497799 0.7506002628 1.0117146024
0.7924636839 0.5014639341 0.5165833317
0.7926551582 0.7541998873 1.0179283105
0.7826027594 0.5016416371 0.7625338633
0.7727455171 0.5008618269 1.0116961914
0.7926441116 0.5006932369 1.0177349951
0.7825217511 0.7491031314 0.2648048023
0.7826358992 0.5000169241 0.2646151692
0.7726092758 0.7521689961 0.5101588179
0.7926551582 0.7503659292 0.5151445131
0.7826395814 0.7510754393 0.7641871699
0.8124506512 0.5037298099 0.5177330978
0.8124985198 0.7520323015 1.0184162016
0.8026228664 0.5003599625 0.7682799322
0.8126273967 0.4999752648 1.0203401497
0.8026449596 0.7524554038 0.2689491155
0.8025160827 0.5021402469 0.268026725
0.8124616978 0.7528199228 0.5187005952
0.8025565869 0.7518435327 0.769003484
0.8324044787 0.5013298432 0.5206162584
0.8325112624 0.7531258583 1.0219603166
0.8223483977 0.504287654 0.7725503606
0.8423942801 0.5000136695 0.7750699042
0.8323566101 0.5023003749 1.0218958781
0.8224772746 0.7518695698 0.2706364824
0.8224625458 0.5009920123 0.2708638581
0.8424311021 0.7520973941 0.2747301653
0.8425084282 0.5011482347 0.274929004
0.8323860677 0.7519021161 0.5222060471
0.8223889019 0.7528589784 0.7686444698
0.8423832335 0.7525465336 0.7759471877
0.8525092763 0.5004576015 0.5289030435
0.8626205902 0.7503203643 0.7870849141
0.8626205902 0.4991642101 0.785645175
0.852634471 0.7523577648 1.0268116116
0.8525019119 0.5003866504 1.0342128283
0.8625764039 0.7501315956 0.2856248667
0.8626095436 0.4993067631 0.2845423007
0.8526050134 0.7500730122 0.5332029295
0.8726877178 0.5008767982 0.539060385
0.8826959302 0.7508215778 0.7874743065
0.8925679013 0.5009913613 0.5393439142
0.8725919807 0.7501771604 1.0375912444
0.8925089862 0.7526376633 1.0369008323
0.882467634 0.4996100949 0.7908177417
0.8727024466 0.5010811892 1.0409696604
0.8925715835 0.5013278904 1.0379870806
0.8826443795 0.7474497776 0.2898060018
0.8825449601 0.4997773831 0.2874374284
0.8726140739 0.7502227253 0.5372229685
0.8924611176 0.7520257922 0.5364856085
0.9125695974 0.5002440975 0.5407790506
0.9024546013 0.7500860307 0.7883773654
0.9225520344 0.7513032636 0.7902884258
0.9125106822 0.7520388107 1.0425161833
0.90246933 0.498810106 0.7894801835