POSCAR file written by Ovito 3.7.11
1
271.6090332471 0.0 0.0
0.0 15.3645271392 0.0
0.0 0.0 10.8643613299
Sr Ti O 
800 800 2400 
Direct
0.0222913337 0.5000924207 0.7761023817
0.0123660011 0.2483996764 0.5284973989
0.0224758268 0.2506659355 0.7776100635
0.0024565 0.2515751728 0.78058953
0.0122782647 0.2485350532 0.0247674664
0.0226384135 0.002413193 0.2777113732
0.0026006779 -4.8133146635e-04 0.2758889007
0.0023752803 0.4991311155 0.2791371358
0.0124647091 0.4986221509 0.5330535802
0.0124402254 9.944054564e-04 0.5286419081
0.02253433 0.0018241088 0.7774048053
0.00260933 -0.0010843438 0.7773615445
0.0224734705 0.248015675 0.2794648127
0.0024252787 0.2492236523 0.2783105801
0.0324724752 0.5012040722 0.0263295462
0.0423848848 0.5033264935 0.2739955542
0.0324492801 0.5017286572 0.5285314552
0.0325052429 0.250663983 0.5226940205
0.0424305387 0.2486756367 0.7738344159
0.0324426529 0.2515725694 0.0222397522
0.0524099564 0.5008181182 0.0205308621
0.0425535096 1.6860718191e-04 0.7704978185
0.0425432006 0.2524531692 0.2721436276
0.0525185684 0.2515380743 0.5212673375
0.0525737949 0.2502188017 0.0216049243
0.0625473218 0.2482434725 0.2689230057
0.062633475 0.4996433343 0.7678515516
0.0723687919 0.5008011962 0.0171545936
0.0623683881 0.4974031091 0.2699907169
0.0725385211 0.4991935971 0.51839004
0.0724685676 0.2488266339 0.5155237877
0.062556158 0.2498940276 0.7681497743
0.0725322621 0.2488142678 0.0157990607
0.0926262183 0.2504355347 0.5161174719
0.1025736047 0.2510662082 0.7630164767
0.0826110874 0.2511664391 0.7674345919
0.0924513345 0.2514189688 0.0136354728
0.1025699229 -9.942662237e-04 0.264969713
0.0924999338 0.0010835068 0.5157704658
0.1024701471 0.2514489079 0.2636912209
0.0825039482 0.2502337713 0.2670830448
0.1025817045 0.5012255502 0.7638669639
0.0825739016 0.5001073902 0.7662702345
0.102620363 0.5013127641 0.2618466578
0.0825249342 0.5001366785 0.2668649004
0.1225000406 0.2516083661 0.2599781633
0.1125165729 0.5023365509 0.0139972981
0.1124705509 0.2512334766 0.5108838463
0.1224720592 0.5029476989 0.2609335807
0.1124329969 0.5024934057 0.5128213739
0.1224554913 0.250486301 0.7597866504
0.1125729039 0.2530200594 0.0110128612
0.122553058 0.0047323012 0.2642434853
0.1523525087 0.2494481955 0.5092528254
0.1324032458 0.2518940892 0.5094497997
0.1424625578 0.2504609178 0.7564555757
0.1523952171 0.2501738931 0.0071801463
0.1324577359 0.2528091841 0.0092391721
0.1425627017 3.772127948e-05 0.2562476173
0.1425755879 0.252774689 0.2606574485
0.1425575473 0.5001308208 0.7592132159
0.1524692206 0.5001451395 0.006830747
0.1325044943 0.4986813782 0.0099052029
0.152551692 0.4989143825 0.5080148327
0.1324205501 0.4997298973 0.5127201254
0.1824295643 0.2508292989 0.254241977
0.1724512511 0.5009879901 0.5051071607
0.1823533518 0.5004009235 0.7570962024
0.1724895414 0.24808076 0.50500131
0.1624979739 0.2510336657 0.7544554581
0.1724589828 0.2484979547 0.0075858766
0.1824516549 0.5005063612 0.2557073186
0.1625042329 7.7285617154e-04 0.7534457347
0.1625635093 0.2492633541 0.2558545891
0.1824472368 0.2480352005 0.7542271888
0.182531181 0.0013221734 0.2549672843
0.1925308484 7.6810496772e-04 0.0060670574
0.2023342778 0.250451806 0.2550013406
0.202332437 0.5004829306 0.756512643
0.1925415255 0.5008988236 0.002674037
0.202288624 0.5013570219 0.2546184373
0.1924583176 0.4982817564 0.5046846784
0.192337924 0.2492405744 0.5032938926
0.202326178 0.251504881 0.7532726918
0.1923206197 0.2523464298 0.0053272072
0.2024266901 -0.0014212237 0.2548816833
0.2124602297 0.2512790361 0.5039188718
0.22226955 0.2519331402 0.7560413774
0.2123523541 0.2516773562 0.0034870622
0.2225401596 0.0011428643 0.7551752427
0.2223041586 0.2517033902 0.2508970957
0.2323988155 0.2497827323 0.5018524825
0.2324518328 0.2499304752 0.9987220026
0.2323796703 8.5447274122e-04 0.4987947786
0.2223667485 0.503623281 0.7558388804
0.2124539707 0.4996927989 0.0038432728
0.2124112623 0.5022259064 0.5017843699
0.242352829 0.5020384617 0.7469584688
0.2624206446 0.2495464738 0.7434746009
0.2624497306 -0.001223105 0.243702011
0.2623330187 2.4072134396e-04 0.7442569755
0.2523797415 0.2497690645 0.4957499608
0.2423583517 0.2519429029 0.7471232277
0.2524283408 0.2499539058 0.9951046707
0.2624320581 0.2493355985 0.2464716169
0.2425744711 0.0010965238 0.248936557
0.2625079024 0.5023723477 0.2448350734
0.2524257635 -6.482744498e-04 0.4977390331
0.2424629137 5.8548474297e-05 0.7478255239
0.2523779006 7.2300107394e-04 0.9970928226
0.2423797059 0.2513760127 0.2491786329
0.2724957882 0.2492340659 0.4924649081
0.2724232575 0.2467445653 0.9940001419
0.2723164864 0.0015135884 0.492955503
0.2723433632 3.0749853734e-04 0.993254585
0.2823702757 0.2496903116 0.7404491124
0.2724600751 0.499644636 0.4907436841
0.2825418458 0.2507459901 0.2414110341
0.3123976275 0.0019380726 0.488673613
0.292609994 0.5005187273 0.4894734759
0.2924108107 0.2480449633 0.4883717084
0.3025371307 0.2514716876 0.741440427
0.2923390163 0.2477026162 0.9919015372
0.2924038153 0.0022286771 0.4916908175
0.3024738044 8.7771632024e-05 0.7373343412
0.3125732476 0.5010856175 0.4894062838
0.3024362504 0.2505637521 0.239954897
0.3125309073 0.2516591324 0.491171689
0.3124889352 0.2481061431 0.9892782813
0.3224742438 0.0015126772 0.2386718027
0.3325155151 0.0021249967 0.4902457256
0.3224219627 0.0019805731 0.7393418223
0.3323630901 0.0016295698 0.9917266535
0.3224930208 0.2521283951 0.2421381823
0.322522843 0.5008571692 0.7404058517
0.32254162 0.5006508498 0.2415803952
0.3326090319 0.2504902061 0.4923931137
0.322618937 0.2491201672 0.7404656804
0.3324941609 0.2526991904 0.9875018308
0.3626201839 0.2495562366 0.2327938686
0.3528005547 0.4998587656 0.4844082909
0.3525638174 0.2503255411 0.48636975
0.3424150386 0.2509568654 0.7376150756
0.3626201839 0.4986976495 0.7327772395
0.3526010032 0.2489366275 0.9858634464
0.3626275475 0.4991486884 0.2324910436
0.3424894102 -0.0017763274 0.2347304758
0.3425571546 0.250499318 0.2358267206
0.3625649575 0.25024809 0.72803697
0.3426053857 0.4977187713 0.7371576166
0.342624899 0.5007569384 0.2359666276
0.3826489729 0.2502077373 0.2277535355
0.3925492327 0.251123483 0.4773687607
0.3925823686 0.2492737677 0.9786011696
0.3927480479 5.7421680097e-04 0.9758214387
0.3826416094 0.5017677082 0.7277801671
0.3925418692 0.5011500517 0.9777635685
0.3726235331 0.2492060794 0.4804991794
0.3825642923 0.2496903116 0.7284815429
0.3725719884 0.249758 0.9809943153
0.3925234604 0.501261347 0.4768275416
0.3725388526 0.0022811356 0.478131806
0.4125522493 0.5007094263 0.9735387459
0.4025930813 0.2519175198 0.7285395306
0.4026372624 -0.0010482217 0.724415036
0.4025525819 0.2510265064 0.2251054277
0.4125596128 0.2482877302 0.4760285991
0.412478614 0.2483651814 0.9739621486
0.4125890669 -0.001336418 0.4765495685
0.4126332481 7.5938357989e-04 0.9747353188
0.4425696604 -0.002141337 0.7212238682
0.4423229823 0.2494748803 0.2255766933
0.4224451456 0.4999954441 0.724926801
0.4324558583 0.4987803074 0.9728760286
0.4324632218 0.4987874668 0.4763203788
0.442389254 0.4992046615 0.7220218903
0.4424997069 0.5013973746 0.2233308181
0.4324816306 0.2485799618 0.4737873261
0.4224414638 0.2517281225 0.7266940471
0.4325184483 0.249133835 0.9758766652
0.4223972827 -0.0014180996 0.2232111608
0.4326546735 -0.0015070708 0.9731245476
0.4224267368 0.2499037904 0.2250667692
0.4423818905 0.2477058705 0.7266627521
0.4725576173 0.2516070644 0.4638879867
0.4626094946 0.2498842649 0.7180069281
0.4724618915 0.2489392309 0.9663685131
0.4725907532 -0.0014464767 0.9682830297
0.4624843147 0.2505852302 0.2210214325
0.4525030561 0.5002798654 0.9717254778
0.4525582825 0.4991512918 0.471399703
0.4625910858 0.5028155764 0.7177390798
0.4726570249 0.4972482069 0.9652731887
0.4625211323 0.4993361332 0.2167340198
0.452473602 0.2503730531 0.4713693284
0.4525104196 0.2513148328 0.9734006798
0.4525472372 -2.9121822866e-04 0.4711125255
0.4824946948 0.2513304532 0.7172843821
0.4823768784 -0.0012109992 0.7126775766
0.4924428175 0.5000963258 0.9697649391
0.492590088 0.5020365091 0.4662424739
0.4826125112 0.2509210687 0.213837393
0.4923802276 0.2490707026 0.4630126476
0.4924759534 0.2518960417 0.960753825
0.4824615589 0.5023241848 0.2109278801
0.5024461667 0.2517203123 0.7149685534
0.5125415599 0.2494553548 0.4682840113
0.5124237435 0.2516819121 0.9687708632
0.5024461667 0.0011228832 0.7174371753
0.5025161202 0.2516135729 0.2162314592
0.5225080915 0.2511657882 0.2209183431
0.5224602286 0.2510896388 0.7232304289
0.512618877 0.5001262649 0.4702638792
0.5225854085 0.5011533059 0.7225585072
0.5427577862 0.5015535786 0.7259024681
0.5526101831 0.5012144858 0.9741554411
0.5427430591 0.5008135623 0.2235609283
0.5525328661 0.5012034214 0.4744739748
0.5325519401 -5.619066763e-04 0.4739925843
0.5325335313 0.2490954349 0.4712266601
0.532662393 0.249584874 0.9742106676
0.5325593036 0.4972059016 0.9754440581
0.552518139 -3.630069658e-04 0.9727471669
0.542419064 0.2504394398 0.2243838022
0.5525549567 0.2514378435 0.4752591107
0.5426289245 0.2532159652 0.7235866394
0.5525844108 0.2488637323 0.976392112
0.5725837456 0.249827641 0.4758877717
0.5725727003 0.251821194 0.9776347069
0.5625693511 0.4996947514 0.7247114179
0.5625546241 0.5029177598 0.2251054277
0.5724033392 0.5037866444 0.9773125526
0.5725285192 0.5027498406 0.4766121585
0.562539897 0.2513467245 0.2266526885
0.5624294442 0.2518120821 0.7234016308
0.6026158837 0.5024224631 0.7315383263
0.5924836728 0.5016863519 0.9819055516
0.5923805835 0.5010595835 0.482367674
0.5826165489 0.2512412868 0.7246976113
0.6024317956 0.2505956438 0.2315107743
0.5925131269 0.2501205234 0.4800168685
0.6025901114 0.2508175836 0.7268854988
0.5926162163 0.2485331006 0.9814453312
0.5825650042 0.5002850722 0.7312815234
0.5824066884 0.5033395105 0.2285138195
0.5824692784 0.2513447719 0.2291277534
0.6124645989 0.5024003342 0.9871612678
0.6124830077 0.5010094681 0.4864332604
0.6223354046 0.4985069505 0.7391798248
0.6124056907 0.0010604016 0.479512467
0.6224458575 0.5002714044 0.2355579519
0.6125529612 0.2510603506 0.4824026507
0.6124498718 0.2506783017 0.9844183546
0.6224274487 4.8296765368e-04 0.736701078
0.622467948 0.2518921366 0.2350498687
0.622375904 0.2510518895 0.7307172933
0.6425372364 0.0016129081 0.2400027599
0.6523491339 0.0017690469 0.4921804919
0.6324050255 0.5018659865 0.4878268076
0.6424636011 0.2505897861 0.2391522727
0.6524669503 0.2490746077 0.491597853
0.6424856917 0.2508117259 0.737810209
0.632474979 0.0017940396 0.4884637525
0.6525442673 0.2509731367 0.9892782813
0.6424930552 0.4996830361 0.740579815
0.6524080421 0.5016225686 0.4918629399
0.6325117966 0.2502103407 0.4850829739
0.632320345 0.2492301608 0.9857437891
0.6823334091 0.5005707953 0.7414155751
0.6624187548 -0.0014333295 0.2432086548
0.6823886355 0.5004126388 0.24111005
0.6625255259 0.0012707563 0.7418537049
0.6724920575 0.4991682139 0.4930631945
0.6624224366 0.2473387912 0.2424124736
0.6623745737 0.2491618216 0.7432941945
0.6723116511 4.788672997e-04 0.9911743891
0.6623303925 0.5008955694 0.7410078199
0.6624482089 0.5007940368 0.2413107061
0.6824070443 0.2489359767 0.2395011198
0.672344787 0.2502324696 0.4885585579
0.6825285425 0.2484497919 0.742712476
0.6724846939 0.2504967146 0.9919659681
0.7024763327 0.248375595 0.2423701333
0.6922962589 0.2503470191 0.4950992093
0.7022591087 0.2473472522 0.7436080648
0.6923993482 0.249823085 0.9945155887
0.6925098011 0.4991578003 0.992214487
0.6923588489 0.4981229491 0.4913944356
0.7323796091 0.4983396821 0.995472847
0.7324053814 0.4980721828 0.497849486
0.7124134101 0.2484432834 0.4966437087
0.712369229 0.2498582309 0.9998541446
0.7224093958 -0.0023048825 0.2466363758
0.7324679714 -8.5784809765e-04 0.4979783477
0.7325747425 0.0012418586 0.9995596036
0.7125128177 0.4987152224 0.9917726755
0.7223799417 0.2487771693 0.2495035485
0.7323243827 0.2507511969 0.4966768446
0.7225124851 0.2505936912 0.7508712621
0.7323943361 0.2490772111 0.9977647443
0.7124980907 0.4964333429 0.4936016523
0.7124833636 -3.1529143287e-05 0.4964789499
0.7123434566 -0.0010625404 0.9949850134
0.7523494898 0.4975189604 -0.0014913989
0.7424087306 -0.0019532739 0.2483032939
0.7425339105 -0.0023304414 0.7459910857
0.7423940036 0.2515107386 0.2503503539
0.7424750023 0.2471832381 0.7500631152
0.7625811083 -0.0014086623 0.2496489781
0.7525556685 4.1007247182e-04 0.5015533393
0.762492746 -9.9439639367e-04 0.7525197714
0.7524268068 -7.6926743469e-04 -1.8245859689e-04
0.7624596101 0.2475503174 0.2521314066
0.7524415339 0.2485122734 0.4980860393
0.7623786113 0.2481048414 0.7505748802
0.7524636245 0.249454704 0.001197282
0.7823669009 -0.0021100116 0.2524259476
0.782458945 -0.0014925569 0.7522187873
0.7724224599 5.8215716899e-04 5.5521337826e-05
0.7823632191 0.2474155915 0.2530472451
0.772437187 0.2496779455 0.501905868
0.7823779462 0.2469163896 0.7550445401
0.772514504 0.2476154024 0.002559258
0.7925690653 -0.0019186878 0.5032386661
0.7924217948 -0.0022111537 0.0028004135
0.8125279007 0.4987510192 0.0054429066
0.7924659759 0.2459804676 0.5055342451
0.7924622941 0.2478256269 0.005857381
0.8024914157 -0.0020449982 0.2514107016
0.812476356 -0.0032005756 0.5043118999
0.8025466421 -7.0281566623e-04 0.7512560063
0.8125684001 -0.0026565953 0.0010600443
0.802439871 0.2467165787 0.2551200774
0.8124395384 0.2495998435 0.5041084826
0.8024361892 0.2467686467 0.7533426453
0.812399039 0.2470791021 0.0025975484
0.8326965966 -1.3768275187e-04 0.512176145
0.8224760234 -0.0030049822 0.7540992475
0.832519872 -0.0030365484 0.0041965379
0.8225496587 0.247963607 0.2519473185
0.8323946921 0.249381158 0.5090217948
0.8224281605 0.2482558386 0.7545640701
0.8324536003 0.2493661884 0.0092668773
0.8225791128 -0.0028560027 0.2567280873
0.8426373558 -0.0020203635 0.7598750127
0.8424532677 0.2492633541 0.2578335365
0.8423759507 0.2503372564 0.7540467824
0.8627213712 -4.5692459742e-04 0.2594857275
0.8424716765 0.498482869 0.759583233
0.8525560245 -4.7995644189e-05 0.5040992781
0.8625888278 8.3917777003e-04 0.7573557666
0.8525523427 -4.3394959814e-04 0.0089877077
0.8624746931 0.2498211325 0.2595280678
0.8425305847 -0.0021649889 0.2590070984
0.852625978 0.2494579582 0.5091166002
0.8624710114 0.2511677408 0.7561058082
0.8525376157 0.2481764349 0.0088550722
0.8725737681 4.8270731374e-04 0.5091690653
0.8925767847 -3.0547184011e-04 0.511004424
0.872606904 -0.0016030712 0.006260442
0.8826065714 0.2504446466 0.2601291156
0.8925915118 0.0013642183 0.0124758096
0.8726658122 0.2496792472 0.5076328499
0.892665147 0.2485474193 0.5119708867
0.8825734355 0.2513232939 0.7582927752
0.8726326763 0.250815631 0.0090881278
0.8926099206 0.2486567621 0.0118905014
0.9024328634 9.4743965092e-06 0.2624219333
0.912491439 -0.0018866009 0.5143824413
0.9024254999 -0.0023954483 0.764913505
0.9026758597 0.2490283974 0.2621761756
0.9126092554 0.2476785348 0.515434505
0.9026427239 0.2496766438 0.7627605942
0.9024807263 0.49697485 0.7642471059
0.9125208931 0.2483026998 0.0135274131
0.9225389693 -0.0026773183 0.2664599065
0.9225868323 -0.0016156326 0.7670553704
0.9226383769 0.2498549767 0.2669891599
0.922715694 0.2489125461 0.7649392773
0.9425125318 -9.5124504941e-04 0.2688548931
0.9325754544 -0.0024688446 0.5184075283
0.9424609872 -8.7952139726e-04 0.7695571281
0.9324797286 -0.0018251867 0.021744279
0.9424904413 0.2482122317 0.2683633778
0.9327190431 0.2478418981 0.5159260203
0.9425751218 0.2499200616 0.7672054022
0.9326674985 0.2477937352 0.0153558685
0.9526484245 -0.0025630877 0.5257636901
0.9525306081 -0.0012158806 0.0229289782
0.9626223196 0.2502949511 0.2749610965
0.9524827452 0.2466143953 0.5212608944
0.9724305353 0.2476635652 0.5272465201
0.9624787308 0.248783027 0.7746232336
0.9523943829 0.2510655573 0.0216221365
0.9724599894 0.249159869 0.0249659134
0.9626370466 6.4431332852e-04 0.2730898406
0.9824817474 0.5011324787 0.7787983524
0.9825774732 0.4988180567 0.2762607587
0.9825774732 -0.0026569337 0.2781633096
0.9924703695 3.3561525035e-04 0.5274204833
0.9823712945 0.2473817473 0.2746748394
0.9926102765 6.3962720969e-04 0.0307950641
0.9923010085 0.2485571821 0.5250061675
0.982441248 0.2475067104 0.7752187587
0.9923451896 0.2482408691 0.0262780016
0.0124503503 0.7500825418 0.0300276007
0.002420971 0.5004373711 0.7752868713
0.01240639 0.4989449724 0.0287852819
0.0224554299 0.7483382642 0.2800677013
0.0025246126 0.7489240291 0.2788223451
0.01252995 0.7498547443 0.5289051541
0.0225303537 0.7505251197 0.779751929
0.0222779321 0.4994161877 0.2765230843
0.0025296566 0.7499718973 0.7806999828
0.0126117587 1.0014798002 0.0291322881
0.0525148867 0.9987917904 0.5180283068
0.052609508 1.000262711 0.0195939455
0.0324235078 0.7507854596 0.0282941348
0.0425321554 0.5001099936 0.7700974268
0.042606527 0.7501671522 0.2733466436
0.0325203381 0.7514688519 0.5267163462
0.0425954817 0.7507724426 0.774127116
0.0527033929 0.749262471 0.0235975863
0.0525737949 0.7486181296 0.5230134134
0.0524291016 0.4990608237 0.5171465246
0.0424912878 1.0004644745 0.2683753435
0.0325604693 1.0008614929 0.5245993327
0.0326267411 0.9992864362 0.0256628711
0.0725650298 0.9989219603 0.5140115037
0.0624191964 0.9993189787 0.7659075809
0.0725646616 1.0011153243 0.0136351047
0.0724059777 0.7503038307 0.0202703774
0.0625296493 0.7494382004 0.2671069763
0.0726066337 0.751039291 0.5199787205
0.0624781046 0.7500369823 0.7699970988
0.0625252312 0.9971581573 0.2701959751
0.0825352431 0.9999242691 0.2675690375
0.1025736047 1.0001260325 0.7625719039
0.0824546125 0.998303653 0.7672910032
0.0926114912 1.0001650835 0.0149562132
0.0926807084 0.7521457358 0.0136286616
0.092502511 0.5000794037 0.0132964745
0.1026026906 0.7519309553 0.2650746433
0.082612192 0.7484944682 0.2674944818
0.0925735691 0.749158335 0.5157483752
0.10264319 0.7495618619 0.7646410545
0.0826029876 0.7493405729 0.7663585968
0.092537856 0.5012821742 0.5180734084
0.112667157 1.000418915 0.0130650758
0.1126351257 0.7501931862 0.0114491501
0.1225394354 0.5019688208 0.7610430519
0.1226749243 0.7524906862 0.2629097668
0.1126192941 0.7520936678 0.5135577264
0.1226259569 0.750948172 0.7617398255
0.1125953626 1.0027880084 0.5111608989
0.1226384749 1.002156684 0.761452648
0.1525078791 1.0007052889 0.5101879932
0.1326053746 1.0045062519 0.5103058096
0.1426094601 1.0011478668 0.7590595023
0.1526146502 1.000366847 0.0074244313
0.1326451376 1.0009330863 0.0107355325
0.1527582389 0.7497245744 0.0065636351
0.1327191411 0.7524321097 0.0125539551
0.1424592442 0.7501085758 0.2614784816
0.152670613 0.7525037032 0.5047104507
0.1327213501 0.7519960403 0.5096568989
0.1425306704 0.4991272104 0.2596256345
0.1425689607 0.751221529 0.7598621266
0.1726025716 0.7501150843 0.0050810814
0.1625255871 0.499328323 0.7560146846
0.1725131047 0.4991825326 0.0064072523
0.1625252189 0.7499523718 0.2567980408
0.1824781636 1.0010762733 0.7541784054
0.1724545647 0.7515599709 0.5030103968
0.1624972376 0.4972482069 0.25627431
0.1624828787 0.7507073576 0.755698053
0.1825853029 0.7510978675 0.252698398
0.1824855271 0.7515144114 0.7533638154
0.1625009193 0.9994231147 0.2554882537
0.1725561813 1.0019419036 0.5024793026
0.1724523556 1.0016360042 0.0050255788
0.1924012503 1.000470983 0.5057800028
0.2023828771 1.0000869815 0.7558968682
0.1923552283 0.7520611253 0.0019456923
0.2025721197 0.7537858773 0.2529975413
0.1924594222 0.751169461 0.503806578
0.2024421535 0.7506617981 0.7531051716
0.2323362255 0.7539811323 1.0011519659
0.2324117016 0.5019857429 1.0006089059
0.2324319513 0.7505186112 0.5035819905
0.2324323195 0.4980526573 0.5016094861
0.2224035662 1.0017856996 0.2533878081
0.2124068442 1.0009526118 0.5073659221
0.2122687781 1.0011348498 0.0071778452
0.2124698023 0.7503168477 0.0018161863
0.2323244439 1.0031785183 0.9997528961
0.2223973072 0.7527965856 0.2526137175
0.2125091972 0.7507789511 0.5056456185
0.2224735197 0.5014845885 0.2530886649
0.2224610017 0.7502973222 0.7507838203
0.252489458 0.7499133208 0.9937608274
0.2523617009 0.4996439851 0.9958962497
0.2424139463 0.7523149567 0.2485490515
0.2524250272 0.7506357641 0.4954802717
0.2423719742 0.5001412344 0.2482894872
0.2425505397 0.7518333278 0.7477675362
0.2525848157 0.5005688428 0.5001257358
0.2624048131 0.5015379582 0.7449381016
0.2625137932 0.7508830871 0.2457186965
0.2623823543 0.7508830871 0.7466022583
0.282527487 0.4989501792 0.7401030267
0.282523437 0.7510588165 0.2409535751
0.2824634243 0.5015705007 0.242507279
0.2824107751 0.7500565078 0.7423387771
0.2724387209 0.7501020673 0.9927207294
0.2724405618 0.5000397018 0.9922605091
0.2724379845 0.7500825418 0.4904776767
0.2824549562 1.0007508484 0.2421924883
0.2825002419 0.9982971445 0.7404261014
0.3125861338 1.0000544391 0.9897569105
0.2924815005 0.7520350913 0.9868759312
0.3025768938 0.5035165417 0.7401214356
0.2925941625 0.4995034016 0.9888824918
0.3024712272 0.7490867415 0.2398122287
0.2924851823 0.7490346735 0.489425613
0.3025338171 0.4995125135 0.2414156363
0.3025883072 0.751338682 0.7409415482
0.3024211552 1.0006402039 0.2387933009
0.3125021896 0.7515404454 0.990787804
0.3125055032 0.4990178676 0.9873637647
0.3126166924 0.7515339369 0.4877863082
0.2925319407 1.0006076614 0.9875662617
0.3324227347 0.7513451905 0.9886799949
0.3324404071 0.4976660525 0.9883762495
0.3224215946 0.7525492627 0.2370380205
0.3325365012 0.7522173292 0.4912039044
0.3226642227 0.7498026763 0.7396897489
0.3325828914 0.4989664505 0.4892249569
0.3525524039 1.0025602109 0.485260619
0.3424356564 1.0006271869 0.7370517659
0.3626238657 0.7523344822 0.2339545443
0.3525479858 1.000340813 0.9859646949
0.3627011827 0.7483903322 0.7300186788
0.3624545046 1.0000674561 0.2348528944
0.3524817141 0.7504600347 0.9831021244
0.3624029599 1.000184609 0.7320399665
0.352563081 0.5006859957 0.9838937034
0.3425718817 0.7504470177 0.2392157831
0.3525531403 0.7505511536 0.4817067976
0.3425645181 0.7503754242 0.7372634673
0.3926339132 1.0012975622 0.4762743568
0.3725977608 0.7502127117 0.9834334831
0.3727487131 0.5000091119 0.9811323814
0.382615837 0.751182478 0.2281355184
0.3725278073 0.749015148 0.4811352039
0.3826342458 0.5001210581 0.2292621378
0.3826489729 0.7510588165 0.7296845588
0.38247593 0.9989675198 0.229901844
0.3824869753 0.9993319957 0.7298023752
0.3725903973 1.002325905 0.9800554658
0.372671396 0.5008740913 0.477542724
0.3925639598 0.7514428179 0.9745880482
0.3925013698 0.7503949497 0.4754717325
0.4123681612 0.7502582712 0.9755176933
0.4124197058 0.7491518265 0.4733906161
0.4124859776 0.499020471 0.4734642514
0.4026740801 0.9986941629 0.2249885317
0.402519446 0.5014767783 0.7258987864
0.402519446 0.7521131933 0.2230399588
0.4023279944 0.5000331933 0.2280756897
0.4025415366 0.7518138023 0.7283655673
0.4324742671 0.7487352826 0.9764105208
0.4226329155 0.7496920319 0.2235977459
0.4326104923 0.7483187387 0.4713840555
0.4224930085 0.498634517 0.2236769038
0.4226955055 0.7496790149 0.7249544142
0.4425880692 0.7496725064 0.2213500298
0.4426101598 0.7479802968 0.7248568475
0.4323932683 0.9991692833 0.4718240261
0.4224745997 0.9981865 0.7215543064
0.4425733421 0.9992018258 0.2226736235
0.4526245542 0.9990651473 0.9708786724
0.46243277 0.9967025624 0.2170285608
0.4726496614 0.9990651473 0.4680594238
0.4624622241 0.9999503031 0.7197576062
0.4525951001 0.7502452542 0.9711179869
0.4526098272 0.7484879597 0.4684064299
0.4726680702 0.7493340645 0.9627695901
0.4627162657 0.7515925134 0.2155733441
0.4725502538 0.7504990857 0.4618538128
0.4626426305 0.751312648 0.7162175914
0.4726128438 0.4990250269 0.4684625768
0.4825278306 0.9977113796 0.2130108373
0.4923986364 0.9992734193 0.4647219059
0.4923397282 1.0019549206 0.9636532131
0.4824210595 0.4993322281 0.7132519316
0.4925017257 0.7517357004 0.4615298177
0.4826014659 0.7523279737 0.2180658975
0.4924059999 0.7523474992 0.9623185741
0.4826272382 0.7502582712 0.718466228
0.5125894229 1.0012910537 0.4673083442
0.5125084241 1.0003212875 0.9709523076
0.5023872585 1.0007964079 0.2167358607
0.5225117733 0.7498807783 0.722242796
0.522592772 1.0028270594 0.2215212317
0.5225633179 0.9995337592 0.7226680396
0.5025234837 0.7526273646 0.2177345388
0.5024903479 0.497923789 0.2193333443
0.5026413001 0.75126058 0.7177804997
0.5025271655 0.4994780184 0.7187727347
0.5126115134 0.7490997585 0.9675650859
0.5124752882 0.499007454 0.970418452
0.5125378782 0.7513451905 0.4707268608
0.5227216337 0.4973191495 0.2218212954
0.5225338638 0.7507268831 0.2220679735
0.5325188042 0.7506748151 0.4728935782
0.5325482583 0.4997513754 0.474292648
0.5325408948 1.0011023073 0.9746985011
0.5425626528 1.0031785183 0.2223293786
0.5524481856 1.0028596019 0.4726781951
0.5524960485 0.7493535899 0.9746985011
0.542558971 1.0014537662 0.7232764509
0.5425736981 0.7495618619 0.2232286492
0.5525402296 0.751026274 0.4735185574
0.5426326063 0.7522628887 0.7231162942
0.5325887577 0.7507203746 0.9715782073
0.5624736253 1.0007638654 0.2234532367
0.5624699435 0.9994166062 0.7251246958
0.5624183989 0.7503298647 0.2276513666
0.562447853 0.7516641069 0.7234982771
0.5724659292 1.0030158058 0.4776964376
0.5723333857 1.0055996797 0.977027216
0.5725064286 0.7495097939 0.9791442296
0.5726058362 0.7485595531 0.4773190569
0.6025532938 0.9997550481 0.2334786765
0.5926198981 0.7491648435 0.9810403373
0.5924247646 1.0027294319 0.4813183716
0.6025127944 1.000210643 0.7324468013
0.5924284464 1.0001260325 0.9799173997
0.6024759767 0.7506878321 0.2330644782
0.6025054308 0.4990081048 0.2331279886
0.5925499446 0.751052308 0.4801770252
0.6024796585 0.753232655 0.7322617927
0.5825208231 1.0008094249 0.2329208894
0.5826018218 0.9988894178 0.7311729114
0.5824876872 0.7507073576 0.230281986
0.5826349577 0.7518398363 0.7282017289
0.6124793259 0.7515013944 0.9861303742
0.6123615095 0.7497115574 0.4852716643
0.6124719624 1.0003212875 0.9811968122
0.6223538134 1.0024625835 0.2358994354
0.6224605845 0.7517487174 0.2375240132
0.622530538 0.7515404454 0.736251903
0.6424451923 1.0013561387 0.7397063168
0.652393315 1.0003733555 0.9946076328
0.6324860243 1.0025471939 0.9873637647
0.632397662 0.7517682428 0.9937792362
0.6324271161 0.5000553222 0.9882565922
0.6324234343 0.7504600347 0.490263214
0.6524669503 0.7503038307 0.9932269718
0.6523822698 0.5005011544 0.9943038874
0.6423494665 0.7490737245 0.2411652765
0.6424231017 0.4989182876 0.2421124099
0.6524264509 0.7486051126 0.4927189497
0.6423862841 0.7520285828 0.7407003927
0.6723742411 0.7480323648 0.9919291504
0.672499421 0.5000097627 0.9920764209
0.6824291349 1.0007052889 0.2436900452
0.6723779228 1.0000674561 0.4935933684
0.6823996808 0.9996639292 0.7438510611
0.6823702267 0.7504535262 0.2391357048
0.6724000134 0.7490476905 0.4928100734
0.6823628632 0.7505251197 0.742294596
0.6623340743 0.7501996947 0.2420268089
0.6622825296 0.7497636253 0.740619394
0.7023769251 0.9998006076 0.2466216488
0.7024431968 0.4987829108 0.7464071249
0.6923772577 0.748989114 0.9933834467
0.6923809394 0.9998266416 0.4910584748
0.7023585163 0.9972753102 0.7466906206
0.6923478036 1.000431932 0.9927299338
0.7023548345 0.7500630163 0.2443205471
0.7023953339 0.5011214143 0.2427042533
0.692325713 0.7480193478 0.4914588665
0.7023806068 0.7474270744 0.7439771615
0.7223247152 0.4987627345 0.747700344
0.732350155 0.7513712244 0.9967154419
0.722405714 0.7505186112 0.2471343342
0.7224462134 0.499748772 0.2490368851
0.7323207009 0.7513516989 0.4991601935
0.7224572587 0.7520676338 0.7472520894
0.7224572587 0.9986486034 0.7476414358
0.7124980907 0.7506748151 0.9971296402
0.7124170919 0.7496464724 0.4968600123
0.7424750023 0.500611148 0.7466602461
0.7425044564 0.7484619257 0.2478734481
0.7424050489 0.5012060247 0.249216371
0.7424013671 0.7476613804 0.7459984492
0.7524304886 0.4983858924 0.4985536231
0.752485715 0.7504665432 -9.5567478005e-04
0.7624559284 0.4992202819 0.7515680357
0.7625001095 0.746938937 0.2504727725
0.7624706554 0.4993901537 0.2505602144
0.7524378521 0.7486376551 0.4995661079
0.7624964278 0.7476678889 0.7497234726
0.7824184456 0.7489305376 0.2536482928
0.7825104896 0.4987399547 0.2520145106
0.7724924134 0.7485205022 0.5011216526
0.7824294909 0.7474531084 0.7536675609
0.7724335052 0.998355721 0.4987800515
0.7723893241 0.4969104158 0.5009329622
0.7725181857 0.7488719611 2.2126249218e-07
0.782396355 0.4979120737 0.7553087066
0.7723525064 0.4973523429 0.0035775415
0.7924402036 0.7496659979 0.502488507
0.8125094919 0.4996003782 0.5035028326
0.8123879937 0.7486897231 0.0023465442
0.8023956898 0.5003937642 0.7509458178
0.8024730068 0.7477264654 0.2535350786
0.8024472345 0.5001275666 0.2528198962
0.7923481595 0.4993276721 0.5025722671
0.79249543 0.749119284 0.0014366886
0.8124284931 0.7459496453 0.5050988767
0.7924733394 0.4980415928 0.0057955274
0.8025613692 0.7497375914 0.7532349538
0.8323357839 0.4983715737 0.502760037
0.8325530079 0.7478696523 0.0063054515
0.8224318423 0.5002759603 0.7567372305
0.8323983738 0.4980708811 0.0083799407
0.8225312499 0.7502517627 0.2546524936
0.8225312499 0.500368381 0.2568311766
0.8325787802 0.7486376551 0.5073337067
0.8224539329 0.7500565078 0.754783135
0.8625446466 0.7515404454 0.7598446382
0.8623936943 0.4993771367 0.7559143565
0.8525560245 0.7502192202 0.0056849825
0.8525854786 0.4997129752 0.0079316861
0.8625961913 0.7496529809 0.258517424
0.862522556 0.4998066976 0.2542336931
0.8525560245 0.7478891778 0.5088901718
0.8425747659 0.7486051126 0.2577332085
0.8424495859 0.5002024143 0.2579568756
0.8426594464 0.7488133846 0.75815655
0.8524602986 0.5008155148 0.5031272928
0.8725259052 0.4998704809 0.5072784802
0.8824335286 0.7515274284 0.7614710569
0.8924626501 0.4986442798 0.5143677142
0.8725700864 0.7491127755 0.0045569824
0.8922969708 0.7480518903 0.0141389539
0.8824961185 0.4987158733 0.759940364
0.8724706788 0.501872495 0.0070011206
0.8925068312 0.4998880538 0.0133215105
0.8824850732 0.7515729879 0.2633359308
0.8825218909 0.5000104136 0.2563562293
0.8725995405 0.7501085758 0.5042373442
0.8924111054 0.7474531084 0.5126593764
0.8826360255 0.9999698286 0.256902971
0.8825992079 1.0010632563 0.7614370005
0.912414122 0.7482406367 0.5136847473
0.9125098478 0.9988113159 0.0126279585
0.9125798013 0.4999498846 0.51724133
0.9025543616 0.7485465361 0.7650340827
0.9125282566 0.7484098577 0.0137250317
0.9125798013 0.4977793004 0.0164392272
0.9025249075 0.7493731154 0.263457429
0.9024991351 0.4990165659 0.2648666237