POSCAR file written by Ovito 3.7.11
1
271.6096492118 0.0 0.0
0.0 15.3645619835 0.0
0.0 0.0 10.8643859684
Sr Ti O 
800 800 2400 
Direct
0.0124838554 0.2493439771 0.5254083424
0.0224904218 0.2514371055 0.7777557837
0.0024264439 0.2513856884 0.7787489369
0.0124591876 0.2501666495 1.0280460447
0.0226233331 0.0010289256 0.275895852
0.0025800467 1.0013484933 0.2792296805
0.0126088878 -4.4999709541e-04 0.5294058072
0.0225938423 0.0019039913 0.7762462644
0.0026210614 0.002376377 0.7780770168
0.0125957071 1.0017390023 1.0292518193
0.0223924135 0.2490894954 0.2764904553
0.0025024721 0.2500976595 0.2802706966
0.0327084314 0.252198598 0.5251837554
0.0424507215 0.251177417 0.7711277055
0.0324820035 0.2492626211 1.025404386
0.0425921009 1.00265019 0.2750748208
0.0326303782 0.0014142279 0.5252371409
0.0426130869 1.0007562212 0.7687612579
0.0325534295 5.4801378291e-04 1.0240697501
0.0425354019 0.249344628 0.2717327083
0.0724128382 0.2526476834 0.5165666094
0.0525390965 0.2514787598 0.5200458673
0.0624444884 0.2529783144 0.7642584723
0.0725052502 0.2513492409 1.0143131011
0.0525100107 0.2510212134 1.0187496151
0.0624691561 1.0002941189 0.2687661348
0.0724861051 1.0018496465 0.5149512397
0.0524529435 2.2154824452e-04 0.5181875018
0.0624706288 1.0007432043 0.7659299888
0.0725004639 0.0018496454 1.0146812765
0.0525000699 1.0014070696 1.0172124826
0.0624860922 0.2512646306 0.2647474999
0.0925247894 0.2528963075 0.5130321253
0.1024993982 0.2494084111 0.7611114928
0.0825030541 0.2501790156 0.7619343649
0.0925549797 0.2498874355 1.0103091933
0.1025516791 1.0003982547 0.2588410455
0.0825240401 1.0004307971 0.2646361268
0.0925678659 8.5430302207e-04 0.5110402962
0.1024504308 0.0010680416 0.7616959713
0.0825439216 1.0019277483 0.7644922637
0.0924294319 1.0045376502 1.0091218275
0.1025273795 0.2500813883 0.2609792244
0.0825453943 0.2509639387 0.2641694645
0.1124088399 0.2515841972 0.5105846791
0.1224684973 0.2498607507 0.7615993253
0.1125564783 0.2483846266 1.0130797134
0.1224972149 1.1428843446e-04 0.2605392547
0.1125796733 1.0029235463 0.514924547
0.1224872742 1.0001574408 0.7593847501
0.1125476421 -4.8084730776e-04 1.0112848582
0.1224696018 0.2522285371 0.2628081358
0.1525337031 0.2496726555 0.5057348882
0.1324018704 0.2490790818 0.5062245615
0.1425012907 0.2528012836 0.7563427005
0.1526592509 0.2496257945 1.0045932697
0.1324755055 0.2493700111 1.0094900029
0.1424740457 0.0029400117 0.2571851765
0.1526275878 1.0018691719 0.5043864457
0.1325097458 -6.4896143967e-04 0.5061242337
0.142613216 0.0011108024 0.7567007512
0.1526806051 1.0009189333 1.0073637898
0.1325760174 -1.7110857228e-04 1.0101435143
0.1426021708 0.2534996439 0.2571317911
0.1726265091 0.2506645485 0.5013554414
0.1625344523 0.2525962664 0.7534230694
0.1725138474 0.2487699289 1.000856289
0.162632387 0.001220991 0.2566835375
0.1726526495 8.9374443281e-04 0.5033712019
0.1627063902 1.002448427 0.7553164115
0.1725900597 0.0015731 1.0016294575
0.1625992512 0.2492463499 0.2534951383
0.1926018672 0.2502968191 0.4998615696
0.2024582917 0.2500664188 0.7498904261
0.1825978043 0.2498705134 0.7543683598
0.1924847874 0.248730878 1.0001751645
0.2025054181 -0.0012686992 0.2512750404
0.1826342537 -0.0017299555 0.2541081504
0.1925882447 1.9512380102e-04 0.5013747706
0.2024722823 0.9995065924 0.7532877649
0.1826637077 0.9997018469 0.7548414652
0.1925035643 -0.0014629124 1.0028628452
0.2025661671 0.2472052894 0.2461012551
0.1825440507 0.2514481699 0.2545978237
0.2124748725 0.2487881526 0.5015883124
0.2225301117 0.2511949899 0.7462013083
0.212572439 0.2500273679 0.9974966882
0.2224457995 0.9975084879 0.253851348
0.2124737679 0.9987060489 0.5019362382
0.2224281271 0.9997474063 0.7481047753
0.2125415122 0.9992006937 1.0025038741
0.2225271663 0.2490589055 0.248703335
0.252695093 0.2487237186 0.498132986
0.2325599468 0.2492964652 0.499159275
0.2426453764 0.249035475 0.74725429
0.2525316232 0.2491304989 1.0010587855
0.2325422744 0.2493862823 0.9990154119
0.2425249831 0.9978143867 0.2522553075
0.2525393548 -0.0025639981 0.4991942517
0.2324586986 -1.3082589986e-05 0.4998054229
0.2426262313 0.9967209614 0.7503773381
0.2526291896 -2.4205104374e-04 1.0003500478
0.2325864555 -6.5241093599e-04 1.0048417881
0.2426240223 0.2460884336 0.2480093243
0.2725614712 0.2498327642 0.4955447127
0.2624679417 0.2476869172 0.7486662428
0.2724683228 0.2497754896 0.9952508181
0.2625596174 0.9991291003 0.2484226012
0.2725603667 -2.5454733229e-04 0.4975402235
0.2626034303 0.9987971677 0.7482244323
0.2725865071 -0.0025483908 0.9964289795
0.2625706627 0.249945361 0.2463976364
0.2922964107 0.2496121266 0.4922964849
0.3024031945 0.2493036245 0.7375178907
0.2824937398 0.248812234 0.7425729394
0.2924363174 0.248623488 0.9916426989
0.3025548828 -9.1919367958e-04 0.2395256419
0.2825902018 1.0004633395 0.243773466
0.2924330038 -0.0031019373 0.4907004444
0.3025986957 3.1188599717e-04 0.7384622607
0.2825342391 0.9996367621 0.7462114331
0.292525784 -9.2381470295e-04 0.988568434
0.3024223396 0.2495873944 0.2401276088
0.2823950688 0.2499596797 0.242747177
0.3324680321 0.2492398414 0.4847608543
0.3124345023 0.2504627855 0.4879105951
0.3225615358 0.2457148467 0.7380784378
0.3324253238 0.2501744596 0.9864606296
0.3123958439 0.2477194596 0.9860832498
0.322566322 -0.0016195065 0.2365507844
0.3325442444 -0.0031469695 0.4827855931
0.3124919377 -0.0029859757 0.4867324337
0.3225931989 -0.001343677 0.7369941611
0.3325652304 -0.0023390194 0.9876295866
0.312576618 0.9966363511 0.9870773235
0.3225383407 0.2495255638 0.2369944358
0.3525346977 0.2491194344 0.4840309465
0.342465836 0.2466357971 0.7355748449
0.3526503048 0.2487191627 0.9822266122
0.3423469153 -0.0015664624 0.2320360332
0.3524562763 -7.8778739529e-04 0.4845436308
0.3425335803 0.9993894397 0.7351091029
0.3524860986 -7.5609108006e-04 0.9806342534
0.3424941855 0.2496036656 0.2338207636
0.3725906862 0.2472078928 0.4825950623
0.3824725148 0.2510062438 0.7320965075
0.3624695436 0.2492430956 0.7351689314
0.3724949606 0.2486846677 0.9860372279
0.3825756039 0.9973197419 0.2336606073
0.3626646765 0.9998580505 0.2328948024
0.3724029167 -0.0030525249 0.4826337207
0.3824356973 -0.0034061178 0.735168011
0.3624879523 0.9979185224 0.7335287099
0.3724029167 -0.0014430615 0.9834231823
0.382454106 0.2489079087 0.2346859759
0.3625247699 0.2487985662 0.2331635705
0.3924684778 0.2492580651 0.4822747497
0.4025307124 0.2507055519 0.7278026615
0.3925016136 0.2487575628 0.9796585885
0.4025712117 1.0002095086 0.2272488321
0.3925310676 0.9992527615 0.4813975717
0.4025601664 -0.0025191026 0.7289955499
0.3924758413 0.9986279471 0.9809195894
0.4025380759 0.2528012836 0.2289682114
0.4326474627 0.2491259429 0.4659774642
0.4125229936 0.2488239493 0.4755794794
0.4226073187 0.2510173083 0.7219081728
0.4325259648 0.2497162624 0.9677849308
0.4125561294 0.2500117475 0.9747526509
0.422467412 0.9998971014 0.2223511784
0.4325848729 1.0003006274 0.467792569
0.4125745381 -0.0012821067 0.4779238365
0.4225889099 0.9999231353 0.719117403
0.4326253722 1.0007366958 0.9707303343
0.4125598111 -4.8872257295e-04 0.9743200448
0.4226110004 0.2512919663 0.2257264267
0.4525362996 0.2486462677 0.4670424116
0.4425108825 0.2492528584 0.717266401
0.4526172982 0.2490556513 0.9637257967
0.442654471 1.0009254418 0.2145458593
0.4525031638 -0.0012384999 0.4639745898
0.4425366548 -0.0012381745 0.7164490516
0.4525473448 1.0018171041 0.9654930388
0.442654471 0.2490003292 0.2182230114
0.4724067276 0.2495672181 0.461836411
0.4825131433 0.2522708422 0.7165512203
0.4626316699 0.2489586749 0.7154328874
0.4724177729 0.2486117727 0.964830323
0.4825941418 -0.0010630963 0.2121913774
0.4626022159 -7.3519884764e-04 0.2130851233
0.4726975862 1.0016218496 0.4639460562
0.4825794148 0.9995131009 0.7082884431
0.4626648057 -1.9779335513e-04 0.7122776239
0.4726460417 -0.0012058924 0.9647843011
0.4824137359 0.250876725 0.2120367437
0.4625911706 0.2506189891 0.2141473094
0.5125120775 -0.0017843013 0.4662324256
0.5124973505 -9.8134969815e-04 0.9668644923
0.4924943792 0.2501106765 0.4600360331
0.5023504355 0.2481379551 0.7147397971
0.4924465164 0.2513401291 0.9595009836
0.5123611255 0.2480989042 0.4620030104
0.5124053066 0.2487035423 0.9644161256
0.5025271598 4.0749562155e-04 0.208255582
0.4924317894 -0.0013458899 0.4631876148
0.5024792969 -0.0018543326 0.7123107597
0.4925790596 -0.0023087419 0.9605778968
0.502328345 0.2498288592 0.2141850474
0.522544858 0.9999882202 0.213972426
0.5325040034 4.36718713e-04 0.4692836795
0.5225190857 0.9982569635 0.7174118303
0.5325813203 1.0019928331 0.9699295527
0.5224749047 0.2496231911 0.217112042
0.5323788238 0.2518490925 0.4663060607
0.5224969952 0.2490244106 0.7117870302
0.5324045961 0.2486573321 0.9646278265
0.5424263313 -8.363406831e-04 0.2231611644
0.5625544822 -2.8624364752e-04 0.2238781861
0.5523891585 3.1208125168e-04 0.4721407209
0.5425036482 1.0003526953 0.7196972793
0.5625103012 1.0013224593 0.7217461756
0.5524701571 6.961468701e-04 0.97349165
0.5424557854 0.2511416203 0.220560005
0.5624808471 0.2491070683 0.2232476856
0.5524407031 0.2504068125 0.4716004234
0.5425183752 0.2484614267 0.7232741037
0.5624587566 0.2523508966 0.7244826395
0.5526284726 0.2497826489 0.9678493615
0.5824175468 -1.7768698192e-05 0.2287132499
0.5724473561 -4.4479030851e-04 0.4773025405
0.582413865 1.0015893072 0.7274372474
0.5724399926 1.0153180657e-04 0.9751944614
0.5825169542 0.2509730506 0.2308652353
0.5723774028 0.2498919914 0.4744988845
0.5824101833 0.2511409695 0.7306679868
0.5725798992 0.2505786365 0.9782503175
0.6025162436 0.9995977112 0.2340573163
0.5924724178 1.0022401555 0.4840042538
0.6123723 3.7423242907e-05 0.4869063966
0.6023063836 0.0016835489 0.7325373975
0.59235092 -9.9124259326e-04 0.9862489288
0.6123575729 -0.0012427955 0.9862673375
0.60236161 0.2505467449 0.2349869593
0.5923214659 0.2499635848 0.4813699585
0.6125747964 0.249546391 0.4834013665
0.6023579282 0.2512184204 0.7358307268
0.5924282368 0.2511585424 0.9841135113
0.612401754 0.2491669464 0.982318656
0.6223461724 -2.5148834499e-04 0.2349584257
0.6325409501 -9.7900664405e-04 0.4860172529
0.6222651738 7.0682078324e-04 0.73281537
0.6324157705 1.0004047631 0.9844632779
0.6224345345 0.2503000734 0.2348258825
0.6324341793 0.2496589877 0.4849136471
0.6223903535 0.2513062849 0.7338573065
0.6323679077 0.2475905916 0.984297599
0.6423675524 1.0025590712 0.2339533068
0.6625141121 8.7226643686e-04 0.2377455137
0.6524997403 -7.4118665257e-04 0.4876869285
0.6423822794 1.0015502563 0.7330160256
0.6624331135 1.0041406327 0.7354993689
0.6524224235 1.0012053066 0.9894888726
0.6425516401 0.251936957 0.236707259
0.662484658 0.2526346664 0.2381992899
0.6523745607 0.2500169543 0.4831362802
0.6423785977 0.250610528 0.7342889922
0.6624478405 0.2506873281 0.7380545064
0.6524187417 0.2510849965 0.9829537587
0.6825023563 1.0025525627 0.2435820147
0.6726499817 1.0030211735 0.4897284613
0.6826054454 0.0033501112 0.7423023304
0.6726205277 2.7439713152e-04 0.9910904357
0.682476584 0.2517573229 0.2399646911
0.6723922589 0.251404563 0.4887804096
0.6824729023 0.2502057004 0.7422415815
0.6723223056 0.2509047115 0.987519134
0.7024758735 0.0027517863 0.2487659248
0.6926271807 1.0017845617 0.4934000908
0.7126080614 0.9993894397 0.500395424
0.7023175581 1.0016869344 0.7438762804
0.6925572273 1.0023117488 0.992360641
0.712523381 -0.0014929165 0.9991258645
0.7024942823 0.2497852523 0.2478905877
0.6924541382 0.2503794769 0.4953339322
0.7124018831 0.246524502 0.50332518
0.7024721917 0.250499233 0.7464028843
0.6923620944 0.249207299 0.9949010514
0.7123503386 0.2507153146 1.0035807872
0.7222873935 6.6490614872e-04 0.2516837151
0.7423971356 1.0001574408 0.2522985681
0.7323974909 -0.0013376241 0.5058655905
0.7223868009 1.0012313406 0.7506249361
0.7425186335 -3.1761937975e-05 0.7522163744
0.7324895347 1.0001379153 1.0053480293
0.722475163 0.2507830029 0.254825172
0.7424854977 0.2515132547 0.2540961847
0.7324453537 0.2485226065 0.5047408145
0.7224493907 0.2496596386 0.7543968934
0.7424302714 0.2515243191 0.7528634427
0.7324453537 0.2505766839 1.0064525556
0.7625142412 0.0019405039 0.2476788869
0.7523231453 8.6731998931e-04 0.5034917794
0.7623927433 0.0024744598 0.7526692302
0.7524335979 1.0000272711 1.0027984145
0.7624774237 0.2515711802 0.2489417286
0.7523930986 0.2503905413 0.4976064951
0.7625584223 0.2503469345 0.7514247972
0.7523562811 0.2489489122 0.9993559742
0.7824398956 -1.1904070332e-04 0.24844101
0.7723997516 0.9989403543 0.4978393661
0.7926015376 1.000255068 0.5012192165
0.7824693497 1.1188029552e-04 0.7492903001
0.7723113895 1.0013354763 0.9971377172
0.7924726762 -5.2731788081e-04 1.000616975
0.7824693497 0.2504712465 0.2464105225
0.7725359765 0.2493687094 0.4971904569
0.7923953593 0.2494032043 0.4976874937
0.7824988037 0.2492300787 0.7468548197
0.772513886 0.2506723586 0.994652533
0.7925094937 0.2487295763 1.0001107338
0.8024539121 1.0012834084 0.2500011534
0.8124388298 0.0010289256 0.5050132644
0.8025570012 9.7086996371e-04 0.7523516789
0.8124351481 0.9992137106 1.0025038741
0.8024870479 0.2491402616 0.2513229032
0.8123836035 0.2513707189 0.5041609382
0.8024870479 0.2471818589 0.7520414911
0.8123799218 0.2478327072 1.0050903065
0.8223206584 0.9982569635 0.2569946457
0.8424635363 1.0004242886 0.2615692255
0.8323902565 -0.001115815 0.5106850069
0.8223795665 -3.2230064678e-04 0.755413978
0.8425224444 -0.0019521421 0.7580630003
0.8323313484 -8.174660806e-04 1.0068759574
0.8222543869 0.2485154472 0.2584121212
0.8424893086 0.2497058488 0.261861925
0.83239762 0.2500351781 0.5107687668
0.8223906118 0.2488193933 0.7571333573
0.8422757669 0.2506040196 0.7578586629
0.8323865748 0.2495060384 1.0105761205
0.8626726858 -0.0017030104 0.2624786188
0.8525441797 1.0001509323 0.5130247618
0.8625401427 1.0001053729 0.7626283756
0.8524963169 -1.8354461718e-05 1.0107694126
0.8624959616 0.249301672 0.2628090563
0.8525036804 0.2520690792 0.5125534972
0.8625364609 0.2498614016 0.7650767422
0.8525552249 0.2495542011 1.0119107564
0.8827419286 0.9985498453 0.2591871304
0.8726023772 0.0011131454 0.5150598515
0.8926789835 7.5198965956e-04 0.5162462968
0.8826977476 1.0011141878 0.763086754
0.8726465583 3.0700463445e-04 1.0134294801
0.8824989328 0.2486514745 0.2662413717
0.8927378916 -9.5030423129e-04 1.0152519484
0.872606059 0.2512060543 0.5097102624
0.892432306 0.2530206195 0.5128876164
0.8824989328 0.2480676635 0.7653464307
0.8725213786 0.2512809018 1.0129600564
0.8923660344 0.2495665673 1.0090021705
0.9026307655 -0.0026833963 0.2654148179
0.9225490564 -0.0010696698 0.2761158368
0.912648819 -0.0021386557 0.5198065532
0.9025829027 0.9985173029 0.7689195733
0.9225564199 0.9998905929 0.7752199754
0.9125715021 1.0016804259 1.0199922071
0.9024503595 0.2498412253 0.2661907476
0.9224827848 0.2499551237 0.2732468298
0.9125972744 0.2472996624 0.5221831256
0.9025313581 0.2490927497 0.7647085668
0.9224754213 0.2506085755 0.7740611432
0.9124021414 0.2513655121 1.0165865844
0.9426293444 0.999057507 0.2811736468
0.9326591537 0.9992787955 0.530412767
0.9425593911 1.0010751369 0.7776600581
0.932640745 0.9999296438 1.0329703911
0.9425373006 0.2515282242 0.281088046
0.9325597464 0.2493732653 0.526643571
0.9424489385 0.2522070591 0.7798589858
0.9326333815 0.249022458 1.0276410517
0.9627832676 7.1873130826e-04 0.2775149035
0.9526253074 1.0019667992 0.532293223
0.9726503692 1.0000142541 0.5303584611
0.9627280413 1.0014591375 0.7772964848
0.9525516723 1.00243541 1.0319855218
0.9625365901 0.2512438035 0.2798491357
0.9726503692 1.2157793612e-04 1.0308717912
0.9525332636 0.2518002788 0.5275235103
0.9723668741 0.2514032613 0.5280187062
0.9624224557 0.2513297155 0.7834947182
0.952511173 0.2528097447 1.0278343438
0.9724515544 0.2514084681 1.0273465114
0.9828782827 -5.7847456207e-04 0.2758166943
0.9927012032 1.0006065261 0.5330139264
0.982723649 1.0002811019 0.7777474997
0.982469608 0.2505539042 0.279402723
0.9926349316 -5.9500611046e-04 1.0303103236
0.9925318425 0.2497527099 0.5291756975
0.9824401539 0.2470913909 0.7805879732
0.9925207973 0.2487543085 1.027456964
0.0125286623 0.7496979741 1.0283681982
0.0225951677 0.4994148873 0.7797172383
0.0025744873 0.4996511453 0.7761956403
0.0124666984 0.4978808377 1.0297580605
0.0225399046 0.7497890929 0.2768503468
0.0026160543 0.7489625154 0.2852631554
0.0126085196 0.7495938383 0.5260609334
0.0225116287 0.7508695011 0.7780181087
0.0225494403 0.4987907237 0.273423554
0.0024921632 0.4989059239 0.2762723114
0.0026461342 0.7516309937 0.7780116656
0.0124909243 0.4993855991 0.5279782069
0.0325578476 0.7506221788 1.022946815
0.0424783347 0.4989378155 0.7734950735
0.0323538785 0.4998060472 1.0272452632
0.0425836328 0.7494376347 0.2702600066
0.0325545341 0.7504139073 0.5251110408
0.0425350337 0.7503032631 0.7716302649
0.0426145596 0.5008389435 0.2732698407
0.0325265527 0.5001008815 0.5253374687
0.0726145983 0.7516765531 1.0167522633
0.0623881575 0.5000683391 0.7667850762
0.0525582417 0.750342314 1.0188968852
0.0724319833 0.5020306469 1.0139817432
0.0523737858 0.5006905501 1.0186943887
0.0625295369 0.7512209593 0.2658345379
0.0725402269 0.7517481464 0.5151445318
0.0524378483 0.7508760096 0.5202704543
0.0624073026 0.5002082715 0.2680445109
0.072427197 0.5024797323 0.5128848551
0.0624518519 0.7510647556 0.7679752033
0.0524507344 0.5001256137 0.5162453764
0.0925420936 0.7523729609 1.0101987406
0.1024426991 0.5009925438 0.7617060962
0.0824367825 0.5022753659 0.7625768311
0.0925601342 0.5000143187 1.0135399327
0.1025833422 0.7500429237 0.2633650012
0.0824942179 0.7517676719 0.2612268223
0.0925314165 0.7499062456 0.5114986746
0.1025196478 0.752132147 0.763888456
0.1024415946 0.5000852611 0.2619226739
0.0825023177 0.4996941013 0.2647272503
0.0825203583 0.752132147 0.7620954417
0.0925406209 0.4998372879 0.5162711486
0.1124022128 0.7499322795 1.0100698792
0.1223955985 0.5013771951 0.7640090335
0.1124846841 0.499334833 1.0152979704
0.1225086284 0.7511428575 0.2638933329
0.112419517 0.7518978416 0.5118493617
0.1224961104 0.5004816278 0.2638703219
0.1224743881 0.7510907896 0.7633315907
0.1124180443 0.4999615999 0.515808168
0.1525458528 0.75031628 1.0080633231
0.1424353873 0.5008181164 0.7574343407
0.132453415 0.7502316697 1.0108246389
0.1526036564 0.5009639064 1.0086708126
0.1324243291 0.4988909544 1.0141934441
0.1425307447 0.7508044163 0.2609506908
0.152516767 0.7526007578 0.5077929889
0.132596267 0.7512535017 0.5107153814
0.1425694032 0.5004178446 0.2595608285
0.1425454718 0.7518327567 0.7594942822
0.1524847357 0.5015854666 0.5096660814
0.1324007659 0.5008597707 0.5127909704
0.1725757009 0.7493790584 1.0071704977
0.1623989638 0.5025636917 0.758352018
0.1725418287 0.5012320559 1.0075478775
0.1625377659 0.7495547874 0.2582906233
0.172504643 0.749320482 0.5074202112
0.1624685489 0.4980832516 0.2566062207
0.1625742153 0.7516635361 0.7557177228
0.1723838815 0.5021269724 0.5066120662
0.1925241822 0.7465543765 1.0071889065
0.2025341358 0.4985668319 0.7545874242
0.182471152 0.5017657516 0.7570035754
0.1924626969 0.4981105872 1.0065445995
0.202452769 0.749535262 0.2608393177
0.1824527432 0.7487867864 0.2587195476
0.192517555 0.7503618394 0.5093697002
0.2024693369 0.4999121355 0.254525109
0.202452769 0.7483572265 0.759325842
0.1825499415 0.5002863733 0.2557262814
0.1825101786 0.7520670621 0.7591491178
0.1925094551 0.5009892895 0.5041020302
0.2124266415 0.7488518712 1.0092414845
0.2224708355 0.4994669552 0.7505881185
0.2125658118 0.4981405262 1.0031481811
0.2225864425 0.7501080086 0.2599676624
0.2125028538 0.7486240743 0.5103950687
0.2225279027 0.4982004043 0.2535061835
0.2224586857 0.7483702434 0.7548911689
0.2124310596 0.4979472243 0.5039915775
0.2526774206 0.7481945144 0.9984815575
0.2425861002 0.5000156204 0.7512931745
0.2323817499 0.7534533691 1.0029917066
0.2526074673 0.4985401471 1.0024118303
0.232512084 0.5001822375 1.005007467
0.2425014199 0.7474265133 0.2485100429
0.2526048901 0.7501340425 0.5012321027
0.2325382245 0.7484873961 0.5016288117
0.2424484026 0.496540741 0.2526400508
0.2425816821 0.7488258373 0.7543794051
0.2524918602 0.4991551988 0.5025787043
0.2324995661 0.4969410127 0.5038802045
0.2726627194 0.7502707206 0.9964565926
0.2625437859 0.498171767 0.750708696
0.2723516112 0.5004686108 0.9996965364
0.2625662446 0.7477909884 0.2504595318
0.2726468879 0.7513901798 0.4967173514
0.2624447467 0.4989638494 0.2509271146
0.2626365661 0.7469839364 0.7490555883
0.2724642729 0.5013231747 0.4991058895
0.2925846921 0.7498021098 0.9951403655
0.3023634316 0.4980071023 0.7386951316
0.2824013278 0.4974642948 0.7456518064
0.292595001 0.4997279454 0.994127883
0.302465048 0.7473223776 0.2397216953
0.2825114122 0.7491968208 0.2458564185
0.2925059025 0.747556683 0.4948994852
0.3025346331 0.4967125649 0.2404405579
0.3024963429 0.7500038728 0.7389832289
0.2825500707 0.4970503552 0.2423394227
0.2825386572 0.7486631252 0.7456002619
0.292519525 0.4977858139 0.4936532114
0.3323892426 0.7474004794 0.9838281753
0.3224348834 0.4983234146 0.7338987262
0.3124256661 0.748350718 0.98885377
0.3324864409 0.4977695427 0.9862029068
0.3124985649 0.4976836307 0.989498077
0.3224323062 0.745740816 0.2329822441
0.3324562505 0.7508695011 0.4808526721
0.3124356069 0.7485980404 0.4869772704
0.3223052857 0.4977754003 0.2361209396
0.3225085185 0.7477259035 0.7371285452
0.332482391 0.5005122177 0.4818550297
0.3125375915 0.4981808788 0.4888844191
0.3525081891 0.747367937 0.985466556
0.3426289377 0.4993374364 0.7338168072
0.3525880831 0.4993829958 0.9816007139
0.3424603134 0.7483637349 0.2347034642
0.3525015619 0.7482140398 0.4883938253
0.342606479 0.5004217497 0.2336366759
0.3424831402 0.7506547212 0.7333096455
0.3524647444 0.501261995 0.4843319299
0.3725133694 0.747153157 0.9888353612
0.3823804709 0.4979908311 0.7342981965
0.3625394969 0.4979107768 0.7360912109
0.3724544613 0.4994480806 0.9870589147
0.3824283338 0.7488974306 0.2340039309
0.362403272 0.74894299 0.2360574293
0.3725244146 0.7469318685 0.4870407806
0.3824320155 0.4985909133 0.2352897836
0.3824725148 0.7477649545 0.7347289618
0.3625431787 0.4980695838 0.2342294383
0.3624364078 0.7486110573 0.7351772154
0.3724912788 0.4996934504 0.4861396713
0.3925163406 0.7500559407 0.985346899
0.4024828495 0.4979316039 0.7293305895
0.3924242967 0.4996706707 0.981720371
0.4025822569 0.7485785149 0.2292636722
0.3925421129 0.7497956013 0.4873831838
0.4024349867 0.497901014 0.2294661687
0.4025012583 0.749925771 0.7339143737
0.3923948427 0.5009326657 0.4845813687
0.4325848729 0.7505831279 0.9678769747
0.4227766794 0.5008675809 0.7163422807
0.4125598111 0.7496133638 0.9742003878
0.4325959182 0.5008981707 0.9705830641
0.4126408097 0.5013557171 0.9751208263
0.4225668194 0.7499778389 0.2255524638
0.4326327357 0.7490341088 0.4666107259
0.4125119483 0.7486045488 0.4759945972
0.422662545 0.4987022084 0.2168101382
0.4226183639 0.7512144508 0.7208441458
0.4327947329 0.4994109822 0.4675698229
0.4126260827 0.4991708192 0.4770982031
0.4525289361 0.7498346522 0.9646922572
0.4426360622 0.4989905342 0.7137033833
0.4525399813 0.4990243783 0.9636337528
0.4425329731 0.7479992599 0.2151340195
0.4526393887 0.7484613622 0.4652788513
0.4426250169 0.4974382608 0.2138058267
0.4425219278 0.7513055695 0.7223601082
0.4525694353 0.4992033616 0.4662526753
0.4725687248 0.7503878734 0.9635048914
0.4823990089 0.5005402041 0.7103557482
0.4627016232 0.4992378566 0.7127175936
0.472476681 0.5017234465 0.963256373
0.4826125506 0.7499648219 0.216026845
0.4625948524 0.7501665849 0.2149085121
0.472686541 0.7496849571 0.4605514787
0.4824652804 0.501897223 0.2109883642
0.4825646878 0.7515203495 0.713543227
0.4625653983 0.4994324602 0.2116078193
0.4625175355 0.7511753999 0.7136453957
0.472715995 0.500716584 0.4619422614
0.492332382 0.5000689899 0.9625108178
0.5025161145 0.7480187853 0.2108125604
0.4926048319 0.7496328893 0.4608717913
0.5024535247 0.4996661148 0.2089615584
0.502523478 0.7473614285 0.7131290296
0.4924612434 0.7494897026 0.9575588582
0.4924501982 0.499192948 0.4637012195
0.5023762078 0.4994155382 0.7085746995
0.5124531694 0.7475241406 0.9640571546
0.5124273971 0.4976732171 0.9644897607
0.512548895 0.7499713304 0.461154366
0.5124863052 0.4990087579 0.4618916373
0.5224270419 0.5007556349 0.7104726439
0.5325481845 0.748956007 0.966238594
0.5324819129 0.5003449496 0.9682911721
0.5224380871 0.4977819088 0.2126055748
0.5224933134 0.7488518712 0.2158878587
0.5326144561 0.7510387217 0.4646492713
0.5324966399 0.5023684372 0.4677161726
0.5225411762 0.7489039391 0.7158894249
0.5424852394 0.4993270228 0.7193116156
0.5526211091 0.7502121443 0.971319415
0.5624513931 0.5000930713 0.7235465535
0.5524885659 0.5001985088 0.9704449983
0.5424152861 0.5008675809 0.2186215613
0.5426067373 0.7515528919 0.2226309918
0.5624145756 0.4996166503 0.2208996468
0.5625250282 0.7502381782 0.2225886516
0.552396522 0.5026372376 0.4705216694
0.5525695645 0.7513511289 0.4723367743
0.5424741941 0.7494246178 0.7201059541
0.5624734836 0.7504920091 0.7228893603
0.5824985454 0.5008740894 0.7309284709
0.5724657649 0.7508174333 0.9766487544
0.5725430817 0.5011227134 0.9781766824
0.5825243177 0.501828233 0.2310410391
0.5825022271 0.7529522159 0.2302006787
0.5725173094 0.5027010207 0.474012893
0.5724473561 0.7497174995 0.4747069037
0.582564817 0.7529196735 0.7314549618
0.6025383342 0.4996771792 0.7372031007
0.5925423712 0.7518197397 0.9847486139
0.6124532986 0.7503683479 0.9863869946
0.5924466456 0.5002544817 0.9832575034
0.6124422533 0.5012196898 0.9854389428
0.6024831079 0.7504269243 0.2361089739
0.602435245 0.4996765284 0.2315564847
0.5925681435 0.7512925526 0.4819940159
0.5924908266 0.5016004361 0.4831206327
0.6124201628 0.7519954688 0.4835872951
0.6125195701 0.5015561784 0.4857779389
0.6025346524 0.7502316697 0.7365008061
0.6225670777 0.4993986161 0.7361850956
0.632423134 0.7518327567 0.9848406577
0.6324268158 0.50014579 0.9839202192
0.622441898 0.7498346522 0.2342294383
0.6224161258 0.4995925689 0.2334590312
0.6323863165 0.7511884168 0.4841515239
0.6323237266 0.5024719221 0.4824993367
0.6225339419 0.7499713304 0.7340680869
0.642448551 0.4995274841 0.7324563989
0.6524850133 0.7524575711 0.9820241157
0.6623889324 0.4988733815 0.7356466391
0.6524224235 0.5024126949 0.9843436209
0.6424375058 0.751715604 0.2335391094
0.6424559145 0.5000579255 0.2334940079
0.6624515223 0.7532320807 0.2363372427
0.6625472479 0.5023150676 0.2338382519
0.6524224235 0.7502642122 0.4845316651
0.6524555593 0.5016141039 0.4859500609
0.6424411875 0.7518978416 0.7345513172
0.6625398844 0.7515203495 0.7377203872
0.6823771766 0.5022974947 0.738884742
0.672480621 0.7512535017 0.9871877761
0.6725137568 0.5026580647 0.9873626595
0.6826054454 0.7501991273 0.2402638337
0.6825502191 0.5008656283 0.2384174339
0.6724474852 0.751526858 0.4869358506
0.6723775319 0.5029333736 0.4862436808
0.6825723096 0.7516960786 0.7376375477
0.7025274181 0.5014709173 0.7496501916
0.6924136389 0.7519954688 0.9898110261
0.712464473 0.7510387217 0.9972205567
0.6924799105 0.5011324761 0.9943119707
0.7124166102 0.4998913083 1.0025775092
0.7024243289 0.7517937058 0.2461721289
0.7023359668 0.4991825345 0.2473171545
0.6924541382 0.7493139736 0.4901942032
0.6923768214 0.5016492497 0.491186436
0.7124571095 0.4987848661 0.5014585306
0.7125638803 0.7518457737 0.4983161532
0.7024648282 0.7492163463 0.7436820679
0.7225009353 0.4989378155 0.7555879409
0.732485853 0.7516114683 1.0015558224
0.7423455911 0.4981086347 0.7527815237
0.7324637624 0.5013108086 1.0057530223
0.722460436 0.7504855006 0.2526547778
0.7224862082 0.498274601 0.2531002701
0.7424044991 0.7488713967 0.2537786333
0.742481816 0.4999212473 0.2550976218
0.7326368049 0.4991864395 0.5088680611
0.7323864456 0.748741227 0.5041627791
0.7224825265 0.7483962774 0.7507105369
0.7424523619 0.7500364152 0.7543987343
0.7524188709 0.4989950901 0.5021424164
0.7524078256 0.7510322132 1.0008839022
0.7624332426 0.5012183881 0.7485815624
0.7525145965 0.4981737195 1.0066182346
0.7623780163 0.7501730934 0.2520684585
0.762308063 0.5003885565 0.2503012164
0.7523525993 0.7514552647 0.5034816546
0.7623890616 0.7487737694 0.7504491323
0.7724255239 0.5014103884 0.4969437793
0.7723003442 0.7530042838 1.0002211864
0.7923953593 0.499604935 0.5015211204
0.7924469039 0.7508239418 1.0016754794
0.7823220795 0.4989540867 0.7454888888
0.772348207 0.5022773184 0.9995032443
0.7924800397 0.5020293452 0.9985183751
0.782358897 0.7501991273 0.2503113412
0.7824178051 0.5033108656 0.247878622
0.7723960698 0.7502056358 0.5002251429
0.7925094937 0.7479016326 0.5029781747
0.7824509409 0.7508369587 0.7493712987
0.8123725583 0.4989163375 0.5028787673
0.8125308737 0.7516244852 1.0020804724
0.8023581865 0.4993771381 0.752859761
0.8123983305 0.4996596063 1.0058542705
0.8024134128 0.7496979741 0.2553838782
0.8024465486 0.4999589966 0.2507006867
0.8123725583 0.750518043 0.5042382551
0.8025827735 0.7509866538 0.7548230565
0.8322871674 0.4983338282 0.5064261376
0.8323608025 0.7501861104 1.0051455328
0.8223390672 0.5012997442 0.7550301551
0.8423052209 0.4974239422 0.7580105353
0.832368166 0.499356311 1.0087260389
0.8224090205 0.7495027196 0.2561782167
0.8222543869 0.5007504282 0.2560686845
0.8423899013 0.7506026533 0.2552145175
0.8423972648 0.4995411519 0.255813723
0.8323571207 0.7515854343 0.5032303748
0.8224311111 0.7511884168 0.7543932116
0.84240831 0.7505245515 0.758343734
0.8523527285 0.5008656283 0.5103352402
0.8623376462 0.7508304502 0.7609384504
0.8625364609 0.5013934663 0.759955422
0.8524447723 0.7527569614 1.0087628565
0.8522459576 0.4995112129 1.010207945
0.8624039178 0.750732823 0.2595405789
0.8625143704 0.4991695175 0.2588217163
0.852433727 0.7500559407 0.5097544435
0.8723851537 0.499467606 0.5090981708
0.8825983402 0.7496784486 0.7648622801
0.8922776723 0.501146144 0.5132070086
0.8725545144 0.747758446 1.0100606749
0.892612712 0.7473484115 1.016457723
0.8822817093 0.4974402134 0.7576129058
0.8723446544 0.5014201511 1.0123801801
0.8924212607 0.4998405422 1.0146536634
0.8825909767 0.750544077 0.2614063079
0.8822817093 0.4995346434 0.2606082876
0.8725103334 0.7501861104 0.5104861922
0.8925648492 0.7484223113 0.5140114719
0.9123726874 0.4978964581 0.5173360961
0.9025239946 0.7486305828 0.7658167749
0.9225453746 0.7478951241 0.7724310465
0.9124978671 0.748526447 1.0212347992