POSCAR file written by Ovito 3.7.11
1
271.6590106631 0.0 0.0
0.0 15.3673542888 0.0
0.0 0.0 10.8663604265
Sr Ti O 
800 800 2400 
Direct
0.0125183637 0.2540441947 0.5156175603
0.0224075259 0.2504710357 0.7603628012
0.0025563897 0.2504833996 0.7661190983
0.0124334779 0.2520646737 1.0149926764
0.0223918076 0.0019926751 0.2608128335
0.0023219046 1.0019081265 0.2669114716
0.0123784457 0.0040544484 0.5122604105
0.0222570063 0.001923958 0.7633730087
0.0023375492 0.0010685733 0.764873051
0.0122748967 1.0034568641 1.0154160012
0.0224739694 0.2529848061 0.2596652551
0.0024407668 0.2513631866 0.2689158225
0.0323865801 0.2482975971 0.5108201858
0.0424812204 0.2499361355 0.7575228438
0.0325997149 0.2521277945 1.007943398
0.042452876 0.9968909974 0.259617401
0.0323394622 0.0014842597 0.5108487142
0.0424160652 0.9998778486 0.7650847134
0.0324105071 9.899000262e-04 1.012406714
0.0423177802 0.2504931605 0.2554255651
0.0724905324 0.24912012 0.510322319
0.0523844443 0.2485943301 0.5124867972
0.0623333136 0.2486190578 0.7593440608
0.0724389972 0.2494617533 1.0123883085
0.0524860422 0.2497480745 1.0112839829
0.0624628878 0.9989993629 0.2640015736
0.0725578962 1.0004504911 0.5109103724
0.0525015028 0.0016246872 0.5105036125
0.0625412949 1.0006717393 0.7643254895
0.0724625561 -5.4575793785e-04 1.0123330923
0.0524021135 1.0000730676 1.0128484442
0.062310859 0.2490576499 0.2624472353
0.0924872922 0.2488858572 0.5107907371
0.1023618036 0.2504781937 0.7608717112
0.0824095849 0.2516599196 0.7620873896
0.092428763 0.25199895 1.0092961969
0.1024368978 1.0015502249 0.2583731942
0.0824784212 1.0013550059 0.2620910903
0.0924799301 -1.3885640604e-04 0.5116907625
0.1024622973 0.0014682517 0.7559197312
0.0825568283 0.9989017534 0.7627002903
0.0924482727 0.9973204793 1.0113207938
0.1024645059 0.249554157 0.260373864
0.0823057783 0.2506734127 0.2589989787
0.1124881013 0.2498840771 0.504003736
0.1226110859 0.249947198 0.7484544901
0.1124476093 0.2521349525 1.0016303367
0.1224318171 -4.0253224274e-04 0.2495551542
0.1125238078 0.9980232678 0.5025340627
0.1224781988 0.9988822315 0.7488253594
0.1125157094 0.0012030141 1.0034616766
0.122550348 0.2484993235 0.2474992681
0.1524992902 0.2501860159 0.4943243222
0.1326586084 0.249947198 0.4971780836
0.1425158187 0.2483229756 0.7440427093
0.1524356074 0.2495652194 0.9954737214
0.1325017941 0.249643307 0.9969829664
0.1426844124 7.0938978345e-05 0.2434951675
0.1523748695 1.0009515532 0.4949731135
0.1325960299 0.0029742364 0.49947232
0.1424749586 7.8023478783e-04 0.7446537695
0.1524934005 0.9997346879 0.9931270295
0.1324833887 1.9880744308e-04 0.9967897094
0.1425080884 0.2493550336 0.2434740013
0.1724816938 0.248801913 0.5074851225
0.1624540493 0.2501092297 0.7493572763
0.1725869729 0.2488852064 1.006498572
0.1625015353 -4.6903685901e-04 0.2515337376
0.1723005844 0.0013599052 0.5027595292
0.1624286498 0.9999624435 0.7484139982
0.1724916328 5.0571126201e-05 1.0011425928
0.1624592028 0.2499745286 0.251002741
0.19254729 0.249257424 0.5098585023
0.2024501458 0.249424011 0.7583961813
0.1825325292 0.2500818991 0.7575568939
0.1924210288 0.2512278348 1.0086151961
0.2024354214 9.5892527342e-04 0.2563863283
0.1823908074 -6.250819371e-04 0.2552249459
0.1924788218 9.8950958814e-04 0.508531471
0.2024265868 0.9989863483 0.7531975685
0.1824924054 0.9981989649 0.7560835394
0.1922833562 1.490265904e-04 1.0075660868
0.2024633977 0.2513566793 0.2590744409
0.1823805004 0.2493641438 0.2573728592
0.212517546 0.2513918188 0.5039945333
0.2225739031 0.2501248473 0.753477331
0.2124450287 0.2501769057 1.0044555696
0.222441384 1.0001316333 0.2507570286
0.2124538633 1.0000275165 0.5015364886
0.2225632279 1.0014981665 0.7487434553
0.212496932 0.9999168924 1.0020168506
0.2225205273 0.2521577281 0.2540157094
0.2524956052 0.2470781289 0.5005361537
0.2326490336 0.2484355519 0.4997069892
0.2424436655 0.2498118461 0.7506705035
0.2526597816 0.2480340515 0.9990075634
0.2324995816 0.2477054328 1.0016855529
0.2426155722 0.9991620455 0.2476327074
0.2526303329 -0.0018579682 0.4972682702
0.2325886638 7.6650438271e-04 0.4993407212
0.2425680862 1.0016868782 0.7496996172
0.25265426 -0.0024032995 0.9958694381
0.232528294 -8.4845807703e-05 0.9973602777
0.2426560641 0.2523295208 0.2489321305
0.272441198 0.2486867337 0.5015254453
0.2626127001 0.2494493894 0.7497014578
0.2725483176 0.248138819 0.9987682928
0.2626009207 0.9999364143 0.2500226521
0.2726123684 -0.0042541451 0.5021908015
0.2626149088 0.9998843559 0.750143188
0.2725884414 -0.0024757063 1.0015107014
0.2625144152 0.2482286198 0.2498303154
0.292594404 0.2490251134 0.5009327906
0.3025712495 0.248293042 0.7506530183
0.2824765728 0.2512493089 0.7536687475
0.2924876525 0.2494396285 0.9994769017
0.3027218059 -2.9646323637e-04 0.24940515
0.2826024659 1.0005741298 0.2526629105
0.2926566143 -0.0014910736 0.4977550937
0.3026367729 -9.2656519263e-04 0.7475029295
0.2825796432 0.9993442499 0.7514637774
0.2925852012 -0.002645651 0.9985750358
0.3024637618 0.2476813557 0.247767067
0.2824990274 0.2505875164 0.2509291193
0.3324311094 0.2502940371 0.4932972994
0.3125606108 0.2500805976 0.4951553272
0.3225451867 0.2488728426 0.7432356314
0.3324892706 0.2496068661 0.9955565459
0.3124855167 0.2510052851 1.0002867405
0.3224619941 9.1846918122e-06 0.2437611259
0.3325268177 -0.0021424934 0.4930745937
0.312632392 -0.0013055504 0.4924607727
0.3226147592 0.0017499528 0.7418644271
0.3325231366 -9.7179093461e-04 0.9931086241
0.3126301833 0.9977890049 0.9935227462
0.3225057991 0.24744449 0.2462191707
0.3524484834 0.2492919127 0.4959439997
0.3423924945 0.25061745 0.7437767509
0.3524194028 0.2488676367 0.9947743152
0.3426325012 0.0011844683 0.2422086282
0.3524355996 -5.0664905881e-04 0.4945258616
0.3425471 1.0020903309 0.7420972557
0.3525235775 -0.0015456698 0.9926024749
0.342431514 0.2479279824 0.2439810708
0.3725034044 0.2492118729 0.4895941275
0.3825711728 0.246846469 0.7392269294
0.3624245927 0.2491760828 0.743834728
0.3724629125 0.2474692177 0.9868599818
0.3825674917 0.9978605853 0.2379864233
0.3625092577 0.9976979027 0.2408898794
0.37265801 5.9160763527e-05 0.4901094795
0.3826337512 -0.0018207334 0.736759682
0.3625902416 0.997509191 0.7419426501
0.3725328531 -0.0012824495 0.9867679546
0.3824423348 0.2497279019 0.2383250832
0.362391463 0.250190571 0.2410021525
0.3925174653 0.2484114749 0.4854252984
0.4023533254 0.2487537589 0.7359369594
0.3924916978 0.2491559101 0.9882587942
0.4025263364 0.9971903332 0.2329948716
0.3926021303 0.998374662 0.4818748916
0.4024379903 -8.6429032202e-04 0.7340467221
0.3926131736 0.9988431877 0.982773977
0.4026330878 0.2478564021 0.2341949054
0.4325566305 0.2485351136 0.483080447
0.412387964 0.2510632001 0.4856342
0.4225440784 0.2493133868 0.7337835245
0.4324498791 0.2495769325 0.9857004399
0.4125315263 0.2494845288 0.9791573107
0.4224446891 0.9994223375 0.233478014
0.4326965118 0.9994483667 0.4827739967
0.4124836722 -0.0016208291 0.4837835343
0.4225330352 0.9999103851 0.7324472905
0.4324277925 0.9988952461 0.9844028573
0.4126419589 6.5913391614e-04 0.9810714751
0.4225477595 0.2482579026 0.2337623779
0.4524970698 0.2474431885 0.4836970288
0.4425250096 0.2490329222 0.7379919253
0.4525890969 0.2485396687 0.9832617208
0.442539734 0.9962467746 0.2351179376
0.4525890969 8.4231443942e-04 0.489097181
0.4425139664 -8.6760904553e-04 0.7360869636
0.4526332699 0.9970797091 0.9867495492
0.4425912691 0.2481264551 0.2343412285
0.4727283148 0.2485279556 0.477182428
0.4824463801 0.2482247154 0.7244482921
0.4625611571 0.250231567 0.7327022057
0.4725184929 0.251376852 0.9784487018
0.4823285853 6.932321734e-04 0.2260532649
0.4625280273 -0.0012557696 0.2346458384
0.4724559145 0.9978866145 0.4792723642
0.4824611044 1.0008148999 0.7284984062
0.4625464327 -8.7268474032e-04 0.7327086476
0.4724706388 7.0514053424e-04 0.9809058262
0.4825384072 0.249479323 0.2270351944
0.4626200545 0.2486275173 0.2368112368
0.5122778956 2.6401059915e-04 0.4763063297
0.5124214579 -0.0010270379 0.9796450545
0.4924037159 0.2518557893 0.476093747
0.5024641221 0.2498788713 0.7279499245
0.4925178295 0.2501560823 0.9731295335
0.5123588795 0.2514282597 0.4756133654
0.5123073443 0.2505797076 0.9761848343
0.5024052247 5.5814060455e-04 0.2286051773
0.4925104674 -4.9051095232e-04 0.4786198919
0.5023831382 0.0016230604 0.7268787287
0.4924442078 0.0010257553 0.9755038335
0.5024273113 0.2494611026 0.2243213143
0.5224818642 1.0000860822 0.2336648291
0.5323618972 0.0029833466 0.4837550059
0.5223272586 1.0003008231 0.7291177488
0.5322735511 1.0002097209 0.9837586674
0.5224524155 0.2511002917 0.2316402322
0.532354535 0.249995352 0.4838359898
0.5223714316 0.2504612747 0.7327868706
0.5323214052 0.2533869573 0.9866115085
0.5425032873 0.0032520981 0.2331034636
0.5624290022 6.58222894e-04 0.2291564199
0.552541607 0.0019766672 0.4824611044
0.542448071 1.0008669583 0.7346513404
0.5625283915 1.0013745278 0.7326865611
0.5523906825 5.3315256869e-04 0.9812095158
0.5424885629 0.2525436111 0.2363474201
0.5625541591 0.2522104372 0.2316880863
0.5524643042 0.2499901461 0.4823718381
0.5423523628 0.253493677 0.7322816417
0.5624547698 0.2512759888 0.7333841267
0.5523833203 0.2511829344 0.9841451813
0.5824099334 0.0011380713 0.2304319159
0.5724084245 0.0031919707 0.4792300318
0.5825277281 1.000255272 0.7340908951
0.5724010624 0.0024006178 0.9828291933
0.5824688308 0.2510807698 0.233172484
0.572555668 0.249896441 0.4845501203
0.5825829444 0.2524824424 0.7327307341
0.5725114949 0.2496198807 0.9827555716
0.6024019078 1.0018886046 0.2343927637
0.592529237 1.0012899329 0.4818031104
0.612502806 0.0014422225 0.4879321175
0.6024460809 9.5612713399e-04 0.7368710348
0.5924261666 0.0046038598 0.983160491
0.6125690655 0.0027451794 0.9882864023
0.6024681674 0.2528832922 0.2358523141
0.592529237 0.2515050458 0.484589692
0.6123445193 0.2513462677 0.4846080974
0.6025086593 0.250142417 0.7358007593
0.5925034694 0.2503239707 0.9867403465
0.6124807195 0.2505575828 0.9879551046
0.6224343742 0.0013194948 0.2379358084
0.6324395642 0.0020591147 0.4907242207
0.6225448068 2.338817955e-04 0.7387327437
0.632476375 1.000860451 0.9922435691
0.6223533903 0.2508035588 0.2377572757
0.6323917101 0.2515154575 0.4921874521
0.6224086066 0.2495326829 0.7410490667
0.6325536778 0.2513807564 0.9926668939
0.6424962893 0.9986739979 0.2440178816
0.6624256853 0.0024377745 0.2483486785
0.6525309279 9.4252687489e-04 0.5021926421
0.6424521163 0.9992141039 0.7432604787
0.662414642 1.0003593888 0.7523895703
0.6524941171 1.0003073304 0.9974615075
0.6424594784 0.2494441836 0.2445047052
0.6624404096 0.2515102517 0.24984596
0.6524977981 0.2499732272 0.4983569511
0.6425220569 0.2502875298 0.7467427854
0.6624477718 0.2525514198 0.7523150283
0.6524683495 0.2512772903 0.9954277079
0.682344038 1.0002227355 0.2515429403
0.6723278048 0.9994223375 0.5002379858
0.6823771678 -7.4553207869e-04 0.7509060929
0.6723940644 0.0025762499 1.0006824572
0.6824102976 0.2503298273 0.2509318801
0.6723609346 0.2505348072 0.5007938296
0.6824839193 0.2513130804 0.7476925054
0.672464005 0.2496582738 1.001041363
0.7022844773 -0.0014572356 0.2514601159
0.6923271415 1.0007628415 0.4983845593
0.712411143 1.0003724034 0.5008416837
0.702446445 0.99811437 0.7536420596
0.6925958607 0.9992466404 1.0001302944
0.7124405917 -3.2080054213e-04 1.0011886064
0.7025200668 0.2513521242 0.2518926434
0.6922903306 0.2490641572 0.5041178497
0.7123559268 0.2526802644 0.5023812977
0.7023765044 0.2512044085 0.7480330058
0.6923381847 0.2519234653 1.0014554851
0.7124442728 0.2495749803 1.0014646878
0.7225230845 0.0011154909 0.2508628598
0.7424782481 0.9990904651 0.2497263247
0.7325724474 0.0010003117 0.4994198645
0.7223942465 0.9997932536 0.748298044
0.7423641344 8.7960127417e-04 0.7495339684
0.7325282744 0.9992466404 0.9999094293
0.7224568249 0.2501521779 0.2528129148
0.7423972642 0.2511373833 0.2544344328
0.7324067986 0.2507853383 0.5022165691
0.7225157223 0.2497656443 0.7535739595
0.7424414372 0.2505985788 0.7535288662
0.7324104797 0.2500526162 1.0002775378
0.7625843361 -4.0598111227e-04 0.2516598148
0.7525055245 -6.833873541e-04 0.5014058101
0.7625953794 -0.0024273115 0.750835232
0.7525460164 1.0004374764 1.0037009472
0.762532801 0.2485058308 0.2507220583
0.7524760758 0.2484205851 0.5006309416
0.7624186873 0.2485956315 0.7526785355
0.7526490868 0.251350172 0.9999094293
0.7826057593 -3.792816746e-05 0.2535923846
0.7725343098 0.9996761222 0.5036816411
0.7925189221 0.9994939178 0.5010248177
0.7825174132 -0.0010399224 0.7524300623
0.7725269476 0.9988366804 1.0045752049
0.7927250629 -1.9930923237e-04 1.0004431866
0.78250637 0.2487121122 0.2515291362
0.7726116126 0.2500409031 0.5012889356
0.7926146303 0.2474653133 0.5028377523
0.782635208 0.2482741709 0.7504818478
0.7724680503 0.2491702262 1.0019800398
0.7926183114 0.2495339843 0.9988235091
0.8026419068 1.0006261882 0.2483799677
0.8125403452 -0.0012152941 0.4950743433
0.8024468092 -2.0308346695e-04 0.7483265724
0.8126839075 1.0004960422 0.9979860622
0.8026566311 0.2498326695 0.2492026903
0.8125550696 0.249137039 0.497617053
0.8027265717 0.250419628 0.7502020854
0.8127133562 0.2521577281 0.9977836025
0.8226706921 0.9999689508 0.2433828944
0.8425595961 0.9977239319 0.244941834
0.8326243468 -5.0176858306e-04 0.4909736142
0.8225528973 0.0013343315 0.7451534768
0.842555915 -0.0011460565 0.7474016997
0.8326206657 -9.2617475457e-04 0.9948755451
0.8227774435 0.2475486068 0.2446859986
0.842555915 0.2487830418 0.248079039
0.8326243468 0.248401714 0.4963231515
0.8225455352 0.2481934803 0.7473317591
0.8426773908 0.2469798687 0.7513432218
0.8326685198 0.2517972236 0.9959154517
0.8625478895 2.8040899768e-04 0.2528460445
0.8525095698 1.0003073304 0.4985456068
0.8626656842 0.9991295089 0.7536089298
0.852520613 -0.0013050298 0.9997529831
0.8625073975 0.2483561629 0.2527466552
0.852561105 0.2495827891 0.5021944826
0.8624669056 0.2517230404 0.7544040443
0.8525426995 0.2513319516 1.0017591746
0.8825140963 1.0000795749 0.261041981
0.8724610523 -0.0014919846 0.5055727987
0.8925192863 0.0013116861 0.5086796347
0.8825325018 0.9979256583 0.7567663808
0.8725162686 2.0609562021e-04 1.008329912
0.8825472261 0.2495170654 0.2600591312
0.8925229674 0.0023788184 1.0110079015
0.872534674 0.2507274233 0.5066688418
0.8925487349 0.247410652 0.5087081631
0.8825030531 0.250518539 0.7611947264
0.8726303822 0.2491585131 1.0054586654
0.8926039512 0.2492801996 1.0117993349
0.9024950275 0.0015016993 0.2638276423
0.9224354668 4.7707913759e-05 0.259217083
0.9125627959 5.9041681753e-04 0.5099891808
0.9024876654 0.9993767864 0.7584513976
0.9224980452 0.998719549 0.762784035
0.9125186229 0.9981664284 1.0090293182
0.9025539249 0.2473429761 0.2624159461
0.9224906831 0.2506929346 0.2629708697
0.9124302768 0.2509857632 0.512306424
0.902557606 0.2474536002 0.7601759861
0.9224685965 0.2504690835 0.7622401547
0.9124707688 0.2482500938 1.0138239318
0.942677755 1.0013550059 0.261883109
0.9324627432 1.0006066663 0.511465296
0.9424716142 0.9993442499 0.7595833313
0.9325363649 1.001270411 1.0124803357
0.9426372631 0.2503740769 0.2675685453
0.9325069162 0.2513462677 0.5115573232
0.9425341927 0.2516351918 0.7638451079
0.9326063056 0.2509324033 1.013980378
0.9625813834 0.0012633368 0.2605036223
0.952554107 1.0002357501 0.5151887138
0.9724908651 0.9987000271 0.5152853423
0.9625298482 1.0017844878 0.7608634288
0.9525062529 1.0004960422 1.0110723205
0.9625445726 0.2516007031 0.2644745931
0.9725166327 -0.0019006626 1.0148362303
0.9525504259 0.2517002648 0.5117855504
0.9726270653 0.2501274502 0.5150074204
0.962647643 0.252546214 0.7616438188
0.9526240476 0.2505517262 1.0112471721
0.9725644869 0.2497988315 1.0120662136
0.9823488117 3.7866924285e-04 0.2656010052
0.9922803799 1.0001121114 0.518095851
0.9823966658 0.9988431877 0.7658595818
0.9825880822 0.2496081676 0.2670669974
0.9923908125 0.0019350855 1.0192995463
0.9924717963 0.2515655637 0.5180056644
0.9824702875 0.2528930531 0.7670375291
0.9924975639 0.2506734127 1.0196032358
0.0124719452 0.7535309544 1.0150570954
0.0224973811 0.5012871441 0.7599882507
0.0024684486 0.503163199 0.7653442299
0.0124843137 0.5042857084 1.0154896229
0.0223841142 0.7536806224 0.2615260437
0.0023152418 0.7537847392 0.2671967557
0.0124061642 0.7519496803 0.5140595409
0.0223991698 0.7517024029 0.7629377203
0.0225588553 0.5029822961 0.2619199199
0.0025273092 0.5025632259 0.2700919293
0.0022428717 0.7504399865 0.7694983347
0.0124558221 0.5023712605 0.5159028444
0.0325562781 0.7501536652 1.0096735081
0.0425603637 0.5019248596 0.758005066
0.0324800797 0.5013613274 1.0059924228
0.0424837972 0.7513575159 0.2596146402
0.0324292807 0.750667742 0.5120229804
0.0424039176 0.7514160816 0.758964909
0.0424230592 0.4998034795 0.26086897
0.0324193417 0.5021708356 0.5106812248
0.0725196129 0.7489953656 1.0105201577
0.0624665689 0.5010730539 0.7606048325
0.0524911957 0.7510386582 1.0130048903
0.0724084442 0.4985208905 1.0107870364
0.0523413756 0.4984922584 1.0088820748
0.0623958921 0.7503814207 0.2600112771
0.0725358097 0.7501211287 0.5112591552
0.0524466546 0.7488977561 0.510322319
0.0624290218 0.499312829 0.2643291902
0.0724515129 0.5002381672 0.5097351859
0.0624879192 0.7503684061 0.7568363214
0.0523884935 0.4998789642 0.5109269373
0.0924670463 0.749522457 1.0083667228
0.1023422939 0.4993687918 0.7579553713
0.0824441871 0.4985397617 0.7627582674
0.0923731786 0.4992269326 1.0100232112
0.1025348146 0.7510126289 0.2589419218
0.0825023483 0.7508824829 0.2609481133
0.0925104831 0.7502968258 0.5092649273
0.1024302718 0.7499389243 0.7565418346
0.1024000869 0.4999811288 0.2568243775
0.0823786638 0.501364581 0.2603701829
0.0824338801 0.7507588442 0.7600719954
0.0925200539 0.5008303316 0.5094600248
0.1125377959 0.7503423769 1.0039586231
0.1226114541 0.4970274649 0.7488198378
0.1124818434 0.5000559628 1.0052193949
0.1224759901 0.7497502126 0.2507809557
0.1124483456 0.7491905847 0.5022938719
0.1224432285 0.4973677967 0.2502922916
0.1225805329 0.7501146214 0.7500732474
0.1124671191 0.4998106375 0.5062768062
0.152590213 0.7492686723 0.9904950535
0.1425817101 0.4982579955 0.7424902116
0.132521672 0.7501731871 0.9945350447
0.1525158551 0.5008563608 0.9917834334
0.1324808119 0.5002433731 0.9946178691
0.1425754523 0.7493467599 0.2421193619
0.1526450612 0.7488131612 0.4942663451
0.1325334515 0.7498348075 0.4942368964
0.1426041647 0.4985306514 0.2419325468
0.1425165549 0.7481884603 0.7445755464
0.1524900875 0.4998750598 0.4906791274
0.1326037602 0.4995308236 0.494154072
0.1724732273 0.7487936393 1.0026242297
0.1625114742 0.4982612492 0.7421202625
0.1722921179 0.5012448467 0.9998174021
0.1624915963 0.750127636 0.2432779835
0.1724894241 0.7488782342 0.5010551867
0.1623782189 0.4998223507 0.2440703371
0.1624555217 0.7502838112 0.7419684177
0.1723292969 0.5009246875 0.5002039357
0.1923282654 0.7516763736 1.001492296
0.2024218014 0.5013801985 0.7555065293
0.182450441 0.5002635457 0.7534791716
0.1922204096 0.5026146335 1.0060200309
0.2025149329 0.7484162158 0.2516800607
0.182402955 0.7503098404 0.2506557987
0.1925918311 0.748591913 0.5012788126
0.2025259761 0.4989790045 0.2538601835
0.2024703917 0.7491840774 0.7525110461
0.1823562052 0.5027226547 0.2527549377
0.1824427107 0.7486830152 0.75045516
0.1924788218 0.4995737718 0.5045715435
0.212537792 0.7511622969 0.9967897094
0.2226243339 0.5017081665 0.747619804
0.2124866249 0.5007001856 1.0022193103
0.2225389328 0.7486960298 0.2497861423
0.2124118989 0.7508564537 0.4978774898
0.2224671516 0.5023680068 0.2517960149
0.222665194 0.7505961617 0.747955703
0.2125326385 0.5018064268 0.5008757338
0.2526940157 0.7511037312 0.9932650702
0.2424617028 0.499124768 0.7507956604
0.2324819123 0.7494053256 0.9968909393
0.2526376951 0.499442975 0.9950503966
0.2325735714 0.4995093495 1.0008849169
0.242686249 0.7507458296 0.2461464692
0.2528327926 0.749047424 0.4914033809
0.2326258428 0.7531860675 0.4957056494
0.2426244068 0.5018539301 0.2485354936
0.2425474721 0.7509215267 0.7472765428
0.2525346247 0.4972604263 0.4967400344
0.2325205637 0.5013287909 0.4977578545
0.2727345805 0.7496721249 0.9953356807
0.2626005525 0.4983445426 0.7468449355
0.2726867264 0.4989998278 0.9979400486
0.2626907391 0.7492101066 0.243839349
0.2726815728 0.7484682743 0.4944227912
0.2625729444 0.4976306917 0.244219421
0.2626911072 0.7493142234 0.7440224634
0.2726039019 0.4977497753 0.500584928
0.2927795626 0.7473880623 0.9944706257
0.302633828 0.4993121783 0.7432586381
0.2826418535 0.4987193632 0.7495670981
0.2925318255 0.4989894162 0.9957682083
0.3027000875 0.7489628291 0.2446326229
0.2827084812 0.7487936393 0.2444706551
0.2927313403 0.7502317528 0.4954231261
0.3025786117 0.4991820323 0.2441973345
0.3027442605 0.7469260439 0.7440123404
0.2825936313 0.4998561886 0.2504119268
0.2827600164 0.7494248475 0.7456347787
0.2925185736 0.5007802254 0.4969848266
0.3327086633 0.7494053256 0.9938908547
0.3227204063 0.4990265078 0.7397017894
0.3127763224 0.7477785003 0.9927497183
0.3327082952 0.5015305172 0.9927037047
0.3127833165 0.5002785125 0.9931270295
0.3227675242 0.7509085121 0.2459228433
0.3327528363 0.7462492846 0.4922399076
0.312835956 0.74770692 0.4932540466
0.3227583215 0.4988430019 0.2411107445
0.3227800399 0.7481754457 0.7397901355
0.3327174979 0.4995282207 0.4926972824
0.3126386498 0.501839614 0.4909791359
0.352718675 0.7497827491 0.9906975132
0.3426118872 0.4995542499 0.7437923955
0.3525092213 0.4998848208 0.9894551469
0.3427105402 0.7494899205 0.2403984545
0.3526579371 0.7488977561 0.4940123502
0.342604525 0.4989633869 0.2428288911
0.3426166726 0.7474986864 0.7445286126
0.3525508176 0.4986978891 0.4925767269
0.3725843883 0.74852684 0.9894735523
0.3825306808 0.4969350612 0.7390023832
0.362523982 0.4978285137 0.7432466746
0.3725954315 0.4977035735 0.9897496337
0.3825012322 0.7490799605 0.2377131027
0.3626380957 0.749457384 0.2376910162
0.3726469667 0.748722059 0.4902447593
0.3824865078 0.4971335339 0.23722904
0.3825895782 0.7502122309 0.7346761877
0.3625681551 0.4985423646 0.2419058589
0.3626049659 0.7489628291 0.7413058224
0.3725070855 0.4969552339 0.4897542547
0.3924806545 0.7463729233 0.9842924247
0.4025005688 0.4989380085 0.7353479858
0.3924475247 0.4970378766 0.9879182938
0.4025594661 0.7510842093 0.232494244
0.3925432329 0.7481754457 0.4812960409
0.4026662176 0.4988872515 0.232450071
0.4024085416 0.7491645555 0.7306711668
0.392631579 0.4967613163 0.4835718719
0.43231736 0.7483706647 0.9852679123
0.4225588028 0.4969233481 0.729535552
0.4124873533 0.7483641574 0.980270839
0.4326339333 0.4973183413 0.9842648166
0.4126125102 0.497613122 0.9804732987
0.4224888621 0.7482079822 0.2341442905
0.4325198197 0.7468479563 0.4805138103
0.4124431803 0.749652603 0.4852081143
0.4224262837 0.4983191642 0.2339473524
0.4224962243 0.7474986864 0.7336243176
0.4326670631 0.4978389253 0.4824500611
0.4124652668 0.4983647153 0.4830316726
0.4525743726 0.7488977561 0.9838598972
0.4425250096 0.4990759633 0.7340485626
0.452721616 0.5005680874 0.9848998038
0.442583907 0.7493077161 0.2366906813
0.4524418535 0.7491775701 0.4852412441
0.4427053828 0.4993238914 0.2302690279
0.4424845177 0.7469585804 0.7360832826
0.4526075023 0.4997715937 0.4833049932
0.4725553038 0.7499194024 0.9777584983
0.4824831909 0.5009559225 0.7265465107
0.4626053301 0.4996765871 0.7301134824
0.4725957957 0.5004906505 0.9801788119
0.4824353368 0.7506091763 0.2273720137
0.4624764921 0.7511362677 0.2344323354
0.472566347 0.7493792964 0.4779425722
0.4824206125 0.4990740111 0.2266035872
0.4824390179 0.7493207307 0.7290689745
0.4625280273 0.4994917798 0.2334089937
0.4625611571 0.748591913 0.73414151
0.4724227847 0.5021630269 0.4802340478
0.492536235 0.5002440238 0.9750529005
0.502416268 0.7500950995 0.2242035195
0.492366905 0.7510516728 0.4745035182
0.5024052247 0.5016600125 0.2260505041
0.5024199491 0.7504269719 0.7269164598
0.4925215106 0.7516047933 0.9746295757
0.4924331646 0.5010196941 0.4782941158
0.5023352841 0.500670252 0.7269698355
0.5124545877 0.752548352 0.9754210091
0.5124803553 0.499360983 0.9798567169
0.5123220686 0.7498152856 0.4750004647
0.5122742145 0.4996876496 0.4763164527
0.5222978099 0.499819097 0.7307273034
0.5324060702 0.7516568517 0.9820837735
0.532398708 0.4998392697 0.984669736
0.5224487344 0.5031345669 0.2297398719
0.5224524155 0.7517739832 0.2332415043
0.5324649676 0.7498738513 0.4837172748
0.5324097513 0.5002075829 0.4849550397
0.5224413722 0.7515917787 0.7301889447
0.5423891736 0.5012318321 0.7308727063
0.5523133797 0.7519757095 0.9831512883
0.5624437265 0.500260292 0.73197059
0.5523943636 0.500540106 0.9818997193
0.5424775197 0.5012129609 0.2326009955
0.5423339574 0.751533213 0.2339123821
0.5624437265 0.5003260158 0.2324427088
0.5624253211 0.7496591103 0.2292815768
0.5525305637 0.5000644223 0.4825669356
0.5524458988 0.7503618988 0.4819080213
0.5425106495 0.7521448993 0.7330362642
0.5624547698 0.7510646874 0.7311800769
0.5824614686 0.5004333862 0.7334025322
0.5724452354 0.7511037312 0.983547005
0.5723384839 0.5008980075 0.9806113394
0.5824062523 0.5006585389 0.2331375136
0.5824872362 0.7508174099 0.231514155
0.5724562786 0.5004229746 0.4809040053
0.5723752948 0.7521774358 0.4815077033
0.5824430632 0.7521774358 0.7318463533
0.6024203133 0.5022795075 0.734205929
0.5923635881 0.7497502126 0.9831512883
0.6123592437 0.7513770378 0.9824978956
0.5924519342 0.5027363201 0.986114562
0.612418141 0.499968765 0.9872556984
0.6024203133 0.7536741151 0.2342712879
0.6026154108 0.5023172499 0.2395214359
0.5922531556 0.7508564537 0.4810494082
0.5924224855 0.4996473043 0.4848694545
0.6124255032 0.7502317528 0.4852200779
0.612373968 0.5006624432 0.4856360405
0.6023614159 0.7528867316 0.7341194235
0.6223239417 0.5012962544 0.7382265945
0.6324285209 0.7502187382 0.9898324582
0.6323917101 0.5024408886 0.9868047655
0.6224822283 0.7528607024 0.2368360841
0.6224711851 0.5014647935 0.2410085944
0.6323953911 0.7527696002 0.4899291063
0.6324947804 0.5019203045 0.4888956416
0.6224159688 0.7530689361 0.7372455853
0.6424484352 0.502297728 0.7421938842
0.652361598 0.7510256435 0.9935319489
0.6624220042 0.5027343679 0.7456982775
0.652361598 0.5019957892 0.995455316
0.642485246 0.7499454316 0.2455620969
0.6424189865 0.5020699724 0.2425840989
0.6624845827 0.7502707966 0.2457608755
0.6623631068 0.5006722042 0.2454535049
0.6523873656 0.7516698663 0.4936562052
0.6524204954 0.5022261477 0.4946197293
0.6424447541 0.7507653515 0.7423991047
0.6623594258 0.7518846073 0.7475636674
0.6825317734 0.4983588587 0.7480937437
0.6722431399 0.7516893883 0.9972774532
0.6723278048 0.5019990429 0.9969921691
0.6823219515 0.7517154175 0.2467418848
0.6823587624 0.5015741161 0.2478830212
0.6723462103 0.7526069177 0.4976989571
0.6724455996 0.5012507033 0.497542511
0.6824397463 0.7504204646 0.7475222552
0.7023176071 0.4992627228 0.7470004614
0.6923197793 0.7510646874 0.9954921269
0.7124332296 0.7516308225 0.9957866137
0.6923565901 0.4998594423 0.9974707102
0.7124221863 0.498919788 0.9966976823
0.7024169964 0.7485658838 0.2486661721
0.7025495154 0.5013815 0.2516303661
0.6922976928 0.7513705305 0.4972802337
0.6923602712 0.5014713008 0.4981968239
0.712451635 0.5008264272 0.4999223327
0.7122344509 0.7507263077 0.4969802252
0.7023433747 0.7519366657 0.7444733963
0.7222911761 0.4997403587 0.7485161483
0.7324104797 0.7504855376 0.9993664692
0.742474567 0.5004405443 0.7509088537
0.7324951446 0.5007717659 1.0002775378
0.7223868843 0.7509800924 0.2487977709
0.7224089708 0.499983081 0.2493057607
0.7424708859 0.7500365338 0.251043233
0.7423494101 0.4975656187 0.2487830466
0.7323147714 0.5007587513 0.4951056325
0.7324656959 0.7515071838 0.496864271
0.7223979276 0.750993107 0.7487931499
0.7425150589 0.7495484862 0.7491161652
0.7524171785 0.5009175294 0.5027797752
0.7524650326 0.7499909827 1.0000290645
0.7623708332 0.4997631342 0.748064295
0.7524429461 0.5005680874 1.0004063758
0.7625843361 0.7496330811 0.250222351
0.7626358713 0.4999642098 0.2468385133
0.752483438 0.7483316209 0.4969167265
0.7625070334 0.749932417 0.7507109954
0.7725195855 0.499592643 0.4990600384
0.7726226559 0.7480062559 1.0028911084
0.7926109492 0.5012734788 0.498943164
0.7926256736 0.7477915149 1.0011609983
0.7825836728 0.500048154 0.7506217291
0.772497499 0.499934927 0.9970105746
0.7925226032 0.4990134932 0.9952712617
0.7825321376 0.7497502126 0.2528110742
0.782550543 0.4978070396 0.2499757182
0.7725932072 0.7500690703 0.4998615948
0.7925189221 0.7500170119 0.4993213955
0.7825910349 0.7485528692 0.7522230012
0.8125661128 0.5005043158 0.4996977865
0.8126213291 0.7495419789 0.9979676567
0.8026308635 0.5014524296 0.7472286887
0.8126507778 0.4989041705 0.9981701164
0.8027008041 0.750537596 0.2496122111
0.8025314742 0.501309269 0.2480744377
0.8126213291 0.750472523 0.4972793134
0.8026198202 0.7487285663 0.748559401
0.8326537955 0.4993922181 0.5000235625
0.8325875359 0.7490083802 0.9954645187
0.8225492162 0.501429654 0.7468449355
0.8426111313 0.5006299067 0.7493149438
0.8325139142 0.4998145419 0.9964123982
0.8226117947 0.7512794283 0.2448580893
0.8226706921 0.4998353653 0.2454378603
0.8426295367 0.7504660157 0.2486643316
0.8425743205 0.5010216463 0.2521889708
0.832591217 0.7468154198 0.4966544492
0.8225602595 0.749047424 0.7457838627
0.8424933366 0.7504009427 0.745462688
0.8525758293 0.5000110624 0.5021622731
0.8626178301 0.7521188701 0.7562648329
0.8624816299 0.5006286053 0.7540405371
0.8525353374 0.7474986864 0.9968449257
0.8525500617 0.4998080346 1.0008757142
0.8625442084 0.7505506106 0.2558350858
0.8625442084 0.5027122431 0.2551485634
0.8525279752 0.7509150194 0.4996066796
0.8724978631 0.4996785393 0.5084725736
0.8825214585 0.7515267057 0.7572117921
0.8926407621 0.4984018069 0.5104557584
0.8726561498 0.7503618988 1.0089556965
0.8924861565 0.7496721249 1.0087900476
0.88262821 0.5017348464 0.7601677036
0.8725530794 0.4981428163 1.0095354674
0.8925855458 0.498543666 1.00900171
0.8826171667 0.7513249794 0.2602864383
0.8826466154 0.5007958429 0.2572458618
0.8726009335 0.7485073181 0.5068326501
0.8926518053 0.7495029351 0.5101161782
0.9124928553 0.4996746349 0.5142288708
0.9025686492 0.7534463595 0.7609812235
0.9225238128 0.7504790303 0.7642012529
0.9125038985 0.7504334792 1.0117533213
0.902472941 0.5000507569 0.7618379961
0.9224133803 0.4996037054 0.7651307269