POSCAR file written by Ovito 3.7.11
1
271.5895927712 0.0 0.0
0.0 15.3634274199 0.0
0.0 0.0 10.8635837108
Sr Ti O 
800 800 2400 
Direct
0.0125865919 0.2519908875 0.5425279587
0.0224065926 0.2516706464 0.7955991434
0.0023732035 0.251145373 0.7997073641
0.0124510933 0.2502289108 1.0431721425
0.0224870449 -6.7141854403e-04 0.2939101846
0.0024054212 0.9992375588 0.2950350437
0.012330912 0.0014807054 0.5435156622
0.0223881825 0.0015199545 0.7904314196
0.0023798311 -1.0468302584e-04 0.7929029797
0.012301198 0.9999665628 1.0456943304
0.0225611641 0.2515215911 0.2949190598
0.0023755231 0.24985074 0.2989186608
0.0325299555 0.2499412146 0.540813055
0.0425185562 0.251585379 0.7922641481
0.0324415868 0.2519550882 1.0406131342
0.0425108239 0.9985866624 0.2896878211
0.0324437961 0.0017304544 0.5434052014
0.0425572175 1.0008192371 0.7882663882
0.0324798799 3.9034905042e-05 1.0418742282
0.0422987392 0.2506279103 0.2900302495
0.0725152873 0.2499652978 0.5340583779
0.0524905878 0.2496287843 0.5384206584
0.0624191715 0.2501631703 0.7846276258
0.0724799399 0.2505745368 1.0367101865
0.0524777007 0.2494100831 1.0376491031
0.0624902346 1.0009429074 0.2879830429
0.0724453288 0.9999795807 0.5349365411
0.052440144 -1.9763103548e-04 0.540613305
0.0624261673 1.0007736744 0.7888941736
0.0724412786 -5.8595584328e-04 1.0323101651
0.0524497173 1.0003571007 1.0360198065
0.062442 0.2516179238 0.2847566675
0.0925005892 0.2482026703 0.5315177798
0.102576454 0.2514545488 0.7815282802
0.0824788503 0.2525031429 0.7848605139
0.0925344639 0.25181124 1.0339578719
0.1024126038 1.0009624343 0.2812062737
0.082502047 1.0001357959 0.2825272006
0.0923967561 0.0016526722 0.5305346788
0.1024369052 5.1002355896e-04 0.7787722836
0.0824070508 0.9986842968 0.7843238586
0.0924678192 0.9988990927 1.0329084944
0.1025550982 0.2510366733 0.2827462812
0.0824320885 0.2499659487 0.2802388213
0.1124626943 0.250146247 0.5286439583
0.1224866425 0.2503050657 0.7765078375
0.1125057741 0.2482827305 1.0275511462
0.1224409854 3.6005702239e-04 0.2757476698
0.1124406022 0.9987689134 0.5286457993
0.1223769181 0.9985931713 0.7753627273
0.1124704266 5.3775174671e-04 1.026962022
0.1225823752 0.2501306255 0.2773576358
0.1526034077 0.2494289591 0.5176043232
0.1325687667 0.2480900652 0.5224581543
0.1427167991 0.2499737594 0.7693260453
0.1526023031 0.2519108272 1.0187879239
0.1325396787 0.2467498694 1.0228197426
0.1424354923 0.0014736106 0.2696189372
0.1524962608 1.001756528 0.5173465814
0.1324557285 0.0021429274 0.522566774
0.1424303375 6.9084258612e-04 0.7720332551
0.1525264534 1.0015287142 1.0197084304
0.1323968161 -0.0012836517 1.0193402278
0.1426427904 0.2500857136 0.2701694001
0.1726951202 0.2514623596 0.5114562599
0.1626082094 0.253294633 0.7663675373
0.1726030695 0.2516641375 1.0157778674
0.1626534983 -0.0026184711 0.2659847773
0.1725618308 8.6319995975e-04 0.5138900793
0.1625006942 0.9997582759 0.7612946257
0.1725750861 -0.001607668 1.0132556795
0.162756595 0.2501690284 0.2642026766
0.1926550161 0.2499132261 0.5102513169
0.2025526707 0.2494003197 0.7610672605
0.1824933601 0.2528819647 0.760717468
0.1925861622 0.2492584243 1.0100523167
0.2024959675 -6.3861336415e-04 0.2551320051
0.182558532 2.7654701092e-04 0.2585958712
0.1923832825 -6.9022945074e-04 0.5077604261
0.2025427293 0.9993221753 0.7551125036
0.1825231845 0.9985866624 0.7588939446
0.1925578106 -8.8706052999e-04 1.0079075364
0.2025383108 0.2505035891 0.2577931895
0.1825161887 0.2500466598 0.2578567045
0.2124628443 0.2486407236 0.5083265377
0.2227143417 0.2468435985 0.7577967007
0.2125490037 0.248367998 1.0027803149
0.2224963657 0.9989186196 0.2544858095
0.2126425272 0.9983197948 0.5068528067
0.222567797 0.9983393217 0.7546117481
0.2125699912 0.9978316225 1.0029460061
0.2225066754 0.2478746185 0.2593801428
0.2525682102 0.2503883805 0.4998993002
0.2325593434 0.2456492036 0.5001193012
0.2426410993 0.2488633301 0.7523758377
0.252684194 0.2474144347 0.9992547748
0.2325567659 0.2508095104 1.0037100265
0.2425685634 0.9964972849 0.2497019369
0.2524993563 0.0011481624 0.4994316828
0.232811194 -0.0037298767 0.5010204772
0.2424975003 0.9986842968 0.7485465304
0.2524190882 -4.1913108928e-04 0.9967233818
0.2325770171 -6.4197268135e-05 1.0005803042
0.2426930159 0.2481584093 0.251335836
0.2723521053 0.2502985568 0.4944802781
0.2624747017 0.2503167819 0.745961748
0.2723793523 0.2481759835 0.9967049716
0.2624666013 0.9980464183 0.2494939024
0.2724253776 0.0010947889 0.493689563
0.2624945847 0.9967901882 0.7470875275
0.2724180135 0.0017682064 0.9946798572
0.2624625511 0.251949881 0.2488974142
0.2925222449 0.2485990662 0.4880220041
0.3025760174 0.248248233 0.7332053682
0.282424288 0.2491620916 0.7397096675
0.2923285703 0.2487396598 0.9869844224
0.3024696069 -0.0027576197 0.2296358145
0.2823874677 0.9980399094 0.241284825
0.2925137762 -9.3691919623e-04 0.4874568131
0.3024489875 -3.9765150722e-04 0.7326272901
0.2825027151 0.9968487689 0.7429029047
0.2924802698 -9.5097855903e-04 0.9876655973
0.3025587119 0.2472159113 0.23011816
0.2825108156 0.2497557091 0.240089087
0.3323496178 0.2508693929 0.473467875
0.3124733039 0.2502360707 0.4775190243
0.3224453355 0.2499997953 0.7260318606
0.332457133 0.2476500592 0.9744655333
0.3125605679 0.2493326265 0.9801082385
0.3224994613 -7.6664469117e-04 0.2214672394
0.3324331998 0.0012051809 0.4720107131
0.312455262 -6.5954688486e-05 0.4775447985
0.3223403978 -0.0016089698 0.722997871
0.3324457187 -0.0025183567 0.9719617555
0.3125550449 0.9982026335 0.9746312245
0.3224751599 0.2489062893 0.22619312
0.3524034054 0.2483790632 0.474529219
0.3424464701 0.2499874283 0.7222605453
0.3523334469 0.2495721563 0.9713726313
0.3425377843 3.9995697331e-04 0.2210180322
0.3524240247 -0.0010980161 0.4699248453
0.3423544194 0.9984239383 0.7227723469
0.3525278579 -0.0012570951 0.9709768135
0.3423816664 0.2485281185 0.2218078268
0.372548139 0.2500909208 0.4712540567
0.3825558863 0.2484721414 0.7152131471
0.3623820646 0.2505133526 0.7191832918
0.3725039547 0.2480894143 0.9710136337
0.3824822457 1.0020103776 0.2194273969
0.362569848 1.0000186345 0.2237086729
0.3725223648 0.0034361284 0.4691065149
0.3825742964 3.9169058869e-04 0.7188123277
0.3625551199 1.000845273 0.7222706708
0.3724229501 0.0013522835 0.9691265953
0.382515384 0.2538498477 0.2137285408
0.3624593872 0.2512690433 0.2182786047
0.3926114998 0.2490970019 0.460480448
0.4026376572 0.2519127799 0.7093265077
0.3926225459 0.2523801235 0.9634746851
0.4027738922 0.9967250986 0.207581398
0.3927145966 0.9988209851 0.4601996935
0.4026413392 8.4119966055e-04 0.7107229161
0.3927145966 1.0035334752 0.9644596271
0.4027775742 0.2494465333 0.2061444873
0.432664581 0.248015863 0.4485184654
0.4126674966 0.2526085882 0.4558236054
0.4225831932 0.2471365019 0.7047838078
0.4325762124 0.2502367216 0.954195979
0.412722727 0.2482716653 0.9534411636
0.4226826079 0.9981896156 0.2006849629
0.4326756271 0.9982677231 0.4532839278
0.4125975381 0.0011409375 0.4577253719
0.4227378383 0.9970505468 0.7019790244
0.4325430741 1.0007281116 0.9531373965
0.4127006349 5.8578790295e-04 0.9555123034
0.4226052854 0.2498429293 0.207290518
0.4525696147 0.2487324999 0.4520513695
0.442631826 0.2501143531 0.706919383
0.4525180663 0.2492180687 0.950688849
0.4426060518 0.9948960796 0.1988549959
0.4526911216 8.8051380468e-04 0.4501799797
0.4424734988 -5.6870708799e-04 0.7019550912
0.4525880248 0.9985020458 0.9517106113
0.4426134158 0.2471208804 0.2039849789
0.4726697958 0.2484155134 0.4487126922
0.4824639855 0.2481460423 0.6973691275
0.4625405417 0.2492063525 0.6965259435
0.4726477037 0.2491497246 0.9436745891
0.4825744463 2.8295114012e-05 0.1979492175
0.4625442237 -0.0016646214 0.1991062942
0.4725298788 0.998118017 0.4512422443
0.4825376261 0.9987168417 0.6962525531
0.4625037214 1.1310691833e-04 0.6996943271
0.472563017 5.8887246038e-05 0.9453222958
0.4825118519 0.2504124636 0.1985954131
0.4625294956 0.249152979 0.2021872296
0.5125203655 9.213250106e-04 0.4505288517
0.5125314116 3.3343535856e-04 0.9523365558
0.4924717328 0.2517995239 0.4459079088
0.5026672634 0.25125212 0.7014975994
0.4923760001 0.2499470727 0.9471080785
0.5125350936 0.2515606449 0.4501293518
0.5124835453 0.2519023655 0.9487373751
0.5024021575 4.1768670031e-05 0.1996935774
0.4925490553 2.6053495884e-04 0.4508050036
0.5025236644 0.0011489435 0.6982638599
0.492508553 0.0022211652 0.9505783882
0.5025936228 0.2510926504 0.2004382672
0.5225317948 1.0006239682 0.1995453758
0.5324069891 0.0014260301 0.4518783143
0.5224360621 1.0002659752 0.6999161692
0.532392261 0.9970440379 0.9534779839
0.5223734677 0.2491347539 0.2015217034
0.5323517587 0.2489551065 0.4433571851
0.5223587396 0.2481265154 0.7025377718
0.5324585375 0.2483797141 0.9499064185
0.5424441926 8.3833571627e-04 0.2006472222
0.5623639544 -6.1947700923e-04 0.2047158611
0.5523083408 0.0014408705 0.4567717271
0.5424515566 0.9975907908 0.7018400279
0.5623234521 0.9991724692 0.7046540164
0.5524003914 0.0022553372 0.9529717053
0.5423815981 0.2479169267 0.2030893261
0.5624302309 0.2513289258 0.2054044
0.5522715205 0.2489440413 0.4552694604
0.5422932295 0.2514649631 0.7032272312
0.5622792678 0.2519778695 0.7054585391
0.5523083408 0.2501683775 0.9550612552
0.5822137577 -0.0016953437 0.2120578214
0.5723790657 1.9896015693e-04 0.4622183644
0.5822689881 1.0005133158 0.7117732141
0.5724158859 -5.7157103227e-04 0.9586788459
0.5824162691 0.2502555976 0.2164799349
0.5723348814 0.2491412629 0.4615390306
0.5824862276 0.2533050473 0.7121846805
0.5724563882 0.2495571857 0.9601792716
0.6024354457 0.9983197948 0.2144787536
0.5923945602 0.998104999 0.466231773
0.6124395109 0.0017482238 0.4737136502
0.6023838973 -0.0013264156 0.7149406771
0.5923945602 -0.001126981 0.9676169645
0.6126125661 -9.3848134765e-04 0.970212793
0.6022955287 0.2474430741 0.2194697402
0.5923135556 0.2505660752 0.4633257338
0.6125241975 0.249718608 0.4679816559
0.6025127682 0.2490006693 0.7149765769
0.5923098736 0.2492187196 0.9632997888
0.6123621883 0.2486927953 0.9682705242
0.6224988065 2.0559930048e-04 0.2235972916
0.6325728302 0.002005393 0.4788841356
0.6225982212 7.4415100342e-04 0.7187929971
0.63253601 1.0010145061 0.9779818683
0.6225945392 0.247990478 0.2235586303
0.6325986044 0.2480256264 0.4729597554
0.6226276774 0.2482950976 0.7256756246
0.6325139178 0.2494699656 0.9737291281
0.6426284438 0.9991269064 0.2249642438
0.6624892932 4.60295072e-04 0.2268604873
0.6525699146 -1.7072366887e-05 0.4796315869
0.6424885268 0.9997192222 0.7257833238
0.6624819292 0.997564755 0.7297424225
0.6527061496 1.0000186345 0.9774571796
0.6425989876 0.2473929551 0.2260099392
0.6626954867 0.2486010189 0.2310957379
0.6525441404 0.2481655692 0.4782278144
0.6425695314 0.2476298814 0.7274660098
0.662599754 0.247481477 0.7290529631
0.6525809607 0.2499216877 0.9780370987
0.6823317325 1.0000837242 0.2367568532
0.6726295934 0.9992505767 0.4889600003
0.6824164191 -3.2572745214e-04 0.7356143338
0.6726111833 4.097204197e-04 0.9863124526
0.6824458753 0.2483315478 0.2363647175
0.6724491741 0.2513074462 0.4822338589
0.6824863776 0.2504996837 0.7378309136
0.6724749483 0.2506064308 0.9825383758
0.7024061394 6.2926778422e-04 0.243534543
0.6926193137 1.001209775 0.4922057064
0.7123586563 1.0003961544 0.4923539079
0.7025239642 1.0004417172 0.7414080021
0.6924830788 0.999745258 0.9887886153
0.712469117 0.0025997265 0.9922957452
0.7024355956 0.2496730453 0.24016733
0.6924757147 0.2520514208 0.4891763193
0.7124543889 0.2513451982 0.4913100535
0.7024503237 0.251384252 0.7407369528
0.6924020742 0.2512859666 0.988604514
0.7125169834 0.2514005244 0.9914672893
0.7224915924 2.8051747912e-04 0.2469615889
0.7422935294 1.0003245558 0.2481895446
0.7324698834 0.0029665718 0.496230161
0.7223443113 0.9989316375 0.746105347
0.7424150362 0.0016468793 0.7493197559
0.7324256991 1.003025776 0.9968154324
0.7223995417 0.2506962545 0.241644743
0.7424849947 0.2507593914 0.2488173301
0.7323851968 0.2504521683 0.494403876
0.7223958597 0.2510028267 0.7422226504
0.7424408104 0.2502568994 0.7457859312
0.732403607 0.2522349736 0.9942656293
0.7623016598 0.0013278098 0.2523658829
0.7524522397 9.4976918442e-04 0.4984605484
0.7622685216 -4.7042172765e-04 0.7512077148
0.7523270508 1.0002724841 0.9977819643
0.7623753003 0.2514610578 0.2502220231
0.7523196868 0.2504860149 0.4988683328
0.762463669 0.2518092874 0.7535154248
0.7523638711 0.2522330209 0.9980489112
0.7824791635 0.0023583091 0.2526788551
0.7724566881 1.0026482561 0.5023819063
0.7924500905 0.9995499891 0.5083200941
0.782549122 9.1728945276e-04 0.7547700752
0.7723904116 1.0030778477 1.0043635862
0.7925421411 0.0023882503 1.0081928934
0.7825123017 0.2534762331 0.2579947804
0.7724051397 0.2542071898 0.504225681
0.7925679153 0.251893253 0.5084195088
0.7824754814 0.251628989 0.755658364
0.7723572734 0.2528461654 1.0029183909
0.7925936895 0.2530355762 1.0093435266
0.8025830266 1.0003701186 0.2606504419
0.8126312761 0.0027352432 0.5159943573
0.8027045335 -4.656050941e-04 0.7628005744
0.8125208153 1.0009233806 1.0132188592
0.8024799299 0.2528403073 0.2636678623
0.8125797278 0.2508212266 0.5170962036
0.8025388423 0.2521705349 0.7603170477
0.8123993085 0.250359741 1.0149586166
0.8223260512 1.0005849144 0.2724117541
0.8424593705 1.0018541624 0.2765024852
0.8324368951 0.0022194078 0.5256145712
0.8225432907 0.0023523208 0.7693462965
0.842393094 0.0034770698 0.7768051611
0.8323595726 0.0016293051 1.0233352262
0.8226537515 0.250674124 0.270572582
0.8424593705 0.249844231 0.2778188096
0.8324258491 0.2528650414 0.5228604156
0.8225396087 0.2507977943 0.7724557676
0.8424925087 0.2492323884 0.7740583695
0.8324479412 0.2494868889 1.0245502949
0.8624969572 8.1249512816e-04 0.2774819042
0.8524523896 1.0038719414 0.5266795973
0.8624306807 1.002837016 0.7761295093
0.8524118874 0.0013193482 1.0273670449
0.8625853258 0.2509683292 0.2781603175
0.8524892099 0.2511889831 0.5234587449
0.8625853258 0.2527062226 0.7750847343
0.8524266155 0.2531865842 1.024421424
0.8823393964 1.0022381913 0.2814382414
0.8724752482 0.0024498902 0.5277989333
0.8926232956 0.0012840045 0.5357180512
0.8825124516 1.0008322551 0.7790972224
0.8725599348 0.0013970001 1.0273854551
0.8826339585 0.2510926504 0.2798816648
0.8925680652 -0.0011605021 1.0369034928
0.8725562528 0.252376869 0.5265332368
0.8925017888 0.2496658854 0.5317239732
0.8825860922 0.2526710742 0.7789158826
0.8725488887 0.2504105109 1.0237586592
0.8924907427 0.2509800453 1.0320616284
0.9026015867 0.0011479021 0.2861061301
0.9227975005 -6.9209170616e-05 0.2894236357
0.9125982878 3.3734073712e-04 0.5384814119
0.9026899553 0.9985345907 0.785716585
0.9227459521 1.0004026634 0.7924574545
0.9125246473 0.998482519 1.0373269258
0.9025205821 0.2504267833 0.2863914871
0.9226318093 0.247965744 0.2853025279
0.9126535182 0.2508960797 0.5355090962
0.9025316282 0.2483595363 0.7864437852
0.9225765789 0.2496632818 0.7860553314
0.9126351081 0.2482723162 1.0401804962
0.9426914881 1.0015547501 0.2868968452
0.9326321925 0.999751767 0.5392886961
0.9425736633 1.0003245558 0.7906679898
0.932702151 1.00174351 1.0429512209
0.9425662992 0.2488646319 0.2903708369
0.9325732801 0.2479351518 0.5386710362
0.9424926587 0.2482553929 0.7902786155
0.9324775474 0.2514538979 1.0366365459
0.9625007891 0.0011448428 0.2908550234
0.9525998206 1.0005653875 0.5472547598
0.9724348958 0.9991594512 0.5430636935
0.9625191993 1.0001357959 0.7936927743
0.9526292768 1.0008127282 1.042260841
0.9624750149 0.2489616155 0.2919071624
0.9725269465 1.1213057369e-04 1.0450223606
0.9525004059 0.251095254 0.5384933784
0.9725011723 0.2502575503 0.5453824495
0.9623756002 0.2500922226 0.7927216399
0.9525188161 0.2488438032 1.0383670982
0.9725011723 0.2494855871 1.0440742389
0.9824573712 0.0015550378 0.2964268496
0.9923693858 0.9980789632 0.5472234626
0.9823837307 0.9973043964 0.7941162073
0.9825236477 0.2504769024 0.2971568113
0.9925166668 1.1343236654e-04 1.0435955755
0.9925682152 0.2505035891 0.5438608521
0.9824684173 0.2503356578 0.7962729542
0.9925350769 0.2512534218 1.0447738239
0.0124943571 0.7514282715 1.0433010134
0.022440099 0.500930131 0.7940434873
0.0025597349 0.5019344642 0.7907379483
0.0125460159 0.501627892 1.0468541687
0.0224263651 0.7498596111 0.2926058269
0.0023198141 0.7511093322 0.2986572369
0.0123940219 0.7504909806 0.5398815023
0.0224444438 0.7493779477 0.7941327764
0.0225979475 0.5001816001 0.2911017192
0.0026019309 0.4992111135 0.2940086788
0.0023820403 0.7508099199 0.797515638
0.0125244024 0.5011136838 0.5432395102
0.032381938 0.7520726589 1.0416348965
0.0425207654 0.5030911071 0.7913243109
0.0325601481 0.5021440528 1.0452524873
0.0424592756 0.7520336051 0.2871232898
0.0325041813 0.7528862795 0.5422472042
0.042487259 0.7505039985 0.7898192827
0.0424217189 0.5010752809 0.2883687352
0.0325907089 0.5038676266 0.5397351418
0.0724530611 0.750412873 1.0316197852
0.0624405272 0.5004985867 0.7871314036
0.052467391 0.7506406868 1.0363972142
0.0725395887 0.5000891728 1.0328256488
0.0524644454 0.5007088262 1.0364984699
0.0625881765 0.7501525145 0.2823071995
0.0724744169 0.7496383063 0.5339819758
0.0525008975 0.7489939188 0.5393641776
0.0625145359 0.501174868 0.283918086
0.0725495302 0.4997786952 0.5304610383
0.0625152723 0.7495862346 0.784802522
0.0525395587 0.5021102062 0.5369837477
0.0925815938 0.7505821061 1.0282507312
0.1025127549 0.4993686305 0.7776465041
0.0825488088 0.501445641 0.7824248536
0.0924762879 0.5003684074 1.0288766757
0.1024380098 0.7503282565 0.2777847508
0.0825933613 0.7493584208 0.2798669367
0.0925440371 0.7510572605 0.5290572658
0.102352955 0.7503282565 0.7787032456
0.1024958176 0.499981124 0.2794066834
0.0825127249 0.500722495 0.2806456852
0.0825797378 0.7521963293 0.7807394061
0.0924332081 0.5015309084 0.5280732443
0.1124630625 0.7497359408 1.0268515613
0.1224568181 0.4982855388 0.7723471478
0.11238574 0.5006320204 1.0292264682
0.1225286176 0.7490004278 0.2737216349
0.1124207192 0.7510507515 0.5287930804
0.1224630775 0.4991479766 0.2749477496
0.1223754453 0.7470412296 0.7762675853
0.1124582759 0.5024174293 0.5313649757
0.1524542857 0.7499832814 1.0191837417
0.1426000789 0.4980629322 0.7705300679
0.1325194275 0.7486619617 1.0202239141
0.1526417008 0.5015296066 1.0177937768
0.1326000639 0.4999355613 1.0235745579
0.1424454338 0.7509921709 0.2718649732
0.1524612815 0.7498335752 0.5188571326
0.1324664064 0.7491891878 0.5206870997
0.1424719444 0.4986851892 0.2710328353
0.1425194425 0.7499247007 0.7691069648
0.1525201939 0.5003475787 0.5192354608
0.132533051 0.4998971584 0.5250272881
0.1725327428 0.7495797256 1.0112581802
0.1625607112 0.5004634383 0.7640414172
0.1724307507 0.4994936026 1.0103284686
0.1624977486 0.7488311947 0.2661605941
0.1724119723 0.7522874548 0.5102596014
0.1625146859 0.4982067803 0.2629885285
0.1625489287 0.7512199846 0.762607268
0.1725345838 0.502394648 0.5070700462
0.1924966889 0.7492087147 1.0057627561
0.202453256 0.4989585657 0.7570777851
0.1824764228 0.5001282266 0.7599884269
0.1924705466 0.4990138919 1.0054958092
0.2025651896 0.7465725841 0.2517426999
0.1824105145 0.7507513392 0.2521182666
0.192420471 0.7492607864 0.5036770591
0.2025972232 0.4974836344 0.251828307
0.2025088546 0.7492672953 0.753472161
0.1824716362 0.4995443725 0.2572832289
0.1823475519 0.7480761549 0.755580121
0.1923626632 0.5023614522 0.5064109635
0.2125357484 0.7472690433 0.9992363647
0.2224845832 0.4990171464 0.7531831219
0.2126679331 0.4990249572 1.0013995551
0.2225107256 0.7467092724 0.2534520806
0.2124274968 0.7480110652 0.4997133578
0.2225471777 0.4983376105 0.2554956052
0.2226318643 0.7479915383 0.750879094
0.2125552631 0.4981833481 0.5061440166
0.2525685784 0.7484341479 0.9951953409
0.2424713579 0.5007446255 0.7481497921
0.2324838618 0.7491306071 1.0007552005
0.2523833725 0.4997246708 0.9968614578
0.232402489 0.4999733132 1.0014731956
0.2424249644 0.7487986499 0.2471530543
0.2523108366 0.7481282266 0.4976716743
0.2326790092 0.7486489437 0.4997400525
0.2426388901 0.5015797256 0.2492794244
0.242564145 0.750237131 0.7468288652
0.2523395564 0.4994324183 0.4999563716
0.2326101553 0.4971334521 0.4996433993
0.2724401057 0.7486814885 0.9929861252
0.2624481912 0.5013909657 0.7460445936
0.2723745656 0.4979522798 0.9958120803
0.2622677719 0.7501264786 0.2448103651
0.2723322223 0.7480045563 0.4929522372
0.2623878059 0.5020190807 0.2468060233
0.2623491446 0.7485578182 0.7459792376
0.2722744145 0.5002466897 0.4941709879
0.2924430813 0.7477116529 0.9868371414
0.3025719672 0.5014026818 0.7348954182
0.2825299621 0.4988843635 0.7413500102
0.2925053075 0.4971087181 0.9862940425
0.3026544446 0.7487270513 0.2320438597
0.2824703133 0.7476400543 0.2405686709
0.2925598015 0.7470802833 0.4871033386
0.3024986949 0.5008689467 0.2346452112
0.302482494 0.7489353382 0.7325628546
0.2823506474 0.5000540244 0.2410095935
0.2823915179 0.7488116678 0.7423183831
0.2925605379 0.4980167186 0.4832482571
0.3326022048 0.7489809009 0.9733701305
0.3224828922 0.5005480548 0.7223461524
0.3125491536 0.748961374 0.9761408552
0.3325948408 0.4993263222 0.9731215937
0.3124670445 0.4989872052 0.9762881363
0.3225377544 0.7503282565 0.2277570607
0.3325127316 0.7485122555 0.4723872003
0.3125156472 0.7491306071 0.4774868066
0.3224306074 0.5006541509 0.2266773065
0.3225543235 0.7493974746 0.7230310092
0.3325797444 0.5000468645 0.4760462138
0.3124471615 0.4994128914 0.4765221157
0.3526567288 0.7498531021 0.9713634262
0.3424114908 0.4998210035 0.7192992757
0.3524575312 0.5000494681 0.9712897857
0.3425650313 0.7504909806 0.2206277374
0.3526176993 0.7491175892 0.4735470386
0.3425955922 0.4995638994 0.2205936787
0.3426467723 0.7479069218 0.7210215434
0.3525057657 0.4978500891 0.475016167
0.3726696459 0.7497619766 0.9711425046
0.3827289415 0.4995111768 0.7160020212
0.3625440738 0.4990640109 0.7214744327
0.3724155861 0.4996817116 0.9712621705
0.3825816604 0.7508424647 0.218947813
0.3625109355 0.7493649298 0.22379428
0.3725665491 0.7517667376 0.4705802459
0.3825632503 0.5012158745 0.2179582684
0.3824564715 0.7496187794 0.7190535004
0.3626140323 0.4991095737 0.2223463232
0.3624888434 0.7500418621 0.7230770346
0.3724303142 0.4986838874 0.4680663425
0.3925562694 0.7486749796 0.9631064824
0.4025382425 0.4999674552 0.7075683402
0.3925525874 0.5017118576 0.9615232112
0.4025198324 0.7483560403 0.2117853515
0.392489993 0.7483234955 0.4649439843
0.4026818415 0.4998314178 0.2058085024
0.402468284 0.7496122704 0.7146037717
0.3925894077 0.5004582311 0.4640188752
0.4324510235 0.7513436549 0.9520604038
0.4226826079 0.4991863795 0.6978855317
0.4125202156 0.7479589935 0.9544076955
0.4325430741 0.4994584542 0.9544445158
0.4127448192 0.4985895074 0.954757488
0.42241382 0.751519397 0.2071119397
0.4325578022 0.7462992076 0.4528586538
0.4125238976 0.7484927286 0.4568674598
0.4226052854 0.5001223685 0.20224246
0.4225242808 0.7497164139 0.704393513
0.4327271754 0.4984586773 0.4512993157
0.41258281 0.5001060961 0.4542605852
0.4524554719 0.7486619617 0.9506060034
0.4426023697 0.5000559771 0.7019449656
0.4525990709 0.5002668675 0.9525758875
0.4425176831 0.7468524696 0.2042602104
0.4524849281 0.7510572605 0.4524840076
0.4425287292 0.4994304656 0.2017794452
0.4426023697 0.7483104776 0.7056877453
0.4526653474 0.4975038122 0.4522152197
0.4725335608 0.7506341778 0.9479549446
0.4825486721 0.499660883 0.6987149081
0.4626031361 0.4985374357 0.697295487
0.4725372429 0.4988902216 0.9488110157
0.4827254094 0.7501264786 0.1999844574
0.4624521731 0.7490459905 0.2001842074
0.4725777452 0.7483625493 0.4451402063
0.4825781284 0.4981924606 0.1971465357
0.4824897597 0.7489418471 0.6983098852
0.4624632191 0.4997975712 0.201953421
0.4625994541 0.7478092873 0.6976876228
0.4724599203 0.4992501673 0.4510968042
0.4923539079 0.5002584059 0.9509742061
0.5026267611 0.7507448302 0.2000139137
0.4925858756 0.750790393 0.446153684
0.502328517 0.5015387192 0.2004051289
0.5025310284 0.7507122854 0.7018786891
0.4925637834 0.7502501489 0.9474394609
0.4925821936 0.5012575319 0.4496921112
0.502472116 0.5011950458 0.6996326532
0.5125387757 0.7516170314 0.9476419723
0.5124872273 0.5008181768 0.9514252543
0.5123804485 0.7495406718 0.4534698701
0.5125203655 0.5016207321 0.4539448515
0.5224029239 0.4986129397 0.7015334992
0.5324033071 0.7487595961 0.9504495173
0.5323664868 0.4975754108 0.9508545402
0.5224802464 0.5004029049 0.1989203519
0.5224728824 0.7500223352 0.2046072414
0.5324585375 0.751701648 0.4487946173
0.5322744362 0.5015517371 0.4512440853
0.5223550575 0.7497294318 0.6987222722
0.5422858654 0.4997311798 0.7020545059
0.5523746173 0.7496317973 0.9558528908
0.5624375949 0.4994044298 0.7075885913
0.5523930274 0.4996869188 0.9554478679
0.5423447779 0.4972896673 0.2003968444
0.5424626027 0.7493844567 0.2095595666
0.5623271341 0.4989481514 0.2050886663
0.5624633691 0.7515454328 0.2074387195
0.5522825666 0.4997949676 0.4557379983
0.5524408937 0.7485838541 0.4536337203
0.5425178331 0.7493714388 0.7031397831
0.5625149175 0.750061389 0.7070178772
0.582390495 0.5004556275 0.7182572623
0.5725042546 0.7499897904 0.960372578
0.5723606555 0.5010401325 0.9611458035
0.5823573567 0.5008663431 0.2126230124
0.5825046378 0.7493779477 0.2151967488
0.5722686049 0.4997097002 0.4627071534
0.5725153007 0.7512850743 0.4612325019
0.5824236332 0.7498270663 0.7136344783
0.602486994 0.4989859034 0.7178485573
0.5924682007 0.7489223202 0.9647725993
0.6125389256 0.7486294168 0.9704613298
0.5924129703 0.5004556275 0.9671014809
0.6124026906 0.499107621 0.9693383118
0.6024980401 0.7526389388 0.2209370276
0.6024685839 0.4995847281 0.2175532455
0.5924313804 0.7499377187 0.4628995393
0.592365104 0.4989357843 0.4642333532
0.6125057874 0.750412873 0.4716646027
0.6124652851 0.4979893809 0.4673161297
0.6024096715 0.7507513392 0.7186595236
0.6224178019 0.4984619317 0.7221417999
0.6326059685 0.7471974447 0.9745759941
0.63253601 0.5009307819 0.9739592547
0.6224803964 0.7517927735 0.2237620622
0.6225356268 0.4989117012 0.2211570287
0.6326022864 0.7486814885 0.4737615166
0.6325102358 0.498152105 0.474520014
0.6224767143 0.7515844866 0.7267747094
0.6425216651 0.497781745 0.7243187979
0.6524410437 0.7492087147 0.9773098986
0.6624487909 0.4998073347 0.727001154
0.6525699146 0.4994617087 0.9784329165
0.6424811628 0.7506927585 0.2281445939
0.6425327111 0.5004367515 0.2257531179
0.662603436 0.748961374 0.2319159093
0.6624929752 0.4986969054 0.2300666116
0.6525846427 0.748056628 0.4772778516
0.6526840574 0.4983734098 0.4767411963
0.6426652641 0.7503673103 0.7287814137
0.6625224314 0.7500874248 0.7336334037
0.6824900596 0.5007927918 0.7379846382
0.6725412248 0.7494886001 0.9837534444
0.6725964552 0.5007140334 0.984535875
0.6825637001 0.75187739 0.2343939129
0.6825195158 0.5026940603 0.2362404491
0.6725412248 0.7503477834 0.4820138578
0.6725927731 0.5000227814 0.4830825659
0.6824974237 0.7507383213 0.738236857
0.7025166002 0.5005832032 0.7412469134
0.692383664 0.750412873 0.9925534871
0.7124249327 0.7500028083 0.9963919994
0.6924904428 0.4989624711 0.9892488686
0.7123476102 0.5013089527 0.9906664486
0.702487144 0.749690378 0.2414744493
0.7024024574 0.5029316375 0.2400881665
0.6923910281 0.7514217625 0.4895132247
0.6924867608 0.5001093506 0.4857188967
0.7124875272 0.5001536116 0.4915052009
0.7124507069 0.7459932863 0.4945981029
0.7024797799 0.7509400991 0.7421471688
0.7225910071 0.5022390837 0.7443628281
0.7325030217 0.7493454029 0.9965300754
0.7424629026 0.5033358442 0.7460712883
0.7325324779 0.5023074278 0.9956647992
0.7225247306 0.7514152535 0.2441061776
0.7224952744 0.5035825339 0.24276592
0.7424481745 0.7523655623 0.2487887944
0.7426101836 0.5023015698 0.2453994893
0.7324404272 0.5000865692 0.494396512
0.7324772475 0.7514543073 0.4933775112
0.7225946891 0.750230622 0.7460731293
0.74238558 0.7523915982 0.7488217619
0.7524780139 0.5011859333 0.500360474
0.7524706498 0.7521702934 0.9981409619
0.7624415768 0.5014872983 0.7497726451
0.7524632858 0.5005565164 0.9980857315
0.7624084386 0.7536608462 0.2482567416
0.7623679363 0.50098025 0.2505303928
0.7524227835 0.7510767874 0.4975345188
0.7624010745 0.7523785803 0.7507934869
0.7723683195 0.4992944283 0.5013270058
0.7724051397 0.7517992824 0.9987300861
0.7924537725 0.4988075577 0.5107299803
0.7925642333 0.7526975195 1.0088740683
0.7824791635 0.5007524363 0.7520757525
0.7725561028 0.5012028566 1.0003317675
0.7925421411 0.4993041917 1.0090213493
0.7823134723 0.7514412894 0.2526613655
0.7824975736 0.4994708212 0.2543992819
0.7723940937 0.7518904079 0.4988204665
0.7925900075 0.7506146509 0.5050228396
0.7824865275 0.7518969169 0.7538063048
0.812472949 0.5016324482 0.5150894993
0.8124398108 0.7514673253 1.017830597
0.8025867086 0.499698635 0.761900319
0.8126680964 0.4985348321 1.0191469214
0.8027045335 0.7504844717 0.2642744762
0.80249834 0.5004575802 0.2637194107
0.8124987232 0.7508359557 0.5183241593
0.8025314782 0.7505105075 0.7618690217
0.8324368951 0.4998763297 0.5222611659
0.8325031716 0.751519397 1.0285637035
0.8224217838 0.5024128731 0.7752356974
0.8424556885 0.5014723277 0.776027333
0.8323816647 0.5003540877 1.0250381634
0.8223481433 0.7508554826 0.2710622915
0.8224733322 0.5007888865 0.2710503249
0.8424004581 0.7521052038 0.2773953766
0.8424188682 0.501884996 0.275488087
0.8323411625 0.7492282415 0.5289624536
0.8224696502 0.7512264936 0.7726610406
0.8423268176 0.7526779926 0.7781730338
0.8525518043 0.5018875996 0.5220540519
0.8625153673 0.7523460354 0.7755541927
0.8625374594 0.5013733915 0.7716411193
0.8525149841 0.75168863 1.0244766544
0.8525628504 0.5019715653 1.0253971609
0.8624564549 0.7520856769 0.2736535174
0.8625890078 0.5020913302 0.2711976059
0.8525260302 0.7512720563 0.5311909999
0.8726888057 0.5019123337 0.5224710414
0.8826413226 0.752430652 0.7780395604
0.8924796966 0.4993556125 0.5317074041
0.8724642021 0.7510963143 1.0241728872
0.8925533371 0.7507513392 1.0326047272
0.882424083 0.5017509114 0.7753065764
0.8726335753 0.5001015398 1.0207301927
0.8925496551 0.5009581195 1.0284808579
0.882567682 0.7503412744 0.2813682829
0.8824682673 0.5014384811 0.2715704111
0.8725047044 0.7505690882 0.5230583245
0.8925165169 0.7509010454 0.5314975286
0.9126130159 0.4985628207 0.532392261
0.9025205821 0.7479069218 0.7837770777
0.9226502194 0.7517862645 0.785431228
0.9126424722 0.7500744069 1.036369599
0.9025684484 0.4983675518 0.783884777