POSCAR file written by Ovito 3.7.11
1
271.6309778392 0.0 0.0
0.0 15.3657685128 0.0
0.0 0.0 10.8652391135
Sr Ti O 
800 800 2400 
Direct
0.0223124032 0.4992990914 0.7724602752
0.0124479907 0.2499649955 0.522204393
0.0223860693 0.2484740189 0.7692951355
0.0024481004 0.2504381251 0.772203493
0.012343658 0.2508058255 0.0199180702
0.0225071159 0.0012275505 0.2717147377
0.0023547752 0.0013992959 0.27287624
0.0024575617 0.5002349378 0.2751338985
0.0123132491 0.5026051414 0.5223801829
0.0123734042 0.0019817594 0.5210143593
0.0224848798 0.0012649713 0.7702182629
0.0023430682 0.0016333876 0.7755757151
0.0223362223 0.2487506078 0.26950954
0.0025241594 0.2517820214 0.2720709195
0.0325047237 0.500337113 0.0186533028
0.0424236955 0.4987960251 0.2666950599
0.0324564965 0.4999700633 0.5190355718
0.0325293896 0.2520104512 0.5163554651
0.0424222229 0.2521471187 0.7638410447
0.0323456844 0.2520826897 0.0145729509
0.0525087014 0.5005271458 0.0159372098
0.0425345076 0.001107153 0.767002503
0.0424678731 0.2470715508 0.2643389221
0.0523813227 0.2500593611 0.5100712039
0.0523934715 0.2513446856 0.0104798978
0.062334532 0.2516570683 0.2611811453
0.0624759003 0.5008174014 0.7623454495
0.0725896216 0.5005427649 0.0085208061
0.0624331953 0.5004165102 0.2616965504
0.0725667965 0.5001099847 0.5094379919
0.0723709426 0.2502637114 0.5059194315
0.0624729551 0.2518425455 0.7635676959
0.0722859007 0.2517065289 0.0042284938
0.0924408184 0.2486809725 0.501551373
0.1024061766 0.2505318399 0.7457319173
0.0824334915 0.2502591558 0.7522204997
0.0923999541 0.248733687 9.9638462348e-05
0.1025085214 9.2577578575e-04 0.2522462292
0.0924481813 -0.0033999109 0.5046732555
0.1023616309 0.2500105513 0.2469771321
0.0824257604 0.2518340852 0.2517851257
0.1025475449 0.4990185977 0.7494308695
0.0825163244 0.4987381041 0.7548490659
0.1023885056 0.4995353308 0.2530708774
0.0824493218 0.4995646166 0.2572953588
0.1223876973 0.2480607627 0.2476213885
0.1126465403 0.4993947586 -0.0030926889
0.1124219709 0.2485280351 0.4983641445
0.1223645041 0.500905259 0.2496296278
0.1124841877 0.5005421141 0.4961930004
0.1224160446 0.2484649078 0.7440430451
0.1124587856 0.2475505376 -4.0833010993e-04
0.1225684572 -0.0011034101 0.2461580061
0.1525381612 0.2502969021 0.4892460755
0.1324329433 0.2487135123 0.4935027697
0.142366641 0.2486562422 0.7443550493
0.1524984014 0.2489139579 -0.0110247555
0.1325297659 0.2485247811 -0.0040185682
0.1425856881 -8.9125015582e-04 0.2438451255
0.1423935156 0.247170472 0.2449329985
0.1425334113 0.499056344 0.7462556057
0.1524358165 0.4998477134 -0.0099895458
0.1324966327 0.499435108 -0.0032110112
0.1523883256 0.5002180171 0.4935810008
0.1324708624 0.5003891768 0.4951851993
0.1824055205 0.25116051 0.2379207276
0.1723333998 0.4994513779 0.4894476357
0.1825490976 0.4989990738 0.7378683075
0.1724040839 0.2483484151 0.4899280669
0.162442039 0.249683851 0.7407251246
0.172384204 0.248977736 -0.0083005634
0.1824139879 0.499438362 0.241893949
0.1624457205 -5.7118806482e-04 0.740374465
0.1624674411 0.2493838335 0.2364398582
0.1825756042 0.2496929622 0.7363110477
0.1824813587 -1.8188114568e-04 0.2398479747
0.192497153 0.001974926 -0.0131194816
0.2026557881 0.2508617941 0.2408705016
0.202441895 0.5007516708 0.7398747061
0.1924912626 0.5013081025 -0.0088462714
0.2025486575 0.5012313084 0.2404287258
0.1924238918 0.5002069535 0.4923651969
0.1924378814 0.2491612608 0.4900467942
0.2025085295 0.2517950373 0.7382824724
0.1924989937 0.2505799989 -0.0099754734
0.202441895 0.0012380283 0.2416362464
0.2126491255 0.2507615713 0.4907435115
0.2224499222 0.2496721367 0.7463697311
0.2124598982 0.2496174697 -0.01139801
0.2224278334 -2.2906394681e-04 0.7449588096
0.2224363008 0.251828228 0.2443485659
0.2323935598 0.2483829073 0.4952413416
0.232509526 0.2508617941 0.9935460677
0.2324233797 0.0011776994 0.4953342986
0.2224911546 0.4979545442 0.7456352788
0.2125169609 0.5009104654 -0.00815842
0.2124363368 0.5009137193 0.4929137352
0.2424244481 0.4998047608 0.7457797763
0.2626066086 0.2497957882 0.7463071462
0.2625812065 4.8590191974e-04 0.2498044974
0.2625252483 -2.9290715773e-04 0.7495698448
0.2525249161 0.2511227638 0.4972256514
0.2425069129 0.2523436594 0.747065528
0.2525123991 0.250775238 0.9971539036
0.262557277 0.2505793481 0.2505757643
0.2425827511 -4.716160845e-04 0.2492587202
0.2624862247 0.5002329854 0.2495053783
0.2525643078 0.0025441784 0.498229771
0.2425238477 6.681251517e-04 0.7442041092
0.2524685897 -0.0010958608 0.9967765534
0.2424925552 0.2513889398 0.2466632872
0.2726522228 0.249687105 0.5024524116
0.2726706301 0.2498582647 1.0022895476
0.2724162409 0.0012740825 0.5011500933
0.2724534237 4.9989406076e-04 0.9976969197
0.2824301945 0.2523358499 0.7557372194
0.272524476 0.499961603 0.5049521265
0.2825376932 0.2514449084 0.2518228607
0.3125534156 -8.2148468987e-04 0.5036304805
0.2924971611 0.5014760082 0.5102276662
0.292393712 0.2523618817 0.5072493608
0.3025718589 0.2529079006 0.757939656
0.2924831716 0.2509503025 1.0084928165
0.2925258766 0.0024211777 0.5060722123
0.3026090417 0.0013443686 0.756497442
0.3125180735 0.5009163225 0.5061752934
0.3024382217 0.2509652708 0.2577362142
0.3126303582 0.2492419597 0.5076110648
0.31246911 0.2512913203 1.0090910546
0.3224083298 0.0010252176 0.2545839596
0.3324381137 0.0014140039 0.505224555
0.3224377815 4.8154157811e-04 0.756462468
0.3324977534 0.0014317056 1.0043235571
0.3224536118 0.2489419422 0.2527238993
0.322557061 0.5031531127 0.756304165
0.3225809905 0.5006833371 0.2537096116
0.3325272051 0.2501094724 0.5023180382
0.322416429 0.2500990597 0.7582350936
0.3323681659 0.2476833003 1.0043143535
0.3623551727 0.251824974 0.2475459185
0.3524446683 0.4996583314 0.4997041979
0.3524354647 0.2501114248 0.5009991532
0.3423898505 0.2505617765 0.7540492676
0.3624987499 0.5001600961 0.7450895016
0.3525098303 0.2492348009 1.0011206824
0.3625650162 0.500577908 0.2458358779
0.3424255607 0.0024958892 0.2523345844
0.3423110671 0.2503235847 0.2543842401
0.362380943 0.2513030346 0.7487139041
0.3424561169 0.5000175715 0.7476674476
0.3424748923 0.4997143 0.2499600393
0.3823308031 0.2506619993 0.2425510905
0.3924621954 0.2501329011 0.4836272392
0.3924879656 0.2521425631 0.985833398
0.3924842842 -8.1723447828e-05 0.9872323548
0.3824780617 0.5018046608 0.7369516227
0.3925763208 0.5030034293 0.9844344412
0.3724534318 0.2493578016 0.4945013671
0.3824007509 0.2509027943 0.7450738554
0.3724092543 0.2509821916 0.9981755102
0.3925763208 0.5025810619 0.4887923349
0.3723061732 6.4443613154e-04 0.4909331069
0.4126808024 0.5018476134 0.9856585284
0.4025125954 0.2498458996 0.7372323344
0.4025310028 4.4704932349e-04 0.7325633161
0.402508914 0.2509457469 0.237466987
0.4124967291 0.2497508832 0.484578898
0.4125004106 0.2484323679 0.9846277182
0.4125445882 5.4408319451e-04 0.4852203933
0.4125077735 0.0013306368 0.9850786977
0.4425190781 -2.1097178307e-04 0.7267272734
0.4426663367 0.2498960109 0.2284427954
0.4226170771 0.5008258617 0.7343396231
0.4326674771 0.4999778729 0.9801271269
0.4326417069 0.5007594804 0.4828550519
0.4426184776 0.50010608 0.7301703637
0.4426111147 0.502513379 0.228070047
0.4325643961 0.2502337747 0.4776660266
0.4226575732 0.2508533337 0.7333787607
0.4325165371 0.2495959934 0.9823268024
0.4225434478 -0.0032977292 0.2295886514
0.4325828034 4.8876542767e-04 0.9795657035
0.4225029516 0.250509062 0.2342815992
0.4426037518 0.2479195397 0.7292343512
0.4725782417 0.2500990597 0.4754663512
0.4625057528 0.2493525952 0.7267447604
0.4723794426 0.2501706474 0.9754056478
0.4725708787 0.0017533296 0.9746877621
0.4623953089 0.2492471661 0.2246564084
0.4527240997 0.4978705914 0.9768690302
0.4526026113 0.4983827688 0.4743950448
0.4625352045 0.499480013 0.725228917
0.4725267012 0.4993179645 0.9728102148
0.4626088338 0.4998887137 0.2275141458
0.4524627157 0.2491215622 0.4760977224
0.4525326635 0.2519785622 0.9737397848
0.4525547523 3.0218185408e-04 0.4783112034
0.482440887 0.250509062 0.7275279921
0.4825623754 -0.0039637096 0.7280590434
0.4927526711 0.5003976371 0.9812499738
0.4926054125 0.49933879 0.479064063
0.4824592944 0.2480139053 0.2245303182
0.4923329841 0.2483223832 0.4792177642
0.4924471095 0.2506262055 0.9818113973
0.4825292422 0.4979187504 0.2301463934
0.5025159169 0.2505669829 0.7313429104
0.5124595545 0.2516577191 0.4866018631
0.5125000506 0.2491762292 0.9861923409
0.5023686583 0.0038177236 0.7319761224
0.5023870656 0.2485657813 0.2335563506
0.5224694585 0.2522564526 0.2399381706
0.5223590145 0.2511598592 0.7414779842
0.5125295023 0.500282446 0.4862640887
0.5224768214 0.5011668795 0.7398424933
0.542367778 0.500240795 0.7450471647
0.5525065333 0.4981309103 0.9964176106
0.5424156371 0.5003963355 0.2436536894
0.5524513113 0.5016126756 0.4995422134
0.5323505111 6.1827408181e-04 0.4909459921
0.5324425478 0.2517553387 0.4932266598
0.5324020516 0.2519108792 0.9917237424
0.5324977697 0.501335436 0.9939970472
0.5522819639 7.567637381e-04 0.9935000494
0.5425481698 0.2512093198 0.2482389543
0.5524734001 0.2495745171 0.4979564222
0.5424156371 0.2504524426 0.7468961806
0.5524218596 0.2493480397 0.997853382
0.5724490304 0.2487480046 0.5040602916
0.5724343045 0.2487141631 1.0037161154
0.5624023118 0.4999199519 0.7479049021
0.5624575338 0.4974443192 0.2476140256
0.5724563933 0.5012475783 1.0024183989
0.5725079339 0.4986931991 0.5001873902
0.5624391265 0.2508383654 0.2537307801
0.5622660976 0.2502240128 0.7495827299
0.6024787423 0.4994435683 0.7584200872
0.5924835642 0.5000377462 1.005446404
0.5924393866 0.5015456435 0.5077509605
0.5824994305 0.2507062535 0.755213531
0.6025376457 0.2499962337 0.2618704997
0.5923620758 0.2500216148 0.5094600807
0.6026370453 0.2498725822 0.7604835484
0.5923731202 0.2504680617 1.0096248671
0.5824736602 0.5004314786 0.7521459501
0.5823558533 0.4998112688 0.2517391074
0.582550971 0.2497762642 0.2554454225
0.612518098 0.5004770344 1.0065416399
0.6125328238 0.4999401267 0.5070339951
0.6225169575 0.501463643 0.7586676657
0.6126359048 0.0014437453 0.5103031362
0.6225574536 0.5011577683 0.259506999
0.6125696385 0.2490629905 0.5049502858
0.6124849648 0.2500456943 1.0110606385
0.6225500907 -0.0016097303 0.7573469401
0.6227047122 0.24851567 0.2579663058
0.6226973493 0.2490955303 0.7567045244
0.642525721 -0.0024506385 0.2506714824
0.6524399069 -5.6871503525e-04 0.498797637
0.6326409869 0.4972991914 0.505747323
0.6425625357 0.2476859035 0.2508113781
0.652432544 0.250117282 0.4975275315
0.6424852249 0.2478661743 0.7523208197
0.6326152166 -5.0187815695e-04 0.5035844622
0.6524656772 0.2495881838 1.0009458128
0.6425588542 0.4997813321 0.754452388
0.6525982099 0.4976688442 0.4977465787
0.6324826839 0.2479221429 0.505671853
0.6324164175 0.2503632834 1.0076184685
0.6825911071 0.4992060273 0.7419998319
0.6624866255 -0.0014647978 0.2447949436
0.6824843446 0.4991259793 0.2409358476
0.6624424479 -0.0012541347 0.7443044291
0.6725186183 0.4990667567 0.4933748388
0.6624866255 0.2496799463 0.2468777325
0.6624792626 0.250829905 0.7474677281
0.672492848 4.8544636166e-04 0.9957641505
0.6623761816 0.4972302069 0.7454364797
0.6624608553 0.4962592174 0.2459076664
0.6825137964 0.2485338923 0.2421774218
0.6725222997 0.2485553686 0.4942620719
0.6825358851 0.251163764 0.7433748592
0.6724597148 0.2487388934 0.9944480267
0.7024121159 0.2485742417 0.2382373336
0.692553152 0.2501394091 0.4902851691
0.7025409672 0.2489770852 0.7390445357
0.6924905671 0.2482865893 0.9904352296
0.692553152 0.4976720982 0.9915488728
0.6925273818 0.4990335661 0.4888724068
0.7325412274 0.4995834898 0.9794736668
0.7323608356 0.4996336011 0.4821132366
0.7125287824 0.250300156 0.4856290359
0.7124993306 0.2496402476 0.9854652515
0.7225460493 0.0011191927 0.2308016942
0.7324970498 -3.8037430907e-04 0.481053895
0.7325596347 -0.0024657109 0.9807989943
0.7123999311 0.4979564966 0.987582094
0.7223472501 0.2481154296 0.2308596773
0.7324896868 0.2498966617 0.4793944746
0.7223951092 0.2467337871 0.7337542701
0.7325007312 0.2478499044 0.9828698185
0.7125287824 0.4990374709 0.4872295529
0.7124882862 -8.218100885e-04 0.4878149059
0.7125876858 -0.0027689109 0.986790579
0.752480043 0.498722485 -0.0195976731
0.7426063533 -8.7393894879e-04 0.2274349943
0.7426210791 -0.0025186077 0.7272693691
0.7425511313 0.2469374866 0.2296954139
0.7424848649 0.2496461048 0.7281713281
0.762386866 -0.0035323807 0.2268735708
0.7524910874 -0.0024367505 0.4770825144
0.7624973099 -7.311540306e-04 0.7264769338
0.7524616357 -3.0214847878e-04 -0.022861292
0.7625120358 0.2479976353 0.2281133043
0.7524689986 0.2494332941 0.4763646287
0.7625267616 0.2481453663 0.7266241924
0.7524984504 0.2506613485 -0.0226944296
0.7825244808 -0.0020163615 0.2267226308
0.7824324441 -0.0032605166 0.7263775342
0.7724740807 -0.00315553 -0.0240354033
0.7824545329 0.2484206536 0.2296079791
0.7724151772 0.2480223656 0.4772316137
0.7823993109 0.2485436542 0.7286223076
0.7724188587 0.249218531 -0.0244630975
0.7925122959 -0.0038283307 0.4791432146
0.7925932882 -0.0044671077 -0.0155235336
0.8124400672 0.5010347676 -0.0099410241
0.7925969696 0.2497612959 0.4831412858
0.7924349852 0.2473949971 -0.0206843496
0.8026068736 2.2890208294e-04 0.2360256934
0.8125394668 -0.0019854746 0.4905575975
0.8025774219 -0.0015102885 0.7346801587
0.8125762814 -5.2062111795e-04 -0.0095861217
0.8024228003 0.2499259476 0.2361674298
0.8123480306 0.2510407633 0.4922068939
0.8023859857 0.2479527303 0.7358140499
0.812462156 0.2515867822 -0.0098748498
0.8324819639 0.0013743053 0.4932367838
0.8225714595 2.8151158579e-06 0.741648252
0.832529823 0.0014490819 -0.0039444511
0.8225125561 0.2503203308 0.2405133995
0.8323531126 0.2513388285 0.4952413416
0.8224057936 0.2494489132 0.7421682589
0.8324451493 0.2489530057 -0.0084708126
0.822464697 5.638023514e-04 0.2398231248
0.8425065937 0.0015908255 0.7437522093
0.8425102752 0.2501875681 0.2453959428
0.842429283 0.2487362902 0.7420145578
0.862537446 6.8328872779e-04 0.2456849378
0.8423887869 0.499043328 0.7472634068
0.8525496309 9.6139442513e-05 0.494543704
0.8625484904 1.6798745969e-04 0.7486485581
0.8525938085 -4.4174449041e-04 -7.6744783935e-04
0.8625779422 0.2482065413 0.2465841357
0.8425213196 0.0010535273 0.2449753354
0.8523950093 0.2497085813 0.4969099657
0.8626147568 0.2494085638 0.7456490843
0.8525312236 0.2494124686 -0.0036632516
0.8725105354 -0.0023589477 0.499400477
0.8925818838 -0.0026393437 0.504955808
0.8726246608 -0.0020053955 -0.0021052371
0.8824873061 0.2508852228 0.2548223345
0.8926591946 -2.8288487997e-04 0.0042607066
0.8726062534 0.249417675 0.4981690269
0.8926444687 0.2496168189 0.5063354371
0.8825351652 0.2492556264 0.7481754898
0.8725510315 0.2473195046 -0.0011312686
0.8925708394 0.2505559194 0.0055047657
0.9026838244 -0.0024436099 0.2561614675
0.9126826839 0.0014773265 0.5099579989
0.9026470097 -6.2234072923e-04 0.7559571869
0.9024776623 0.2521581822 0.2551950828
0.9125280624 0.249728756 0.5106823272
0.9026065136 0.2509080007 0.758404441
0.9026911873 0.5009657831 0.7590551399
0.9126532322 0.2492556264 0.0110694845
0.9226263215 -6.5449011372e-04 0.2642487262
0.9225453293 0.0011204292 0.7645432842
0.9225342849 0.2497137877 0.2634839018
0.9225232405 0.2491846895 0.761615599
0.9425614557 9.6228551187e-04 0.2657700917
0.9325221 6.2100743029e-04 0.5141815599
0.9423479307 -0.001753947 0.7675234303
0.9326030923 9.4998544371e-04 0.0152355226
0.9425798631 0.2503092672 0.2647540073
0.9325589147 0.2519030697 0.5188027191
0.9425798631 0.251597195 0.7656716533
0.932577322 0.2500971073 0.0169085644
0.952486686 0.0011277833 0.5194442144
0.9525161377 0.0017481883 0.0181951445
0.9625739007 0.250922969 0.2688266282
0.952486686 0.2492263406 0.5200157619
0.972491768 0.2507166663 0.5204115194
0.962489227 0.2505468082 0.7695583602
0.9526413075 0.249456072 0.0203727312
0.9725985305 0.248027572 0.0222130036
0.9624266421 -8.4178956429e-04 0.2696770467
0.9826194789 0.4993127581 0.7725697988
0.9825863457 0.4975595103 0.27337876
0.9823617763 0.0011803677 0.2750059676
0.9925005316 -7.6883519178e-04 0.5243967055
0.9824206798 0.2483386531 0.2704639599
0.9925631165 0.002087514 0.0230146427
0.9925299833 0.2482904941 0.5210244834
0.9824427686 0.2527243758 0.7730815225
0.9924342652 0.2490655936 0.0217459177
0.012477921 0.7511231376 0.0219908272
0.0024641515 0.4989841055 0.7729664767
0.0123872465 0.5001158419 0.0228238507
0.0224154842 0.7518259986 0.2731357833
0.0025269205 0.7533748961 0.2749636308
0.0124706317 0.7520928255 0.5227105944
0.0224964764 0.7495547162 0.7690724068
0.0223634651 0.5001366674 0.2709342671
0.0025322955 0.749841067 0.7716761231
0.0124942299 0.9994868948 0.0233101723
0.0525569285 0.9991484802 0.5158115286
0.05257055 0.9997276897 0.0157906875
0.0323534155 0.750081862 0.016653807
0.0424943796 0.4994813146 0.7669077053
0.0424008704 0.7501534496 0.2662164694
0.0323876531 0.7502250373 0.5184088023
0.0424612464 0.7505113881 0.7671994614
0.0523699101 0.7500167822 0.0197389669
0.0523069571 0.7494961444 0.5188183653
0.0524991295 0.4998327451 0.5155952425
0.0423909305 0.9997341977 0.2678077827
0.0325658361 0.9999619768 0.516531255
0.0323799221 0.9991484802 0.0181890701
0.072460034 0.9999489608 0.5133845226
0.0625134513 1.001315635 0.7617775835
0.0724136476 0.9998188014 0.0083658164
0.0724707103 0.7506610715 0.0099636644
0.0624302501 0.7502901171 0.2651911813
0.0723286057 0.7492943973 0.5124899266
0.0624597019 0.7511361535 0.7667383579
0.0624446079 0.9997602296 0.2635961865
0.082397045 1.0011464278 0.2547790773
0.1025372368 1.0001572159 0.7496462352
0.082563079 1.0012896032 0.7557528656
0.0923572491 1.0010748401 0.0042214069
0.0924275651 0.7490601103 0.0047176684
0.0924470769 0.5004217166 -2.4585784572e-04
0.1025284013 0.7504137686 0.2519811637
0.0823300423 0.7504202765 0.2573128457
0.0925461083 0.7519040943 0.50440819
0.1025431271 0.7508302788 0.7508270651
0.0824518988 0.7492878893 0.7603013159
0.0925258602 0.4980280843 0.4996821091
0.1124967047 1.0005411863 -0.0010175482
0.1124661485 0.7511621854 0.0014080312
0.1225136034 0.5002023979 0.748153401
0.1225062405 0.7500558301 0.249049797
0.112530206 0.7502640852 0.5019462102
0.122505136 0.7487802674 0.7468704104
0.1124602582 0.9991680041 0.4990268083
0.1225949638 0.9973718037 0.7465777339
0.1524291899 1.001100872 0.4907591577
0.1324841157 0.9967014825 0.4958865184
0.1426552678 0.9996430861 0.7462132688
0.1524523831 1.0007819813 -0.0091506577
0.1324130634 1.0003003913 -7.9052142267e-04
0.1524520149 0.7501990055 -0.006147127
0.1325949278 0.7502705932 -0.0040234369
0.1425168447 0.7474786729 0.2462629278
0.1524987696 0.7518064747 0.4961239729
0.1325032593 0.75053742 0.4993360513
0.1425013826 0.5004457961 0.2440338006
0.1424553643 0.7479928028 0.7453923021
0.1725012746 0.7520928255 -0.0088404777
0.1625016787 0.4993042977 0.7425143167
0.1723525434 0.5007829091 -0.0085246209
0.1625557963 0.7481489941 0.2415386876
0.1826032152 0.9992721317 0.739826847
0.172560178 0.7517153631 0.4900771663
0.1624383575 0.5015625642 0.2403643002
0.1624070651 0.7497109075 0.7408364889
0.1823709147 0.7515266319 0.2429229185
0.1825586694 0.7507261512 0.7412626185
0.1624181095 0.9996886419 0.2409128385
0.1724250683 1.0003589631 0.4921093351
0.1723705826 1.0005737262 -0.0129048245
0.19242426 0.9992200679 0.4870316742
0.202451835 1.0002743594 0.7413031146
0.1925619468 0.750771707 -0.0093169145
0.2024223832 0.7480643905 0.2416877869
0.192648093 0.7493334451 0.4904453128
0.2025107384 0.7503812287 0.738801559
0.2324322152 0.7516893312 0.9964176106
0.232326189 0.4991539636 1.0008537762
0.2324550403 0.7509864701 0.4988620627
0.2324145442 0.4990491852 0.4969780729
0.2224385097 1.0018623047 0.246743359
0.2124808825 1.0027018332 0.4892819698
0.2124459086 0.9984521271 -0.0099106613
0.2125703421 0.7499061467 -0.0084190825
0.2324211708 1.0022918309 0.9983411761
0.2223468412 0.7507196433 0.2455468828
0.2125942717 0.7531080692 0.4962104874
0.222559998 0.5008271633 0.2450913015
0.2223497864 0.7484874087 0.7424342448
0.2526055402 0.751012502 1.0010654604
0.2525436916 0.5008623064 0.9993903937
0.2424270251 0.7494245567 0.2453802965
0.2525731433 0.7491967777 0.497661905
0.2424966048 0.502420315 0.2463356368
0.2424538998 0.7494831285 0.7487507188
0.2525230754 0.4988370253 0.5007828672
0.2625517548 0.5022498061 0.7492707257
0.2625351882 0.7511166296 0.247597459
0.2625208305 0.7517479029 0.7505307072
0.282471795 0.501666041 0.7550948037
0.2824578055 0.7504658323 0.2539783586
0.282481735 0.499242472 0.2569005216
0.2824578055 0.749828051 0.7538688758
0.272527053 0.7513574246 1.0031270809
0.2723775855 0.4997923957 1.001350774
0.2724976013 0.7504918642 0.4986255285
0.2824938838 1.0030858036 0.2540022881
0.2824184138 1.0023308788 0.7554316578
0.3124643241 1.0005867421 1.0025196392
0.29233849 0.7509994861 1.0062195117
0.3025449842 0.4999173487 0.7565232122
0.2925645319 0.5015690722 1.0105912517
0.302584744 0.751741395 0.2571766315
0.2924570332 0.7531210851 0.5062157895
0.3024739319 0.5024066483 0.2597021167
0.3025055925 0.7523075886 0.753874398
0.3023145245 0.99966261 0.2597610201
0.3124635878 0.7500232902 1.0042499278
0.3124687419 0.50226933 1.0072963403
0.3126340396 0.7495221763 0.507840236
0.2925078374 1.0024740542 1.0067165095
0.3323957768 0.7511166296 1.0018385681
0.3324108708 0.4985077219 1.0038449667
0.3224248964 0.7504463084 0.2522434681
0.3324749283 0.7498801148 0.5007801061
0.3225161968 0.7488713791 0.7542222965
0.3324903905 0.4977313208 0.5022683384
0.3523397466 1.0010553161 0.5004598186
0.3424329236 0.9987514939 0.7554150912
0.3624435279 0.7489169349 0.2481367936
0.3524004907 1.0030727876 1.0001450941
0.3625466089 0.7522750487 0.7468474012
0.3624324835 1.000853569 0.2465565247
0.3524855326 0.7514680601 0.9970250523
0.3623625357 1.000131184 0.7493949752
0.3524980496 0.4990283597 1.0001358904
0.342501767 0.7511621854 0.2523345844
0.3523923915 0.7524247321 0.4975533018
0.3424910908 0.7511166296 0.7550110504
0.392554232 1.0005346783 0.4896924532
0.3725344241 0.7532382286 0.9936012897
0.3725160168 0.501906836 0.9964820362
0.3825958686 0.7506350396 0.2378682667
0.3726338236 0.7520407617 0.4914669194
0.3825958686 0.5027743487 0.236703083
0.3824706987 0.7525223517 0.7402216842
0.3825222393 1.0012635713 0.2392681439
0.3824449285 1.0004695986 0.7419989115
0.3722656771 1.0004240428 0.9960034457
0.3724313431 0.5008928938 0.4939417844
0.3925395061 0.7489169349 0.9852995856
0.3923996105 0.7509344064 0.4833014295
0.4125961287 0.7508823426 0.9821243218
0.4125998102 0.7494245567 0.4818021528
0.4124856847 0.499720808 0.4855894602
0.4024720993 0.9985562547 0.2349313779
0.4024720993 0.499194313 0.7356621895
0.4026304023 0.7493074132 0.2323451485
0.4025236398 0.5010184977 0.2367095256
0.4026230394 0.7516958391 0.7333465479
0.4327006103 0.7491056661 0.9778078038
0.4227680171 0.7495417002 0.2339244971
0.4327337435 0.7511752013 0.4801565379
0.4226318029 0.4987719456 0.2330354233
0.4227385654 0.7513769485 0.7328707185
0.4427178772 0.7488128073 0.2267272326
0.4427841436 0.750303133 0.7290245077
0.4326969289 1.0009576966 0.478124369
0.4225765809 1.0006908697 0.7315417095
0.4426810626 1.0001246761 0.2284547602
0.4525805226 1.0012049995 0.9753780368
0.4626014709 0.9982829198 0.2247521265
0.472541427 1.0018818287 0.4750567881
0.4626088338 0.9974238675 0.7254470439
0.4526320631 0.7488713791 0.9739146544
0.4526173372 0.7499712264 0.4744686741
0.4726261007 0.7482661376 0.9763536251
0.4625167972 0.7464178734 0.2217701397
0.4726445081 0.7512728209 0.475415731
0.4626787817 0.7490470943 0.7228074333
0.4724677977 0.4993511551 0.4723766815
0.4824261612 1.0024480223 0.2291634422
0.4923882061 1.0022137353 0.4789370525
0.4924728798 1.0000270565 0.9822807841
0.4825439681 0.4981517358 0.7292223864
0.4925244203 0.7495286843 0.4811818259
0.4825697383 0.7483182014 0.2247180729
0.4925943681 0.7516567913 0.9813143995
0.4826396862 0.748402805 0.7255363194
0.5125147765 1.0010423002 0.4864794544
0.512455873 1.0011984915 0.9857505651
0.5024975096 0.9997081658 0.2332682759
0.5224989102 0.750771707 0.738856781
0.5224068736 1.0004891225 0.2380007995
0.5224179179 1.0012245234 0.7399299281
0.5025821833 0.748890903 0.2331946466
0.5025674574 0.4991578683 0.2309903693
0.5025969092 0.7530364815 0.7336125337
0.5025122355 0.5026441893 0.7350943235
0.5125405467 0.7504072606 0.983237965
0.5125884058 0.5003045731 0.9845909035
0.5124264213 0.7512402811 0.4855103087
0.5224068736 0.5048412808 0.2356023249
0.5223774218 0.7531145772 0.2408898293
0.5323836443 0.752196953 0.4897918527
0.5324940883 0.500558384 0.4922345049
0.5323836443 1.0029621521 0.9917145387
0.5423935483 0.9988360975 0.2465335155
0.552377682 0.9995975303 0.4961110878
0.5523813634 0.7509083745 0.9931226992
0.5424414073 1.0009381726 0.7473094251
0.5423861853 0.7521253653 0.2443273975
0.5523629561 0.7488258232 0.493996086
0.542470859 0.7509213904 0.7414945508
0.5324167775 0.7508953585 0.9862843775
0.562538526 0.9982959358 0.2470590447
0.562435445 1.0000140405 0.7483485187
0.5623470898 0.7510775818 0.2498569583
0.562490667 0.7494831285 0.7471888571
0.5722612757 1.0009381726 0.5012679002
0.5724343045 1.0000140405 0.9998413732
0.5723312235 0.751487584 1.0015716619
0.5723201791 0.7488062993 0.4968970806
0.6024198388 0.9997211818 0.2614278035
0.5923178982 0.7496523358 1.0067349169
0.5925866452 1.0000205485 0.5137057305
0.602452972 0.9992656237 0.7656596886
0.5925277418 1.0013611909 1.0133615543
0.6025670974 0.7505699599 0.2610292849
0.6024897867 0.5010692599 0.2587569005
0.5923510314 0.7494961444 0.5065452806
0.6024713793 0.7502771011 0.7591076008
0.5825583339 1.0011724597 0.2543216552
0.5824736602 1.0006388059 0.754796605
0.5824920676 0.7522685407 0.2556028051
0.5823742607 0.7493204292 0.754851827
0.6125217794 0.7492293175 1.0074988209
0.6125254609 0.7491772538 0.5086455565
0.6125475497 1.0035608856 1.0089529997
0.6224985502 0.9978013299 0.2560675901
0.6226053127 0.7499972583 0.2577693474
0.622575861 0.7500037663 0.7547349405
0.642533084 0.9982113321 0.7549631913
0.6523883664 0.9995454665 0.9976693087
0.6326004908 1.0005216624 1.0029522113
0.6325121356 0.7466391445 1.0024828245
0.6327219791 0.4989593752 1.0057685322
0.632633624 0.7482661376 0.5042259575
0.6525098547 0.7485980442 0.9998781879
0.6526166172 0.4965611873 0.9983687871
0.6426545723 0.74816201 0.2526732792
0.6426030318 0.4993296788 0.2505684014
0.6524988103 0.7505244041 0.4966126874
0.6426251206 0.7481034383 0.7507322674
0.6725002109 0.7505569439 0.9895240669
0.67254807 0.4984074991 0.9931687175
0.6825285222 0.9986994301 0.2462767333
0.6724339446 0.9996170542 0.4923228601
0.6825248408 1.0002678515 0.7420946296
0.6826831438 0.7506610715 0.245208188
0.6725738402 0.748168518 0.4927609544
0.6826168774 0.7508628187 0.7434043109
0.6625234402 0.7482466137 0.2462822555
0.6625013514 0.7487932834 0.7463835366
0.7024415676 0.9986018105 0.2401544567
0.7024489306 0.5012130861 0.7415157192
0.6924316637 0.7495482082 0.991953834
0.692560515 0.9981592684 0.4936233377
0.7024820638 1.0004305508 0.7386009191
0.692505293 0.9983935554 0.9925520721
0.7025667375 0.7484939166 0.2408511739
0.7025777819 0.4981100848 0.2391595407
0.6924206193 0.7513899644 0.4912662795
0.7025741004 0.7497109075 0.7428419671
0.7224945087 0.4985526269 0.7356640302
0.7325117756 0.7473875613 0.9821979511
0.7225386863 0.7499517025 0.2341932441
0.7224945087 0.4979669094 0.234740862
0.7325522717 0.7500558301 0.4823921076
0.722575501 0.7476153403 0.7323994909
0.722465057 0.9994673708 0.7347694342
0.7124330643 0.7506675795 0.9879134259
0.7124441087 0.7487542355 0.4905345883
0.7425437684 0.4990504868 0.7292536789
0.7425400869 0.7496197959 0.2304289459
0.742429643 0.5008798779 0.2329212978
0.7425216796 0.7490470943 0.7303516759
0.7525094948 0.4990869314 0.4796107606
0.7525610353 0.7497043995 -0.0194558447
0.7625120358 0.5007340993 0.7311192614
0.7625414875 0.7489820146 0.2268919782
0.7624199991 0.5000631273 0.2277948575
0.7524726801 0.7496523358 0.4781832725
0.7625672578 0.7504463084 0.7274617257
0.7825318437 0.7463267618 0.2299521961
0.7825281622 0.4984738804 0.2290309095
0.7726139764 0.7489689986 0.4766030035
0.7824876661 0.7463007299 0.7307796462
0.77254771 0.9979119654 0.4762044849
0.772444629 0.4972848738 0.4789352118
0.7725734803 0.7476283563 -0.0234815269
0.7824545329 0.497431954 0.7283563218
0.7723857255 0.4974462716 -0.0172732144
0.7925711994 0.7471662902 0.4804538162
0.812406934 0.5020435034 0.4894964151
0.812462156 0.7506155157 -0.0094942323
0.8024669779 0.4991376936 0.7366589462
0.8025921477 0.7499451945 0.2403394503
0.802507474 0.4999277615 0.2365631873
0.7925454291 0.4991090586 0.4855149105
0.7925859252 0.7477780397 -0.0181208533
0.8124511116 0.7516698073 0.4914061752
0.7925564735 0.4987595804 -0.0197626027
0.8026289624 0.7486956638 0.7400845496
0.832529823 0.5002902556 0.4970866761
0.8324893268 0.7514355202 -0.0081142544
0.822416838 0.4997715702 0.7419326452
0.8324672381 0.5010998474 -0.0087488718
0.8224573341 0.7514029804 0.2424056726
0.8223984307 0.499566569 0.2446992255
0.8323494312 0.7513248847 0.4934898845
0.8225309634 0.7518194906 0.7432018303
0.8625705792 0.7509604382 0.7447848603
0.8624785426 0.4968540461 0.7490019788
0.852479683 0.7488388392 -0.0080931081
0.852487046 0.499091487 -0.0041886795
0.862489587 0.7520863175 0.2479518
0.8625079943 0.4979395759 0.2501763254
0.8525717197 0.7509864701 0.4947691937
0.8426759411 0.7510059941 0.2440696949
0.842477142 0.5007809567 0.2446568886
0.8425544528 0.7522685407 0.7439546899
0.8525054533 0.499903682 0.4946826793
0.8725252612 0.4991233761 0.5008555761
0.8825903871 0.7521318733 0.7512495133
0.8925082545 0.4992606943 0.5062894188
0.8726172978 0.7475307367 -0.0031041382
0.8925192989 0.7484613768 0.005397359
0.8826087945 0.499996746 0.7528619951
0.8725068539 0.4981146403 0.0031725575
0.8925708394 0.5017415335 0.0055613682
0.8826824238 0.7513574246 0.2549208137
0.8825682984 0.4988838827 0.2487175448
0.8725105354 0.7483572492 0.4967056444
0.8927328239 0.7491967777 0.5048619306
0.8826787423 0.995861954 0.2484175054
0.8827302828 0.9988100656 0.7514418698
0.9125796029 0.7494961444 0.5075926575
0.9126164176 0.9988100656 0.0085062643
0.9124581146 0.4980899101 0.5098447938
0.9026212395 0.7498475749 0.7586271696
0.9126458693 0.7521123494 0.0085830229
0.91257224 0.5013081025 0.0121292863
0.9027132761 0.7499126547 0.2569539029