POSCAR file written by Ovito 3.7.11
1
271.5865748509 0.0 0.0
0.0 15.3632567005 0.0
0.0 0.0 10.863462994
Sr Ti O 
800 800 2400 
Direct
0.0224733067 0.4997350822 0.8080846357
0.0123991342 0.2505073257 0.5601719764
0.0224289746 0.2492751651 0.8122361664
0.002417308 0.2515956366 0.8082972751
0.0123761581 0.2497698519 0.0602150103
0.0224251453 -0.0012565467 0.307070364
0.0024276546 -0.0016246978 0.3099966869
0.0024740855 0.4990561897 0.3065511925
0.0123388956 0.4987437559 0.5587654268
0.0124710082 -0.0020074747 0.5612425374
0.0225334349 -0.0015698266 0.8061589146
0.0023597941 -9.9358163729e-04 0.8065556573
0.0223745537 0.2476309824 0.3075278608
0.0024032793 0.250336138 0.3134081221
0.0324559062 0.4990477279 0.057973736
0.0422925485 0.49956064 0.3029464488
0.0324205584 0.4995241894 0.556639033
0.0323855787 0.2496181913 0.5560314919
0.0423179548 0.2493949314 0.8072110653
0.0324061983 0.2486750319 0.0595116434
0.0524454804 0.4999284006 0.0506673182
0.0423312102 -0.001167438 0.8047919472
0.0423455703 0.2490135018 0.3081777457
0.0525043935 0.2488585867 0.5496118079
0.0523479057 0.2501708085 0.0511365976
0.0624430291 0.2486157997 0.3003956968
0.0623973715 0.5000442614 0.7992228206
0.0724033889 0.500344328 0.0433223307
0.0625004694 0.499642003 0.2984488038
0.0724652476 0.4988680785 0.5429196509
0.0725757096 0.2490343307 0.5469128527
0.0624735903 0.2490200109 0.7973072252
0.0725948564 0.2491625588 0.046596793
0.0924831738 0.2488774629 0.5405097379
0.1025160703 0.2483456747 0.7875184497
0.0824138248 0.2479883286 0.7911986758
0.0924761779 0.2464964574 0.0368849727
0.1024350648 -0.0014001361 0.286692884
0.0925343545 -0.0021908213 0.5426352112
0.1026129087 0.2489562223 0.2876023546
0.0824951985 0.2492979467 0.2946157719
0.1024814589 0.499810587 0.7883791329
0.0824620599 0.4990080228 0.7929817169
0.10251202 0.4992006903 0.2867076123
0.0825935097 0.4997064424 0.2924194189
0.1225074856 0.2501961938 0.2813511251
0.1126185579 0.4993132966 0.035731197
0.1125839464 0.2496748199 0.5335810081
0.1225781813 0.4975701766 0.2813014172
0.1124591244 0.5002453907 0.5382415846
0.122485025 0.2501603941 0.7846160603
0.1124999953 0.2499748865 0.0357385611
0.1226709693 -9.9442781204e-04 0.2804784752
0.1524846669 0.2500211007 0.5282871161
0.1324365478 0.2487049735 0.5305110846
0.1425559729 0.2490720831 0.7810711502
0.1525023408 0.2466116673 0.0262729791
0.1324987747 0.2489028482 0.0313823075
0.1425637052 -0.0015998984 0.278737778
0.1425320394 0.2506140739 0.2806110296
0.1424889593 0.4986812692 0.779358989
0.1524058707 0.4983968243 0.0302080963
0.1325948767 0.4994577973 0.0327212912
0.1525200147 0.5013773121 0.5274742998
0.1326096049 0.5005910205 0.5329403284
0.1824994053 0.251451136 0.2655311237
0.1724282153 0.4997123006 0.5205575367
0.1825189203 0.5014651841 0.7691522989
0.1723932357 0.2499976681 0.5222715389
0.1624943664 0.2493845169 0.7771506692
0.1725467779 0.2482141921 0.0220322503
0.1825034556 0.4991896249 0.2665436921
0.1626051966 -4.3152632777e-04 0.7742722133
0.1624704329 0.2495641663 0.277669058
0.1822803223 0.2513541514 0.7693023431
0.1825067694 -0.0019499349 0.2670499764
0.1924376727 -0.0030644577 0.0087407244
0.2023877227 0.2501076709 0.2564410205
0.2025688804 0.4998991099 0.7538781639
0.1924012202 0.5005090067 0.0115441583
0.2024481086 0.4996166177 0.2551624227
0.1924295721 0.5010212678 0.5103867468
0.1923511441 0.2506999932 0.5138524924
0.2023895637 0.2517355809 0.7606145058
0.1925249377 0.2506121212 0.0133775515
0.2025703532 -0.0031865216 0.2565735749
0.2124717999 0.2487668093 0.4983040435
0.2224623527 0.2519965933 0.7486275362
0.2124103094 0.252309027 0.0020396384
0.2223622005 -1.5020576637e-04 0.7495821121
0.2225400443 0.2510339068 0.2466089807
0.2326403226 0.2501115763 0.4966231798
0.2325250739 0.2492530344 0.9948970731
0.2325151324 -8.3860147609e-04 0.4941138511
0.2225054329 0.5005382973 0.747050691
0.2124762184 0.5003710151 -4.3766559984e-04
0.2125233489 0.4994577973 0.504065558
0.2425782218 0.501621401 0.7455290767
0.2625166153 0.2518254056 0.740143133
0.2625884156 0.0021630407 0.2407149118
0.2625876792 0.0022264388 0.7371164739
0.2524185462 0.2487466313 0.4942132669
0.2426172517 0.2515377062 0.741730104
0.2525812936 0.2510508303 0.9892911258
0.2624624889 0.2525609268 0.2427952797
0.2424751239 4.7388066185e-04 0.2438419073
0.2625887838 0.5031249885 0.2396489533
0.2525912352 -0.0010310086 0.4913964855
0.2424548726 4.5773825111e-04 0.7441446195
0.2526328425 -1.5131230259e-04 0.9925865759
0.2424287299 0.2517329773 0.2449502095
0.2725108501 0.2527601033 0.4843029832
0.272471452 0.2512122544 0.986612422
0.2725973787 7.2135423299e-04 0.4830418752
0.2725097455 7.1881570872e-04 0.986391498
0.2824233431 0.252917622 0.7345859732
0.2725005404 0.5024623685 0.4847273414
0.2824896203 0.2512838538 0.2316892447
0.3126365449 5.9436292913e-04 0.4720720767
0.292535404 0.5012601495 0.4749726251
0.292537245 0.2519341065 0.4767381763
0.3025322163 0.2484439611 0.7234265483
0.2925111024 0.2501629977 0.9799939063
0.292480173 0.0042324588 0.4762613486
0.3024707257 -9.926052818e-04 0.7227518095
0.3125312378 0.4992495081 0.4732264048
0.3026036484 0.2507566218 0.2247798457
0.3124296127 0.2471981315 0.4751143847
0.3125264511 0.249316172 0.9727402341
0.3224256886 -0.0013397322 0.2184522134
0.3325767794 1.1275931186e-04 0.4674207054
0.3225133218 -3.0922153025e-04 0.7203133605
0.3325918759 8.7425150248e-04 0.966701644
0.3224625092 0.249167766 0.2213205437
0.3225608204 0.4994402229 0.7211740437
0.3225777579 0.4976391724 0.2191472035
0.332474418 0.248836456 0.4697707848
0.322592118 0.2486092906 0.7212486056
0.3325079248 0.2484732518 0.9677878538
0.3624063099 0.2498089061 0.2127781479
0.3524094976 0.502026914 0.4662452055
0.3523756226 0.2514700122 0.4653937275
0.3423383076 0.2473413303 0.7158737081
0.3624873153 0.499074415 0.7100781344
0.3525438931 0.2481517054 0.96373758
0.362579367 0.4999433714 0.2143872113
0.3424646025 5.8069395229e-04 0.2160671544
0.342458343 0.2520044041 0.216349753
0.3623878995 0.2488774629 0.7104610694
0.3426001026 0.4988713331 0.7157356305
0.3425809558 0.5009555266 0.215580201
0.3824478012 0.2506999932 0.2071731212
0.3925403472 0.2511595312 0.4520186186
0.3925882141 0.2499410395 0.9525809166
0.392470388 -0.0011145195 0.9559131873
0.3825361709 0.5002102419 0.7027176822
0.3925440293 0.4984228604 0.9539616917
0.3724104862 0.2505307582 0.4584972157
0.3825324888 0.2524854219 0.7050373845
0.3725798613 0.2527451325 0.9612429795
0.3924335673 0.4991590325 0.4535853382
0.3725135841 6.9330028529e-04 0.4587991452
0.4124271918 0.5005116103 0.9425841043
0.4025040209 0.2491586533 0.7008140535
0.4024929747 -0.002757524 0.7006584862
0.4025997546 0.2529215274 0.1990734941
0.4125928848 0.2488468705 0.4430288517
0.4125597462 0.252816081 0.9453364495
0.4126297055 -0.0025943555 0.4472429776
0.4125965669 0.0013630151 0.9464226593
0.4425317727 -0.0034215694 0.6870606123
0.4425612292 0.2484589319 0.1893114136
0.4225491943 0.5014339408 0.6899676043
0.4325791452 0.5000416578 0.9385982666
0.4325275963 0.4993907542 0.4394646107
0.4425354547 0.5000650904 0.6927613727
0.4426974657 0.4986441677 0.1874639364
0.4326196479 0.2487570458 0.4394590876
0.4226559743 0.2509603547 0.693518958
0.4325496887 0.2477787376 0.938837601
0.4225381481 -0.0032254587 0.1920186535
0.4325791452 -0.0025756941 0.9409731999
0.4225749688 0.248492128 0.1949956047
0.4426790553 0.2471649354 0.686554328
0.472551666 0.2505678598 0.4384529628
0.4626027206 0.2507227748 0.6855270313
0.4725037991 0.2511308914 0.9385982666
0.4724632964 2.6292278598e-04 0.9379631101
0.4625253972 0.2510046161 0.1873267794
0.452587498 0.4994369683 0.9375580827
0.4526095904 0.5003755714 0.4381105306
0.4625438075 0.5017040658 0.6889798898
0.472500117 0.4998958554 0.9382484703
0.4625474896 0.4997793437 0.1905743626
0.4526206366 0.2465003628 0.4392841895
0.4526169545 0.2494020913 0.9381011876
0.4526243187 -0.0024059775 0.4339847743
0.4823864673 0.2499800937 0.688720304
0.4824932472 -0.0012025217 0.6924529996
0.4924016899 0.4990041174 0.9394083214
0.4923869616 0.500919076 0.4407330829
0.4825484782 0.2496832817 0.1874556518
0.4924164181 0.2505450781 0.4410110789
0.4924127361 0.2519770662 0.9388191907
0.4824785189 0.5007895461 0.1914635818
0.502229127 0.2510677538 0.687512586
0.5122995806 0.2500139407 0.4396100524
0.5123695399 0.2482480391 0.9375672879
0.5022475374 -1.5970895979e-04 0.6930817125
0.5023690456 0.2508666245 0.1873056075
0.5223773984 0.2501278489 0.1876508013
0.5223479418 0.2499325778 0.6880299164
0.512428453 0.4996387485 0.4388911288
0.5223773984 0.501081151 0.6878264822
0.5423967973 0.49760858 0.6935069913
0.5522905117 0.4978741486 0.9464410696
0.5423820691 0.5004471708 0.1962686794
0.5522757834 0.4988758894 0.4462313296
0.5321901073 -1.4948977234e-04 0.4409622915
0.5321974714 0.2474018644 0.4412099106
0.5323594823 0.2486548539 0.9387455493
0.5322821589 0.4983089523 0.9450694996
0.5524525227 -9.5322561043e-04 0.944379112
0.5421979657 0.2499820465 0.192349119
0.5523972917 0.2471538701 0.4438149731
0.5423599767 0.2484901753 0.6934674091
0.5523825634 0.2444278855 0.9420502046
0.572545563 0.2471174195 0.4461098214
0.5724424651 0.247694771 0.9462937869
0.5624419708 0.4969179712 0.6990659921
0.5624861556 0.4987196725 0.1981529773
0.5725529271 0.4981651026 0.9484201807
0.5725087423 0.5002219581 0.4452288868
0.5624677453 0.2483307039 0.1944396126
0.5625340225 0.2495303193 0.6942949537
0.602495497 0.4999648512 0.7034890753
0.5926128288 0.4989286126 0.9518813238
0.5926606957 0.4996400503 0.4530321076
0.5825018725 0.2496904416 0.7006722939
0.6026980107 0.2507767998 0.2001440551
0.5925465516 0.2489575241 0.45198548
0.6025838666 0.2502241826 0.7070708061
0.5925281413 0.249721685 0.9519549652
0.5826970221 0.5008585419 0.6963799242
0.5825865601 0.4988518059 0.197479159
0.5825939242 0.247776134 0.1960026501
0.6124996734 0.4988459478 0.9552596204
0.6124149859 0.5006040386 0.4560495616
0.6225738091 0.4987170689 0.7124447831
0.6126616844 -4.5996090565e-05 0.4580553677
0.6224228443 0.4986786656 0.2103709965
0.6124738989 0.248404256 0.4569709989
0.6125291299 0.2486646175 0.9548730034
0.6225590808 -0.0011614497 0.7116890388
0.6225959015 0.2488149762 0.2104041351
0.622570127 0.2487642057 0.7105466774
0.6425379771 2.9982902344e-04 0.2160975314
0.6526010665 0.0024200175 0.4653366554
0.6324859338 0.4998255578 0.4616435421
0.6426116184 0.249566119 0.2127615786
0.6526084306 0.2480111102 0.4654296276
0.6426521211 0.249802397 0.7120425172
0.6325890317 -9.1306485467e-04 0.4640893552
0.652516379 0.2493858187 0.9659007944
0.642589526 0.4976938483 0.7169267793
0.6525531996 0.5002505979 0.4707888763
0.6325301186 0.2485878108 0.4626377002
0.6324932979 0.2491352208 0.9630103717
0.6825436364 0.5016702188 0.7313209002
0.6625905146 1.1712036637e-04 0.2192908042
0.6824920875 0.5015628197 0.2301667099
0.662612607 -2.2043827117e-04 0.7194287439
0.6726204655 0.4993341256 0.4756906282
0.6626015608 0.248634025 0.2189078692
0.6625978788 0.2493968841 0.7175619358
0.6725799628 8.2165848684e-04 0.9755294
0.6626052429 0.4997259696 0.722316405
0.6626494277 0.5013467197 0.2218774563
0.6825436364 0.248674381 0.2277475918
0.6723627208 0.2489288843 0.469949365
0.6824847233 0.2472807963 0.7272605007
0.6725320959 0.2497223359 0.9709636367
0.7025114865 0.2506095176 0.2329429886
0.6926509107 0.2496598491 0.480697319
0.7025851278 0.2485806509 0.7341533303
0.6924962639 0.2507305857 0.9794600066
0.6925625411 0.5013382579 0.9800399322
0.6926766851 0.4999238443 0.479163738
0.7325350618 0.4995372075 0.9988645004
0.7325350618 0.4998815355 0.4961831728
0.712523027 0.2503491561 0.487911409
0.712523027 0.2503153091 0.9875605543
0.7224130593 -0.0017391918 0.2440352158
0.7323435943 -0.0028895533 0.4968312166
0.732435646 -0.0014131541 0.9960845397
0.7125340732 0.500351488 0.990285284
0.7224425158 0.2488182307 0.2437084323
0.7325645184 0.2520232803 0.4951733659
0.7225308854 0.2492289509 0.7440829449
0.732601339 0.2520720981 0.9953757418
0.712471478 0.4995489238 0.4873581784
0.7125488014 9.6421630017e-05 0.4891964504
0.7124604318 -0.0016185793 0.9901380013
0.7525581429 0.5014521661 0.0028406721
0.7424545507 -8.3534695779e-04 0.2486046611
0.7424030017 -9.4691184494e-04 0.7465536119
0.742528192 0.2513170499 0.2469090692
0.7425097817 0.2492185365 0.7508192867
0.7624518572 0.0025870394 0.2499587413
0.7524587271 -0.0015299913 0.4985378547
0.7624003083 9.513184957e-04 0.7517342804
0.7525323684 7.0742489469e-04 -0.0011410417
0.7624776317 0.2514329107 0.2530406315
0.7524439988 0.2510215396 0.501983349
0.7624444931 0.2509466857 0.7523050008
0.7524513629 0.2519978951 0.0027116156
0.7825596258 0.0011398853 0.2626858063
0.7825633079 0.0031701189 0.7614392888
0.772533357 4.3503162543e-05 0.0049811497
0.7825412155 0.2490421416 0.2628303274
0.7724854902 0.2517173556 0.5092591137
0.7825780362 0.2485923671 0.7661173551
0.7725149467 0.2535333768 0.0110606108
0.7926411256 5.5895377008e-04 0.5177103783
0.7926779463 -8.0169523862e-04 0.0201075418
0.8125463805 0.5007283612 0.0251697397
0.7925453919 0.2493728006 0.5191519076
0.792387063 0.2501636486 0.0187401141
0.8025716607 1.5025136261e-04 0.2742180406
0.8125758371 -8.1874891449e-04 0.5278692015
0.8027263075 2.2412892791e-04 0.7719663187
0.8126126577 0.0016024825 0.0264303874
0.8025827069 0.249478247 0.2731355128
0.8125611088 0.251329417 0.524883045
0.8026268917 0.2514674086 0.7776854895
0.8126457964 0.2515448661 0.0249702637
0.8326026002 0.0025548197 0.527595808
0.8227788451 7.051566439e-05 0.779357148
0.8325731437 -2.5539179765e-04 0.0286017945
0.8226462907 0.2503406944 0.2782968504
0.8325694616 0.2505444272 0.5270886032
0.8226205162 0.2511653893 0.7750500499
0.8325031844 0.2525010436 0.0281487161
0.822664701 -0.0012077289 0.2738084106
0.8425441814 0.002699841 0.7782092635
0.8425994125 0.2516756978 0.279149249
0.8426178228 0.2533218331 0.7824961102
0.8624457543 0.0024049816 0.286557568
0.8424263553 0.5038904512 0.7793313735
0.8525962247 0.0034815763 0.5339252814
0.8626151294 0.001419188 0.7862094749
0.852666184 0.0026749114 0.0316850654
0.8627292734 0.2497171287 0.2847146934
0.8425846842 0.0023300626 0.2830025322
0.8525630861 0.2523858337 0.5322085176
0.8626740424 0.2518286601 0.7863871346
0.8524710344 0.2507318875 0.0301237769
0.8726156237 0.002519801 0.538703684
0.8926460689 -9.0452810472e-05 0.5466523464
0.8726561264 0.0013585238 0.040218164
0.8826418925 0.2518182457 0.2904467514
0.8926166123 0.0024673382 0.0444293441
0.8725309361 0.2520610327 0.5359504183
0.8925687455 0.2524300951 0.5428441685
0.8826860773 0.2505431254 0.7902855232
0.8725751209 0.2518586017 0.0379828731
0.892653433 0.2497112705 0.0411457687
0.9026428811 0.0012685038 0.2968489457
0.9126139189 0.0021278919 0.5503077186
0.9026428811 0.0019259165 0.7956383283
0.9026760197 0.2513326716 0.2946286592
0.9125991906 0.2498388477 0.5505102323
0.9027128404 0.2521801481 0.7948973123
0.9025766039 0.5014710423 0.7931860716
0.9126875603 0.2520336948 0.0450824508
0.9225260436 0.0018971466 0.3039939969
0.9225886388 0.0038509641 0.8019162527
0.9225591822 0.2526800421 0.3024061055
0.9225923208 0.251984877 0.8018048702
0.9424312985 -4.7623349712e-05 0.3072332955
0.9324271221 0.0023601344 0.5543938926
0.9424607551 1.1712036637e-04 0.8076179337
0.9325412662 0.0036842026 0.0567280927
0.9425822633 0.2503517597 0.301803167
0.9325118097 0.252370212 0.5542576561
0.9424865295 0.2517499008 0.8038926023
0.9325523124 0.250883548 0.0563965226
0.9525238445 0.0012549 0.5553079657
0.9524796597 0.0010337229 0.0590031499
0.9625427492 0.2520167713 0.3071762234
0.9525680293 0.2493968841 0.5593563985
0.9725800642 0.2518247547 0.5574546109
0.9626163905 0.2496995543 0.8055320427
0.9524575673 0.2534266286 0.0543200208
0.9725506076 0.2523610993 0.0628962916
0.962421241 0.0027037464 0.3099064762
0.9823817269 0.5012406224 0.8093991337
0.9824148655 0.5010082498 0.3071670183
0.9824664144 1.7420461726e-04 0.3104081579
0.9923674929 0.001285883 0.5596620101
0.9826284254 0.2533036078 0.3084575828
0.9923895853 -4.9245091025e-04 0.0593087615
0.9924521805 0.2513131444 0.5608678871
0.9825032351 0.2515279426 0.8086581177
0.9924926832 0.2493220301 0.0591313779
0.0123690149 0.7486777429 0.0571518066
0.0023473855 0.4994844843 0.8110597459
0.0123736175 0.4975552059 0.0596406999
0.0224292324 0.7481244748 0.3065990594
0.0024598727 0.7463344897 0.3087631944
0.0125106272 0.7486712339 0.5592330493
0.0223298166 0.7506695081 0.807607808
0.0224245562 0.4986376586 0.3060881726
0.0022187709 0.7466534325 0.8087648976
0.0123608039 0.9991389618 0.0558565474
0.0522757371 0.9981756244 0.5531060896
0.052353797 0.9982472238 0.0505365127
0.0323955203 0.7494848634 0.0576905851
0.0423477795 0.4996680391 0.8037223067
0.042414425 0.7490682851 0.3046401997
0.0323550176 0.74957599 0.5553116478
0.0424214209 0.7521796046 0.8046888493
0.052368157 0.7500446406 0.0536946217
0.0524487943 0.7496801345 0.5512807048
0.0524278065 0.4975454423 0.5514427158
0.0422689833 0.9981300612 0.3061185497
0.0323082553 0.9990608534 0.5572751101
0.0323071507 0.9992951787 0.0558484469
0.0722918223 0.9987028564 0.5486535499
0.0623093701 0.9988265281 0.8024538345
0.0723006592 1.0009224379 0.0506949337
0.0725521444 0.7490617761 0.0475418875
0.062424987 0.7501878394 0.2975466974
0.0724770302 0.7487949056 0.5451031167
0.0624831636 0.7486256706 0.7974149257
0.0624529707 0.9991324528 0.3008890938
0.0823865775 0.9981365702 0.2932810226
0.1025919209 0.9995815763 0.788904748
0.0823401835 0.9972969045 0.7931805485
0.0925225719 0.9983839136 0.0403193288
0.0925516602 0.7476688422 0.038369306
0.0925877445 0.4965124582 0.0380335935
0.1023857251 0.7486256706 0.2879834485
0.082467583 0.7475712067 0.2926983355
0.0923903857 0.7477404416 0.5398497274
0.1025193842 0.7472783 0.7875543499
0.0823880503 0.7474930982 0.7932606334
0.0924367797 0.4983252249 0.5401719083
0.1125574356 0.9969128713 0.0347903368
0.1125117779 0.7488990502 0.0336336154
0.1224769244 0.497047501 0.7837590592
0.1225895957 0.7475516796 0.2834213674
0.1125578038 0.7488469779 0.5352581897
0.1225627166 0.7482351284 0.7824095816
0.1126229764 0.9986703112 0.5336408417
0.1225811269 0.9971667238 0.7831828157
0.1525108096 0.9996011034 0.5298952589
0.1325389093 0.9986442751 0.5282898776
0.142574015 0.9985075853 0.7779598035
0.1525520487 0.9989697269 0.0256593626
0.1326048183 0.9992300884 0.0326997511
0.1524426913 0.7494458092 0.0275340871
0.1325650519 0.7503896195 0.0311009055
0.1425802745 0.7460350741 0.2805898577
0.1523900378 0.7509363786 0.5298096509
0.132547378 0.7496020261 0.5296016141
0.1424455109 0.4972785718 0.2800504349
0.142529462 0.7491203574 0.7815617857
0.1724911786 0.747799023 0.0225145091
0.1623934777 0.498418955 0.7760653799
0.1723512601 0.499209803 0.0225958827
0.1624711694 0.7478966585 0.2744067465
0.1824662667 0.9995490311 0.7665481569
0.1725081161 0.7481700381 0.5189052091
0.1625510702 0.4988218644 0.2746433193
0.1623813269 0.7480593844 0.7763663889
0.1824640575 0.7464256162 0.2669542426
0.1822968916 0.7504156557 0.7680062555
0.162482952 1.0004863324 0.2723125708
0.1724399979 0.9998940101 0.5207720171
0.1724955971 0.9999981547 0.0213284232
0.1924306768 0.9989436907 0.5139997751
0.2024698328 0.9999786276 0.7564933521
0.1924998996 0.7498493695 0.0137112389
0.2024635733 0.7509884509 0.2568975968
0.1924041659 0.7508582702 0.5149672383
0.2023833042 0.7479292037 0.7587394131
0.2324882533 0.7513334298 0.9940409924
0.2325294924 0.5008891344 0.9936543754
0.232416453 0.7492830833 0.4925001852
0.2325545305 0.500513563 0.4953307743
0.2225024872 1.0000306999 0.2474153534
0.212454126 0.9987939829 0.5020339775
0.2126165052 0.9999525914 -6.3970062322e-04
0.2124033135 0.7491529026 0.0023889745
0.2324142437 1.0007141487 0.994841842
0.2225105878 0.750467728 0.2458127337
0.2123937401 0.7464191072 0.503981791
0.222544831 0.4989142927 0.2437765506
0.2226251001 0.7500251135 0.7432830158
0.2524932922 0.7506304539 0.9891990742
0.2524266468 0.5023302351 0.993194117
0.2423521429 0.7508387431 0.2443500325
0.2525444729 0.7509168515 0.4921338195
0.2424869066 0.5009171233 0.2420643894
0.2424578182 0.7490813032 0.739537433
0.2525105979 0.50294599 0.4931160109
0.2625217702 0.5017756652 0.734820705
0.2626373871 0.7504091466 0.2421417128
0.2624727987 0.7514115383 0.7390716515
0.282585354 0.5021304077 0.7303893372
0.282408983 0.7502203846 0.2278331999
0.2826159152 0.5006268202 0.2312308273
0.2824034599 0.7516328455 0.7312334511
0.272581914 0.7497322068 0.9847713884
0.2724556191 0.5025450333 0.9869069874
0.2725465662 0.7512488124 0.4832591172
0.2825592113 1.0015342873 0.2312308273
0.2824885156 1.0030183476 0.7314911958
0.3127282284 1.0015603235 0.9712674073
0.2924945331 0.7491529026 0.9756766826
0.3025358983 0.4992787987 0.728981867
0.2924879053 0.4990366626 0.9764775322
0.3024751442 0.7512227762 0.2231983979
0.2924448252 0.7515221919 0.4738100124
0.3025841334 0.5000318943 0.2252529914
0.3024906089 0.7501552942 0.7255750344
0.302572719 1.0035325615 0.2222567092
0.3124771114 0.7499795502 0.9720866672
0.3126825707 0.4993263147 0.9708347644
0.3124027336 0.7488990502 0.4719339992
0.2925744339 1.000590477 0.9762197875
0.3324950375 0.7462824174 0.9670514404
0.3325108704 0.4977381098 0.972951953
0.3223988095 0.7489771586 0.2209357677
0.3325156571 0.7500055864 0.46758916
0.3225490378 0.7496410803 0.7201918523
0.3324029859 0.5006424419 0.4713025247
0.3524275397 1.0006881126 0.4654452764
0.3424045848 1.0008638565 0.7175637769
0.3624946795 0.7502724569 0.2133470273
0.3523689949 1.0005774589 0.9620622394
0.3624504947 0.7493937369 0.7124226906
0.3624431305 1.0019703928 0.2118548696
0.3524945534 0.748345782 0.9600186922
0.3623363506 1.0003431336 0.7133938359
0.3524231213 0.4993777361 0.9646765071
0.3425157832 0.7484499266 0.217277634
0.3524363767 0.7493481737 0.4644575619
0.3423898565 0.7487623604 0.7157494383
0.3924630238 1.0011632722 0.4571919229
0.3724951738 0.7503961286 0.9567784731
0.3723847118 0.5015784414 0.9620162136
0.3823741599 0.7490682851 0.206611606
0.3725135841 0.7481309838 0.4548805053
0.3824036164 0.4984319731 0.2046039589
0.3826061301 0.7514310654 0.7059422525
0.3825472171 0.9999135372 0.2062866636
0.3825472171 1.0001413535 0.7049480944
0.3724657173 1.0012023264 0.9625409082
0.3723773476 0.5014105082 0.4608472951
0.39247407 0.7481440019 0.94975493
0.3924114749 0.749048758 0.4494522178
0.4125118794 0.7495304267 0.9432284661
0.4125339718 0.7473694266 0.4428060867
0.4125634283 0.4985562957 0.4468977838
0.4024119692 1.0010005463 0.1987292208
0.4025850264 0.4990919894 0.6982522553
0.4025887084 0.7522381859 0.2005398773
0.4024487899 0.4995886289 0.1974386563
0.402456154 0.7493026104 0.7021764183
0.4324355446 0.7461392186 0.9416543824
0.4226191536 0.7480268392 0.1904602185
0.43262333 0.7487818875 0.4380470149
0.4225123737 0.5004582362 0.1909342847
0.4225896971 0.7501943484 0.6937002998
0.4425685933 0.7502008575 0.1875440214
0.4425943678 0.7490617761 0.687183041
0.4326012376 1.0003496426 0.438902175
0.4224865992 0.9998159016 0.6894079301
0.4425943678 0.9985531485 0.1844787005
0.4526280007 1.0002585161 0.9361865127
0.4624480738 1.0009680011 0.1903838156
0.472555348 1.0006100041 0.4345693025
0.4625879923 1.0010916728 0.6881118424
0.4524733539 0.7511186316 0.9412217395
0.4525727697 0.7470569928 0.4391240195
0.4726032149 0.7498819147 0.9381103928
0.462573264 0.7507736527 0.1894181935
0.4726547638 0.7509949599 0.4447400924
0.4625953564 0.7502008575 0.6843202338
0.4726253073 0.4984020315 0.4404532458
0.4823459645 0.9976939557 0.1911634934
0.4923759154 1.0010786547 0.4413369419
0.4922507251 1.0003561517 0.9401631452
0.4825632065 0.4992716388 0.6895662589
0.4923869616 0.7494913725 0.4430030773
0.4823606928 0.7514701196 0.1914212381
0.4924016899 0.7504221647 0.9414242532
0.4825042934 0.7504416918 0.6917681351
0.5122480317 0.9984099497 0.4387723821
0.5123400834 0.9972903955 0.9381472134
0.502280676 0.9992365974 0.1905900114
0.5223405777 0.7482416375 0.6911836069
0.522303757 1.0003301155 0.1881432778
0.5222853467 1.000408224 0.689023154
0.5022401732 0.75065649 0.1880677954
0.5024279586 0.4996836608 0.190703235
0.5022954042 0.747623279 0.6896978928
0.5024095483 0.4977966911 0.6946198961
0.5122553958 0.7485410531 0.9396016299
0.5123548116 0.4979600679 0.9377698015
0.5124763198 0.7518020805 0.437639226
0.5223221673 0.4977726077 0.1922377364
0.5224731321 0.7478576043 0.1878155738
0.5323300258 0.7475321525 0.4426983862
0.5323447541 0.4982751053 0.4425474214
0.5322747948 0.9980779889 0.9423171544
0.5423599767 0.997915263 0.1949339301
0.552415702 1.0005318957 0.4458097329
0.5524819792 0.7477404416 0.9446460619
0.5422826533 0.998091007 0.6908163207
0.5424299359 0.7506695081 0.1928774956
0.5524819792 0.7482872007 0.4481680969
0.5423967973 0.7511056136 0.6960015918
0.5323926209 0.7475907338 0.9434033643
0.5624493349 0.9959169887 0.1974828411
0.562508248 0.9964637478 0.6962179132
0.5625377045 0.7497256978 0.1973346379
0.5626555307 0.7502268936 0.6997646644
0.5725050603 0.9996076125 0.4444482886
0.5726670712 1.0006100041 0.9466343782
0.5725271527 0.7481179658 0.9500863161
0.5724498292 0.7482351284 0.4488511204
0.602550728 1.0001999348 0.2064900978
0.5926275571 0.7502464207 0.9534369972
0.5926275571 1.0015342873 0.4542711232
0.6026648721 1.0007141487 0.7032046356
0.5926533316 1.0013910885 0.9507306778
0.6026206873 0.7495174086 0.2055447271
0.6025139074 0.4979965185 0.2048221214
0.5926054647 0.7507215804 0.4528470837
0.6027311493 0.7503831105 0.7084442171
0.5826675655 0.9987028564 0.1965347088
0.5825497394 0.9977004648 0.6952274372
0.5825055546 0.7493286466 0.2033345663
0.5825607856 0.7511121226 0.7026403588
0.6124849451 0.7507671437 0.9592270477
0.6126469561 0.7487818875 0.4606944893
0.6125291299 0.9997963745 0.9597425371
0.6226364042 0.998097516 0.2077797418
0.6224928036 0.7506304539 0.2140954074
0.6225517167 0.7493091195 0.7139387818
0.6425306129 0.9997443022 0.7127945794
0.6525863382 1.0025301699 0.9689292946
0.6326000779 1.0008117842 0.965274843
0.6326037599 0.7494327912 0.966315027
0.6323570614 0.499142109 0.9630011665
0.6326037599 0.7482872007 0.4658779193
0.6526047486 0.748339273 0.9688832688
0.6525900203 0.4998802337 0.9667476698
0.6426005722 0.7510925955 0.2172426543
0.6425195667 0.4972453757 0.2152313252
0.6525053328 0.7495174086 0.4695618275
0.6425122026 0.7506825262 0.7176318951
0.6725578704 0.7493872279 0.9734582372
0.6726278296 0.4990490298 0.9737067767
0.6825104978 1.0013129801 0.226579456
0.672591009 1.0006100041 0.4748096936
0.6824037179 1.001664468 0.7255897627
0.6825804571 0.7486842519 0.2310347573
0.6724952752 0.7489446134 0.4755166505
0.6826467343 0.748866505 0.7304685016
0.6627304332 0.7506174358 0.2247549918
0.6626162891 0.7488339598 0.7215625018
0.7024709837 1.0007206577 0.2339399082
0.7025814457 0.500601435 0.7376365658
0.6923858018 0.7507085623 0.9832801513
0.6924668073 0.9995750673 0.4789059933
0.7025740816 1.0001348444 0.7368624112
0.6924557611 1.0003040794 0.9774348697
0.7025078044 0.7486712339 0.2330746225
0.7024820299 0.5000468651 0.2353703913
0.6924778535 0.7469658663 0.4857951409
0.7026882257 0.7480854206 0.734300613
0.7226045268 0.499155778 0.7427546391
0.7324724667 0.7515221919 0.9952928953
0.7224130593 0.7487818875 0.2439311974
0.7226523936 0.4993914051 0.2432141148
0.7324945591 0.7483718182 0.4955305264
0.722453562 0.7490227218 0.7423763067
0.7225750702 0.9988720913 0.7419050022
0.7125561656 0.7474280079 0.9909204406
0.712467796 0.7498819147 0.4917748179
0.7425650127 0.5005773515 0.7473995668
0.7425576485 0.750122749 0.2519847987
0.7424435045 0.5006684781 0.2489747088
0.7425060996 0.7502659478 0.7466751201
0.7526133739 0.4998398777 0.5004295167
0.7525618249 0.7537743186 -4.1903434017e-04
0.7626175503 0.5004426145 0.753058904
0.7624886779 0.7502334027 0.2496420835
0.7625917758 0.5043812325 0.2529771158
0.7525875994 0.7523683667 0.4986823759
0.7625880937 0.7500381316 0.7502099046
0.7827179547 0.7517434991 0.2618297257
0.7826295851 0.5031041595 0.2617238663
0.7726916859 0.7519192431 0.5037258873
0.7826295851 0.7494458092 0.7628983079
0.7726438191 1.0005058595 0.5055871722
0.7726106805 0.5009665919 0.5067737184
0.7725223108 0.7528760715 0.0069994748
0.7826737699 0.5015029365 0.7630870138
0.7725370391 0.5005786534 0.0068168443
0.792659536 0.7518150985 0.5190975971
0.8124727392 0.4982321457 0.5297719097
0.8126421143 0.7496020261 0.0262353299
0.8026084814 0.5002252127 0.7751117246
0.8024943373 0.7499600231 0.2737623848
0.8024906552 0.4987912719 0.275474546
0.7926484898 0.5012341133 0.5191555896
0.7926448077 0.7492114839 0.0184615657
0.8126052936 0.7490813032 0.5271125367
0.792549074 0.5001347371 0.020031323
0.8025642966 0.7509103425 0.7730331977
0.8324626816 0.5009672428 0.5243454632
0.8324774099 0.7501943484 0.0304839752
0.8226205162 0.500013669 0.7768929245
0.8324884561 0.5000123672 0.0247250381
0.8225211004 0.7503505653 0.2760443459
0.8224364129 0.5008728618 0.2761695361
0.8325989181 0.7524464751 0.5283607574
0.8223995922 0.7501618033 0.775764371
0.8625856728 0.7544056951 0.785092888
0.8625525342 0.5030208439 0.7793820019
0.8525262654 0.7504482009 0.0345599314
0.852448942 0.5014651841 0.0292783743
0.8625598984 0.7525245835 0.2872829353
0.8625157136 0.5033469466 0.2812664376
0.8525962247 0.7518150985 0.5311959491
0.8424558118 0.7516263365 0.2789430532
0.8424742222 0.5026218399 0.2818905479
0.8426178228 0.7519582973 0.7781945353
0.8524710344 0.503770034 0.5327912047
0.8724793872 0.500723154 0.5355877347
0.8824946098 0.7530648336 0.7927709185
0.8926939357 0.5016161938 0.5396711471
0.8726045775 0.7492570472 0.035855927
0.8926166123 0.7502464207 0.0429752038
0.8825903435 0.5005734461 0.7868685649
0.8724867513 0.5014235263 0.0394637084
0.8925576993 0.4995717054 0.0414895817
0.8826529387 0.7543471138 0.2919803324
0.8824246505 0.501709273 0.2899091696
0.8724904334 0.750825725 0.5393811844
0.8926607971 0.7506955443 0.5438981602
0.8827854931 1.0029988205 0.2919094526
0.8826897594 1.0034023808 0.7945594826
0.9125807803 0.750291984 0.5485338827
0.9125807803 1.0036041609 0.0515109718
0.912510821 0.5008709091 0.5465805461
0.9025213729 0.7499079508 0.7977398681
0.912510821 0.7507020533 0.0489492656
0.9126654679 0.4999088735 0.0478314821
0.9025361012 0.750825725 0.2960361293