POSCAR file written by Ovito 3.7.11
1
271.603324604 0.0 0.0
0.0 15.3642042096 0.0
0.0 0.0 10.8641329841
Sr Ti O 
800 800 2400 
Direct
0.0224348258 0.4992391405 0.7653167117
0.0125101314 0.2489267946 0.514545665
0.0225827621 0.2493225196 0.7631250964
0.0025640823 0.2487022466 0.7625912296
0.0125447775 0.2472104675 0.0160825103
0.0225753985 -0.0020309021 0.2655391401
0.002462574 -0.0011248155 0.263227865
0.0026063866 0.5017521246 0.263515969
0.0125131137 0.4994025073 0.5137586717
0.0125489012 -0.0031132491 0.5144241643
0.0225442133 -0.0024050706 0.765679373
0.0025812397 -8.0777989007e-04 0.7596871783
0.0224119984 0.2483481769 0.2668443524
0.0025522636 0.2491272605 0.2612617625
0.0324891578 0.4984411819 0.0191983595
0.0426068543 0.4991922784 0.2654590601
0.0324869487 0.4991610369 0.5192952387
0.032425462 0.2482830905 0.5194986603
0.0424187123 0.248443203 0.7718547392
0.0324692759 0.2481242798 0.0197066376
0.0524635083 0.5008038164 0.0190888248
0.0422975797 -4.5423082721e-04 0.7663770816
0.0425394766 0.2494754725 0.2716638811
0.0523898715 0.2490830018 0.5184125175
0.0524984858 0.2514215544 0.0174270263
0.0624026355 0.2492274935 0.2674721062
0.0624847406 0.5006020488 0.76327237
0.0725181229 0.5001562072 0.018052663
0.0625145635 0.499737702 0.2628550787
0.0724518498 0.5002037203 0.5187889857
0.0724396997 0.2503098795 0.5149893267
0.0623547716 0.2502434915 0.7687656754
0.072424236 0.2490289801 0.0131500168
0.0924961552 0.2475443604 0.5121957306
0.1024978737 0.2459165508 0.7569847077
0.0824745548 0.2479303225 0.7660991027
0.0925480692 0.2504114142 0.0123211425
0.1024448553 -0.0022891192 0.2585261553
0.0925031507 -0.0013699958 0.5111454857
0.1025575196 0.2472963814 0.2588630437
0.0823961316 0.2482232111 0.2664218613
0.1024478007 0.5013531453 0.7596568031
0.0825614462 0.4957869604 0.764010579
0.1025011874 0.4971843644 0.2612930581
0.0825194732 0.4995593654 0.2624381104
0.1225690566 0.2478854129 0.2567404629
0.112533097 0.500266854 0.0048963439
0.1124561466 0.2486013628 0.5096460563
0.1224541832 0.4976178395 0.2579039243
0.1124793421 0.4990503901 0.5061878881
0.1224589696 0.249191696 0.7580441571
0.1125717563 0.2501816594 0.0127066312
0.1224449786 -0.0026238453 0.2552576018
0.1524291477 0.2485824878 0.4973210968
0.1325188612 0.2465589531 0.5045227759
0.1423493742 0.2466390093 0.7490282513
0.1524291477 0.2488298159 4.1286598942e-04
0.132454429 0.2482349266 0.0071127195
0.142559239 -0.0024315477 0.2500468776
0.1422580645 0.2489267946 0.2516208643
0.1424719794 0.5005857772 0.7528371148
0.1523591927 0.4992742872 -0.0018338296
0.1324397016 0.4973900373 0.0041539008
0.152407793 0.4993680115 0.4991859487
0.1323715876 0.499332214 0.5038011353
0.1824048485 0.2502142026 0.2440841377
0.1724727168 0.499179912 0.4932452998
0.1824365123 0.4994493695 0.7381382889
0.1723722025 0.2493745887 0.4929894119
0.1623347702 0.2478300895 0.7459888923
0.1724406848 0.2506125311 -0.0061728045
0.1824696489 0.5012086536 0.2419440681
0.1624776256 -8.5054162319e-04 0.7447481122
0.1624006751 0.2489157299 0.2478138417
0.182241743 0.2506112293 0.7420907442
0.1824821671 -1.3999392081e-04 0.2381517729
0.1923182028 4.1610386879e-04 -0.011086174
0.2023434851 0.2489137773 0.2380008174
0.2024719814 0.500658023 0.7354128068
0.192366435 0.4985967383 -0.0119898909
0.2025128498 0.5008285493 0.2366247297
0.1924179807 0.4988570837 0.4880143256
0.1924982448 0.2508012815 0.489856166
0.2022819984 0.2501042067 0.7390338965
0.1924614264 0.2504218281 -0.0101930885
0.2024738223 3.0753983402e-04 0.2373841092
0.2123584583 0.2511052348 0.4864578277
0.222328513 0.248705501 0.7354579093
0.2123794448 0.2493804464 -0.0180558789
0.2223984679 0.0015611681 0.7367502352
0.2224562728 0.2477786713 0.2355606779
0.2325029098 0.2502129009 0.4866713744
0.2326163105 0.2508110444 0.9867480955
0.2324845006 4.9804758568e-04 0.4881965766
0.2223944179 0.5008890796 0.7336832624
0.2124177359 0.499513805 -0.0177336258
0.2125506503 0.4988551311 0.4833632411
0.2424991055 0.5004738286 0.7400040613
0.262539361 0.2480624478 0.7406944063
0.2624208057 0.0011310774 0.2439525119
0.2625817021 -0.0012780939 0.7415531955
0.2525840336 0.2513987742 0.4916271311
0.2424994737 0.2519090512 0.7391498744
0.2525457425 0.2508976093 0.9909914161
0.2625378882 0.2504420048 0.2422478199
0.2425153056 7.6171239674e-04 0.2413411668
0.2625088017 0.5003443068 0.2449659384
0.2523657005 -4.4577329106e-05 0.4912377765
0.2424276778 5.5083261697e-04 0.7418348563
0.2524938285 -0.0018162278 0.992031536
0.2424630235 0.250894355 0.2411975751
0.2726069844 0.2485707722 0.4925687617
0.2725027883 0.249320567 0.9950414402
0.2726603711 -0.0037434542 0.4913500726
0.2726375437 -0.0043064447 0.9939368882
0.2825836664 0.2470861525 0.7429504538
0.2725819479 0.4985459709 0.4960379755
0.2825553162 0.248734139 0.2428507213
0.3125181306 -0.0015787277 0.4998385549
0.2924543114 0.5004894494 0.4976883603
0.2925102754 0.248113866 0.4964181255
0.302514203 0.2475801579 0.7486701924
0.2925540893 0.2461209219 0.9969652016
0.2924782434 -0.0033612021 0.4975226775
0.3023407883 -0.0010236062 0.7511821277
0.3124938305 0.4985017122 0.4979792257
0.3024832755 0.2494468345 0.2465831866
0.3124157755 0.2464014441 0.4985655587
0.3124323437 0.2493784938 0.9972689534
0.3224333259 4.6478845992e-04 0.2480816955
0.3324946902 7.9998317159e-04 0.4945026482
0.3226048996 -4.5260366841e-04 0.7446008386
0.3325119949 -5.7756946383e-04 0.9945535964
0.3226118951 0.2484588237 0.2487453472
0.3225518811 0.4999414223 0.7433913542
0.322535681 0.4983097074 0.2424254687
0.332558386 0.2496824471 0.4907711033
0.3224543124 0.2477311583 0.7460588473
0.3325694316 0.2488545487 0.9955016702
0.3625731144 0.2508553032 0.237641838
0.3526141052 0.5036415814 0.4908189672
0.3525489366 0.2514000759 0.4902703731
0.3424290311 0.2504146686 0.7433407289
0.3625289323 0.5000839614 0.736455688
0.3526748556 0.2507570228 0.9920131268
0.3624921139 0.5014494731 0.2386166052
0.3425258634 -2.490786464e-04 0.2405376052
0.3425553182 0.2505877983 0.2440684899
0.3625841599 0.250427035 0.7391213402
0.3426573051 0.5001015347 0.7393376483
0.3425365408 0.4981541511 0.2419624773
0.3825139601 0.2493049463 0.2370858802
0.3926132474 0.2487588718 0.4834239915
0.3924291554 0.2484093581 0.9801023742
0.3924107462 -4.5520712248e-04 0.9841431936
0.382561824 0.5018250213 0.7347178595
0.3925911564 0.4997813099 0.9815751102
0.3725693101 0.2497280075 0.4890958661
0.3825139601 0.24871982 0.737744332
0.3724073092 0.2516838524 0.9883496959
0.3925285651 0.5003221774 0.4820755175
0.3725472191 -5.0200420941e-04 0.4859239609
0.4124399561 0.4992677785 0.9772121297
0.4025026698 0.2482980604 0.7302066849
0.4024032601 -0.0031354045 0.7349424517
0.4025284427 0.2498490682 0.232935526
0.4124105014 0.2465934488 0.4795930369
0.4124141832 0.2490452517 0.9777828149
0.4125172747 -0.0019682435 0.4794457633
0.4125025474 -9.3600000308e-04 0.9771569021
0.4423291337 -0.0030147279 0.7284973907
0.4425095438 0.2499844478 0.2284510448
0.4224803339 0.4983839059 0.7271792919
0.4323844837 0.4975221626 0.9781417943
0.432307165 0.4987522946 0.4761459141
0.4423070426 0.4988232388 0.7277030337
0.4422591787 0.5004992123 0.2276907448
0.432307165 0.2473211143 0.4796869238
0.4223220148 0.2501966293 0.7258611932
0.4322556193 0.2488369754 0.979347597
0.4223735606 -6.7630545948e-04 0.2273713452
0.4323844837 -4.9634169681e-04 0.9802496478
0.4223993334 0.2479830425 0.2278941665
0.4423549066 0.2478418051 0.726843324
0.4725423132 0.2483488278 0.4888740352
0.4625129809 0.2503072761 0.7362568686
0.4723361301 0.2515972876 0.9894082249
0.4724134488 -6.592565249e-05 0.9891965191
0.4623877983 0.2501731982 0.2342793976
0.4524210573 0.4988733553 0.9845113776
0.4524100117 0.4984210051 0.4874795383
0.4624503896 0.4994649902 0.7316545685
0.4723876759 0.4975931067 0.9882208315
0.462395162 0.4980435043 0.2340354757
0.4524284209 0.248943717 0.4794365587
0.4522443289 0.2470815965 0.9794304384
0.4524873304 0.0015327253 0.4815775487
0.4824354174 0.2496948135 0.7427608391
0.4825495545 6.5666302497e-04 0.7379026511
0.4925641594 0.498993765 0.9903562987
0.4924058403 0.4991350024 0.4910049001
0.4825090542 0.250369759 0.2444035373
0.4925015681 0.2496817962 0.4932572658
0.4924021584 0.2484458064 0.9930256328
0.4823580988 0.4973919899 0.2419983753
0.5025198549 0.2498529733 0.7442924845
0.5125381417 0.2475944769 0.4987938328
0.512530778 0.2490745406 0.9934766582
0.5026008554 -1.6980715951e-05 0.7428906239
0.502494082 0.2491864891 0.2444937424
0.5223686547 0.2506574407 0.2491273381
0.5223944275 0.2481451075 0.7476751751
0.512416641 0.5027401354 0.497131482
0.5224422915 0.4988961355 0.7487281813
0.5424825469 0.4977935727 0.753937985
0.5524861063 0.4984945527 1.0042736541
0.5426150931 0.4993575977 0.2542386526
0.5524087877 0.4997539736 0.5039631362
0.5325010785 -8.9011412507e-04 0.4997262588
0.5324532146 0.2487510614 0.501125358
0.5324458509 0.2478476628 1.0016503431
0.5325342151 0.5003371473 1.0020921639
0.5525707886 -8.2229414652e-04 1.0054426384
0.5423794554 0.2501426076 0.2503764023
0.5525744705 0.2504420048 0.503704487
0.5424015464 0.2499284735 0.7517251991
0.5524750608 0.2477630506 1.0044577461
0.5724011792 0.2510889632 0.5066343112
0.572496907 0.2489287471 1.0083697012
0.5624896658 0.4968973336 0.7569819463
0.5624749384 0.4997364003 0.259384024
0.5726147259 0.5002701084 1.0075965148
0.5726331351 0.4976295551 0.509263145
0.5624749384 0.2488499927 0.253595251
0.5624528474 0.249806762 0.7537225974
0.6025039035 0.4988056654 0.7642351712
0.5924929804 0.5006690877 1.0121343827
0.5925297988 0.5008422174 0.5138102175
0.5825225575 0.2496336323 0.7595049272
0.6024965398 0.2508156005 0.2624721674
0.5925113896 0.2516324342 0.5114915787
0.6024302667 0.2497996025 0.763008198
0.5924487983 0.249974034 1.0094926624
0.5825630577 0.5002596945 0.7607788438
0.5824121023 0.4978573573 0.2598368904
0.5824084205 0.2486579879 0.2562443349
0.612529554 0.5006430532 1.0171877081
0.6125074629 0.5023906217 0.515730297
0.6224005672 0.4994688954 0.7649963916
0.6124522353 2.337319111e-04 0.5154550795
0.6225404771 0.4999824267 0.2635371396
0.6125369176 0.2484770479 0.511840433
0.6124227806 0.2498477664 1.0143342821
0.6225220679 -8.7078716818e-05 0.7607254572
0.6224668403 0.2488330702 0.25939599
0.6224337037 0.2495164769 0.7588504801
0.6426138691 8.7958377981e-04 0.2565572913
0.6524591094 -0.001987444 0.5038094194
0.632463036 0.5005285012 0.508720994
0.6424592318 0.2500879351 0.2576995822
0.6525548372 0.2508911007 0.500919175
0.642569687 0.2503625995 0.7537235178
0.6325109 4.220267268e-04 0.5090063366
0.6525585191 0.2513825026 1.0011993177
0.6424813228 0.4993946969 0.7592416756
0.6524075636 0.5046790578 0.505797613
0.6324888089 0.2497722663 0.5059559322
0.6326176733 0.2508338247 1.007522878
0.68255447 0.5008610924 0.7506197267
0.6625215783 0.0017837634 0.2511532706
0.6825986521 0.4994161754 0.2477061478
0.6624958054 0.0018537963 0.7514205269
0.6725325014 0.4995131541 0.5053705196
0.6623006678 0.2520594007 0.2534949209
0.6624663507 0.2506047207 0.7539324623
0.6725766834 0.0033923726 1.0038226287
0.6624994872 0.4979777671 0.7548667292
0.6624994872 0.5011643948 0.2527272572
0.6824771514 0.251437826 0.2530972821
0.6724441372 0.2507492124 0.4997621567
0.6824697877 0.2518283441 0.7522194862
0.6724588646 0.2504094616 1.0018712535
0.7026057709 0.251208722 0.2439792052
0.6926206207 0.2515256926 0.4974094609
0.7025542252 0.2513779466 0.747330923
0.6925985297 0.2514117915 0.99700202
0.6925727568 0.5008968899 1.0004261313
0.6925322566 0.5014006583 0.4974849386
0.7326017219 0.5007146481 0.9917369887
0.7325943582 0.501988388 0.4911972763
0.7125541028 0.252191526 0.4979322822
0.712756604 0.2526269537 0.9985023698
0.7227601634 0.0028174648 0.2419348635
0.7324249936 6.2190691312e-04 0.4940203271
0.7327232226 -2.9880461916e-04 0.9936515456
0.7125577846 0.5018705818 0.9921511958
0.7225318893 0.2485571041 0.245215383
0.7325280851 0.24927761 0.4937883712
0.7225907988 0.2491402778 0.7464601679
0.7324802212 0.2521121206 0.9942038216
0.712572512 0.5015653268 0.4933575959
0.7126277396 -8.5724551742e-04 0.4917550751
0.7126351033 0.0013349279 0.9936607502
0.7526419773 0.4986136607 -0.0135803721
0.7425058716 0.0019767444 0.2370739142
0.7425021898 0.0010600682 0.7400105045
0.7425574174 0.2499362839 0.2442995253
0.7425758266 0.2514736235 0.7425730652
0.7624503992 7.6236326026e-04 0.2345039898
0.7526162044 0.0024894296 0.4887709437
0.7625682181 5.5571409336e-04 0.7360792198
0.7525057492 0.0034391696 -0.011062822
0.7625277179 0.2511781315 0.2390170053
0.7525941134 0.2509835233 0.4898662911
0.7626602641 0.2511579547 0.7388461226
0.752557295 0.25012178 -0.0098061363
0.7825532459 -6.3634243949e-04 0.2343226592
0.7824722455 -3.3408142182e-04 0.7287928584
0.7725570502 5.6157186502e-04 -0.0159923548
0.7825827007 0.2491383252 0.2330045605
0.7725680957 0.2512106746 0.4868352163
0.7826379283 0.2487276303 0.7335148182
0.7725828231 0.2506138328 -0.0148709215
0.7926157148 -1.8568453976e-04 0.4839514151
0.7926598969 -0.0019744983 -0.0194944658
0.8126081063 0.499303576 -0.0154559383
0.792564169 0.249449438 0.4833540365
0.792519987 0.2485304187 -0.0170124914
0.8024756825 8.7938483117e-05 0.2349623789
0.8125823334 -0.0024087284 0.4863225201
0.8025014554 -0.0010809473 0.7339980597
0.8125676061 -0.001777176 -0.0122890404
0.8025824558 0.2506912856 0.2361249199
0.8125602424 0.2480077753 0.4855281631
0.8026229561 0.2496499039 0.7348936673
0.8125307877 0.2493908602 -0.0137505928
0.8326041797 -2.1080787155e-04 0.4926405576
0.8225527563 5.2596963059e-04 0.740219449
0.8325379065 0.0019882647 -0.0071419661
0.8226853025 0.2524837637 0.2384546042
0.8326704528 0.25077004 0.4926083415
0.8225858929 0.2495054122 0.73726017
0.8327367259 0.2506815226 -0.0101920116
0.8226006202 -9.6372678894e-04 0.2389406071
0.8426629667 0.0015394292 0.7421468922
0.8426371938 0.2517163956 0.2396143838
0.8425156931 0.2516825507 0.7402479832
0.8625117664 0.0014115345 0.2468896998
0.8425341023 0.5021927592 0.7417906742
0.8525560709 0.0034299274 0.4921821685
0.8624013112 7.6678544259e-05 0.7453270816
0.852508207 8.9435838167e-04 -0.0044293704
0.8626884948 0.2523099831 0.2447956533
0.8426003754 0.0013208042 0.2408082205
0.8526738898 0.2524323455 0.4943093516
0.8627326768 0.2503918883 0.7452957859
0.8526186622 0.2520281592 -0.0105222082
0.8725631898 0.0028238433 0.4966058993
0.89249299 0.0031077499 0.5013490298
0.8725374169 0.0029583768 -0.0030410498
0.8826109313 0.2505155524 0.2494697492
0.8925261266 0.0026967947 -0.002177603
0.8724269617 0.2506333587 0.4954019376
0.8926623547 0.2508526997 0.4966077402
0.8826146131 0.2515927315 0.7491304224
0.8724527346 0.25091323 -0.0038849919
0.8926365818 0.2517873397 -0.0020379508
0.9025922773 0.0019137408 0.251248078
0.9126032004 3.0226783953e-04 0.5025631165
0.9025186405 0.0030263269 0.7504650894
0.9025186405 0.2521902242 0.2497293189
0.9125369273 0.2504159703 0.5026919809
0.9026106865 0.2516187661 0.7496293117
0.9025628226 0.5009170667 0.7534510617
0.9125221999 0.248404802 4.1706169545e-07
0.9225220775 0.0026455067 0.251720274
0.9225036683 0.0019610586 0.7517205968
0.922580987 0.2503359141 0.2508136208
0.9225515322 0.2514638605 0.7549237977
0.9424408322 0.0029704828 0.2511090885
0.9324998641 0.001437504 0.5058123404
0.9426506971 0.0019660703 0.7522305317
0.9324704094 1.7170461786e-04 0.0046601538
0.9426212424 0.251228248 0.2555088874
0.9324630457 0.2510017475 0.5035075085
0.9425291964 0.2507023502 0.7517933132
0.9324704094 0.2486677509 0.0011397625
0.9525585287 0.0026083424 0.5053281784
0.9525069829 0.0027131965 0.0062642395
0.9624994969 0.2500619005 0.2551802831
0.9524223006 0.2511664159 0.5047722206
0.9723631464 0.2510551183 0.5045062076
0.9625915429 0.250970506 0.7540512016
0.9525732561 0.2517671629 0.0031010787
0.9724993744 0.2525521044 0.0087176336
0.9626872707 0.001411144 0.257244875
0.9824477063 0.5027433897 0.7598022358
0.9824918884 0.500991916 0.2563906881
0.9825323886 8.2484615796e-04 0.2615848439
0.9925985393 -8.8262919462e-04 0.5177589909
0.98245507 0.2492118728 0.2604149392
0.9926795398 6.3362245644e-04 0.0138691722
0.992513857 0.2511703211 0.5117051254
0.9825139794 0.2507056046 0.7606140815
0.9924659931 0.2514000759 0.0112299372
0.0125181946 0.7487665451 0.0100112481
0.0023935763 0.5016440812 0.7640796135
0.012563334 0.5001073925 0.0105315842
0.0225628434 0.7466902905 0.2679811206
0.0024429498 0.7495931418 0.2615774802
0.0124716193 0.7489032265 0.511646216
0.0224744792 0.7488771919 0.7651289379
0.0226146101 0.5007543508 0.2683759979
0.0024993555 0.7490984855 0.7635328602
0.0123900298 0.9970123995 0.0158179701
0.0523626259 1.0004359416 0.520266324
0.0525032722 1.002284394 0.0223657545
0.0325024124 0.7499185736 0.0181413033
0.042424235 0.5003397508 0.7665970716
0.0424058258 0.752658709 0.2654443328
0.0325465945 0.74955409 0.5172444538
0.04249419 0.7497949095 0.7677099077
0.0524948039 0.7495150382 0.0122052566
0.0523836124 0.7522226304 0.5133232941
0.0523644668 0.5010316187 0.5166378706
0.0424385942 0.999804604 0.2690332064
0.0324151528 0.9987827482 0.5153768404
0.0324784805 0.9999803371 0.0199954779
0.0723914676 0.9992774045 0.5152728284
0.0624711178 1.0018418068 0.7608985036
0.0725707732 1.0008590028 0.0153292059
0.0724540589 0.7502635312 0.0084453616
0.0624604404 0.7493978827 0.2613887859
0.0724853545 0.7501919362 0.511450158
0.0624365085 0.7526456917 0.7647727198
0.0623871718 1.0002471911 0.2641971094
0.0824325818 0.9972662362 0.2607490662
0.1025011874 0.9980863243 0.7606205247
0.0823802997 0.9959124401 0.7624135808
0.0925708966 0.9977543839 0.0062158233
0.0924184684 0.7498274527 0.009170684
0.0924468186 0.4962204356 0.0116254589
0.1025302739 0.7487209847 0.2564781318
0.0824517274 0.7478293017 0.2616649239
0.0924173639 0.7492937446 0.504612981
0.1025232784 0.7481937852 0.7569000253
0.0824119635 0.7466447301 0.7588799348
0.0924979962 0.5006196221 0.5119002629
0.1124708739 0.9989389555 0.0069485095
0.1124498874 0.7490919769 0.0053965218
0.1224446104 0.5001158537 0.7567923315
0.1225668475 0.7506215062 0.2530816343
0.112441051 0.7498990477 0.5078944209
0.1224195739 0.7525480622 0.7544792155
0.1125809609 0.9974354607 0.5054809748
0.1224320922 0.9997590435 0.7592462779
0.1524136839 0.9998957248 0.4960913622
0.1323528102 0.9994661549 0.5037330212
0.1424020245 0.997858522 0.7492215479
0.1524725934 0.9993620168 -0.0027877023
0.1324135606 1.000071458 0.0010542517
0.1523934338 0.7478032671 -0.0034412105
0.1323907332 0.7489683128 0.0032136509
0.1423655742 0.7496126677 0.2465592547
0.1524284113 0.7480701212 0.500677094
0.1324717336 0.749072451 0.5020016359
0.142389138 0.4999934914 0.2497642964
0.1424370019 0.7485647774 0.7490678311
0.1724627758 0.7496126677 -0.0083800818
0.1624260798 0.5001939573 0.7477267208
0.1724222756 0.500205022 -0.004163744
0.1624268162 0.7493978827 0.2432566441
0.1824155258 1.0008720201 0.7412798189
0.1724579894 0.7501008153 0.4941096118
0.1624592164 0.4994070633 0.2465491296
0.1623517066 0.7499706426 0.7449322042
0.1825009445 0.7510836193 0.2401132732
0.1824608125 0.7493067619 0.7383260627
0.1623988342 0.9987567137 0.2463153327
0.1724281665 1.0004945193 0.4885076921
0.1723733071 0.9992448613 -0.0084702267
0.192366435 1.0012234864 0.4855843111
0.2023729399 1.0009240892 0.7356162284
0.1924684219 0.7508427998 -0.0112468587
0.2024001855 0.7499901685 0.2372644494
0.1924146671 0.7470287395 0.4880078823
0.2023162395 0.7499966772 0.7366710756
0.2323224996 0.7491049942 0.9884509465
0.2323920864 0.5001848452 0.9876961693
0.2324016592 0.7483825357 0.4864854415
0.2324086547 0.5002154358 0.4870183878
0.2224117225 1.0000974925 0.2376869406
0.2124571316 1.0020370658 0.4853348665
0.2124177359 1.0011323655 -0.0147958764
0.2123190626 0.749768875 -0.0162980672
0.2324789778 1.0025577566 0.9881011717
0.2224183499 0.7512528438 0.2361157153
0.2123757629 0.7497428404 0.4812931265
0.2224411773 0.4991206834 0.2335126544
0.2224061998 0.7511877574 0.7333564991
0.2525092923 0.7494759864 0.9912215311
0.2524124599 0.5011246922 0.9890584501
0.2425539649 0.7505629284 0.2366827187
0.2525181287 0.7479008967 0.4921481115
0.2424597098 0.5011227396 0.235456666
0.2424435097 0.7500617635 0.739389194
0.2525652562 0.5022135868 0.4904701129
0.2625187427 0.5009710884 0.7448723743
0.2625279473 0.7501333585 0.2426951635
0.2626207296 0.7481221903 0.7431842507
0.2826996444 0.4979901335 0.7440467217
0.2826399986 0.7471784382 0.2439083298
0.2825965528 0.4982010132 0.2448757333
0.282656935 0.7470873173 0.7463487922
0.2726368073 0.7475233958 0.9917277841
0.2725337158 0.4989482046 0.9941301848
0.272676203 0.7483109407 0.4946140239
0.2826024438 0.9989324468 0.2483081287
0.2825520026 0.9984768424 0.7476668909
0.3125162897 0.9980602897 0.9985023698
0.2926188897 0.7480505953 0.9990362367
0.3024814346 0.4951601789 0.7459879719
0.2924929707 0.4992078991 0.9987232803
0.3024048524 0.7502895658 0.2502024354
0.2926590217 0.7496842627 0.4993240178
0.3025749534 0.49705289 0.2482639466
0.302450139 0.7490984855 0.7490843994
0.3025049984 1.0010021928 0.2513907493
0.3124680576 0.7514936633 0.997784411
0.3125906629 0.4991707999 0.9974070224
0.3125652582 0.7483630098 0.5000382947
0.2925183754 0.9953917493 0.995943491
0.3324795947 0.7498014181 0.9933385892
0.3325628043 0.4995814948 0.9941301848
0.3224557851 0.7490203819 0.2486477784
0.3325716407 0.7482393457 0.4909064109
0.3223858302 0.7503676694 0.7476457204
0.3326401229 0.5006671351 0.4928660703
0.3524605725 1.0013862023 0.491710893
0.3426676143 1.0002602084 0.7407330657
0.3625878417 0.7513244388 0.2388457997
0.352577655 0.9993815427 0.9917646025
0.3624184771 0.7524374154 0.7410322152
0.3626430693 0.9988218 0.2386377758
0.3525345775 0.7502570226 0.9883773097
0.3627019788 1.0019003845 0.7424718146
0.3524900272 0.4996667579 0.9929243822
0.342535068 0.749768875 0.2414893609
0.3525934869 0.7495866332 0.4877022896
0.3424073082 0.7505629284 0.743855266
0.3924659738 0.9988868864 0.4841235411
0.3724588549 0.7512398265 0.9867757093
0.3724551731 0.5007875449 0.9857079757
0.3824881872 0.7523072427 0.2347028092
0.372480946 0.7500487463 0.4888408986
0.3824660962 0.5006326393 0.231784951
0.382561824 0.7489357697 0.7350160885
0.3825029146 1.000819951 0.2357042697
0.3824771417 0.9989064123 0.7394840014
0.3723962636 0.9996418881 0.9877237831
0.3725509009 0.5014989387 0.4906311934
0.3925101559 0.7495931418 0.9857079757
0.3924402009 0.7510380588 0.4859957567
0.4124915019 0.7462281774 0.9780681575
0.4124730927 0.7484866738 0.4762968696
0.4124988655 0.4989970193 0.4795921164
0.4024032601 0.9988999037 0.2321384076
0.4024548059 0.4995639214 0.7286106073
0.4024548059 0.749482495 0.2293116749
0.4024143056 0.4984958544 0.2289959571
0.4023738054 0.7486689156 0.7278401822
0.4323808018 0.7505954716 0.9756473477
0.4223846061 0.7485582688 0.2268061827
0.4324028929 0.7494499518 0.4741945389
0.4223330603 0.4978723272 0.2238091649
0.4223220148 0.749749349 0.7266297773
0.4424469526 0.7484931825 0.2315714042
0.4424506344 0.7490789596 0.7294601919
0.4323844837 0.9989389555 0.4791272841
0.4224361518 1.0006312006 0.725406486
0.442435907 0.9992058095 0.2271716054
0.4524762849 1.0000649494 0.9831859152
0.4623841165 1.000409907 0.2307577176
0.4724870856 1.0003252948 0.4856174477
0.4625203445 1.0019784881 0.7304064248
0.4523326931 0.7489683128 0.9797433948
0.4524762849 0.7488902092 0.4837387888
0.4722919481 0.7480245607 0.9876961693
0.4623509799 0.750445773 0.2311636405
0.472339812 0.7486428811 0.4865121348
0.4624098893 0.7509534466 0.735627274
0.4725165403 0.4980506638 0.488889683
0.4824795995 1.000891546 0.2401887509
0.4924242495 0.9979236084 0.4966896612
0.4924463405 0.998073307 0.9956581484
0.4824354174 0.4998672238 0.7384061427
0.4924095221 0.7515131892 0.493851883
0.4823470532 0.7511747402 0.239472633
0.4924684316 0.7500227117 0.9921972188
0.4824280537 0.749625685 0.7414096038
0.5125050052 1.0000324062 0.4990432774
0.5124608231 0.9975851594 0.9982354364
0.5024646273 1.0009566324 0.2449539724
0.522475428 0.7478878794 0.749161718
0.5225159283 1.0016530563 0.2508670075
0.5226006106 0.9996223622 0.7509096716
0.5024499 0.7504132298 0.2449815862
0.5025088094 0.4998906549 0.24240798
0.5024499 0.7495671073 0.7464785771
0.5024499 0.5006000962 0.7441240403
0.5125749601 0.7503611608 0.9960907646
0.5123945499 0.5008597907 0.9958146266
0.5125860056 0.7487470192 0.4968829578
0.5225048827 0.4988356052 0.2500634459
0.5224496551 0.7508753429 0.249221225
0.532420078 0.7487730538 0.5056751918
0.5323832596 0.5014377575 0.503312371
0.5325305332 0.9991211973 1.0017515937
0.5425156835 1.0003122775 0.2511523501
0.5524419242 1.0002276652 0.5035388042
0.5525965615 0.7485582688 1.0062526432
0.5424236375 1.0003773638 0.7515070501
0.5424899106 0.7497818922 0.254229448
0.5524419242 0.7497363318 0.5073854066
0.5425083198 0.7521445268 0.755734723
0.5324826693 0.7498404699 1.0029389871
0.5625448934 1.001177926 0.2590692267
0.5625338478 0.997305288 0.7572433569
0.5624786202 0.7507581875 0.2577143096
0.5624307563 0.7506345234 0.7558838375
0.5726515443 1.0009501237 0.5085166519
0.5725999986 0.9993099477 1.0111218766
0.5724858615 0.7511942661 1.0131468887
0.5723680426 0.7479594744 0.5130223037
0.6025664948 1.0002927516 0.2651893653
0.5924929804 0.7470222309 1.0158254273
0.5924929804 1.0008264597 0.510861984
0.602514949 1.0003513293 0.7620766925
0.5925850264 1.0006702524 1.010146189
0.6024155393 0.7505108594 0.2644631224
0.6024449941 0.5000956769 0.2646987602
0.5926181629 0.7515001719 0.5143698571
0.6023934483 0.7525415535 0.766241774
0.582419466 0.999733009 0.2594466153
0.5825004665 1.0020956435 0.759140425
0.582441557 0.7502700399 0.2604839737
0.5824894209 0.7513830165 0.761477473
0.6124485535 0.7481482248 1.0117017665
0.6125921452 0.7488446488 0.5131207929
0.6124669627 1.0012560296 1.0141593947
0.6223858398 0.998554946 0.2613280356
0.6225110224 0.7511487056 0.2596150595
0.6226435686 0.75189069 0.7605459675
0.6425439141 1.0014708146 0.755940906
0.6524848823 0.9993489995 1.0030402377
0.6325293092 0.9982360229 1.0108733524
0.6324225358 0.7504002126 1.008397315
0.6324372632 0.5010114419 1.008259246
0.6324593542 0.7500162031 0.5082791732
0.6524959278 0.7502374967 1.0055622982
0.6524259728 0.5007667172 1.006510372
0.6425660051 0.7517149569 0.2575928088
0.6424040042 0.5008890796 0.2555779219
0.6525401099 0.74926771 0.5070218248
0.642569687 0.7484736566 0.7563781245
0.672539865 0.7511552142 1.0031875113
0.6725803653 0.5025292556 1.00586605
0.6825581518 1.001177926 0.2514487382
0.6724920011 1.0015684441 0.5042889791
0.6825839247 1.0013536591 0.7502635086
0.6826133794 0.7512007747 0.254077572
0.6724883193 0.749892539 0.5082460367
0.6824881969 0.7505694371 0.7540778949
0.6624332141 0.7492546928 0.257613059
0.6624737143 0.7509729725 0.7559906108
0.702535816 0.9986200323 0.2468307904
0.7026352257 0.5018380386 0.7474763557
0.6925359384 0.7507646961 0.9980329352
0.6925506658 1.0002992602 0.4987386052
0.702535816 0.9983922301 0.7453500931
0.6924254832 1.0006637438 0.9989257815
0.7025210886 0.7515066805 0.2456286696
0.7025394978 0.5025852299 0.2448729719
0.6924623016 0.7517605173 0.4962147038
0.7022928145 0.749892539 0.7452985473
0.7224913891 0.4999720129 0.7431584778
0.732483903 0.7508623257 0.9902550481
0.7223772521 0.7507516789 0.2399945338
0.7225834351 0.5017859695 0.2443593552
0.7325685853 0.7529841407 0.4898055407
0.7224656162 0.7532444861 0.7433876723
0.7224877073 1.0014252541 0.7438018793
0.7124068292 0.7537261251 0.993872456
0.7124362839 0.7513699992 0.4952822778
0.7425831903 0.5023717467 0.7401356871
0.7425574174 0.7536740561 0.2396604068
0.7425574174 0.5006163678 0.2391863699
0.742498508 0.7496387023 0.7386114053
0.7526198863 0.4993771236 0.4869594784
0.7525094311 0.7524374154 -0.0108119506
0.7625534907 0.5008610924 0.7326422221
0.7625313997 0.7496387023 0.2334813588
0.7625792636 0.5004211087 0.2329373669
0.7524762945 0.7527368126 0.4871601387
0.7624283082 0.7500552549 0.7376706952
0.7824722455 0.7471654209 0.235282699
0.782483291 0.4998489997 0.2265401698
0.772538641 0.751962285 0.4826388391
0.7825679733 0.7501138326 0.7322620721
0.7725202318 0.9991016714 0.4835869129
0.7725165499 0.4999895862 0.4803919962
0.7725644139 0.7508362911 -0.0156920271
0.7826305646 0.5010674162 0.7305702666
0.7725828231 0.5005896823 -0.0168775336
0.7925015778 0.7480245607 0.4809967384
0.81261547 0.4989540623 0.4847181582
0.812431378 0.7491505546 -0.0163524203
0.8026818655 0.498602596 0.7328438029
0.8025125009 0.7495280555 0.2365768658
0.8025014554 0.4980766983 0.2352357556
0.7925531235 0.5004237122 0.4842652919
0.792472123 0.7521575441 -0.0173203024
0.8125565606 0.7498469786 0.4853330255
0.7925015778 0.5004901002 -0.0180170354
0.8026855474 0.7479855089 0.7345623017
0.8327146349 0.5017221849 0.4918066208
0.8326520436 0.751142197 -0.0107875032
0.8226227113 0.5014149773 0.738354597
0.8325673613 0.4985993417 -0.0114661031
0.8226484841 0.7491570632 0.2367370258
0.8225306653 0.5006098591 0.2391559948
0.832618907 0.7502635312 0.4900954856
0.8225417108 0.7506735752 0.7380434815
0.8624896754 0.7504587903 0.7447978171
0.8625117664 0.5001327762 0.7457808684
0.8525192525 0.7508623257 -0.0048794937
0.8525671164 0.5018224178 -0.0072242736
0.862474948 0.7521510354 0.2440031372
0.8625743577 0.502317725 0.2469191545
0.8525965712 0.7516303446 0.4930750147
0.8425304205 0.7513049129 0.2395573153
0.8425856481 0.5024758848 0.2422312517
0.8426224665 0.7540125051 0.7394168078
0.8525744801 0.5025045228 0.4926212279
0.8726184174 0.5007302689 0.497797895
0.8824194756 0.7514676287 0.7514729931
0.8926660365 0.5015685811 0.5007682195
0.8725153259 0.7508362911 -0.0043483791
0.8926586728 0.7510445674 0.0042686822
0.8827213865 0.5001854961 0.7488450798
0.8726478721 0.5011650457 -0.0040489351
0.892677082 0.5020879702 0.0012502177
0.8826035676 0.7508102566 0.2487361426
0.882434203 0.5017143745 0.2501582533
0.8724969167 0.7517800432 0.4997860887
0.8925334903 0.7492221496 0.5023965133
0.882456294 1.0024926703 0.249761535
0.8825372945 1.0005986574 0.7502966452
0.9125479728 0.7513504733 0.5027103901
0.9125295636 1.0020175399 0.001208889
0.9125921549 0.5020189786 0.5065100491
0.902529686 0.7506215062 0.7540981451
0.9125111544 0.751767026 0.0022589498
0.9124853815 0.5020215821 0.0033982032
0.9025665044 0.7485127084 0.2504629256