POSCAR file written by Ovito 3.7.11
1
271.6127241744 0.0 0.0
0.0 15.3647359296 0.0
0.0 0.0 10.8645089669
Sr Ti O 
800 800 2400 
Direct
0.0223374773 0.5010094544 0.7641026896
0.0123822 0.2498030544 0.5170505671
0.0224589738 0.2509140399 0.7634040846
0.0025054904 0.2513032429 0.7659536706
0.0124066097 0.2509101349 0.0188216994
0.0224930665 0.0011126755 0.2635480841
0.0026430023 0.0013855731 0.2662835965
0.0024179024 0.5015275238 0.2692768289
0.012516067 0.5022271779 0.5167173721
0.0125832583 -4.183628809e-04 0.5180602768
0.0225833789 8.5669970981e-04 0.7663568181
0.0025551567 -0.0012912057 0.7673435171
0.0224620296 0.2530064937 0.2645228175
0.0024296103 0.2521454311 0.2648035481
0.0324909781 0.5002993869 0.0119808933
0.0425792389 0.5002212859 0.2635186304
0.0324280208 0.5036375503 0.5139422812
0.0324920826 0.2520686319 0.515558553
0.0424080392 0.2517724992 0.7625646541
0.0324567381 0.2503237272 0.0159348686
0.0525066088 0.5015099511 0.0078003086
0.0424728374 6.1387093507e-04 0.7645997208
0.0425181224 0.2506061922 0.2594577013
0.0524451242 0.25141714 0.5099577477
0.0524841504 0.2517354013 0.008665327
0.0624704277 0.2514360144 0.2588520596
0.0624888363 0.5004321584 0.75950331
0.0724449236 0.5016069264 0.0047126403
0.0624218291 0.5002212859 0.2590490312
0.0724857906 0.5017976228 0.5037641866
0.0724648049 0.2509075315 0.5045456301
0.0625020905 0.2537660252 0.7563747747
0.0724703275 0.2524435163 0.0086441571
0.0925308751 0.2534620824 0.49923568
0.1024321049 0.2532726877 0.7519143799
0.0823803934 0.2492953984 0.751048257
0.0924877991 0.2515635793 4.562767114e-04
0.1023757747 0.0011406616 0.249942315
0.0924130603 0.003526124 0.4991270695
0.1024788627 0.251503051 0.2488184722
0.082328113 0.2517308454 0.2523731658
0.1025230432 0.501743603 0.7494973355
0.082588042 0.5020683727 0.7552352847
0.1025156798 0.5044393864 0.2475280319
0.0825582201 0.4982010755 0.2528112896
0.1224388996 0.2506556561 0.2521338544
0.1125490831 0.5030667628 0.0029498363
0.1125155795 0.250746123 0.502516086
0.1223439114 0.501686329 0.2497241735
0.1124110189 0.5018620561 0.503483456
0.1224186502 0.2525066479 0.751201048
0.1124066008 0.2520888079 -1.4510343564e-04
0.1223991371 0.0017384591 0.2511876543
0.1524316034 0.2497822275 0.4947338659
0.1324041912 0.2521773223 0.4986235953
0.1423915731 0.2496592185 0.7468474228
0.1524050951 0.2476604858 -0.0050957367
0.1323379204 0.2495947853 -4.9706595982e-04
0.1423580695 -0.0011104021 0.2463940644
0.1423602785 0.2483978887 0.2512548455
0.1424460624 0.498072209 0.7414122946
0.1523263065 0.498240126 -0.0036979837
0.1323555926 0.5001041346 -0.0015370577
0.1524109858 0.499361525 0.4945654276
0.1323497018 0.5002733532 0.5021561986
0.182427989 0.2519475754 0.2400744047
0.1723250014 0.5016921866 0.4916265004
0.1824832147 0.5043118216 0.7360369941
0.1724074717 0.2493507199 0.4914921179
0.162353819 0.2504408785 0.7435320406
0.1724148351 0.2494808881 -0.0090828281
0.1823801267 0.5018067346 0.2359775789
0.1622625125 7.6731862992e-05 0.7462132478
0.1623361468 0.2490285536 0.2456337908
0.1824957325 0.2516019789 0.7406253285
0.1825152456 0.0011267336 0.2432185873
0.1925427581 4.053414807e-04 -0.0090743906
0.2024631329 0.2501304274 0.2390628541
0.2023880259 0.5006039804 0.734039665
0.1924698602 0.5026150791 -0.0126232099
0.2025308764 0.4992443736 0.2342370493
0.1924138982 0.5014839175 0.4869847812
0.192488637 0.2508593693 0.491747997
0.2024693918 0.2498017527 0.7395659157
0.1925585895 0.250537203 -0.0084041642
0.2025198312 -1.9473391547e-04 0.2427372034
0.2125591253 0.25007055 0.4865669068
0.2225251532 0.2508593693 0.7384577202
0.2125734839 0.2492589513 -0.0074801206
0.2223966614 -0.0016453283 0.7433231034
0.2224706639 0.2498876637 0.2425963778
0.2326056824 0.2499625104 0.4907760248
0.2325662881 0.2486757978 0.9926496039
0.2325710743 -6.4752399477e-04 0.4975034342
0.2224331104 0.4987809748 0.7396782079
0.2124111204 0.4992951392 -0.0109381913
0.2124483057 0.5000071593 0.4882301205
0.2426261997 0.4985447195 0.7434712924
0.2623266759 0.249914999 0.7428564463
0.262539847 0.0014456457 0.2468864935
0.2624187187 5.3134429707e-04 0.7440060611
0.252562774 0.2492101382 0.4940637942
0.2424759858 0.249857725 0.7430350094
0.252554306 0.248224765 0.9925391525
0.2626031725 0.2492648089 0.2471607811
0.2426044776 0.0015517979 0.2438831364
0.2626896928 0.4983449114 0.2459872352
0.2526323583 -0.0010090662 0.4923573204
0.2426313541 -3.4325583023e-04 0.7443696302
0.2525432609 0.0018488417 0.9974634432
0.2425437294 0.2520360898 0.2414900232
0.2723910056 0.2504135432 0.4954922987
0.2724657443 0.2472042463 0.9910020375
0.2725474783 -0.0011543339 0.4933992451
0.2725500555 -0.0021091567 0.9939474076
0.2824413447 0.2482150023 0.7441155921
0.2725507919 0.4990517247 0.4978255841
0.2824759528 0.2486100628 0.2468736075
0.3125312458 -0.0013622776 0.4987156381
0.2924235722 0.498948241 0.4963519786
0.2925494868 0.2478863276 0.4964651913
0.3025898853 0.249276524 0.7447875046
0.2924603893 0.2497854817 0.9967178964
0.2925774678 -2.1562591137e-04 0.4957049176
0.3025876763 -4.0267761295e-04 0.7480992051
0.3124848562 0.4971415064 0.5002315833
0.3024827475 0.249161976 0.2506703737
0.3125614358 0.2481245354 0.4992145102
0.3125117327 0.2479182189 1.0009426616
0.3226736278 1.276276287e-04 0.2505415137
0.3326665322 -0.0039146742 0.4971923295
0.322521573 -3.9239432525e-04 0.7496096278
0.3325958433 -0.0016244363 0.9987888597
0.3226570601 0.2485632023 0.247751696
0.3224718699 0.4982824306 0.7476721265
0.3224475706 0.4987529887 0.2458666591
0.332685309 0.2487903458 0.4966078576
0.3224589839 0.2505385047 0.7470894954
0.3325045369 0.249161976 0.9967547135
0.3626883216 0.2500816143 0.2437202206
0.3527219255 0.4995795567 0.4940104094
0.3526350371 0.2497568447 0.49325934
0.3425430946 0.2490259502 0.7476620018
0.3625999605 0.4995138218 0.7451685619
0.3525448351 0.2472393917 0.9944076217
0.362401148 0.4993419998 0.2431882131
0.3426631184 -0.0025421937 0.2446618186
0.3426969901 0.2484610202 0.2419529986
0.3627435473 0.2483985395 0.7410054653
0.3426417645 0.4994578495 0.7472634564
0.3425335221 0.4992202925 0.24290196
0.3826505676 0.2495518297 0.2405649929
0.3925801465 0.2507584889 0.4885936897
0.3925249209 0.2504929458 0.9895017396
0.3924770586 -1.0602428803e-04 0.9905510277
0.3824664819 0.4981652792 0.7401816821
0.3925138757 0.4987341143 0.9953556627
0.3726068555 0.2502846767 0.488775014
0.3826395224 0.2469061611 0.7447359606
0.3725111309 0.2497835291 0.9911769188
0.3925801465 0.4998080019 0.4931360026
0.3726179006 -9.5719413956e-04 0.4934286988
0.4125092571 0.496901346 0.9891703854
0.4024949987 0.2511327225 0.7435007461
0.4024618633 3.5522672419e-04 0.7371507122
0.4025281341 0.2500998379 0.2397145173
0.4125313473 0.2508216205 0.4871596626
0.412586573 0.2487630105 0.9866115952
0.4125350291 2.9365716618e-04 0.4872020023
0.4125387108 -0.0017182225 0.9887101714
0.442478398 8.8735432062e-04 0.7350180801
0.4425299419 0.245973506 0.2381313808
0.4225235155 0.5007823109 0.7355482467
0.4324678213 0.499349159 0.9875964533
0.4325377738 0.4981392456 0.4863257547
0.4423937186 0.4971642858 0.733751571
0.4425299419 0.4971213303 0.2377328354
0.432600363 0.2488684467 0.4851963893
0.4225529692 0.249873996 0.7380536522
0.4325304104 0.2482045889 0.989188794
0.4224719715 -0.002820643 0.23806511
0.4322690088 -0.0018361159 0.9851205015
0.4226486937 0.2489608661 0.2388612804
0.4424931248 0.2490018691 0.7368294827
0.4723407692 0.2501746846 0.4867611172
0.462529005 0.2495843718 0.7372712883
0.4724438572 0.2486178729 0.9847247174
0.4726537148 0.0010448578 0.9881947316
0.4625069147 0.2482345276 0.2356259754
0.4524300672 0.500159456 0.9842737076
0.452599426 0.499701264 0.48842249
0.4624480073 0.4964106119 0.735602552
0.4724733109 0.5003612168 0.9843381376
0.4624848245 0.4977539477 0.2349043597
0.4525221101 0.2461694091 0.4876493304
0.4525073832 0.246047051 0.984319729
0.4525626089 -0.0031198411 0.4876419669
0.4825759303 0.2498870129 0.7366592035
0.4825538401 0.0026133196 0.7416313565
0.4923987397 0.5019668415 0.9906062534
0.4923987397 0.5006456343 0.4896438982
0.4824507521 0.2506881981 0.2401738109
0.4924981459 0.2507643465 0.4884427394
0.4924429202 0.2515993755 0.9896950295
0.482439707 0.5004399685 0.2392975633
0.5025565848 0.250533298 0.7418182034
0.5126444775 0.2495622432 0.494624335
0.5125266627 0.2502352128 0.9945640945
0.5025639483 -5.2425471057e-04 0.7423244389
0.5025749934 0.2504421802 0.2438969428
0.5224820137 0.2512381588 0.2452849485
0.5225519662 0.250794936 0.7485152387
0.5124751187 0.4989801322 0.491651352
0.5225114674 0.499955092 0.7443070411
0.5425105304 0.5010179153 0.7469864075
0.5526352402 0.5000208269 1.0013292414
0.5424663499 0.5005584216 0.2485763996
0.5525689694 0.496373514 0.5000852352
0.5324889086 -4.0508572463e-04 0.4996830081
0.5325036355 0.2485944426 0.4987653413
0.5326324954 0.2485215485 0.9984575056
0.5325183623 0.5003729319 0.9983010328
0.5524401094 -4.2545704773e-04 0.9971781104
0.5425473475 0.2499833373 0.2513137529
0.5523627934 0.2497054282 0.4971251383
0.5425178938 0.2482215108 0.7481820437
0.5525542425 0.2504740714 0.9991662353
0.5724207639 0.2501844472 0.5033812885
0.572317676 0.2509947442 1.0008045974
0.5624249141 0.501412325 0.7519926163
0.5624506861 0.4996674203 0.2551777104
0.5724465359 0.4976673859 1.001771047
0.5724796713 0.5011266058 0.5026688771
0.5625132752 0.2484688303 0.2494959073
0.5624101872 0.2483809668 0.750599088
0.602540855 0.5018054329 0.7604449081
0.5924492807 0.4983214811 1.0046243742
0.5924566441 0.5004946392 0.5051595557
0.5824755211 0.2494450918 0.7496298772
0.6023641328 0.2502117825 0.2536461179
0.5923866916 0.2491854063 0.5030941149
0.602375178 0.2500301979 0.7562624825
0.5922983305 0.2505697451 1.0009518659
0.5824018869 0.5006228548 0.7552941921
0.5824313406 0.5006521427 0.2563199617
0.5824571126 0.2488847177 0.2513165142
0.6124409803 0.5011109856 1.0099352447
0.6124998877 0.4988369471 0.5104695057
0.622348469 0.4991884013 0.7598024492
0.6123636644 8.892417595e-04 0.50740448
0.6223668776 0.4989911965 0.2603339489
0.6123747095 0.249591531 0.5107557589
0.6124409803 0.2509569955 1.006087855
0.6224331484 0.002457378 0.756717174
0.622425785 0.2514262518 0.2558882809
0.6223963313 0.2481440607 0.7586178582
0.6423180784 0.002732879 0.2583771186
0.6525237858 0.0018674558 0.4998146294
0.6324400434 0.5009007639 0.5078600919
0.6426604777 0.2501948606 0.2549927043
0.6525421944 0.2511834881 0.5034273099
0.6426788862 0.2498870129 0.7582193128
0.6323737726 3.5249319201e-04 0.5084178714
0.6524906504 0.2511997591 1.0007769845
0.6424837555 0.5013173022 0.7543176178
0.652509059 0.4988974754 0.5012845531
0.6325357679 0.2522326438 0.5089434358
0.6323737726 0.2500731534 1.0069162404
0.6824008839 0.4990074675 0.7457870896
0.6624018209 -0.0011812136 0.2499285086
0.6825113353 0.49887014 0.2473135722
0.6624349563 -0.0025983288 0.7496372406
0.6725707112 0.5003481999 0.4972006134
0.6626779493 0.2490936377 0.2461160951
0.6625269991 0.250324378 0.7475644364
0.6724565781 -8.5175789859e-04 0.9949322657
0.6625233174 0.5007862159 0.7501186245
0.6624570465 0.5001171514 0.2471782692
0.6824524279 0.2504031298 0.2420293941
0.6725743929 0.2496605202 0.4960206245
0.6825002902 0.2496813471 0.7448703432
0.6725707112 0.2501877014 0.997914453
0.7024551727 0.2489686762 0.2402087872
0.6924519594 0.2480952476 0.4945635867
0.7024478092 0.25020983 0.7386620552
0.6924556411 0.2511079906 0.9952912327
0.692418824 0.4989723221 0.9918856485
0.6924556411 0.4983279895 0.4941613596
0.7324684941 0.5011780222 0.9886733542
0.7325200381 0.500695749 0.4867417882
0.7124362956 0.2506530527 0.4907520937
0.7123884334 0.2508457016 0.9872558949
0.7223437844 -6.9770383538e-04 0.2379399318
0.7323764513 7.0303615121e-04 0.4910963338
0.7324353587 0.0016001554 0.9887746013
0.7125283385 0.5017572707 0.9865471652
0.7225352334 0.2520894588 0.2392874386
0.7323617245 0.2510266354 0.4886461541
0.7223216941 0.25275592 0.738081265
0.7323727696 0.2498336439 0.987292712
0.7124252505 0.5013583052 0.4873676793
0.7124620676 8.7557409863e-04 0.4927715131
0.7124362956 0.0013396237 0.9900263836
0.7525890537 0.5004998459 -0.0144760318
0.7424753891 0.0021280525 0.2368777577
0.7423980731 9.9402715948e-04 0.7384034149
0.7423759828 0.2515479591 0.2356692355
0.7424901159 0.2484148105 0.7372326303
0.762540723 8.4387814224e-04 0.237835003
0.7524123315 0.0028781468 0.4851503679
0.7625701767 2.3228286048e-04 0.7353227418
0.7524344218 0.0015417749 -0.0142909061
0.7624744521 0.2474743453 0.2355891583
0.7523571058 0.2507715058 0.4830628368
0.7624781339 0.2492368227 0.7378336699
0.7523497424 0.2501519051 -0.0140749829
0.7825471495 0.0011472351 0.2381433464
0.7825324226 0.0014089383 0.736986876
0.7726912047 -3.355108224e-04 -0.014625675
0.7825103323 0.2490728108 0.2342683438
0.772418758 0.2502000674 0.4867537538
0.7824514249 0.2516527445 0.7334984532
0.7724077129 0.2513572627 -0.0118142088
0.7925798164 5.6284500117e-04 0.4871780711
0.792520909 0.0020879607 -0.0138575869
0.8124721098 0.501232042 -0.01197151
0.7925429993 0.2503315373 0.4878683923
0.7923920491 0.2522723451 -0.0134931342
0.802527804 0.00234667 0.2385179607
0.8125678343 -9.1250197475e-05 0.4895748661
0.8026124834 0.0020129838 0.7387393712
0.8125678343 1.373251595e-04 -0.0110244999
0.802527804 0.2513351341 0.2372855074
0.8126819674 0.2483614416 0.4914838341
0.8025683028 0.2500698992 0.7352003249
0.8126672406 0.2486152696 -0.0115813773
0.8327399379 0.0017355303 0.4929077364
0.8227404064 6.6392060749e-04 0.7401439446
0.8325926694 8.3500609327e-05 -0.0078385068
0.8227035892 0.2489517544 0.2443129764
0.8327104842 0.2491964706 0.4913089527
0.8227882686 0.2513709303 0.7421716478
0.8326552585 0.2512225386 -0.0066948886
0.8226741355 8.3691414361e-04 0.2376914162
0.8427983768 0.0014681648 0.7442232822
0.8426768803 0.2504447836 0.2457893431
0.842680562 0.2508561151 0.7435016665
0.8626575348 3.8894028766e-04 0.2480094159
0.8425958826 0.5025115954 0.7420556738
0.8527095473 8.0990424237e-04 0.4934517095
0.8626833068 7.0192972152e-04 0.7452081403
0.8526911387 -5.5510457367e-04 -0.0067913495
0.8627090788 0.2520055003 0.2499377128
0.842706334 9.1701205847e-05 0.2414403201
0.8526543216 0.2500633908 0.4935225825
0.8625581286 0.2509582971 0.7468787174
0.8525549153 0.2498193254 -0.0023059006
0.8726092041 -1.3882667411e-04 0.4968830657
0.8925640866 -8.4173494728e-04 0.4996434297
0.8726386578 4.7843092429e-04 -0.0024643707
0.8827596858 0.2499865915 0.2515033611
0.892622994 8.5778552804e-05 -0.001545719
0.8726202492 0.2496924114 0.5013830389
0.8923689558 0.2474365965 0.5015174214
0.8826786882 0.2506087955 0.7536926471
0.8725981589 0.251118404 -0.0018559585
0.8925788134 0.2489706287 -1.1687373813e-05
0.9025452096 -7.3369534233e-04 0.2500297557
0.9124968788 -8.0034146008e-04 0.5008059305
0.902501029 -1.2470342455e-04 0.7509019089
0.9026593427 0.2470428377 0.2540299364
0.9124895154 0.2506224632 0.4994381742
0.902501029 0.2490005674 0.7517938038
0.9024310765 0.4995027575 0.7506994147
0.912430608 0.2512082201 0.0017135171
0.9224927287 8.5487735503e-04 0.2538329648
0.92260318 -0.0025120598 0.7547778319
0.9223933224 0.2510422556 0.2500463234
0.9225626812 0.2459767602 0.7516456148
0.942591198 2.4172005489e-04 0.2591401536
0.9324848968 5.9629822824e-04 0.5024498152
0.9425801528 1.5548362323e-04 0.7572298525
0.932506987 0.0012233835 0.0051676999
0.9424439295 0.2492771748 0.2570664289
0.9324370345 0.2482670696 0.5045999354
0.942410794 0.2478785176 0.7591535473
0.9324370345 0.2484551627 0.0066958868
0.9525833661 1.7572477813e-04 0.5098785909
0.9525870478 2.2206465688e-04 0.0070234672
0.9625203085 0.2455875573 0.2574622131
0.9525686392 0.2485130875 0.5088182576
0.9725824291 0.25127005 0.5115123508
0.9624945365 0.2483562348 0.7599883757
0.9525760026 0.2480535938 0.0116591116
0.9725124766 0.2496494559 0.0106562131
0.9626049879 -3.0205759533e-04 0.2637109998
0.9825377801 0.5023039771 0.7635476714
0.9826629583 0.5015685268 0.2617817824
0.9826003692 -0.0014839848 0.2654920283
0.9927361241 0.0021528495 0.518402676
0.9825230533 0.2504538954 0.2654791423
0.9926808984 6.9509589108e-04 0.0189405267
0.9925262665 0.2492784765 0.5172585838
0.9825561887 0.2489849472 0.7636084196
0.9925225848 0.2497685598 0.0161878022
0.0123103697 0.7508992031 0.0158139243
0.0023949653 0.5006619053 0.7692386787
0.0125633402 0.4999544411 0.017131149
0.022438393 0.7517843468 0.2681907237
0.0024884808 0.7501181939 0.2697269183
0.0123799541 0.751231132 0.5159874726
0.0224950178 0.7488360371 0.7678515935
0.0225424382 0.4985980885 0.266142771
0.0025258134 0.7509317451 0.7686164693
0.01260082 1.0023386041 0.0185911322
0.0524837822 0.9999565261 0.5065586065
0.0524348154 1.00014527 0.004656126
0.0325057049 0.7482112298 0.0140114498
0.0425056046 0.5000266845 0.7632779859
0.0425490488 0.75148496 0.2667005505
0.0324869282 0.7528647429 0.5161236959
0.0424065665 0.7515630609 0.7637225527
0.0524351836 0.7522073935 0.0113497557
0.0525191266 0.7480355027 0.5162746461
0.0524454924 0.5009098757 0.5087363395
0.0424536925 1.0016356959 0.2634744498
0.0325185909 1.0023060621 0.5132501192
0.0324847191 1.0014664772 0.0111393458
0.0725222396 0.9999435093 0.5019555453
0.0624446558 1.0003340139 0.7598282212
0.0725027265 0.9999304925 0.0012782467
0.0726533086 0.7503329714 0.0104693662
0.0625882426 0.7513808254 0.2594144412
0.0725513251 0.7506974424 0.5079374079
0.0625702022 0.7490703399 0.7591268549
0.0625050358 1.0012777333 0.2584406282
0.0825026262 1.0010889894 0.2551878351
0.1024556679 1.0016682379 0.7531781277
0.0824113198 1.0004902157 0.7534330863
0.092534925 1.0016942716 0.0032433608
0.0925426566 0.7515760777 9.7947569051e-04
0.0924800675 0.5034650775 0.0026966265
0.1024943259 0.7523570869 0.2542287489
0.0825799422 0.7509187283 0.2525600127
0.092571374 0.7515044852 0.5042787059
0.1024935895 0.7529558606 0.7532572846
0.0825876738 0.749675622 0.7541510203
0.0923777159 0.5024575756 0.5009973795
0.1125954727 1.0034645591 0.0050536589
0.1125516603 0.7532682643 0.0014807409
0.1224123913 0.5023989999 0.7509313626
0.1223564292 0.7502743957 0.252799324
0.1124309001 0.7515695693 0.5002076522
0.1225059068 0.7510358797 0.7542973684
0.1125325154 1.0017528473 0.5008602357
0.1223858829 1.0026640246 0.7498406552
0.1522707126 0.9989932814 0.4964191699
0.1324240724 1.0015510865 0.4991362738
0.1425115969 0.9994814122 0.7447267564
0.152235 0.9987459619 -0.0056901769
0.1324829798 1.0003925896 -5.7039647134e-04
0.1523233611 0.7489336633 -0.0036240089
0.1324214952 0.7494933865 -0.0034008235
0.1423805279 0.746896531 0.2466932036
0.1523255701 0.7499164332 0.4962442885
0.1323574334 0.7498838911 0.5003475573
0.1423488652 0.4979544068 0.2469490826
0.1424114543 0.7497797566 0.7457355456
0.1723095382 0.7506844255 -0.0093119328
0.16225699 0.4986644743 0.7407247347
0.1723331011 0.5014116741 -0.0105478193
0.1623961587 0.7493176594 0.2428706654
0.1824935235 1.0012972586 0.739760126
0.1722734574 0.7497667397 0.4917884958
0.162497774 0.4989755763 0.2413151418
0.1622724532 0.7477816747 0.7457953735
0.1823672408 0.7481786877 0.2388806094
0.1823676089 0.7510358797 0.738614193
0.1623475601 0.9994879206 0.244374645
0.1723533505 1.0024232135 0.492887487
0.1723010702 1.0050005438 -0.0051971587
0.1924039576 1.0004902157 0.4911570821
0.2024959001 1.0017203052 0.7420492308
0.1923583043 0.749818807 -0.0093993183
0.2024174796 0.7488490539 0.238744386
0.1924179481 0.7524416962 0.4884280126
0.2023239641 0.7497602313 0.7406244081
0.2324333783 0.7503329714 0.9941406975
0.232428592 0.500098277 0.9895017396
0.2324742453 0.7486668185 0.4948967817
0.232465041 0.498980783 0.4946629929
0.222464405 0.9989021637 0.2431716454
0.2125447666 0.999748257 0.4888164333
0.2124895409 1.0001843205 -0.0108380395
0.2124994815 0.7497732481 -0.0113300452
0.2325117987 0.997366179 0.9943063746
0.2224198562 0.7482567886 0.240756442
0.2123901347 0.7501507359 0.4867289022
0.2225292031 0.4988955228 0.23926903
0.2224331104 0.7497472145 0.7425076041
0.2526003274 0.7498643659 0.9966810792
0.2524280233 0.4985512279 0.9938185476
0.2424885037 0.7499164332 0.2462955786
0.252461895 0.7486668185 0.4991648071
0.2424358552 0.4977708696 0.2428706654
0.2424454276 0.7508536442 0.7437639885
0.2525741873 0.4963806732 0.4958006421
0.2625958091 0.4996413866 0.7458156229
0.2623498707 0.750723476 0.2468625624
0.2624271866 0.7511725563 0.7464810924
0.2826489933 0.4990308978 0.7451961747
0.2823360477 0.7506844255 0.2470392846
0.282486998 0.4995554756 0.2449655599
0.28251277 0.7506258498 0.7465795782
0.2725504237 0.747866284 0.9971597019
0.2723762787 0.4975150891 0.9978040016
0.2726667658 0.7484910914 0.4957454165
0.2825466417 0.9996571393 0.2473559119
0.2826563567 0.9988631132 0.7460024698
0.312613348 0.9999174757 1.0012279943
0.2925892493 0.7485626839 0.9979696786
0.3026049803 0.5026860208 0.7466035094
0.2926783467 0.4994539444 0.9974634432
0.3024540301 0.7474497458 0.2501429683
0.2925947718 0.7487579362 0.498025317
0.3025438639 0.4992638988 0.2490743512
0.3024639708 0.7497602313 0.7503837078
0.3024404078 0.998049562 0.2506979865
0.3124885379 0.7469876487 1.0044402886
0.312598253 0.4994174973 0.999092601
0.3125448681 0.7481331288 0.5010434009
0.2925726816 0.9998784252 0.9972701532
0.3326764729 0.7494998949 0.9983470542
0.3325652851 0.4996511492 0.9984114842
0.3226172976 0.749311151 0.2499183839
0.3325325179 0.7494478276 0.5013821185
0.3225329864 0.7477686579 0.7500440698
0.3326599051 0.5006196006 0.4937996313
0.352535999 1.0012516997 0.4940371018
0.3424201254 1.0008742119 0.7476804103
0.3624821457 0.749786265 0.2436530294
0.3525367354 0.9987199282 0.9920053042
0.3625631434 0.7496626052 0.7465979868
0.3625741885 1.0013883763 0.2438647278
0.3525010227 0.7496951472 0.9988440854
0.3625889154 0.9978347845 0.7431022007
0.3526589682 0.5021679513 0.9948218143
0.3425865388 0.7482437718 0.2469803772
0.3526100014 0.7500661266 0.4966133802
0.3425765981 0.7497667397 0.7497016706
0.3926316905 0.9991885337 0.4884013202
0.3724448601 0.7497407061 0.9936896877
0.3726988983 0.5010237729 0.9943155789
0.3824443916 0.751263674 0.2437321862
0.3724816772 0.7514719431 0.4933928021
0.3826947481 0.4998769911 0.240229957
0.382529071 0.7515565525 0.7445021719
0.382606387 0.9993121935 0.2416234853
0.3826432041 0.9982838648 0.7425048428
0.3725626749 1.0003600475 0.9936528706
0.3726547177 0.4995379029 0.4962875486
0.3925065123 0.7497797566 0.9898975237
0.3926574625 0.7480485195 0.4919817857
0.4125203022 0.7487123773 0.9884800643
0.4125239839 0.7502418537 0.4876069907
0.4125166205 0.4983143218 0.4905845758
0.4025023621 0.9993577524 0.2392073614
0.4025539061 0.4984959065 0.7413202517
0.4025207707 0.7505217153 0.2385105972
0.402517089 0.5006189498 0.2379362501
0.4025318158 0.747182901 0.7398484871
0.4324494127 0.7484975998 0.9835373651
0.4224388361 0.7489466801 0.2380614283
0.4325377738 0.748738411 0.482779345
0.4226155583 0.4996836913 0.2376812915
0.4224682898 0.7473781533 0.7386031478
0.442452626 0.7499099248 0.2361082797
0.442426854 0.7487514278 0.7402396691
0.4324310042 0.9979974947 0.4875655714
0.4224756532 0.9990518571 0.7358160913
0.4424489443 0.9972099771 0.2387480677
0.4525184283 0.9978412929 0.986869315
0.4627130906 0.9983554573 0.2351906129
0.4724512206 1.001049939 0.4873050902
0.462606321 0.9972750612 0.7389657965
0.4526436066 0.7481461457 0.9841080306
0.4524558392 0.7483348895 0.4853280105
0.4724733109 0.7483218727 0.9871362392
0.4624185536 0.7497146725 0.2349770735
0.4725763988 0.747944385 0.4888744202
0.462503233 0.7476319813 0.7363352128
0.4723923132 0.5001692187 0.4852111162
0.4825354315 0.9975614313 0.2389119039
0.492560735 0.9995985636 0.4909987684
0.4925975521 1.0006789596 0.989777868
0.4824433887 0.5008779845 0.7405176384
0.4926417327 0.7499815173 0.4902145636
0.4823807996 0.7479639102 0.2375156144
0.4925202362 0.7508211021 0.9901460393
0.4824249801 0.7509512703 0.7346618744
0.512522981 0.9989932814 0.4938327667
0.5126334323 0.9991364665 0.993634462
0.5026375825 1.0007765858 0.2403026709
0.5225114674 0.7536067016 0.7480402977
0.5225372393 0.9993968029 0.2467926098
0.5225482845 0.9994488701 0.7476629222
0.502490314 0.750723476 0.240249286
0.5023356821 0.5030231564 0.2387600333
0.5025786751 0.7500986686 0.7400233685
0.5024755872 0.4993628267 0.7404301977
0.5124861638 0.7499099248 0.9909376075
0.5125119358 0.5001080396 0.9931742479
0.5126481592 0.7493176594 0.4907990355
0.5225188308 0.5007627856 0.2461777638
0.5224746502 0.7521162757 0.2466646703
0.5323784572 0.7511465226 0.4955042643
0.5324300012 0.4998561641 0.4994142431
0.5325367709 0.9997547654 0.9991110096
0.5424074425 1.0007115017 0.247315413
0.5525063802 0.9995660215 0.5024627012
0.5524474728 0.7497407061 1.0023233038
0.5424847584 0.9992210758 0.7494283034
0.5426173001 0.7514198759 0.250281953
0.5524769265 0.7493567099 0.4989300979
0.5425768012 0.7489987474 0.7509589754
0.5324815452 0.7507820517 0.9961104138
0.5621856028 0.9982317975 0.2525839438
0.5623439164 1.0013232922 0.7501342718
0.5626347717 0.749057323 0.2512990261
0.5624948666 0.7509838124 0.7523212091
0.5723802651 1.0008677035 0.5011520115
0.5723544931 1.0014144099 1.000988683
0.5724870347 0.748230755 1.0018446812
0.5724281273 0.7511855731 0.5020208957
0.6023935865 0.9998133411 0.2555504838
0.5924566441 0.7511269974 1.0024429595
0.5922836036 1.0011280399 0.5047941457
0.6024488122 1.0000541523 0.7564217166
0.5924051001 0.9996701561 1.002719088
0.6025703087 0.7496365715 0.2581037515
0.6025703087 0.4981477065 0.2587296426
0.5924750527 0.7510488965 0.5052865748
0.602566627 0.7508861862 0.7576937483
0.5823540246 0.9999435093 0.2550838267
0.5822619818 0.9975744481 0.7533732585
0.5825270651 0.7498708743 0.2536369136
0.5825197017 0.7481721793 0.7504380131
0.6124630706 0.7505737826 1.0087847095
0.612444662 0.751231132 0.5084169509
0.6123894363 1.0007505521 1.0091620851
0.6222527445 1.0029438863 0.2595368581
0.6224184216 0.7514719431 0.2590306226
0.6225215095 0.7509512703 0.7588976683
0.6423401687 1.0021173182 0.7563057426
0.6526084652 1.0017268136 1.0038880317
0.6324363617 1.0034059834 1.0095302563
0.6323516823 0.751231132 1.0084349468
0.6325799485 0.4996335765 1.0090516337
0.6323516823 0.7516411618 0.5058802509
0.6523470636 0.7503524966 1.0014028757
0.6524796053 0.5014689481 1.0020931968
0.6423806675 0.7504826648 0.2543051445
0.6424469383 0.5020872471 0.2581129558
0.6524133345 0.750612833 0.5019233303
0.642527936 0.7518233973 0.7558749822
0.6724308061 0.748120112 0.9987796554
0.6725743929 0.4999739664 0.9952452113
0.6824524279 0.9985376927 0.2445587307
0.6725154855 1.0010759726 0.4955107073
0.6825113353 0.9985116591 0.7472846262
0.6825002902 0.7497667397 0.2443396688
0.6723277181 0.7506258498 0.4971702392
0.6826696489 0.7519405487 0.7435927889
0.6624570465 0.7501572443 0.2468248248
0.6624865002 0.7490052558 0.7461653856
0.7024294007 1.0009588212 0.2442135701
0.7024662178 0.5017253795 0.7402709636
0.6924409143 0.7507885601 0.9948494272
0.6923599166 1.000255913 0.4926656638
0.7023889018 0.9997222234 0.7438845646
0.692470368 0.999891442 0.9971044762
0.7024478092 0.7495389454 0.2422631828
0.7024919898 0.5007608331 0.239385004
0.692418824 0.7482567886 0.4964421806
0.7024883081 0.7503850387 0.7443272905
0.7224579175 0.5004184908 0.7362284432
0.7325494918 0.7517192627 0.9867864765
0.7224689626 0.7518624477 0.2415406467
0.7225315517 0.4995300928 0.2387673967
0.7323469976 0.7508406274 0.4865107607
0.7224174186 0.7496300631 0.7401282973
0.7224063735 1.0014209183 0.7398033861
0.7124252505 0.7521097673 0.9925299482
0.712495203 0.7519470571 0.4912702947
0.7425453416 0.4981900112 0.7355565306
0.7424864342 0.7502483621 0.2386514227
0.7424128 0.5002167301 0.2349163253
0.7425011611 0.7522204103 0.7395060878
0.7523865595 0.5008682219 0.4843284256
0.7525006926 0.7483544148 -0.0155005604
0.7625186327 0.5016837257 0.7365137759
0.7625186327 0.7516151282 0.2343511824
0.762566495 0.4998821978 0.2389339942
0.7526553245 0.7477100822 0.4871817529
0.7625444047 0.7520186496 0.7312995504
0.7825213775 0.7530990456 0.2350350605
0.7824035627 0.4994044805 0.2366807861
0.7726322973 0.7486017344 0.4833251589
0.7823888358 0.751231132 0.7347115776
0.7725844351 1.0007570605 0.4847619472
0.7725071191 0.5011793239 0.4851696969
0.7726065253 0.7501442275 -0.0140659443
0.7824882421 0.5007185285 0.7357590248
0.7724261214 0.5028213957 -0.0163270589
0.7925540444 0.7527410831 0.4879622759
0.8125788795 0.5001763779 0.4904759652
0.8124500195 0.7503850387 -0.0104183335
0.8023878989 0.498092385 0.7378971794
0.8025572577 0.750072635 0.2398525815
0.8024578514 0.5007751516 0.2347874653
0.7924178211 0.5003774878 0.4855148575
0.792572453 0.7492916258 -0.0131911693
0.8124095207 0.7487839698 0.4908266484
0.7924767285 0.5023163431 -0.0100655886
0.8025867114 0.7501312107 0.7379708137
0.8325484888 0.4989020312 0.4923379914
0.8326405317 0.7507625265 -0.0093867268
0.8225195036 0.500974309 0.7398448054
0.8325963511 0.5015294763 -0.0104374416
0.8226336367 0.751009846 0.2413114601
0.8225415939 0.5013745762 0.2404545415
0.8326258048 0.7510554049 0.493970831
0.8226373184 0.7506583919 0.7375713478
0.8625176297 0.7484325157 0.7451381877
0.8626869885 0.5008714761 0.7466246792
0.852635913 0.7497407061 -0.0065863609
0.8525806873 0.4995151235 -0.005457511
0.8626059908 0.7510163544 0.2450299899
0.862591264 0.5014507246 0.2486316253
0.8525438702 0.7499489752 0.4930697318
0.8425958826 0.7497407061 0.2425742876
0.84265479 0.4984542526 0.2466085242
0.8425406569 0.7503785303 0.7427377111
0.8527242741 0.5000078101 0.4963225249
0.8727012469 0.5006580002 0.499723507
0.8826308259 0.7508145937 0.7493160112
0.8924978158 0.4993641283 0.5039758851
0.8725245247 0.7499099248 -0.0045508065
0.8925788134 0.749278609 9.9908081032e-04
0.8824209683 0.4986182646 0.7502428823
0.8727049286 0.5000208269 9.2250118739e-04
0.8925162243 0.4988655841 0.0037305434
0.8826970967 0.7509838124 0.2496652661
0.8826308259 0.4983885177 0.249968087
0.8726791566 0.7491289156 0.4979710117
0.8924425901 0.7476515065 0.5039583969
0.8826345076 1.001446952 0.2509234914
0.8825756002 1.0003144887 0.7469716806
0.9125410594 0.7493502015 0.5047812597
0.9124269263 1.0001257448 0.0011978013
0.912379064 0.4993459048 0.5007451822
0.9024936656 0.7513808254 0.7506000085
0.912430608 0.7478011999 0.0041791601