POSCAR file written by Ovito 3.7.11
1
271.5947315114 0.0 0.0
0.0 15.3637181109 0.0
0.0 0.0 10.8637892604
Sr Ti O 
800 800 2400 
Direct
0.0126518534 0.2496921011 0.5366479899
0.0224788482 0.2506345813 0.7905796461
0.0025020247 0.2507940479 0.7884238606
0.0126204831 0.2519519707 1.0382004289
0.0225831212 0.0018789108 0.2899200816
0.0026073655 1.0004452662 0.2911167175
0.0124992363 0.0015972732 0.5425556892
0.0226016414 0.0010143414 0.7930217038
0.0025712823 7.7143145734e-04 0.7869998639
0.0125153633 1.0009855 1.0415233946
0.0225402264 0.2511930398 0.2890631062
0.0024513978 0.2516623273 0.2900903721
0.0325410095 0.25137724 0.5368900785
0.0425640316 0.2512373 0.7838076076
0.0326941789 0.2505297889 1.0357795424
0.0425400989 1.0014541366 0.2851639143
0.0324890939 -8.2642394607e-04 0.5398374847
0.0424999655 1.0003801778 0.7899831692
0.0324905667 4.7671113201e-04 1.0402623245
0.0425643998 0.2501620394 0.2877412838
0.0727089462 0.2501718027 0.5246770287
0.0525288788 0.2497630474 0.5326070426
0.0625544783 0.2508357045 0.7766995904
0.0726555579 0.2505779544 1.0277344674
0.052661061 0.2493054759 1.0318214391
0.0625128722 1.0005038458 0.2786321233
0.0723871432 1.0012393448 0.5235669188
0.0525815308 2.9745764791e-04 0.5312217064
0.0625831975 0.9988831443 0.779657122
0.0724254356 0.0015820425 1.025644957
0.052523724 1.0000091739 1.031830644
0.0626317994 0.2515588367 0.2775790838
0.0925156633 0.2506228654 0.5208422709
0.102643253 0.2521732713 0.7687217111
0.0825217286 0.2501008563 0.7720060163
0.0925163997 0.2503768312 1.0217789027
0.1024672554 0.9987855117 0.2747844787
0.0826064136 1.0008032525 0.2749289955
0.0925580058 7.1864475596e-04 0.5224844235
0.1024981839 -2.6139144955e-04 0.7711149828
0.0825541298 1.0016298753 0.775165135
0.0925314957 0.9999310678 1.0237027249
0.1026428848 0.2500904422 0.2700006967
0.0825824809 0.2511897854 0.270782192
0.1125208378 0.2491850624 0.5197229561
0.1226064532 0.2501060634 0.7716893681
0.1124630311 0.2527434458 1.0180141021
0.1224808984 -3.0246223694e-04 0.2729729561
0.1124950641 1.0003606513 0.5220260199
0.1224702208 1.0014606454 0.7734143647
0.112568335 0.0018105679 1.0255805228
0.1225652153 0.2491902694 0.2711080451
0.152512777 0.2504699076 0.5155163208
0.1324847744 0.2522793654 0.5216458579
0.1424179568 0.2508916805 0.7694341697
0.1524321422 0.2494070138 1.0137430325
0.1324567915 0.2517846935 1.0196801874
0.1425928497 -0.0017640876 0.2692385317
0.1525845752 0.9999961562 0.5156120516
0.1325757187 0.0010522229 0.5220122126
0.1424982234 -6.89576226e-06 0.7702598484
0.1525160908 1.0008683409 1.0119848982
0.132589342 0.003150478 1.0224784744
0.1424124338 0.2499068928 0.2684883331
0.1724200115 0.2505141677 0.5083678021
0.1624010395 0.2492338787 0.759746942
0.1724888641 0.2487893248 1.0101991493
0.1625442676 -3.3061303511e-05 0.2646195172
0.1723485815 4.0042751423e-04 0.5094447744
0.1625641502 0.998980777 0.7624476571
0.1725043283 -5.8315607007e-05 1.0118560298
0.1623745294 0.2519656393 0.262014533
0.192558841 0.2477895668 0.5068591204
0.2025093286 0.2480095656 0.7527705548
0.1824330923 0.2473957819 0.757801028
0.1925949242 0.2477342417 1.0059280797
0.2026691255 -2.6724940655e-04 0.2576348456
0.1825910483 -2.6096843526e-05 0.2613996462
0.1925168667 -0.0010015118 0.5109902757
0.2024721408 0.9984145078 0.75818119
0.1825210911 1.0013239598 0.7584739055
0.1926140704 2.2468880433e-04 1.0084134004
0.2024489445 0.2482347716 0.2564925186
0.1824905308 0.2466908744 0.2567373687
0.2124288877 0.2479731161 0.5026534056
0.2224084628 0.249349736 0.7492883444
0.2124211556 0.2488342358 1.0034703737
0.2223786389 1.0002369833 0.2513239721
0.2124660755 0.9987074056 0.5077096524
0.2222460885 0.9992736748 0.7519062155
0.2124719666 0.9996186434 1.0049063368
0.222457801 0.2483760134 0.2494204006
0.2524057309 0.2479861338 0.4949553549
0.2322786837 0.2511709098 0.4974360731
0.2423816042 0.2481208668 0.7469051981
0.2523825346 0.2492273698 0.9932253296
0.2323773601 0.2488876083 0.9973767356
0.242335948 0.9997032583 0.2480626791
0.252454701 -6.7633007014e-04 0.494353355
0.2323088757 -0.0011900729 0.5001809717
0.2423112789 1.0000677534 0.7495267511
0.2523748025 -0.002684301 0.9949466443
0.2323699962 -6.408568861e-04 0.9999817199
0.2424051688 0.2503761803 0.2454632178
0.2724900675 0.2488810995 0.4878629861
0.2625196974 0.2500364188 0.7387423004
0.272449566 0.2494597354 0.990988541
0.2624331714 0.9974967612 0.2422295394
0.2723542033 -7.8587386597e-04 0.4898687319
0.2624685182 0.999182551 0.7424104496
0.2724337336 -0.0010505233 0.9899483883
0.2623959836 0.2476606918 0.2403922431
0.2924433264 0.2483870784 0.4911205972
0.3024799718 0.2491635832 0.7369703588
0.2824597013 0.2490314537 0.738901545
0.2924407491 0.2492527543 0.9884019665
0.3024722397 -8.0754830686e-04 0.2426327137
0.2825469636 0.9994819577 0.2371613263
0.2924245485 -0.0010712865 0.487621818
0.3024133284 -0.0017942235 0.7409938168
0.2824869477 1.0004192308 0.7378798021
0.2924694683 -0.001105458 0.9883835568
0.3025267326 0.2478683238 0.2388430599
0.282549541 0.2489579038 0.236507779
0.3326926344 0.2484404509 0.4803867733
0.3124543921 0.2478624658 0.4899617014
0.3225816136 0.2478995662 0.7364604078
0.3325552975 0.2487899757 0.9838915698
0.3124757474 0.2491792044 0.9889174405
0.3225742497 3.8591279856e-04 0.2381784668
0.3325435152 -9.3687897966e-04 0.4825094213
0.3125114624 -0.0022979297 0.4879531941
0.3225632038 -9.2906837033e-04 0.7364990684
0.3325512473 -9.65908411e-04 0.9822346893
0.3124341413 1.0000742623 0.9897550856
0.3225867683 0.2474745389 0.2373445036
0.352744938 0.2505206765 0.4730293037
0.3427425348 0.2514507899 0.7305563905
0.3526908132 0.249569084 0.9725603485
0.3426283942 1.2673074567e-04 0.2276986979
0.352538012 -1.1533305511e-04 0.4729749948
0.3425739012 1.0000417181 0.7293183326
0.3525162885 -0.0022746671 0.9722013577
0.3426515905 0.2504594934 0.2282868905
0.3726610092 0.2485556574 0.4658513294
0.3825323347 0.2534756904 0.7148786195
0.3627049987 0.2512535721 0.7194690988
0.3727309663 0.2504705585 0.9629596468
0.3826612031 0.9967742798 0.2140837431
0.3625466745 0.9976009026 0.2228274694
0.3725579144 -0.0026882259 0.4653837209
0.3826980227 -0.0010360086 0.7183240104
0.3626239956 0.9984145078 0.7205359457
0.3726610092 -7.378386186e-04 0.9681051811
0.3826391114 0.2497480771 0.2137634129
0.3625577204 0.2517716758 0.2238151543
0.3926540332 0.2508623907 0.4648341889
0.4026284535 0.2504757655 0.7143456563
0.3925730302 0.2479503352 0.9640366191
0.4024554015 1.0005494077 0.2135240857
0.3925435745 0.9986878791 0.4664698981
0.4025953159 -0.0011445761 0.7131886015
0.3925988039 0.9983429105 0.9641562827
0.4025437685 0.251433867 0.2135839175
0.4325553963 0.2505161204 0.4547999368
0.4125476444 0.2470332395 0.4603228716
0.4226398873 0.2511442235 0.7092258957
0.4326143076 0.2492254172 0.9545003516
0.4124960971 0.2489650635 0.9589279044
0.4226251595 0.9992216041 0.208629845
0.4325406685 1.0009269205 0.4593407097
0.4125071429 0.0018051656 0.4639044949
0.4225183828 0.9999961562 0.7076049144
0.4325259407 1.0005949696 0.9619194941
0.4125292347 0.0011523288 0.9630977202
0.4225110189 0.2507608528 0.2099249732
0.4524305978 0.2483662501 0.452075289
0.442496679 0.24874897 0.7057501287
0.4524895091 0.2474146576 0.9551538989
0.4424267218 0.9991955687 0.2069932153
0.4524895091 -0.0018782722 0.4549582609
0.4426255475 -7.5977341313e-04 0.7064432571
0.4524563715 0.9985381758 0.9509840831
0.4425887279 0.2497584913 0.2058011818
0.4725414444 0.2499505021 0.4539945088
0.4825048189 0.2502622756 0.7046657925
0.4624897031 0.2506762379 0.7054831869
0.4724604414 0.2486955975 0.9548869571
0.4825858219 7.1337259467e-04 0.2003417608
0.4624565654 -8.0448915154e-04 0.2064307964
0.4725083068 1.0010961503 0.454830313
0.482493773 0.9990784096 0.7012406525
0.462493385 -0.0024892636 0.70563967
0.4724788512 9.9533559143e-04 0.9572986386
0.482574776 0.2505649367 0.2070760593
0.4624676113 0.2491499146 0.2039841363
0.5125127647 7.1044361617e-04 0.4526708454
0.5125900858 -1.6414936341e-04 0.9523924315
0.4924497835 0.2491544708 0.4534468178
0.5024978429 0.2477069045 0.7051610157
0.4924166459 0.250063105 0.9526777831
0.5124207158 0.250613753 0.4527030626
0.5125054008 0.2498932243 0.9514535326
0.5025530723 -4.3739051309e-04 0.2003297944
0.4926338813 -8.2310443711e-04 0.4554746553
0.5026009377 6.0145301144e-05 0.7002815028
0.4924424196 -2.2194787244e-04 0.9555220946
0.5024610233 0.2484131138 0.2019148767
0.5224982309 1.0002825452 0.2063912154
0.5325941557 -0.0022567483 0.4572511994
0.522483503 1.0017209991 0.702086582
0.5325647001 1.0004973369 0.958789831
0.5224945489 0.2507217997 0.2057818516
0.5326015196 0.2486357162 0.4567808294
0.522487185 0.2517358772 0.7071382264
0.5325241986 0.2498398518 0.9532576913
0.5425501662 -0.0020891912 0.2053786773
0.5624953248 -0.0033115776 0.209727068
0.552565088 1.1586098102e-04 0.4626369813
0.542572258 0.9988636178 0.7056967404
0.5626462851 0.998323384 0.7144588765
0.5525577241 -0.0028464688 0.9581823082
0.5424912549 0.252859954 0.2106991045
0.5625284625 0.2495020429 0.2127913764
0.5526645009 0.2483584395 0.4604554221
0.5425207106 0.2513160569 0.707681315
0.5625542362 0.2482946529 0.7119919656
0.5524656752 0.2476301002 0.9596274761
0.5825803978 -9.6024571923e-04 0.2140450826
0.5725912497 2.2423318546e-04 0.4624869416
0.582477303 0.9982452779 0.7116937271
0.5725986136 -7.7272600694e-04 0.9636868332
0.5824257556 0.2493119848 0.212777569
0.5725065647 0.2490815718 0.4629435042
0.582477303 0.2471679725 0.7141118521
0.5724476534 0.2487346505 0.9602626136
0.6023009571 1.0027559048 0.2161695715
0.5925511361 0.9985772288 0.4701767078
0.6124889309 -0.0014482135 0.4732318113
0.6024850549 -2.3073480794e-04 0.7150562739
0.5925511361 -0.00112902 0.9699829789
0.6124410654 6.3162155036e-04 0.9747327029
0.6024961008 0.2498541712 0.2188150573
0.5925179985 0.2482887949 0.4646546935
0.6123306067 0.2503638135 0.4707713438
0.6025108286 0.2493308604 0.7221182666
0.5924922248 0.2483454219 0.9641102582
0.6124005639 0.2495502083 0.9708758534
0.622305027 7.329642064e-04 0.2224519098
0.6322720834 0.0019531116 0.4803232596
0.6222939811 -0.0013076877 0.7251963822
0.6324635451 0.9998334351 0.9816823958
0.6223308007 0.25168641 0.226163322
0.6322647195 0.2494154753 0.4753397314
0.6224338955 0.2507888408 0.7252516116
0.632301539 0.249563226 0.9742264338
0.6423532804 0.9996056257 0.23201211
0.6623094849 0.0010054243 0.2387298397
0.6524381594 0.0010776073 0.4889031388
0.6422833232 1.001232836 0.7302093661
0.6622910751 1.0002174568 0.7392752636
0.6524344774 0.9999701208 0.9901508959
0.6422980511 0.2500325135 0.2347846233
0.6623536684 0.2495052973 0.2367020022
0.6523497924 0.2513258202 0.4851217695
0.6423827361 0.2515015589 0.7307469317
0.6625046286 0.2490308028 0.7407149086
0.6521988322 0.2493178427 0.9848304687
0.6824240135 1.0011677476 0.2421678667
0.6725637339 0.999267166 0.4895852213
0.6823503744 1.9989011972e-04 0.7421508717
0.6725710978 -3.4665726806e-04 0.9930136171
0.682468197 0.2496536989 0.2406067171
0.6723649082 0.2491948256 0.4888120104
0.6824829248 0.2498808575 0.7404562512
0.6724127737 0.2506404392 0.9923232503
0.7023065789 0.001418215 0.2384352832
0.6924757549 0.9998855059 0.4904385147
0.7125240083 1.0009724823 0.4902525759
0.7024833128 1.0016298753 0.7405455386
0.6924904827 1.0009269205 0.9937315987
0.7125645098 0.0010345188 0.9902337399
0.7023581263 0.2515692509 0.240529396
0.6923910699 0.2505037536 0.4905618603
0.7123546383 0.2525592456 0.4934475937
0.7024354474 0.2472838299 0.742420575
0.6924610271 0.251573807 0.9929491829
0.7123951398 0.2508435151 0.9914395807
0.7224284714 6.1430803301e-04 0.2401381881
0.7424767248 1.0019748439 0.2436010683
0.7325538519 0.0017530298 0.4934310249
0.7224468812 1.0009204116 0.7415709635
0.7423883579 8.9588049931e-04 0.7436917705
0.7324176195 1.0024304627 0.9910805899
0.722461609 0.2512574774 0.2419561542
0.7424214955 0.2511351111 0.244763646
0.7323992097 0.2515529787 0.4930269302
0.7223106488 0.2524095422 0.7432453332
0.7425319542 0.2525136837 0.7477281153
0.7323513443 0.2495098535 0.9930780514
0.7624366113 0.0010123888 0.2506216389
0.7523701421 0.0013108842 0.4948577831
0.7624697489 0.0017710593 0.7488115311
0.7524253714 1.0024044274 0.9954897329
0.7625654797 0.2512574774 0.2483793274
0.7523517323 0.2519350477 0.4983666877
0.762455021 0.2507777758 0.7463657914
0.7524695549 0.2529211371 0.9956738307
0.7823670421 3.2954623457e-04 0.2577508273
0.7724257594 1.0011547299 0.5000152837
0.7922420495 1.0009529558 0.5061742765
0.7824259534 1.1019828926e-04 0.7541945515
0.772455215 0.9986032642 1.0028996705
0.7923304165 -2.3691820699e-04 1.0065171928
0.7823891338 0.2492950618 0.2557552068
0.7724257594 0.2503195534 0.498969608
0.792451921 0.2507777758 0.508886958
0.7824038616 0.2498307394 0.7548573037
0.77237053 0.2506072441 1.00208964
0.792286233 0.2495339362 1.0042527895
0.8024005676 0.9996186434 0.2615239122
0.8123933977 -2.6490622375e-04 0.5119613917
0.8023416563 3.5252244368e-04 0.7570425449
0.8123970797 1.0010570973 1.0145714727
0.8022348796 0.2495248239 0.2611465117
0.8123749879 0.2492455946 0.5138603608
0.8023342924 0.2516232742 0.7624182015
0.8124928105 0.2519741008 1.0140007694
0.8225776895 1.0019943704 0.2626938539
0.8426480346 1.0008748497 0.2662717952
0.8325926113 0.0010514418 0.5129527585
0.8224304112 3.7042175673e-04 0.7644175039
0.8425964873 0.0019844842 0.7669856686
0.8325962933 0.0021777317 1.0172869157
0.8224230473 0.250518073 0.264171239
0.8425670316 0.2500683121 0.2692808742
0.8325152902 0.250152927 0.5163438405
0.8224120015 0.2507322139 0.7614958714
0.8426038512 0.2501659447 0.7695068883
0.8325557918 0.250417186 1.0138258765
0.8626042391 0.0025451557 0.2718784945
0.8526261369 0.9985121404 0.5212086256
0.8626484226 1.0021245472 0.7711674507
0.8525561797 0.0011884529 1.021327863
0.8624900985 0.2530044503 0.2766153316
0.8526261369 0.2492143521 0.5218649343
0.8625674196 0.250579907 0.7765421868
0.8526224549 0.2492755352 1.0219630005
0.8825420338 1.0014020659 0.2729232497
0.8726559805 -1.9955745903e-04 0.5235669188
0.8925017263 2.6615012219e-04 0.5235089279
0.8824757586 1.0000612446 0.771399414
0.8725676136 0.0010418087 1.0256633668
0.8825420338 0.2515484226 0.2750928426
0.8925974572 0.0016050187 1.0223035815
0.8724645188 0.247710159 0.5256794413
0.8925532737 0.249434351 0.5202862955
0.8826193549 0.2520593666 0.777882419
0.8725050203 0.2484261315 1.0241537646
0.8926232309 0.2510485436 1.0240156913
0.9025424218 0.0016859887 0.2746436439
0.922436033 -8.1324420703e-06 0.2812536764
0.912524206 0.0017706687 0.5301042326
0.9025497857 1.0025476219 0.7726061752
0.922528082 0.9999701208 0.7832948951
0.9125131601 1.0015062073 1.0279737945
0.9025129662 0.2526959312 0.275185812
0.9224249872 0.2513199622 0.2832861164
0.9124984323 0.2516551676 0.5300241501
0.9025497857 0.2530760476 0.7780711193
0.9225096722 0.2494532266 0.7861281607
0.9125057962 0.2491238792 1.0299896658
0.942436421 0.9979393624 0.285058058
0.9324214992 1.0015843134 0.5350288495
0.9424621947 0.998447052 0.7837045128
0.9324693646 0.998896162 1.0345000625
0.9424437849 0.2506606166 0.2919921027
0.932524594 0.2496569533 0.5356962041
0.9424253751 0.2490210396 0.7897512059
0.9324030894 0.2502733406 1.037933487
0.9623705338 6.7737870334e-04 0.2841808319
0.9524145232 0.999143498 0.5369407054
0.9723965014 1.0000352092 0.5379081395
0.9624662646 1.0004647927 0.7854396348
0.952432933 0.9982582956 1.038016331
0.9623594879 0.2506710308 0.2893024334
0.9724112293 -0.0013384094 1.0371418663
0.9524402969 0.2481221686 0.5387006807
0.9725327338 0.2503091392 0.5352957913
0.9624883564 0.2494597354 0.7879194325
0.9524476609 0.2481150089 1.0356506739
0.9724738225 0.2492976653 1.0378230283
0.9824445609 6.0493530182e-04 0.2877394429
0.9926251707 1.0000091739 0.5401550535
0.9825881572 1.001642893 0.7868268119
0.9824151052 0.2478937083 0.2873417916
0.9926067609 7.1089923504e-04 1.0376021109
0.9925404857 0.2506254689 0.5386104727
0.9825329278 0.2510713245 0.7886641082
0.9925625774 0.2524974116 1.0352640685
0.0123996394 0.7491844729 1.0393602452
0.022461322 0.5006762686 0.7870781055
0.0025200295 0.4989872243 0.7872557599
0.01247604 0.5003599389 1.040980306
0.0224922873 0.7498613924 0.2916395553
0.0025465027 0.7496400918 0.2910798979
0.012492572 0.7516187795 0.539898237
0.0225195338 0.7493081409 0.7913464136
0.0226080112 0.4993185243 0.287519446
0.0026050827 0.5001152065 0.2875663909
0.0025706932 0.7504862412 0.7927418751
0.0125133382 0.5004836069 0.5410571329
0.0325310682 0.7508572451 1.0413485017
0.0425448854 0.4985224931 0.7884662031
0.0325218633 0.4998711249 1.0371510712
0.0424815558 0.7493992647 0.2891689625
0.0324946168 0.7499460074 0.5392023472
0.0425570359 0.7503625732 0.7862975307
0.0425426762 0.4994747365 0.2861184615
0.032425396 0.4987919591 0.5370649715
0.0724644643 0.7514625673 1.0279553848
0.0626402679 0.5005265652 0.7811510759
0.0524397754 0.7500110958 1.0344908576
0.0725881781 0.5000403548 1.0263721434
0.0525892629 0.5026412877 1.031241531
0.0624370239 0.7520939249 0.2821668016
0.0724917108 0.7513584259 0.5276336398
0.0525270378 0.7515471823 0.5363359441
0.0625669969 0.500831179 0.2808910037
0.0725664545 0.500314377 0.5288367191
0.0624535927 0.7520613807 0.7780748012
0.0525093644 0.5005317723 0.5321670488
0.0925167679 0.7490542961 1.023104407
0.1024562096 0.5027193938 0.7727378052
0.0825787989 0.4999752664 0.775340028
0.0925138223 0.5002362709 1.0236014711
0.1025589362 0.7514300231 0.2739008092
0.0824933776 0.7516708503 0.2743978733
0.0924873122 0.7533045694 0.5244156097
0.1026178475 0.7515927442 0.7728142058
0.1026082744 0.5014189274 0.2720773202
0.0825213604 0.5020268531 0.2732693536
0.082488591 0.7502389052 0.7760092236
0.092537755 0.4995593515 0.5236773775
0.1126515472 0.7513258817 1.0224876793
0.1226233902 0.501230171 0.768219124
0.1125963179 0.5003508265 1.0233437342
0.1225641107 0.7504276616 0.2733936197
0.1125057418 0.7508767716 0.5210484605
0.1225317094 0.5020886871 0.2693848895
0.1226487957 0.7505252942 0.7734548662
0.1125911632 0.4994545591 0.5217738059
0.1526464321 0.7506489622 1.0147463656
0.1426653842 0.49914604 0.7668301059
0.1326394166 0.7523282432 1.0213002483
0.1524733801 0.5014944299 1.0146082923
0.1325333762 0.5015595183 1.0233989635
0.1426226735 0.750082693 0.2668240887
0.1526121899 0.7486116949 0.515371804
0.1325359536 0.7525625615 0.521595231
0.1425770173 0.501044669 0.2666712875
0.1425394613 0.7495294415 0.7702046191
0.1526250767 0.5023151948 0.513168153
0.1326445713 0.5011012959 0.5217480322
0.1725418843 0.748566133 1.012003308
0.1626068609 0.4998470422 0.7625424675
0.1726181008 0.4997292322 1.0091037672
0.1625630456 0.750616418 0.2610876004
0.1726276738 0.7490738226 0.510281499
0.1625682004 0.5018393985 0.2670358012
0.1625126028 0.7492690879 0.762121804
0.1725496164 0.4993211279 0.5089274595
0.1926037609 0.7490673138 1.0114786292
0.2025347341 0.4973469964 0.7584472113
0.1826271314 0.4976626752 0.7599117096
0.1926409487 0.4999368642 1.0091774064
0.2025004919 0.7495684946 0.2582893134
0.182614981 0.7506229268 0.2606927106
0.1927105376 0.7484099209 0.5100964807
0.2026683891 0.4984606591 0.2570797907
0.2025770766 0.7496596183 0.7597782386
0.1825369235 0.4978455736 0.2597344814
0.1825984122 0.7498939366 0.7595416729
0.192472315 0.498006342 0.5100062728
0.2125905256 0.7496531095 1.0040134623
0.2224419686 0.4996075169 0.753775729
0.2125227776 0.4985726111 1.0039950525
0.222391894 0.7488329955 0.2536942316
0.212491481 0.750206361 0.5058355365
0.2224010988 0.5002395254 0.2538645221
0.2224802609 0.7505578384 0.7547440835
0.2125051042 0.500157514 0.5069364415
0.2524204588 0.7465353746 0.9995398851
0.2425064226 0.499078999 0.748945002
0.23259165 0.7453507655 1.0020252058
0.2523939487 0.4971152816 0.9978001606
0.2324988647 0.4976685331 1.0015281416
0.2425734342 0.7486312215 0.2525049597
0.2525986655 0.7457933667 0.4960774312
0.2323147669 0.7478111075 0.5001220604
0.2424626073 0.4993562756 0.2477092113
0.2423816042 0.7474401035 0.7470515558
0.2524686924 0.4970469388 0.4961869694
0.2323670506 0.499567813 0.4998744489
0.2725110547 0.7473164356 0.9894973486
0.2624766185 0.499095922 0.7423690276
0.272479758 0.4983584703 0.9902521497
0.2625082833 0.747791581 0.2428582335
0.2726373458 0.7470300465 0.4891627168
0.2625598307 0.4989000059 0.2416993377
0.2623746283 0.7490738226 0.7434975473
0.2724282107 0.498113087 0.4900169307
0.2924665228 0.7484164297 0.9883283274
0.3023831363 0.4983708371 0.7400355876
0.282361393 0.5010075686 0.7360526311
0.2923730011 0.4985830253 0.987435453
0.3024391021 0.7491389111 0.2381526931
0.2824932071 0.7485726419 0.2383165401
0.2924322806 0.7504211528 0.4919923004
0.3022929284 0.4983129084 0.2383662465
0.3023963914 0.747830634 0.7364245087
0.2823809074 0.499685623 0.2374880999
0.2824258273 0.7486312215 0.7391942606
0.2923509093 0.4994988192 0.4897895699
0.3324507299 0.7500176046 0.9865517834
0.3224531133 0.498062318 0.7387818814
0.3123906942 0.7478241252 0.991586859
0.3325420424 0.4998958585 0.9826949339
0.3124702245 0.4981326135 0.9902153301
0.3224645274 0.748774416 0.2398307448
0.3325269464 0.7483903943 0.4825425589
0.3123660251 0.74897619 0.4906980927
0.3225543671 0.4998463913 0.2366937178
0.3224405946 0.7478957224 0.7384679946
0.3325438834 0.4976014921 0.4843191029
0.3124912117 0.4976451013 0.4906336584
0.3525306481 0.7499134632 0.9749444154
0.3425157263 0.4991108923 0.7308647544
0.3525589992 0.5010459708 0.9761778708
0.3424159453 0.7488460132 0.2285998568
0.3525391166 0.7511826872 0.4749199884
0.3424428236 0.4991525489 0.227990493
0.3424759612 0.7492690879 0.7325510905
0.3525707815 0.5016896952 0.4764820584
0.3725984159 0.7499850604 0.9682064349
0.3826612031 0.5018608777 0.7199146156
0.362679225 0.5006801739 0.7200204718
0.372502685 0.5021700476 0.9701578719
0.3825323347 0.7482667264 0.214983061
0.3624877632 0.7492039995 0.2199757941
0.3725984159 0.7487483806 0.4691844206
0.3826648851 0.5004712401 0.2172391799
0.382502879 0.7491974906 0.7159104878
0.3626092678 0.500988693 0.2228688914
0.362509855 0.7488069602 0.7196752884
0.3725100489 0.5019565576 0.4714433009
0.3925951219 0.749509915 0.9633094327
0.4024885392 0.498797817 0.7129842529
0.3926208956 0.5016838372 0.9690532849
0.4025253587 0.7509093158 0.2141868379
0.3924662534 0.7480389169 0.4632785623
0.4025584963 0.5007179252 0.21193256
0.4026026798 0.7492755967 0.7110659535
0.3926061678 0.5011807038 0.4673379193
0.4326290355 0.7476223511 0.9601889745
0.4225147008 0.4981911931 0.7090233881
0.412499779 0.7500631665 0.9594801979
0.4326511272 0.5001946143 0.9598207788
0.4125292347 0.501645435 0.9637236528
0.4225699302 0.7498093217 0.2125999146
0.4325075309 0.7518596066 0.458133028
0.4125108249 0.7487093275 0.4619318866
0.4224631534 0.4988232015 0.2113268781
0.4226288415 0.7515602 0.7141505126
0.4325296226 0.500286389 0.4590930981
0.4125181888 0.5007686941 0.4673489652
0.4525079189 0.7484164297 0.9576024
0.442577682 0.4977694202 0.7033062301
0.4525116008 0.4976431486 0.9522267435
0.4425519084 0.7507075418 0.2079422396
0.4523937782 0.7475963157 0.4569805756
0.4426402753 0.4995430794 0.2013018309
0.4423641286 0.7491779641 0.7061615874
0.4524710993 0.4984372273 0.4533372796
0.4724751692 0.7481821114 0.9531288228
0.4824679993 0.4992326076 0.6991990076
0.462493385 0.4983929671 0.7047072145
0.4725451264 0.4998151489 0.9552091283
0.4823464947 0.7500371311 0.2044103228
0.4623902902 0.7482537087 0.2058094663
0.4723426188 0.7511631606 0.4540930012
0.4825490023 0.500061834 0.2015163049
0.4825710941 0.7491584376 0.70509382
0.4625302046 0.498275808 0.2066931358
0.4624234278 0.7509223335 0.706832624
0.4724236218 0.5006163873 0.454188732
0.4925455144 0.5014872702 0.9541781804
0.5023505646 0.7486377303 0.2044425399
0.4924681933 0.7500110958 0.4511124573
0.502402112 0.4999707102 0.197485483
0.5024794331 0.7495229327 0.7045470494
0.4923025052 0.7502584317 0.9500727989
0.4924313737 0.4998450896 0.4536530073
0.5025641181 0.5014020044 0.7006717902
0.5125164467 0.748364359 0.9523556119
0.5125127647 0.4996289961 0.9526961929
0.5124538534 0.7505968915 0.4534256465
0.5124980369 0.4989234377 0.4537321694
0.5225424144 0.4992176373 0.7035842178
0.5324689692 0.7499980781 0.9542702294
0.5325757459 0.502173302 0.9570869261
0.5224798211 0.5001197627 0.2054817721
0.5225792339 0.7501998522 0.2049129098
0.5324689692 0.7473619974 0.4574398997
0.5326604309 0.4989735558 0.4572742116
0.5224724572 0.7504667146 0.7054454468
0.5425980317 0.4986285872 0.7071290215
0.5526313633 0.746847799 0.9569672625
0.5626720588 0.4980271703 0.7129382284
0.5526129535 0.5004230747 0.9617077816
0.5425096647 0.4975539775 0.207777472
0.5424470714 0.7515081292 0.2080425729
0.5625395083 0.4967813781 0.2115735692
0.5626094655 0.7512022137 0.214222737
0.5527086843 0.4996888774 0.4617155717
0.5525245865 0.748488027 0.4601424558
0.5424470714 0.7508312097 0.7093786969
0.5625358264 0.7517489563 0.7142296747
0.5825693519 0.4987346813 0.713012788
0.5727090723 0.7483578501 0.9626742952
0.5726280693 0.500617689 0.960483531
0.5825803978 0.4970645127 0.2142936146
0.5826319452 0.750740086 0.2143442415
0.5726869806 0.499017165 0.4633825775
0.5725470662 0.7484750093 0.4627097
0.5825435783 0.7497832863 0.7151446409
0.6024961008 0.5010225389 0.7206187898
0.5925216805 0.75049275 0.9654541724
0.6124631572 0.750330029 0.9732138958
0.5925805918 0.5002349692 0.9668809305
0.6125110226 0.5015198144 0.9718515719
0.6024961008 0.7491909818 0.2205262466
0.6025366023 0.5009594032 0.2231689709
0.5925216805 0.7501803256 0.4678929743
0.5926321392 0.5021687459 0.4669227787
0.6125552061 0.7494448266 0.4743676949
0.6124926128 0.5028287423 0.4722579338
0.6026028775 0.7521655222 0.723822092
0.6224265316 0.5006482806 0.7265513423
0.6324856369 0.7514820939 0.9805409893
0.6325077286 0.5016825354 0.9808723654
0.6224338955 0.7511175988 0.2265591324
0.6225075346 0.5009639594 0.2283384379
0.6324672271 0.7506424534 0.4804585715
0.6324893188 0.5013297562 0.4798225135
0.6224559872 0.7512022137 0.728816666
0.6424158737 0.5016272103 0.7342742461
0.652474979 0.7510915634 0.9879509269
0.6624604451 0.4986663385 0.7396462207
0.6524823429 0.5005988134 0.98810741
0.6425631519 0.7505057677 0.2359370757
0.6424526932 0.4997956224 0.2331930976
0.6624825369 0.7514820939 0.2407134938
0.6623499864 0.498421606 0.2398509955
0.6524860248 0.7523477697 0.4856823474
0.6525154805 0.5008643741 0.4886260716
0.6424563752 0.749633583 0.7327940996
0.6625377662 0.7504471881 0.7420505383
0.6825897016 0.4988980532 0.7432029907
0.6723943639 0.7495684946 0.9922127916
0.6724790489 0.4979803066 0.9929767976
0.6824976527 0.750082693 0.2410310626
0.6823982398 0.4984144463 0.2431758023
0.672552688 0.7484685004 0.4916148998
0.6725637339 0.498668942 0.4918689548
0.6826044294 0.7490412784 0.7420081958
0.7024428113 0.4998808882 0.7396986886
0.692549394 0.7502974848 0.9937592133
0.7124209135 0.7518335713 0.9898103149
0.6924426173 0.5005285179 0.9919366448
0.7125019166 0.5012379816 0.9937960329
0.7024722669 0.7512087225 0.2391238091
0.7025311782 0.5018517653 0.243026683
0.6925199384 0.7520939249 0.4903243741
0.6924757549 0.4978553369 0.4931373889
0.71237673 0.5017678012 0.4938111869
0.7123840939 0.7531743925 0.4899791906
0.7025054045 0.7501803256 0.7415277005
0.7224763368 0.5014677437 0.7441326848
0.732373436 0.7516838679 0.9924245041
0.7425024985 0.5023581531 0.7479214181
0.7324065737 0.4997285813 0.9968796715
0.722465291 0.7505903826 0.2426363956
0.7224247895 0.5022012901 0.2437087655
0.7423478563 0.7513454082 0.2463514898
0.7423699481 0.5009066816 0.2446771201
0.7323623902 0.5013434248 0.4971903025
0.7323992097 0.7513649347 0.4914004259
0.7223032849 0.7515211469 0.7425374771
0.74237363 0.7506945241 0.7481193232
0.7524253714 0.5003078682 0.4992126172
0.7523554142 0.7519637481 1.0020988449
0.7623335165 0.4996172801 0.7521906467
0.7523112308 0.5026543054 0.9984168884
0.7623777 0.7495815123 0.2517345103
0.7625028865 0.5009808824 0.2528740758
0.7523995977 0.7517554652 0.4994307731
0.7623592902 0.7504797323 0.7529813468
0.7725251722 0.5002030758 0.5057692613
0.7724478511 0.7499134632 1.0061489971
0.7924961045 0.5008253211 0.5078716585
0.7923009608 0.7498093217 1.0058728504
0.7824038616 0.5004081043 0.7567525908
0.7724331233 0.4984346237 1.0043724531
0.7923120067 0.4996973389 1.0093338895
0.7825069564 0.7518661155 0.2581687293
0.7823007668 0.4999277519 0.2561418123
0.7724331233 0.7508312097 0.5052188088
0.7923893278 0.7545412492 0.5098451872
0.7824222714 0.7492755967 0.7567820465
0.8123970797 0.5002427798 0.5102695327
0.812367624 0.7516578326 1.0115982928
0.8023784759 0.5034796265 0.7560787928
0.8122755751 0.501072657 1.0075021161
0.8023490202 0.751026475 0.2610139613
0.8023269285 0.5007452623 0.2576532554
0.812452309 0.7525169996 0.5108061779
0.8023784759 0.7521134514 0.7604014098
0.8325778835 0.5008572144 0.5154666144
0.8325668376 0.7517945182 1.0128593629
0.8224414571 0.4992566903 0.7609233271
0.8426480346 0.5010707044 0.7662327085
0.8324968804 0.5002362709 1.0137798521
0.8224745947 0.7520809072 0.2616021538
0.8224156834 0.5007029548 0.2625180405
0.8425449399 0.7507335771 0.2675420702
0.8425707136 0.4985517829 0.2690277397
0.8325447459 0.7517880094 0.513461789
0.8224745947 0.752256646 0.7612998072
0.842530212 0.7498613924 0.7640741614
0.8525377699 0.4987633202 0.5257632058
0.8625674196 0.7505578384 0.7731731966
0.8624090954 0.4987997697 0.7767456149
0.8525819534 0.7480128815 1.0195513189
0.8525598617 0.5009991071 1.0210977407
0.8625674196 0.7503886086 0.271243357
0.8624238233 0.4989130235 0.2750228854
0.8525745895 0.7502649406 0.5159995776
0.8725123842 0.5017534818 0.5308700796
0.8825088962 0.7489501547 0.775547138
0.8925680015 0.5011025977 0.527829704
0.8725418399 0.7503170113 1.0267679538
0.8924869985 0.7494578443 1.023187251
0.8825383519 0.5009626576 0.77575793
0.8726191609 0.499517044 1.028277556
0.8925643196 0.5010043142 1.0286641614
0.8824941684 0.7510525103 0.2771188392
0.8825825354 0.499910178 0.2772550716
0.8725602496 0.7489696812 0.5236460808
0.8925385459 0.7497637598 0.5255367655
0.9124579308 0.5016278612 0.5316524953
0.9026197429 0.7517880094 0.7774405842
0.9224544428 0.7506034003 0.7865828823
0.9124873864 0.748813469 1.0298515924
0.902524012 0.5023132421 0.778307685