POSCAR file written by Ovito 3.7.11
1
271.597939166 0.0 0.0
0.0 15.3638995633 0.0
0.0 0.0 10.8639175666
Sr Ti O 
800 800 2400 
Direct
0.0124716357 0.2496267153 0.5210509733
0.0225304749 0.2535300212 0.7677271823
0.0024183562 0.2529116886 0.7706082793
0.0124382408 0.2520388633 1.0215242112
0.0224899371 0.0019878275 0.2720293857
0.0024270087 1.0015002844 0.2740811318
0.0124656342 8.7990562356e-04 0.5214375742
0.0225815062 0.0024353701 0.7701351535
0.0024685775 0.0014974572 0.77492072
0.0125155978 1.0022097397 1.0185142472
0.0224390162 0.2509662189 0.2695560606
0.0024477747 0.2529520429 0.2687837794
0.0326293733 0.2541268749 0.5177924803
0.0423702425 0.2507677016 0.7667146562
0.0324029357 0.2493045314 1.0179527555
0.0424413035 1.0026458269 0.2666804865
0.0325292253 0.0011298422 0.5191649134
0.0424195802 1.0001269351 0.7629287291
0.0324817286 0.0014246241 1.0159000889
0.0425550746 0.2505926159 0.2678909154
0.0723782022 0.2510163364 0.513059381
0.052513913 0.2499345798 0.5122465987
0.0624517646 0.2518071513 0.7611209098
0.0724595725 0.2495023979 1.009714475
0.0523846779 0.2491203334 1.0126047768
0.0623921176 0.9995086025 0.2610029766
0.0723734157 0.9995997252 0.5104019603
0.0523423359 -8.6066810839e-04 0.5121895291
0.0623807037 0.9983044811 0.7584377157
0.072404712 2.0670413864e-04 1.0091529833
0.0524299654 0.9998080057 1.011537022
0.0624547101 0.2507143298 0.2590929842
0.09254404 0.2512812431 0.5093627403
0.1025547935 0.2496241118 0.7538730639
0.0825203999 0.2486041884 0.7590921757
0.0925642906 0.2475328458 1.0090517307
0.1026299045 0.998005078 0.2564861897
0.0824990448 0.9975885171 0.2606430696
0.0925661315 -2.362172676e-04 0.5083870334
0.1024922009 -0.0013365239 0.7591317563
0.0825104588 1.0009535482 0.7602795927
0.0924254824 1.0032706682 1.0067689446
0.1025941899 0.2500009692 0.253318824
0.0825715785 0.2492433491 0.2619823655
0.1125346188 0.2507514297 0.5042154259
0.122496771 0.2506362246 0.7532609459
0.1126001569 0.2479142594 1.0065296202
0.1225902916 -6.8675392801e-04 0.2571921966
0.1125092136 1.0028280723 0.507554921
0.1225847687 1.0006216012 0.7550816519
0.1125033226 -7.1467652658e-04 1.0055078893
0.1224463288 0.2523779699 0.2560609288
0.1525260857 0.2486217621 0.5033851545
0.1324290997 0.2490389739 0.5021498726
0.1424369076 0.2524782049 0.7543553945
0.1526111379 0.2483633641 1.0043664963
0.1325896311 0.2503980038 1.002939755
0.1424670993 -3.2187260495e-04 0.2569086893
0.1526645257 0.9998210232 0.5035075781
0.1324651824 -0.0029685379 0.5016601782
0.1425495741 -5.2963235935e-04 0.7568848688
0.152532345 1.0005304785 1.0091253689
0.1325609122 -1.2960370942e-04 1.0056827802
0.1425749793 0.2512643203 0.2534366452
0.1725288148 0.2509121962 0.4969197151
0.1625283708 0.2501174761 0.7509348973
0.172511878 0.2497087257 0.9977666671
0.1625600352 0.0010595475 0.2517889891
0.1726035577 -4.0596583887e-04 0.5007001194
0.1626576059 1.0004133207 0.752283398
0.1725269739 7.9457572442e-04 1.0017247237
0.1625626126 0.2488027057 0.2506825743
0.1925495853 0.2512636695 0.5018921387
0.2023791886 0.2518488074 0.7553881712
0.1824806577 0.2493585542 0.7527905815
0.1925065069 0.2490799791 1.0030410076
0.202624404 1.4675842003e-04 0.2515680744
0.1826124701 -3.116538451e-04 0.2508049979
0.1925407487 4.7401908581e-04 0.5003724291
0.2024616635 1.0013310565 0.7550908567
0.1826581259 1.0024245289 0.7511199134
0.1925131344 1.5534998882e-04 1.0009975458
0.2025198377 0.2482872116 0.2532175714
0.1824762394 0.2516847865 0.2512735213
0.2124613711 0.2485566744 0.5067301725
0.222547972 0.2508171682 0.7540682053
0.2126020202 0.2499827447 1.005139698
0.2225174121 1.0000032686 0.2528033562
0.2124705759 0.9999316722 0.5045348318
0.2225262487 0.9996257603 0.7522254078
0.2125898699 1.0006216012 1.004210015
0.2224297826 0.2476851509 0.2545025591
0.2527157267 0.2508549191 0.498705443
0.2325554117 0.250586758 0.5046029472
0.2426143982 0.2499475973 0.7515147986
0.2525794959 0.2504038617 0.9995800093
0.232540684 0.2517205847 1.0026083828
0.2426077707 1.0008363904 0.2518801165
0.2526483477 9.4447256477e-04 0.4990248489
0.2325734531 7.2057107506e-04 0.5019105483
0.2425558558 0.9987080245 0.7512607466
0.2525890689 0.0014241685 1.0008042454
0.2324825098 7.9119116702e-04 1.0051949267
0.2425518057 0.2466248732 0.2519694029
0.2727788391 0.2485599288 0.4937983733
0.2625825173 0.2487935934 0.7447953073
0.2726543905 0.2494210383 0.9950420514
0.2626145499 0.9992547607 0.2479156166
0.2725531379 0.0023918916 0.4936888364
0.2627158025 0.9987926384 0.745610851
0.2726363491 5.5244969485e-04 0.9925751697
0.2626605738 0.2500315604 0.244892766
0.2925381938 0.2483457905 0.4913232073
0.3025430561 0.2502795443 0.7390027376
0.2826876036 0.2478550296 0.7390588867
0.2926077819 0.248016447 0.9930446136
0.3025014505 -0.0015580822 0.2435681978
0.2825616821 0.9990855328 0.2443671729
0.2924303137 -0.0018334355 0.4955178267
0.3024911412 -7.2216160545e-04 0.7457259108
0.2825708869 0.9988837611 0.7453153775
0.2925105794 0.0011277594 0.9941399827
0.3026479907 0.2504227371 0.2413544475
0.2826309021 0.248364015 0.2409568009
0.3327310613 0.2470004289 0.490400888
0.3125585961 0.2483620624 0.4922989142
0.3226709703 0.2482813537 0.7425355331
0.3326261268 0.2489406915 0.9878899353
0.3126322343 0.2472113129 0.9879727784
0.3226330466 -0.0016479031 0.2433040205
0.3325451247 -0.0017482683 0.4918754942
0.3124135287 -0.0016098269 0.4966721065
0.3226330466 -0.0025514693 0.744361762
0.3325878349 -0.0016123653 0.9917743536
0.3124974763 0.9995020937 0.9957692293
0.3225752405 0.2507292999 0.2406686912
0.3527304767 0.2480958539 0.4868690129
0.3427392374 0.2462564771 0.7386704449
0.3527267948 0.2486953111 0.9873008292
0.3425127998 -0.0036204427 0.2378639939
0.3527161173 -0.0018788081 0.4849037918
0.3426427713 0.9967033251 0.7401570173
0.352582832 -9.8153586025e-04 0.986039774
0.3426759085 0.2490747721 0.2378207315
0.3726036025 0.2480600557 0.4878686523
0.382577905 0.2518117074 0.7307497294
0.362669801 0.2483230098 0.7360093422
0.3726846046 0.2500907902 0.9883961984
0.3826662709 0.9997559356 0.2336767383
0.3627876222 0.999606234 0.2361482225
0.3724636898 -0.0034539355 0.4827066102
0.382618406 -1.3136107576e-04 0.7328097598
0.3626182542 0.999827532 0.735469942
0.3726404216 -0.0020825649 0.984051541
0.3826441794 0.2483405835 0.2334134815
0.3627213478 0.2474378179 0.2364464574
0.3925890266 0.2507136789 0.4839105958
0.4025817386 0.2485631832 0.7307055465
0.3925448436 0.2483178028 0.9836189162
0.4026369673 1.0010511796 0.2309834189
0.3925927085 0.9982459023 0.4814289864
0.4026701045 -0.0026270816 0.732781225
0.3926074361 0.9966187112 0.9803420135
0.4025154642 0.2499462956 0.2304329729
0.4326224673 0.2487682093 0.4817953367
0.4125928602 0.2459642336 0.4831999866
0.4226076638 0.2465200821 0.7297261576
0.4325193737 0.2477352684 0.9817503453
0.4125339496 0.2485573253 0.9864263749
0.4225229798 0.9979595166 0.2349203044
0.4324530993 0.9989097962 0.4791839399
0.412559723 -0.0028543612 0.4804422337
0.4225818904 0.9982849548 0.7320862639
0.4326003758 0.9978228326 0.9817043214
0.4125008124 -0.0037604658 0.9799277983
0.422511934 0.2469867605 0.2318311794
0.452497434 0.2502684794 0.4771782178
0.4425231315 0.2468292484 0.7259190595
0.4525158436 0.2496091416 0.9750952874
0.4424863124 1.0019428803 0.2304808378
0.4524053862 -0.002850163 0.4743164508
0.4424936762 -0.0010843092 0.730429403
0.4524053862 1.0010641972 0.9745798196
0.4426004517 0.24743196 0.2275978998
0.4723797646 0.2497991975 0.469543771
0.4826265286 0.2519236582 0.7233002988
0.4625932396 0.2474326108 0.722804161
0.4724718124 0.2475836142 0.9727572726
0.4825565723 -0.0015481238 0.2212355541
0.4624422812 2.7738931825e-04 0.2219728572
0.4726411804 1.0011097585 0.4705912753
0.4824866159 0.9989293225 0.7175482301
0.4624827822 9.3711991511e-05 0.7231907619
0.4724939039 -0.0023420303 0.9722970335
0.4824902978 0.2500940445 0.2206013445
0.4625269652 0.2489192126 0.2198934968
0.5124831616 0.0011071917 0.4733444258
0.5124058415 0.001929574 0.9716250844
0.4925824215 0.2495394978 0.4698769842
0.5024499485 0.2512857993 0.7196386363
0.4924498727 0.2509271664 0.9709255209
0.5125015712 0.2522347771 0.4744425563
0.5126009828 0.252182707 0.9766416909
0.502431539 0.0025264277 0.2187530242
0.4923541429 3.7710358634e-04 0.4699257695
0.5024609943 9.2540413948e-05 0.7206511624
0.4924167354 -8.0573413824e-04 0.9690937691
0.5024462666 0.2528023413 0.2224717564
0.5224059173 1.0023138799 0.2224312553
0.5324759496 -0.0017813328 0.4761785784
0.5225531939 1.0017996875 0.7271451365
0.532498041 1.0012594601 0.9749203966
0.5224537822 0.2500217973 0.2249699344
0.532498041 0.2523760173 0.4771598082
0.5225531939 0.2506674667 0.722105518
0.5324906772 0.2489472003 0.9727020439
0.542325067 -0.0010689486 0.22956128
0.5623730836 6.3231223202e-04 0.2359024548
0.5522846418 -0.0011540181 0.4795898708
0.5424355244 1.0013831266 0.728227619
0.5624172666 1.0008233729 0.7323393954
0.5524024631 5.3618003818e-05 0.982864124
0.5423324308 0.2489758388 0.2270778296
0.5623252188 0.2490760738 0.2311638326
0.5523950992 0.2517082181 0.4829155588
0.5423987053 0.2471742129 0.7299369471
0.5623509922 0.2505398949 0.7300722574
0.5524945109 0.2510651522 0.9808206622
0.5823327343 -4.3662211842e-04 0.231784235
0.5724026148 -0.0022236945 0.4821791762
0.5823511439 1.0006671625 0.7315800008
0.5724283882 -0.0010895813 0.9795872214
0.582387963 0.2502788934 0.2281308568
0.5722222011 0.2515839007 0.4813461433
0.5823106429 0.249096251 0.7302931722
0.5723768414 0.2517329514 0.9832415201
0.6025538009 1.0012659689 0.2343109478
0.5924948144 1.0014612318 0.4825133098
0.6124139641 0.0022804615 0.4835598936
0.6024286158 0.0023161946 0.7306273058
0.5924395857 -0.0027407442 0.9829837862
0.6123771449 5.0552150471e-04 0.984051541
0.6024727988 0.2507084719 0.2300472925
0.5922849454 0.2501005533 0.4795631769
0.6125170576 0.2516633076 0.4833886846
0.6023623414 0.2520694545 0.7287688602
0.5923254464 0.2519008775 0.9793110779
0.6124323736 0.2524079102 0.9806365666
0.6224766325 0.0021546471 0.2374276872
0.632450935 -2.6459547967e-04 0.4867567146
0.6223661751 0.0029992243 0.7359918531
0.6324398892 1.0021381433 0.9859109071
0.6224876782 0.2536881841 0.2330480517
0.632406752 0.2521098088 0.4835000625
0.6225060878 0.2545401814 0.7319647607
0.6323515233 0.2516633076 0.9831954962
0.6424546927 1.0031600192 0.2380572944
0.6624474807 -4.8342013328e-04 0.2442742046
0.6523627208 -6.1235875279e-04 0.4855775819
0.6424804661 1.0034008435 0.7397271539
0.6624364349 1.0031795455 0.738770777
0.6523222198 1.0012529513 0.9898137349
0.642403146 0.2528941149 0.235766224
0.6623848882 0.25123438 0.2400768237
0.6523443112 0.252098093 0.4870862458
0.6423442354 0.2530262428 0.7347087064
0.6623407052 0.2495772487 0.7372924889
0.6523848123 0.2522074403 0.9899149875
0.6823739942 1.0006216012 0.2447335232
0.6725175129 1.0022813361 0.4931264242
0.6824292229 0.0020831158 0.7456982965
0.6724365108 -0.0016651514 0.9933023475
0.6822782644 0.2505958703 0.2433224301
0.6723776002 0.2522321736 0.4931273447
0.682296674 0.2497497309 0.7474039427
0.6722340056 0.2516262076 0.9924647123
0.7023815097 0.0020620274 0.2456098185
0.6924366626 1.0006801801 0.4971728466
0.7123963133 1.0004784084 0.494806297
0.7022268694 1.0033162296 0.7430197047
0.6922709765 1.0013896354 0.9960177584
0.7123889495 4.4329771862e-04 0.9946738601
0.7022563247 0.2502242198 0.2468681123
0.6923519786 0.2511933748 0.4940432205
0.7123963133 0.2473356303 0.4984605957
0.7023041896 0.2512890537 0.749845051
0.6923446147 0.2486985655 0.9958520723
0.7122748101 0.250860777 0.9991197702
0.7222491126 -0.0023688204 0.246755814
0.7423744494 0.9993393746 0.2497768237
0.7322749619 -0.0015831409 0.4983980032
0.7223669339 0.999274287 0.7481384843
0.7425438174 -0.0021888726 0.7505538193
0.7323633278 1.0011292848 0.9992854563
0.7223337966 0.2516079831 0.248322468
0.7424591334 0.2511595292 0.2491987633
0.7324222384 0.2489283249 0.4991049305
0.7222233392 0.2518344881 0.7471590955
0.7424664973 0.2517570338 0.7489659943
0.732396465 0.2502183619 1.0020192767
0.7624740128 -3.9438023853e-04 0.252198602
0.7524444817 8.3837970773e-04 0.5017991704
0.7624114203 0.001370341 0.7537828571
0.7524813008 0.9997949881 0.9998193336
0.7625771064 0.2509486453 0.2532617544
0.7523634796 0.2508484103 0.5024609943
0.7625881521 0.2512792905 0.7534422801
0.7523377062 0.2480353224 1.0028569119
0.782499938 -5.8762544869e-04 0.2470025022
0.7725735004 0.9980831831 0.4986106337
0.7926951553 1.0002050403 0.4954395861
0.7825993496 -3.7381254355e-04 0.748384252
0.7725550908 1.0002571104 0.9981440632
0.7924816043 3.6070150046e-04 0.9961650349
0.7825919858 0.2494308015 0.2495660341
0.772503544 0.2470583569 0.5021231788
0.792496332 0.250476109 0.4968239854
0.7826067135 0.2497113292 0.7510232632
0.7725514089 0.2490500388 1.0013657371
0.7925294692 0.249280449 0.9998561528
0.8025700461 1.0011032498 0.2457515722
0.8125627581 0.0020083952 0.4985093811
0.8026915492 8.5256881376e-04 0.7463527565
0.8125369848 1.0005304785 0.9961558302
0.8025258631 0.2503921459 0.2466812552
0.8125075295 0.249959964 0.4982525676
0.8024743164 0.2483197554 0.7460950226
0.8124743922 0.2473681741 0.9980428106
0.8224744681 0.9989618663 0.2523283894
0.8425777134 1.0014156704 0.2561069527
0.8325113631 -4.3180563289e-04 0.5053973199
0.8225481064 -0.001560881 0.7506486286
0.8425703496 -3.9802514651e-04 0.7528540945
0.832474544 -1.0037710408e-05 1.0024795158
0.8223603288 0.250465695 0.2497685394
0.84255194 0.2492342368 0.2551349276
0.8324819078 0.2493351226 0.5019041049
0.8225517883 0.2490454826 0.7494556887
0.8424341188 0.2499879517 0.7497907428
0.832430361 0.2470876463 1.0025255397
0.862629412 -5.8970825325e-04 0.257447169
0.8525851531 0.9987340596 0.5056449286
0.8624489982 1.0008233729 0.7570063719
0.8525741074 4.830662681e-04 1.0044033154
0.8626036386 0.2507690034 0.2564070286
0.8525409702 0.2503212004 0.5054433439
0.8626330939 0.2475881703 0.7552823162
0.8525556978 0.2487070269 1.0044769537
0.8826700648 0.9990855328 0.2570716139
0.8726699889 0.0013274483 0.5087497018
0.8926185939 -0.0011594204 0.5128504325
0.8825706531 1.0018127051 0.7603339009
0.8726626251 -0.0012181294 1.0067137159
0.8825522436 0.2493240577 0.2580546847
0.8926370034 -0.0018145275 1.0108006394
0.8725521677 0.2500497849 0.507491408
0.8925486375 0.2526103328 0.5116630155
0.8825375159 0.248932881 0.758548173
0.8724895752 0.2510365136 1.0093646933
0.8923866333 0.2502483022 1.0089596828
0.9026002602 -9.631811451e-04 0.2611051497
0.9224936365 9.1414172344e-04 0.265624698
0.9124788329 -0.0011423674 0.5141906488
0.9025965783 1.0007843203 0.7656100823
0.9224862726 1.002034003 0.7648672563
0.9125230159 1.0019558979 1.0147679007
0.9024787571 0.2515943147 0.2610655691
0.9225194099 0.2495681364 0.2637782186
0.9125671988 0.2501031568 0.5144557466
0.9025413496 0.2514341991 0.7610794883
0.9224825907 0.2496481942 0.7645874309
0.9125046063 0.253088727 1.0113529263
0.9423391479 0.9987015157 0.2656293003
0.9325342134 0.9989358313 0.5132526815
0.9424459233 1.0013505828 0.7633208529
0.9325121219 0.9980376218 1.0156147407
0.9424790606 0.2495694381 0.2623597615
0.9325342134 0.2502756391 0.5162874983
0.9424864244 0.2495297347 0.7644291087
0.9325305315 0.2504819669 1.0169034103
0.9623798007 -4.5185262674e-04 0.2689954894
0.9524239077 0.9989488488 0.5163261584
0.9723761946 0.9996843391 0.5201222108
0.9623871645 0.9992091994 0.7688372791
0.9524239077 0.9998210232 1.0168113624
0.9625013038 0.2497067731 0.2688749067
0.9723209659 -1.9553749113e-04 1.0199593981
0.9525270013 0.2493956541 0.5172015332
0.9724571967 0.2511413047 0.5217532982
0.9624350294 0.2482442537 0.7726241267
0.9524717726 0.2515786937 1.0166088572
0.9724756063 0.2515142569 1.0232731199
0.9825824576 2.854601859e-04 0.2729434206
0.9925346687 1.0018192138 0.522759381
0.9824683183 1.0011943725 0.7737194958
0.9824793641 0.2525113996 0.2711144303
0.9924647123 -2.6270793804e-04 1.0209166955
0.992560442 0.2512506519 0.5215250196
0.9824904098 0.2477964508 0.7713667534
0.9925346687 0.2513281062 1.0226840138
0.0123722241 0.7508738087 1.0200238316
0.0225860718 0.5008819376 0.7700854476
0.0025984754 0.5006040133 0.7712470912
0.0124354057 0.4997617792 1.016194642
0.0225763147 0.7503661251 0.2680842159
0.002533011 0.7504637566 0.2706864079
0.0125512755 0.7517524919 0.5208567524
0.0224952758 0.7518175795 0.7667496344
0.0224912257 0.5002857347 0.2687129025
0.0024911476 0.5007615254 0.2668213197
0.0026006845 0.7529826483 0.7691594465
0.012563389 0.5016753559 0.5167118388
0.0324287091 0.7516743867 1.0156883789
0.042392334 0.4975963134 0.765748154
0.0324725238 0.5013141195 1.0174096733
0.0424991095 0.7499170204 0.2629230942
0.0324743648 0.751583264 0.5174114023
0.042471127 0.7500667219 0.7649427356
0.0425112598 0.5006228887 0.2646977763
0.0325141295 0.5008819376 0.5167127593
0.0724499995 0.7507696685 1.0117671415
0.0623652396 0.4980317497 0.7616106042
0.0523537498 0.7490904073 1.0107914346
0.0724695136 0.5011572583 1.0116014554
0.0524178151 0.500810992 1.0121997663
0.062494843 0.7501708622 0.2600594864
0.0724595725 0.7510104928 0.5098699238
0.0524034556 0.7505744056 0.512000831
0.0623748126 0.4997806546 0.2611171159
0.0723826205 0.4997904178 0.5115783315
0.062410159 0.7501448271 0.7629020352
0.0524826168 0.5002460313 0.5095247445
0.0925057481 0.7511601943 1.0084902389
0.1025952945 0.5007081535 0.756261705
0.0824592802 0.5021830395 0.7592514184
0.0925086937 0.4991167607 1.0096868607
0.1025212881 0.7493963192 0.256134567
0.0823955831 0.7495460208 0.2591113937
0.0925245259 0.7506329844 0.5083907153
0.102498092 0.7517459831 0.7566943298
0.1026122313 0.4994122586 0.2582157684
0.0824960993 0.4990438625 0.2600438382
0.0824846854 0.7501253008 0.7603320599
0.0925123756 0.4989969994 0.5106965133
0.1125788018 0.7495915822 1.0031054411
0.1224662111 0.5022917359 0.7534220296
0.1124856494 0.4993081184 1.0046242302
0.1224853571 0.7502099148 0.254038638
0.1125423508 0.7513098959 0.5050530611
0.1225729866 0.5011989144 0.2542641552
0.122487198 0.7504572478 0.7522033164
0.1124532485 0.5001139034 0.5043148375
0.1524888984 0.7495069682 1.0033171511
0.1423820471 0.501580328 0.7507728931
0.1325156246 0.7492596352 1.0047254828
0.1524819028 0.4992742728 1.0022309867
0.1324379363 0.4993061657 1.0051304932
0.1425105458 0.7496696873 0.2539594769
0.15248043 0.750535353 0.4997842435
0.1326025178 0.749513477 0.5049232736
0.1425528878 0.5000331947 0.2514843108
0.1424925045 0.7514075274 0.7529157665
0.1525025215 0.4999349124 0.5016426891
0.1324184221 0.5002759716 0.5047529852
0.1725917755 0.7509388963 0.9954286523
0.162484556 0.5020326871 0.7498358463
0.1726956055 0.5004491047 0.9966805028
0.1625055429 0.7491034248 0.2518985261
0.1724459718 0.7492270914 0.4956273636
0.1626274142 0.4988271207 0.2495687956
0.1624701965 0.7493767929 0.7523625591
0.1724765317 0.5004465012 0.4966150368
0.1925193936 0.7474567075 0.9995247806
0.2025047418 0.5002785751 0.7525935991
0.1825355182 0.5010843601 0.7476764042
0.1925882454 0.4997383477 0.9982821349
0.2024616635 0.7517720182 0.2506880971
0.1824287427 0.7492401089 0.2494150757
0.1925510581 0.7519477548 0.5008713283
0.2025279379 0.5012542389 0.2514428893
0.2024182169 0.7514140361 0.7512727128
0.1825844876 0.4985960596 0.2466812552
0.1825281543 0.7525270348 0.75109414
0.1924895701 0.5018569504 0.4989512106
0.2124621075 0.7495199857 1.0044861585
0.222438251 0.4993393604 0.754125275
0.2125055541 0.5002759716 1.0023414441
0.2224603425 0.7510365278 0.2517954325
0.2125368504 0.7497998626 0.5043820324
0.222478752 0.4985153509 0.2521157589
0.222463288 0.7496111084 0.7505133183
0.2124157154 0.4994571691 0.5038186997
0.2525364175 0.7466821645 1.0031790793
0.2426191847 0.501411751 0.7514862638
0.2325038649 0.7521169827 0.9994879615
0.2525250036 0.499647225 1.0031974889
0.2325241154 0.5013193265 1.0023322393
0.242552542 0.7481856891 0.2480757798
0.252506594 0.7498519327 0.5039006223
0.2325134379 0.7474501987 0.5013637842
0.2425687425 0.4975943607 0.2516187007
0.2425926749 0.7489862671 0.7506909706
0.2525960645 0.5015393227 0.5013554999
0.2325874443 0.4989670591 0.5044980127
0.2725848023 0.7480359875 0.9996168284
0.2626889246 0.4996023145 0.7490147796
0.2724853907 0.5003670943 0.9956863862
0.2625364934 0.7483158644 0.2518635479
0.2726050528 0.7488821268 0.5008768512
0.262576258 0.4999765684 0.2524590973
0.2625898811 0.7473004971 0.7492393763
0.2725663927 0.5010492128 0.495125703
0.2925083703 0.7495915822 0.9992670467
0.3024473264 0.4970372105 0.7450364726
0.2825583684 0.49777205 0.7440414356
0.2926504921 0.499415513 0.9953826284
0.302413821 0.7484330221 0.2445936105
0.2824681615 0.7492270914 0.2503613274
0.2924822287 0.7463046562 0.4989226758
0.3025997576 0.496729346 0.24436165
0.3023420237 0.749982108 0.7468866339
0.2826529936 0.4965705321 0.2424553395
0.2824423882 0.7475673565 0.7482774766
0.2926681653 0.4967579845 0.4939714232
0.332447554 0.7481726715 0.9887183658
0.3224552102 0.499015224 0.7427794599
0.3123767095 0.7507957035 0.9943977167
0.3324972599 0.4971999296 0.9900162401
0.3124551343 0.4984047019 0.9945634028
0.322333707 0.7467277259 0.2391268901
0.3324854777 0.7511081242 0.4895383999
0.3123450451 0.750092757 0.4952610133
0.3223686852 0.4991870553 0.2419684065
0.322402927 0.7499886168 0.7456458292
0.3324979962 0.4992215518 0.4896138791
0.3124694938 0.4972175033 0.4961603205
0.3525091937 0.7480750401 0.9897585062
0.3426188389 0.4982797336 0.7391141154
0.3526027143 0.4983239932 0.9907065988
0.3424229611 0.7477235668 0.2406852598
0.3525802547 0.7485762149 0.4878327537
0.3426273073 0.4989585977 0.239194085
0.3425216364 0.7503075462 0.737437004
0.3525868821 0.5002258541 0.4874710057
0.372666195 0.7489016531 0.9866104705
0.3825558135 0.5004692819 0.7340993498
0.3626145723 0.4990692467 0.7381246013
0.3725594195 0.5003072137 0.9865276275
0.3825668592 0.7485762149 0.2338148101
0.3624893873 0.7477430931 0.2388811224
0.3725299642 0.7494093368 0.487415777
0.3826073603 0.5009170849 0.2370466092
0.382489539 0.7470857079 0.7346083743
0.3625814351 0.4991427958 0.2382993802
0.3624820235 0.7491359687 0.7355932861
0.3725226004 0.5018237557 0.4880895671
0.3926184819 0.7515377027 0.986886614
0.4024491898 0.4983623949 0.7356936182
0.392530116 0.5006502255 0.9821737653
0.4025780567 0.7456928324 0.2311389797
0.3925853447 0.7504832829 0.4883675516
0.4023755515 0.4994656305 0.2351669926
0.4025486014 0.7473070059 0.7367438839
0.3925117064 0.5017098524 0.4842106717
0.4325304195 0.7490838985 0.9849904288
0.4225708446 0.5010056041 0.7362054041
0.4125302677 0.7490318284 0.9861594362
0.4323647334 0.4981716881 0.9828273049
0.4124934486 0.5003605855 0.9835636875
0.4224530234 0.74744369 0.2337485356
0.4325598748 0.7508477736 0.484305481
0.4124971305 0.7467472522 0.4844131769
0.4224935245 0.4988843978 0.2329642881
0.4225487532 0.7493572666 0.7315579093
0.4325709205 0.4990002538 0.4807275819
0.412475039 0.4977805114 0.4833813208
0.4524164319 0.7499365467 0.9776726266
0.4424531752 0.498288195 0.7306263853
0.4523759309 0.4969167984 0.9737605939
0.4424384475 0.7470857079 0.2276107865
0.4524458872 0.7488105304 0.478650983
0.442375855 0.4992970535 0.232438695
0.442460539 0.7494548981 0.7324572166
0.4524164319 0.4968888107 0.4785377642
0.4723760826 0.748934197 0.9733279692
0.482438751 0.4989494855 0.71852946
0.4625011918 0.4990074135 0.7234319272
0.4724681305 0.4989585977 0.9711648452
0.4824902978 0.7487063902 0.2215475962
0.4624643727 0.7471768306 0.2231593536
0.472446039 0.7495330033 0.4723144106
0.4825160712 0.5009756638 0.2198437909
0.4825087074 0.7503726339 0.7190688602
0.4624680546 0.4989384206 0.2220621436
0.4623907344 0.7496696873 0.723991578
0.4726411804 0.4978709832 0.4703123704
0.4923688706 0.5005890432 0.9702351622
0.5024204932 0.751335931 0.2211840073
0.4925235109 0.7493442491 0.4716212905
0.5025125411 0.5004881573 0.2205304677
0.5023799922 0.7505548793 0.7213047019
0.492306278 0.7485371623 0.9680720383
0.492479328 0.5000371 0.4693771645
0.5024941315 0.5011025847 0.7204707486
0.5124095234 0.7505028091 0.9769454487
0.5124352968 0.5016681963 0.9718183848
0.5124868435 0.7532169638 0.4744655683
0.5125567999 0.5019819187 0.4714776959
0.5225679215 0.5029692982 0.7234089153
0.5324538581 0.7498779678 0.9764575953
0.5324833134 0.501185246 0.9761814518
0.5224427365 0.4985641666 0.2265706461
0.5223433248 0.7495655471 0.2224330963
0.5324428123 0.7520063337 0.4769508596
0.5324759496 0.5013199774 0.4774810551
0.5224132812 0.7504116864 0.7234144381
0.5424723435 0.5002356173 0.7340984294
0.5525129204 0.7498974941 0.9834440253
0.5624135847 0.5014677263 0.7360986286
0.5524282364 0.5006450185 0.9827536666
0.54236925 0.5010205742 0.2318735214
0.5424907531 0.7497022311 0.2295704848
0.5623546741 0.5014690281 0.2351973684
0.5624540857 0.7507110896 0.2356364365
0.5523288248 0.5017313313 0.4816627879
0.5524098269 0.751583264 0.4837403073
0.5423177032 0.7491229511 0.7302931722
0.5623620379 0.7501057745 0.7336059735
0.5824689651 0.5006697518 0.7351569794
0.5724099786 0.7491554949 0.984640647
0.5725057084 0.5003358522 0.9846498518
0.5824137364 0.5011208092 0.2345870913
0.5823953269 0.7503986689 0.2334346525
0.5724983446 0.5010648338 0.4835571321
0.5723842052 0.7486738464 0.484875257
0.5824947385 0.749650161 0.734494235
0.6025206637 0.5007283307 0.7375419385
0.5925610888 0.7513880011 0.9866564944
0.6125281034 0.7517134393 0.9910655853
0.5924911325 0.4993269938 0.9807930479
0.6125796502 0.5039059094 0.9850732718
0.6025574828 0.7499300379 0.2344260076
0.6024138882 0.5008728253 0.232502208
0.5926310452 0.7510560541 0.4863047598
0.5925758165 0.5018771276 0.4827710437
0.6124949662 0.7537116299 0.4871543612
0.6126496065 0.5034502959 0.4867392255
0.6025869381 0.7503921602 0.7336105759
0.6226607281 0.5022728605 0.739194197
0.6325540285 0.7519477548 0.9909183088
0.632535619 0.5010941233 0.9912680906
0.6224361314 0.7507957035 0.2379744513
0.6224913601 0.5009235936 0.2355259791
0.6325908476 0.7503335813 0.4906006318
0.6324619807 0.5024590111 0.4889290433
0.6225134516 0.7506394932 0.7376312249
0.6425172853 0.4998919545 0.7412744779
0.6526351824 0.7517134393 0.9947751128
0.6624032977 0.4988713803 0.7460747721
0.6525504984 0.5003156751 0.9911300188
0.6424694204 0.7510560541 0.2389805341
0.6424915119 0.4990796607 0.2410101887
0.6624732541 0.7516418429 0.2472105303
0.6626315763 0.5004432468 0.2466683686
0.6525615441 0.7500341781 0.4955721349
0.652524725 0.5004764415 0.4933758738
0.642484148 0.7515637377 0.7408621036
0.6625505742 0.7501253008 0.7452398983
0.6823776761 0.5017912119 0.7502104809
0.6726206065 0.7493963192 0.9992302276
0.6725285586 0.4997878143 0.9986779406
0.6825654536 0.7478472333 0.2507488487
0.6824513143 0.4993016096 0.2503465997
0.672554332 0.7501513359 0.4990929643
0.6725027852 0.500505731 0.4972289958
0.6825617717 0.7514856325 0.7502252086
0.7024846033 0.5020762958 0.7532959241
0.6925066189 0.7503986689 1.0022586011
0.7123963133 0.7497412837 1.0021113245
0.6924550721 0.50077975 1.0016510854
0.712282174 0.5019871257 1.0023782632
0.7024404204 0.7529110519 0.2509136143
0.7023152353 0.4990054608 0.2497740622
0.6924845274 0.7496827049 0.5014751621
0.6923482967 0.5001353823 0.500820702
0.7123153112 0.5001249683 0.5003715086
0.7125730451 0.7519607723 0.5016178362
0.7024588299 0.7500537044 0.7542974044
0.722488437 0.5004028925 0.7518572165
0.7325069224 0.7508738087 1.0022678058
0.7424812249 0.4988082453 0.7515221624
0.7323375544 0.5022038676 1.0027740689
0.7224737093 0.7511536856 0.2514373664
0.7224589817 0.4992664623 0.2512367022
0.7424039047 0.7497868451 0.2506024927
0.7424996345 0.5019532801 0.2536759696
0.7325400596 0.5001731331 0.5058520362
0.7324627395 0.7490773898 0.5045826967
0.7224332083 0.7514661063 0.7508520543
0.7424885887 0.7517655094 0.7528826293
0.7524702551 0.4988108488 0.5003218028
0.7524997104 0.7500016343 1.0026175876
0.7625218777 0.4990907256 0.7536401829
0.7525954401 0.4993335025 1.0022401915
0.7625181958 0.7489472145 0.2525759981
0.7623525097 0.4981430496 0.2535167268
0.7524518455 0.7510951067 0.506875608
0.7625034681 0.7494809332 0.7511456868
0.7726029557 0.499183801 0.5001782082
0.772378359 0.7509063525 0.9993130706
0.7925883798 0.4986689577 0.4986732262
0.7925736521 0.751003984 0.9968553936
0.7824888923 0.4983168336 0.7463969395
0.7725256355 0.4994806006 1.0023966728
0.7926178351 0.5019285468 0.9997364906
0.7825588486 0.749044846 0.2468892833
0.7825036199 0.5014879035 0.2478493422
0.7724777706 0.7476519704 0.5018056138
0.7926325627 0.7477951632 0.4968718502
0.7825551667 0.7495785646 0.7466187747
0.8125075295 0.4982576038 0.4959679406
0.8125517124 0.7502164235 0.9960821919
0.8024595887 0.4982139951 0.7477804183
0.8124891199 0.5006931834 0.9970578989
0.8024927259 0.7496045997 0.2458160057
0.8026105471 0.4992209009 0.2467576549
0.8125038475 0.7488365655 0.4970071606
0.8026068652 0.7508868262 0.7454387216
0.832515045 0.496929165 0.4979883904
0.8325113631 0.7495069682 1.0006017402
0.8225260149 0.4974420557 0.7494529273
0.842470938 0.4970287491 0.7522171235
0.8326034109 0.4972148998 1.0029765741
0.8225002415 0.7489862671 0.2478530241
0.8224523766 0.4989338644 0.2506006517
0.8424856656 0.7491554949 0.2500363985
0.8424967113 0.4978241201 0.2511888373
0.8325334546 0.7516483516 0.4988849362
0.8225922893 0.7498779678 0.7479083648
0.8425998049 0.748491601 0.7536015228
0.8525409702 0.4990288924 0.5062680924
0.8624784535 0.7480164612 0.75655994
0.8626036386 0.4998932563 0.7601010199
0.8525372883 0.7524879822 1.0073120267
0.852548334 0.4993640937 1.0071003167
0.862544728 0.7501448271 0.2552177707
0.8625594556 0.498414465 0.2586391884
0.8525299244 0.7497543013 0.5055326302
0.872581623 0.5014892053 0.5076073883
0.882659019 0.7482637942 0.7639219252
0.8924676354 0.5019747591 0.5134349362
0.8725300762 0.7485957412 1.0091713928
0.8925560013 0.7500602132 1.0142340233
0.882404967 0.4982615091 0.7604986665
0.8725632134 0.502501969 1.0088492254
0.8925412737 0.501553642 1.0148047198
0.8825890627 0.749513477 0.2598192415
0.8823791936 0.4996921355 0.2632857627
0.87253744 0.7500211606 0.5102740138
0.8924823631 0.7501903885 0.5131219735
0.9124677872 0.5003273908 0.5123091912
0.9025634411 0.7474567075 0.7647733676
0.9224899545 0.7494809332 0.7648405625
0.9125708808 0.750092757 1.016489195