POSCAR file written by Ovito 3.7.11
1
271.6119199013 0.0 0.0
0.0 15.3646904331 0.0
0.0 0.0 10.864476796
Sr Ti O 
800 800 2400 
Direct
0.0224059052 0.4994187973 0.7694870719
0.0122907379 0.2493812181 0.5123159211
0.022467979 0.2486678943 0.7659019936
0.0024970219 0.2490551458 0.7644228611
0.0123191608 0.2492985611 0.0146787959
0.0224504909 -3.0288820239e-04 0.2684495988
0.0023938232 -0.0040879824 0.265196796
0.0024753734 0.4979849903 0.2656045469
0.0125251901 0.5010849551 0.5157712186
0.0124689702 -0.0021805635 0.5157215154
0.0223326389 4.688813332e-04 0.7670092719
0.0023532506 -0.0015558259 0.7643344998
0.0224479505 0.2501713414 0.2673846603
0.0024866027 0.2485689662 0.2663574594
0.0323986551 0.4999681087 0.017086551
0.0425038817 0.4992534832 0.2665406251
0.0323773011 0.4997826185 0.516139391
0.0325242019 0.2517327136 0.5152695838
0.0423474085 0.2470681224 0.7639543618
0.0323831919 0.2486574808 0.0117865259
0.0524898205 0.4985186815 0.0108239393
0.0424416606 -0.0022908814 0.766755233
0.042382753 0.2471813691 0.2611330937
0.0523826824 0.2493662488 0.5089885634
0.0523790006 0.2495992505 0.0079140891
0.0623594168 0.2504043432 0.2586847475
0.0625011632 0.4991669211 0.7601529822
0.0725224465 0.4999414241 0.0110823963
0.0625261989 0.5013400856 0.2608137042
0.0723803319 0.4993921127 0.5113494687
0.0724027905 0.250591786 0.5050003364
0.0624591915 0.2463027311 0.7601023585
0.0723829092 0.2498036152 0.0059983042
0.0923290146 0.2521089008 0.5046349254
0.102320476 0.2510629962 0.7504985827
0.0823055223 0.2479493637 0.7551660877
0.0924549296 0.2502884932 0.0016532261
0.1023849061 8.573010567e-05 0.2549468777
0.0924825425 -2.2101216294e-04 0.5044342714
0.1024276141 0.2490395256 0.2503447233
0.0824885039 0.2492263175 0.2534557797
0.1023742291 0.499838591 0.7509854906
0.0823644299 0.5002759574 0.7550823285
0.1024537544 0.5003078487 0.2501873296
0.0824745134 0.4984607565 0.2549708089
0.1224333635 0.2497352767 0.2472106561
0.1124960235 0.4972814291 0.0027769802
0.1123447047 0.2516201178 0.5007332188
0.1225209885 0.5006619073 0.2486060293
0.112369004 0.4983982756 0.5022767814
0.1224293136 0.2507974523 0.7487451618
0.112369004 0.250363991 -4.5334562645e-04
0.1223578882 -0.0014638618 0.2516462125
0.1525016315 0.2518231808 0.4901418206
0.1322878647 0.249812727 0.4964486131
0.1423872006 0.2524558001 0.7414802009
0.1524232108 0.2494580176 -0.0076935065
0.1324664283 0.2495165935 -0.0050161608
0.1424626759 -1.2052201596e-04 0.2488490231
0.142302521 0.2489458042 0.2405108397
0.1425425693 0.499511217 0.7421318659
0.1523562034 0.4997578864 -0.0077911596
0.1323648128 0.5003553602 -0.0024024225
0.1523175453 0.5001972054 0.4928442057
0.1324008937 0.4992840728 0.4961881311
0.1824631295 0.2502214564 0.2450108263
0.1723321309 0.5003651229 0.4928350014
0.1824723338 0.4988805502 0.7439708868
0.1724300647 0.2503568317 0.4930559048
0.1624665845 0.2494417465 0.7448729091
0.1723718935 0.25171449 -0.0041449454
0.1824885334 0.4998080013 0.2468608924
0.1624338171 0.0016111757 0.7445213045
0.1624216674 0.2511703853 0.2415315975
0.1824458254 0.2517782726 0.7447891499
0.1824701248 0.0016271214 0.2479930224
0.192399365 8.9362142337e-04 -0.0032611661
0.2024677744 0.2507954998 0.2461512402
0.2025012781 0.50045559 0.7462553963
0.1923548162 0.5008792888 -0.0041223764
0.2025763852 0.5016433784 0.2453403405
0.1923798519 0.5033921933 0.4954241735
0.1925120258 0.2496942736 0.4951701346
0.2024154939 0.2502299173 0.7466281708
0.1926140095 0.2493408659 -0.0058406368
0.2024928101 0.0036370545 0.244268959
0.2127305788 0.2505989452 0.4949335838
0.2223579177 0.2526113516 0.7452659331
0.2126447946 0.2508163268 -0.0059137834
0.2225096047 0.0015552683 0.7456976152
0.2224945096 0.2515016644 0.2463113951
0.2325702824 0.2498361573 0.5001377
0.2325400923 0.25115086 0.9994438426
0.2324270634 4.3503750131e-04 0.5000382935
0.2223641766 0.4997175342 0.7486144607
0.2124820624 0.5011617546 -0.0032189275
0.2123984873 0.5010882094 0.498033595
0.2425138814 0.4991766837 0.7546543281
0.2624452599 0.2494625735 0.7521976981
0.2624537279 -1.0659397745e-04 0.2505260482
0.2624850226 -0.0015584944 0.7515883728
0.2524342855 0.2519852407 0.5001901646
0.2424049024 0.2524629594 0.7510158648
0.2524799388 0.2490382239 1.0021867266
0.2623863524 0.2516057992 0.2544783784
0.2424163157 -7.8021640057e-04 0.2509310377
0.2623686801 0.5010133624 0.2530876073
0.2524420171 0.001240716 0.5012679892
0.242502468 0.0030429 0.7491832869
0.2525951768 -0.0017927327 1.0034385127
0.2424560783 0.2501791516 0.2489254188
0.2724624934 0.2493584386 0.5041820734
0.2725383369 0.2511176671 1.006457526
0.2724996788 2.3015214982e-04 0.5045438027
0.2725475412 -4.5401392862e-04 1.004938815
0.2826803807 0.2512029275 0.7526266189
0.2724164718 0.4994122888 0.5046938329
0.2824944537 0.2508189302 0.2521773012
0.3124029349 -5.487766579e-04 0.5028538916
0.2925282548 0.4987048226 0.5034420469
0.2925867942 0.2498081711 0.5016748196
0.3025222934 0.2501622296 0.7525999264
0.2925223641 0.2492627647 1.0031531791
0.2925127916 -0.0020883196 0.5053316915
0.30251493 0.001528779 0.7508612324
0.3126492422 0.5009411189 0.5022519298
0.3025627924 0.2508065641 0.2484293066
0.3125958572 0.2494137603 0.4989190496
0.3126308336 0.2513981804 0.999425434
0.3223966053 0.0025746836 0.2465074469
0.332446606 0.0021785806 0.4954840015
0.3224617718 0.0041106078 0.7469171861
0.3324775325 0.0011315045 0.9963051733
0.3224625081 0.2497502461 0.2469363677
0.3226112497 0.5028995052 0.7510278304
0.322596891 0.5014995421 0.2506779192
0.3324996228 0.2518863125 0.4953477777
0.322618245 0.2512764727 0.7461136499
0.3325430672 0.2501010504 0.9959277966
0.3624559664 0.2494137603 0.2449068176
0.352470764 0.4994044787 0.4922394826
0.3525289352 0.2491020065 0.4968342736
0.3425709776 0.2509621156 0.7459939939
0.3626952785 0.5008669228 0.7405404409
0.3526747315 0.2510460743 0.9933689988
0.3626915967 0.5016596494 0.2394054022
0.3425264287 0.0034926325 0.2461898983
0.3424535306 0.2507798796 0.2448801251
0.3625406461 0.2500346644 0.7418511345
0.3424807754 0.5012919232 0.7474271048
0.3426619162 0.5009189902 0.2470044796
0.3824845425 0.2517301102 0.2371411422
0.3925098757 0.2536605103 0.4897856139
0.3924288778 0.2551691642 0.9920435783
0.3925503747 0.0029504152 0.9898437485
0.3825986759 0.5024536778 0.7371716639
0.3924693768 0.5036798659 0.9905064587
0.3725586158 0.2509946577 0.4895324954
0.3824550887 0.2498602385 0.740532157
0.3725659793 0.2508312962 0.9924485679
0.3926092823 0.5043827762 0.4906848748
0.3724739362 7.1203624844e-04 0.4915914993
0.4126010411 0.5038529901 0.9850759165
0.4023768948 0.252460356 0.7397313822
0.4025352089 0.00641713 0.7363985019
0.402454211 0.2541102428 0.2374881447
0.4124316818 0.2556520897 0.4895094846
0.4124942711 0.2530252877 0.9871560903
0.4124206366 0.0014455362 0.4865806735
0.412442727 0.0017742119 0.9842659373
0.4424450921 7.6651180092e-04 0.7305086647
0.4424377287 0.2498849706 0.2309024617
0.422604284 0.5014305527 0.7346634897
0.4325891182 0.5011949476 0.9824803014
0.4326001634 0.4997097241 0.484197678
0.4427433117 0.4978893164 0.7313839945
0.4425481804 0.5016752697 0.2311417737
0.4325081203 0.2505384169 0.4832523954
0.422390744 0.2499591667 0.7345861735
0.4324381675 0.2500724133 0.9821305376
0.4224091526 0.0030654843 0.2333977498
0.4324197589 3.6975795635e-04 0.9799215035
0.4224717419 0.2525436639 0.2330525882
0.4424708642 0.2492966086 0.7333104563
0.4725873628 0.2503034626 0.4867261016
0.4623853068 0.2502429342 0.7275411955
0.472451139 0.2486268912 0.9874598325
0.4725542273 -2.3871842207e-05 0.9848274001
0.4623926703 0.2475119973 0.2313148147
0.4525256512 0.5004347631 0.9847077441
0.4526103308 0.4982362157 0.485282866
0.4625068037 0.5016869849 0.7327766064
0.472557909 0.4995958265 0.9854624975
0.4625436209 0.4998047471 0.2332919002
0.452448335 0.2471423185 0.47960933
0.4524520167 0.2501290367 0.9778597383
0.452448335 -0.0013676672 0.4791288651
0.4824507001 0.2514567562 0.7362650395
0.4825022443 -0.0010086623 0.7346515241
0.4925533495 0.5021152395 0.9823422368
0.4925643947 0.4993009947 0.4864002691
0.482638468 0.251316825 0.2355570807
0.4925680764 0.2512803778 0.4858857482
0.4924318527 0.2528515126 0.9895952321
0.482546425 0.5031832727 0.2367508795
0.5024792762 0.2483346627 0.7365706225
0.512497246 0.2516240228 0.486427882
0.5125303815 0.2510760131 0.9861804335
0.5025234569 -0.0011653852 0.7373327393
0.5024866397 0.2505306067 0.2371190519
0.5223421747 0.2488214932 0.2341055612
0.5224010823 0.2479324418 0.7355857615
0.5125414267 0.4992580391 0.483597557
0.5224194909 0.4992267986 0.7362190179
0.5425511553 0.5010849551 0.7423444855
0.5523592668 0.4969163062 0.9863092939
0.5423633874 0.4984178009 0.2394707528
0.5524218561 0.499071898 0.4879778876
0.5325479124 -0.0021034061 0.4863790992
0.5324080069 0.2494456516 0.4850619626
0.5323895983 0.2478380696 0.9853060242
0.5324521876 0.4961463591 0.9846985398
0.5524181744 4.9029406529e-04 0.9900278346
0.5424002046 0.2484837058 0.2368613312
0.5523261313 0.2473115377 0.4870510137
0.5424443853 0.2488117306 0.7393724141
0.5522488151 0.2490584001 0.9899910174
0.5722405739 0.2492276192 0.491727723
0.5722994815 0.2481504742 0.9903223725
0.5622667848 0.4992391646 0.7386185812
0.5623772365 0.4980643932 0.2428542567
0.5723068449 0.4985700981 0.9891166081
0.5724430687 0.4984900444 0.4874817754
0.5623367376 0.2518095131 0.2427806223
0.5622631031 0.2484934684 0.7396908832
0.6025411587 0.4990100679 0.7434848993
0.5925379158 0.4978964757 0.992899579
0.5923980103 0.4975990405 0.4933927825
0.5825015374 0.2486789586 0.742431006
0.6023349821 0.2467537653 0.2494712344
0.5924458727 0.2486164777 0.4943877683
0.6023938897 0.2487134533 0.7466235686
0.5923575113 0.2498726045 0.9962039259
0.5824352664 0.497973926 0.7404612839
0.5823837223 0.4972371718 0.239687054
0.5824205395 0.2480795323 0.2432555646
0.6123676788 0.497431123 0.9959922268
0.6123345433 0.4989814308 0.4947007148
0.6223488313 0.5007875199 0.7464928675
0.6125075843 -4.6371148814e-04 0.4985094578
0.6224629648 0.5016759205 0.2458419754
0.6122866809 0.2485305664 0.496269129
0.6123934509 0.2474241335 0.9974373033
0.6224445561 -8.8148755906e-04 0.7472448595
0.6224850551 0.2492835917 0.2457692613
0.6224224658 0.2474254352 0.7481358366
0.6425504484 -0.0012960094 0.2479249105
0.652516874 -0.0015827057 0.4971582653
0.6323704828 0.4997507272 0.5009090211
0.6425136312 0.249539373 0.2522214818
0.6524616482 0.2503236387 0.4971324932
0.6425835839 0.2503171303 0.7541701815
0.6325287969 0.0010908919 0.4977372163
0.6525021471 0.248988109 0.9972071956
0.6425909474 0.4994513394 0.7502482255
0.652597872 0.4982811238 0.4980915822
0.632580341 0.2507030801 0.4976055947
0.6326024314 0.2509881493 0.9990480573
0.6827622329 0.4979101434 0.7424807092
0.6625201169 -2.8570594928e-04 0.2450181897
0.6826333726 0.4997748083 0.2424253359
0.6624428007 -4.7464564921e-04 0.745287103
0.6726301297 0.4995144712 0.494058254
0.6625495707 0.2504472988 0.2482903215
0.662571661 0.2505657523 0.7445489174
0.6725417684 9.1138943511e-04 0.9943078383
0.6625495707 0.5001431854 0.7484000003
0.6625348438 0.4986521043 0.2463610984
0.682574465 0.2492829409 0.2411404144
0.6725822673 0.2495732168 0.4940554928
0.6826186457 0.2487173584 0.7441448483
0.6725675404 0.2492080939 0.9908194052
0.7025883142 0.2501706906 0.2420313915
0.692629252 0.2509543055 0.4907078856
0.7025441335 0.2504525056 0.7409242606
0.6925887531 0.250662077 0.9922092558
0.6925408907 0.4991513008 0.9982656911
0.6925924348 0.4994793257 0.4928303992
0.732461819 0.49988415 0.9850759165
0.732568589 0.5001086908 0.4868190651
0.7126246926 0.2515973383 0.4902228185
0.7125952388 0.2488898317 0.9871100687
0.7225285289 -0.0018371528 0.2371613917
0.7325280901 -3.3419374689e-04 0.4900921174
0.7325906794 -0.0016444056 0.9894019416
0.712672555 0.5012112187 0.9916109758
0.7226279355 0.2492002838 0.2375111554
0.7324213201 0.2483886827 0.4836942023
0.7226316172 0.248457672 0.7366111215
0.7325501804 0.2486665926 0.9859135086
0.7125584216 0.5022187235 0.4908606771
0.7126836002 9.8402350508e-04 0.4909610041
0.712565785 8.3380895894e-04 0.9912704163
0.752571393 0.4985883217 -0.015065821
0.7425239695 8.1694879561e-05 0.2337033329
0.7425534233 -0.0019552612 0.7341959108
0.7425460598 0.2463463376 0.2355082978
0.7425939222 0.2495452306 0.7346837392
0.7625819993 -0.0015254966 0.2370049184
0.7526045285 -0.0034297979 0.4873915731
0.7625856811 -0.0017304471 0.7388947105
0.7525308941 -0.0023750679 -0.0145503613
0.7625415004 0.2488488286 0.2358065174
0.7525198489 0.2474527706 0.4838249035
0.7625930445 0.2462571721 0.7356501916
0.7525971651 0.2481739045 -0.0159619802
0.7825958485 -4.0669764827e-04 0.2440342491
0.7825369409 -0.0011739113 0.7411037446
0.7726367863 -1.8476021225e-04 -0.0097739693
0.7825001237 0.2480170514 0.2404556138
0.7724563819 0.2476343557 0.4865622649
0.7824375344 0.2500606981 0.739421197
0.7724527002 0.2496864635 -0.0115966434
0.792577001 -4.0533420982e-05 0.4908487115
0.7925033666 0.0024612417 -0.0057007037
0.8124509447 0.4987028701 -0.0023205133
0.7924555042 0.2525573316 0.4928110702
0.7924407773 0.2518863125 -0.007110813
0.8024477019 9.2427612494e-04 0.2447577078
0.8125356244 2.9556186336e-04 0.4974030999
0.8025176546 1.2230747782e-04 0.7439395922
0.812554033 0.0012985759 -0.0068357699
0.8025286998 0.2501843583 0.2461263885
0.8122999941 0.2504655224 0.4972236159
0.802499246 0.2503574825 0.7458264755
0.8124693533 0.2511866564 -0.002541472
0.8325605187 5.823883386e-04 0.4976267646
0.8226014565 0.0010817801 0.7458393615
0.8323874777 0.0012823048 3.814023481e-04
0.8225094134 0.250313876 0.248423784
0.8326451984 0.2508169776 0.5009937008
0.8225499124 0.2505019696 0.7503365868
0.8325936542 0.2479363469 -0.0010098658
0.8225315038 0.001036156 0.2504689814
0.8426337143 -3.8521983188e-04 0.748689936
0.8425195809 0.2500353153 0.2550039444
0.8426300326 0.2482279245 0.7523035476
0.8627322432 9.6898903361e-04 0.250814143
0.8425343078 0.4996329246 0.7511171122
0.8525817313 -5.035430749e-04 0.5021129447
0.8626217914 -4.2088602395e-04 0.7537550672
0.8525854131 9.0722404042e-04 0.0030973822
0.8626586087 0.2491976804 0.2539951522
0.8425379895 -0.0014976406 0.2487735477
0.8525301872 0.2500138375 0.5027609281
0.8625776108 0.2498921298 0.7540072652
0.8524970517 0.2503151777 3.2444608489e-04
0.8725955805 -0.002294819 0.5022869062
0.8925983845 -0.0013169015 0.5014787678
0.8727318043 -7.6101653441e-04 2.2553658192e-04
0.8825914599 0.2491612332 0.2538782574
0.8925578856 -0.0022417037 0.0019491447
0.872628716 0.2500437762 0.5032294274
0.8926536104 0.2502943508 0.5044131015
0.8826650944 0.2481576334 0.7537283747
0.8725366729 0.249427428 0.004009069
0.8925578856 0.2506178197 0.0023019458
0.9026568533 -0.0010525942 0.2551677811
0.9126711413 0.0019543001 0.5065945227
0.9025832188 0.0014830248 0.7542318504
0.902620036 0.2503984856 0.2561517217
0.9125901434 0.2501713414 0.5028713798
0.9026899888 0.2478406729 0.7535360046
0.9025464015 0.4981958634 0.7516813364
0.9126048703 0.2480307191 0.0044438805
0.9226302035 5.2980023059e-04 0.259091578
0.9226670207 8.7539782158e-04 0.7577653845
0.922689111 0.2498329031 0.2596346322
0.9227848359 0.2500170917 0.758452026
0.9426735064 -5.2443846434e-05 0.2614653692
0.9327365346 7.0930270817e-04 0.5098233943
0.9426771882 0.0010121399 0.765676488
0.9326555367 6.3354459218e-04 0.0101639903
0.9424636482 0.2505039222 0.2645092342
0.9325377215 0.2505345118 0.5092380002
0.9425630547 0.2523321399 0.7615060156
0.932651855 0.2510128813 0.0102994777
0.952481618 0.0015112063 0.5155438722
0.9526288869 0.0026373598 0.0152559981
0.9624995877 0.2500704608 0.2645975955
0.9523895749 0.2504896036 0.5103600055
0.972403424 0.2507030801 0.5136367394
0.9623928177 0.2495439289 0.7640390414
0.9524521642 0.2505553388 0.0135111372
0.9725691016 0.2479415536 0.0128524769
0.9626799922 -2.739907767e-04 0.2652013982
0.9823735314 0.4977116363 0.7659701054
0.9825355272 0.5009137835 0.2633817063
0.9825318455 6.0699020101e-04 0.2637811733
0.9924909077 -0.0029626099 0.51677817
0.9824103486 0.2496819076 0.2585356377
0.9924651356 -0.0010844855 0.0145347484
0.9924430453 0.2471943859 0.5133339177
0.9824213938 0.2493922825 0.7618622224
0.9924504087 0.248196684 0.015371236
0.0125317435 0.7491036195 0.0170319695
0.0023428314 0.4995307423 0.7659415721
0.0125727211 0.5001841885 0.0192794776
0.0224792083 0.7516223816 0.2692328855
0.002557034 0.746578349 0.2692006704
0.0125236438 0.7471250571 0.522731517
0.0224681631 0.7501840188 0.7666493834
0.022477257 0.5001431854 0.2681688674
0.0025100921 0.7474504785 0.7664128327
0.012539917 0.9982267644 0.0133531913
0.0523230384 0.9987539471 0.514475252
0.0524511624 0.9978362586 0.0143837057
0.0325275155 0.7481924395 0.0154785583
0.0425399626 0.4989977019 0.762254326
0.0424365062 0.7503011705 0.2637554013
0.0324947481 0.7485113525 0.5156432787
0.0423816485 0.7490971111 0.7659581398
0.0525483599 0.7498651058 0.0100306199
0.0525494644 0.7487456559 0.5113531504
0.0523661146 0.5011057821 0.5132612036
0.0424777415 1.0004005797 0.2643877373
0.0324439403 0.9997497368 0.5158338079
0.0324542492 0.9985066268 0.0172710974
0.0724175174 1.0008691866 0.5130596292
0.0623947614 0.9982723234 0.7606803891
0.0724013178 0.9989101494 0.008136189
0.072406104 0.7498130383 0.0084728827
0.0624860681 0.7478084421 0.261481937
0.0724079449 0.7489213835 0.504939588
0.0623792981 0.7483356249 0.760915099
0.0624632414 0.9992030288 0.2593272083
0.0823758432 0.9971333483 0.2570058816
0.1024014739 1.0006218663 0.7553566169
0.0824148695 1.0004916977 0.7588929124
0.0924287893 1.001708774 0.0029144926
0.0924394663 0.748140372 0.0061305701
0.0923492641 0.5001314703 0.0069275712
0.1024677449 0.7468126525 0.254563058
0.082396829 0.7484267429 0.2559648743
0.0924265803 0.7508804207 0.50722962
0.1023285758 0.7497154119 0.7532258194
0.0823721615 0.7492402966 0.7596587109
0.0924144306 0.4983696385 0.5027710528
0.1124455839 1.001754333 0.0027037139
0.1123609042 0.7485373862 0.0072248704
0.1224469859 0.500012366 0.7498257477
0.1224959528 0.7514531625 0.2560679625
0.1124555245 0.7496893782 0.5014741657
0.1223144438 0.7474895291 0.7536096391
0.1125519857 1.000055633 0.5023540976
0.1222864627 0.9989296747 0.7522520035
0.152425788 1.0007325096 0.4941484563
0.132457224 0.9979729356 0.4984091308
0.1423750509 1.0012336587 0.7481938237
0.1524994225 1.0005958326 -0.0044712658
0.1323902167 1.0015786054 -0.0020444025
0.152556121 0.7505484908 -0.0036123289
0.1324737918 0.7504834065 -0.0013540149
0.1425433057 0.7485113525 0.2473744928
0.1525767387 0.7507762858 0.4954904445
0.1324369746 0.7482184732 0.4998993084
0.1425256334 0.5008838447 0.2436808037
0.1424722484 0.7507762858 0.7448158424
0.1725795427 0.7517069912 -0.0045395985
0.1625394826 0.4977799748 0.7430927958
0.1724245421 0.5001288669 -0.006443832
0.1624816795 0.7493964989 0.2463454511
0.1825039967 1.002815207 0.7475439995
0.1725718111 0.751824143 0.4955465908
0.1625840314 0.5001132467 0.2433356421
0.1625037699 0.7496373107 0.7462857705
0.1825382367 0.7511798085 0.2470136839
0.1825555408 0.7507046931 0.7480732473
0.1624113586 1.0022945326 0.2462396015
0.1725405164 0.998812523 0.499099454
0.1724160742 0.999964515 -0.0040230527
0.1924884627 0.999176995 0.4970119168
0.2026238795 1.0026655131 0.7454288494
0.1924976671 0.7515182468 -0.0041353729
0.2025101142 0.7499301901 0.2453992481
0.1924766812 0.7518306514 0.4963326388
0.2023974535 0.752826441 0.7443326162
0.2324627761 0.7511993337 1.0025180818
0.2324933344 0.4997214392 0.9986890893
0.2325728596 0.7503402211 0.5026992592
0.232498857 0.5012418083 0.5001238936
0.2225471583 1.0029649008 0.2464255286
0.2124445089 1.0019626027 0.4950440355
0.2123929647 1.0008236276 -0.0057119237
0.2126330131 0.752097497 -0.0013778172
0.2325485603 1.0003550207 0.9975385507
0.2224484881 0.7518046177 0.249842168
0.2124257321 0.7538547729 0.4987496903
0.2225898663 0.4986521043 0.2472769271
0.2224624786 0.7520584464 0.7477658234
0.2525189651 0.7495071422 1.0036133945
0.2524795707 0.4997500763 1.0028586412
0.242449083 0.7508348617 0.2518477869
0.2523709598 0.7497544625 0.5036841202
0.24242552 0.501097972 0.2539353242
0.2425459124 0.752143056 0.7543027235
0.252403359 0.5001086908 0.5028575733
0.2624054973 0.5000442573 0.7525382575
0.2624920178 0.7529566096 0.254795927
0.2624706638 0.7511342495 0.7523311606
0.2825301664 0.5021692595 0.753171514
0.2824797268 0.749793513 0.2539804253
0.2824764132 0.4998808957 0.2535275733
0.2824326007 0.7509650303 0.7557827764
0.2724735385 0.750854387 1.0066692251
0.2724849519 0.4995450608 1.0050400624
0.2724926835 0.7508348617 0.5033030619
0.28249519 1.0001402426 0.2535653109
0.2823943108 1.0013312851 0.7546303969
0.3123915215 1.0002443774 0.9961210871
0.2925834807 0.7523968847 1.0045246211
0.3027056432 0.5002512254 0.750221533
0.292592685 0.4992372121 1.0018553715
0.302346307 0.7508153364 0.2543117804
0.2924571976 0.7518566851 0.5037329031
0.3026563081 0.5022799028 0.2497712948
0.3023558795 0.7520389211 0.7539667663
0.3025392293 1.0014484368 0.2504036308
0.3125675079 0.750535474 0.9975753679
0.3125295862 0.5017950248 0.9996923589
0.3126705962 0.7509194713 0.5018128843
0.2924866514 1.002164364 1.0032820394
0.3325172951 0.7509064544 0.9967837974
0.3326649322 0.5027478588 0.9968298189
0.322391819 0.7489604341 0.2518938084
0.3324907867 0.7517069912 0.4959138427
0.3224742896 0.7495592096 0.7505280365
0.3324480787 0.5017637843 0.4958116749
0.3525727478 1.0002248521 0.4954711155
0.3424399082 1.000602341 0.7459939939
0.3625627364 0.7501189345 0.244781639
0.352534826 1.0021578556 0.9956424631
0.3624007406 0.7542648039 0.7421364681
0.362514874 0.9983504245 0.2440627825
0.3525631753 0.752051938 0.9926786756
0.3625627364 1.0000621414 0.7396881219
0.3525164174 0.5024315492 0.998053992
0.3425647187 0.7514466541 0.2444097849
0.3525694342 0.7510756736 0.4928985111
0.3426048494 0.7505159487 0.7466613063
0.3925687833 1.0028347322 0.4897441945
0.3726432955 0.751036623 0.9872849506
0.3725402072 0.5028012279 0.9902119208
0.3825544953 0.751218859 0.2408329905
0.3724997083 0.7522732246 0.4881187135
0.3825360866 0.50294181 0.2398794241
0.3823814543 0.7506070667 0.7389729471
0.3825397684 1.0041559434 0.2390234234
0.3826428566 1.0010188805 0.7377736257
0.3724223921 0.9997822789 0.9887300271
0.3723413942 0.502920983 0.4890492692
0.3925651016 0.7531323372 0.9865025844
0.3927344609 0.7531063035 0.4837816432
0.4126636304 0.7533536238 0.9846341097
0.4125899959 0.7528459663 0.4860182903
0.4125715873 0.5041081205 0.4839261509
0.4024284389 1.0063818262 0.2370086002
0.4027229768 0.5048670034 0.7387299534
0.4026456606 0.7507437437 0.2346550584
0.4026198886 0.5056063609 0.2387896339
0.4026125251 0.7534903008 0.7377386493
0.4324933934 0.7501124261 0.9826459789
0.4225159226 0.7526702387 0.2370840755
0.4324970751 0.7510886904 0.4810350774
0.4226079657 0.5015034471 0.2333066271
0.4224827871 0.7530867782 0.7301773096
0.4426659955 0.7506526257 0.2304901086
0.4426402235 0.7511147242 0.7332690369
0.4324860299 1.0013182682 0.4808408665
0.4225453764 1.0048458369 0.7347969522
0.4425849976 1.0005502736 0.2310101521
0.4524520167 0.999918956 0.9797650303
0.4624294875 0.9973351096 0.233368296
0.4723517325 1.0014874874 0.4842078027
0.4623742617 1.0001662763 0.7359171166
0.452488834 0.7492142628 0.9808787516
0.4524851522 0.7500408333 0.4797593602
0.472451139 0.7482184732 0.9820753118
0.462436851 0.7479451191 0.2326034179
0.4725873628 0.7521755981 0.4827332724
0.4625620296 0.7522016318 0.7322261887
0.4724658659 0.5014149325 0.4842611877
0.4825096077 1.0035051005 0.2345814239
0.4925238958 1.0009017288 0.4878646746
0.4926306657 0.9995219418 0.9874230152
0.4826053325 0.5029463659 0.7337936825
0.4925901668 0.7477824084 0.4839510025
0.4825096077 0.750899946 0.2358497777
0.4925018054 0.750808828 0.9838333348
0.4824948808 0.7513620445 0.7341462076
0.5124788374 0.9975108372 0.4850730077
0.5124604287 1.0008952203 0.9863921327
0.5025602741 0.9999514981 0.2338772943
0.5224010823 0.7492337881 0.7309891296
0.5224342178 0.9993397058 0.2365299761
0.5223863554 0.9995740092 0.7374174189
0.502549229 0.749337923 0.2321883036
0.5026707258 0.502320255 0.2313829266
0.5022730997 0.7502556115 0.7327968559
0.5025970914 0.5003696788 0.7342851926
0.512497246 0.7485959621 0.9858858957
0.512430975 0.500542803 0.9815782791
0.5124199298 0.7482054563 0.4869331986
0.5224820802 0.5016297107 0.2354153343
0.5223937189 0.7502035441 0.2342813635
0.5325994565 0.7487000969 0.4885559182
0.532433779 0.4981926092 0.4824856765
0.5324006434 1.0000816667 0.9861252077
0.542381796 0.9995414671 0.2385650488
0.5522782689 0.998858082 0.4892526844
0.5523739937 0.750535474 0.9916846102
0.5423192067 1.0010188805 0.7402661525
0.5423965229 0.7493249061 0.239268258
0.5523482216 0.7481078299 0.4869460846
0.5426579252 0.7496438192 0.7359686607
0.5324116886 0.7472747509 0.9841830985
0.5622962386 0.997113823 0.2381793883
0.5623146472 0.9973676517 0.738056198
0.562318329 0.7497089035 0.2398766628
0.5623551462 0.747639223 0.7375794148
0.5723952063 0.9995609924 0.4899255194
0.5724835677 0.9978037165 0.9911599646
0.5722810729 0.7504964234 0.9908930397
0.5723694342 0.7500278165 0.4888283658
0.6023607542 0.9987604556 0.2443407526
0.5923096489 0.7497414456 0.9951362261
0.5924385093 0.9973481264 0.4924116032
0.6024343887 1.0005177315 0.748083372
0.5924458727 0.9983634414 0.9927154928
0.6023128918 0.7472031582 0.2480556117
0.6023681177 0.4996856429 0.2428054739
0.5923317393 0.7487000969 0.493586073
0.6022760746 0.7481794226 0.7449023629
0.5823542685 0.9987734724 0.2409480444
0.5823763588 1.000237869 0.7437499834
0.5824499933 0.7488237571 0.240579872
0.5824573567 0.7466824839 0.740106918
0.6125407198 0.7473528521 0.9969034534
0.612271954 0.7500863924 0.4969566909
0.6125075843 0.9981096126 0.9947128279
0.6223561948 0.9991965203 0.2471029657
0.6224151023 0.7510105893 0.2479718524
0.6224408744 0.749520159 0.7484285336
0.642635128 0.9986888628 0.7480355096
0.652516874 0.9987604556 1.0003734778
0.6323888914 1.0006348832 0.9983117126
0.6323594376 0.7507307268 0.9954859898
0.6324993431 0.5011402768 1.0014319733
0.6323520742 0.7501449682 0.4984689588
0.6525352827 0.7496633445 0.9999961011
0.6525905085 0.4980259934 0.9987443151
0.6424399967 0.7504118138 0.2505674675
0.6425651753 0.5011376734 0.2522058345
0.6524432396 0.7514857046 0.5005923929
0.6425504484 0.7486219958 0.7485647574
0.6724570887 0.7518827188 0.9976490024
0.6726816739 0.4975150817 0.9937739884
0.6824934671 1.0011360322 0.246379507
0.6724607705 1.0000686498 0.497215332
0.6826591447 0.9992746215 0.7449189306
0.6826296909 0.7521105138 0.248571053
0.6725564953 0.7506656426 0.49592949
0.682548693 0.7495071422 0.7465812288
0.6625201169 0.7490971111 0.2465258555
0.662439119 0.7498976479 0.7502390212
0.7026545852 0.9995154334 0.2451672995
0.7026766756 0.4996465923 0.7422312725
0.6926108434 0.7497089035 0.994657602
0.6925482541 1.0010774564 0.4943040091
0.7024557722 1.0010318974 0.7398013349
0.6924856648 1.0006283747 0.9933413858
0.7025220432 0.7511928253 0.2413944533
0.7026803573 0.499498851 0.2422412498
0.6925740262 0.7518111261 0.4927880594
0.7027650369 0.7525791207 0.7436165209
0.7224548945 0.5011168465 0.7366129623
0.7325207266 0.746715026 0.9903868027
0.7225432558 0.7483811839 0.2410907111
0.722620572 0.4975118275 0.2371337788
0.7324839094 0.7474114279 0.4865585832
0.7225874365 0.7503467295 0.7408101272
0.7225322106 1.0022229399 0.7397755629
0.712672555 0.7508153364 0.9896964795
0.712540013 0.7473203099 0.4908698815
0.7424098361 0.4970087259 0.7338240568
0.7425718319 0.7469037705 0.2348916091
0.7424245629 0.4971388945 0.2353315751
0.7425092426 0.7489799594 0.7354964797
0.752505122 0.499954441 0.4851770164
0.7525750748 0.7479386107 -0.01416552
0.7624715476 0.4981151589 0.7384915618
0.7625672724 0.7493053808 0.2354374246
0.7625157283 0.4985037121 0.2374485661
0.7525640296 0.7497154119 0.4866616714
0.7625819993 0.7482119647 0.7391137731
0.7825811216 0.7481208467 0.2398334026
0.7824007172 0.4993790959 0.2413686813
0.7725889239 0.7502881537 0.4911441699
0.7825038054 0.7493249061 0.7416679688
0.7726036508 1.0004786809 0.4890087702
0.7725631519 0.4992346087 0.4883258105
0.7725999691 0.7474439701 -0.0075967333
0.7824412161 0.4999277564 0.7435346026
0.7725300164 0.498690504 -0.0108752557
0.7925917279 0.7466043827 0.4939496432
0.8125650782 0.5001562023 0.4958190383
0.8125650782 0.749110128 -0.0053374372
0.8025986525 0.5013615634 0.746246192
0.8024808374 0.7504508644 0.2435399777
0.8025434267 0.5010081557 0.2441575869
0.7924996849 0.4998203674 0.4925275775
0.7925070483 0.7499627322 -0.007125365
0.8125208975 0.7498520889 0.4938014538
0.7925917279 0.5008897023 -0.0045996198
0.8025581536 0.7513295023 0.7462784071
0.832490566 0.4994630546 0.5011777869
0.832516338 0.7491296533 -7.0336226793e-04
0.8225204586 0.5004575426 0.7495348915
0.8325200198 0.5007328491 7.3250070945e-04
0.8225756845 0.7513295023 0.2472760067
0.822461551 0.4994083838 0.2466178986
0.8326194263 0.7481989479 0.4986659311
0.8225204586 0.7509975724 0.7467045666
0.862654927 0.7482119647 0.7511971897
0.8625886559 0.4989052822 0.7582780645
0.8527069099 0.7493444314 3.5578055726e-05
0.8524749614 0.5020879041 0.005670999
0.8626438818 0.7499236816 0.254729656
0.8625592021 0.5002714015 0.2570804365
0.8526332755 0.7486285042 0.5032091779
0.8425527164 0.7488302655 0.2525104971
0.8425748068 0.5003195639 0.2487726273
0.8425674433 0.7498000215 0.7530675053
0.8525449141 0.4995372507 0.5049000094
0.8726250343 0.4989482378 0.5057017047
0.8827313654 0.7490385352 0.7511152714
0.8926830642 0.4976667281 0.5048585901
0.8726360795 0.7494095157 0.0077702257
0.8924879328 0.7498585973 0.0057039504
0.8825325524 0.5003755364 0.7565835513
0.8725256278 0.4976413453 0.0063049918
0.8926352018 0.4989319668 0.0032254141
0.8827424106 0.7475676302 0.2528133189
0.882550961 0.4991883989 0.2535413797
0.8727060322 0.7494941253 0.5064297656
0.8926388835 0.7504768981 0.5034899093
0.882683503 0.9993722479 0.2515394426
0.8827055934 1.0005437652 0.7532359441
0.9126159154 0.7506656426 0.5082374918
0.912674823 0.9986823544 0.005649737
0.9125975068 0.4979238111 0.5074947041
0.9025169478 0.7497804962 0.7556336666
0.9125717348 0.7488237571 0.0076825086
0.9124944186 0.4991864463 0.0066602781