POSCAR file written by Ovito 3.7.11
1
271.5920706555 0.0 0.0
0.0 15.3635675902 0.0
0.0 0.0 10.8636828262
Sr Ti O 
800 800 2400 
Direct
0.0223364632 0.5000481659 0.7857894591
0.0124866175 0.24993178 0.5398102601
0.022394786 0.2504498888 0.7858106306
0.0023388249 0.2510428501 0.7882876911
0.0124310194 0.2517002495 0.0394290278
0.0224220327 -0.0014452506 0.2860464082
0.002451052 -8.5697575401e-04 0.2872531813
0.0024812444 0.4992104698 0.2868932665
0.0123676155 0.4984424191 0.5372991411
0.0124148186 -8.2872710685e-04 0.5385878385
0.0224258988 0.0010708968 0.7861272819
0.002365593 0.0021026233 0.7890885245
0.0224767472 0.2497124299 0.2808501961
0.0024005719 0.2491617766 0.2889109984
0.0323191921 0.5007244411 0.0363147064
0.0423132247 0.4995970988 0.2840903496
0.0324425388 0.5015764568 0.5391180455
0.0322227239 0.2509074648 0.5347935452
0.0423839189 0.2498614838 0.7846563259
0.0323236105 0.2478710607 0.0346207136
0.052415876 0.4987444322 0.0365607555
0.0423209568 -6.7043054027e-04 0.7881772313
0.0423110155 0.2498998864 0.2890923366
0.0523127802 0.2493518366 0.5345928766
0.0522483453 0.249367458 0.0361114604
0.0623075492 0.2511515488 0.2847742797
0.062423532 0.4985250822 0.7854820127
0.0724451795 0.4996934306 0.0337368513
0.0624496741 0.4990594632 0.2860749436
0.0725199239 0.4995241991 0.5313996685
0.0725637396 0.2493720142 0.5354553833
0.0625026948 0.2483403528 0.7856072005
0.0725427523 0.2505637947 0.0370248707
0.0925665327 0.2522242163 0.5318359846
0.1026345734 0.253123747 0.7801440439
0.0826244163 0.2520204876 0.7834495528
0.0926762561 0.2518154571 0.0303983886
0.1024924484 0.0021313927 0.2799996558
0.0925194032 2.600825008e-04 0.5320725526
0.1025844983 0.2533059963 0.2790045973
0.0826299393 0.2509328496 0.2815663437
0.1024861891 0.5035122051 0.7764151059
0.082581337 0.5017587061 0.7820964205
0.1025182224 0.5041826223 0.2775594152
0.0824808186 0.4998685201 0.2822935372
0.1224709404 0.2516449238 0.2769472839
0.1125034182 0.5006313638 0.0259815623
0.112586263 0.2533990736 0.528117172
0.122555258 0.5037198391 0.2727102309
0.1124798534 0.5024395375 0.5247591948
0.1225615174 0.2514307808 0.7745023107
0.1125726396 0.2531582442 0.0269051901
0.1225670404 -2.1702022661e-04 0.2717621178
0.1526890538 0.2534107897 0.5136552255
0.1326111481 0.254228959 0.521381887
0.1424741017 0.250710245 0.772647507
0.1526128366 0.2507479967 0.0154182016
0.1327370722 0.2512081763 0.0212618921
0.1426055489 0.0012446195 0.2680193723
0.1425470052 0.2492815404 0.2692463964
0.1426320592 0.5008969271 0.7660825141
0.1525966358 0.4998802362 0.0155872051
0.1324241029 0.5031001914 0.0227070742
0.1526268282 0.5012679347 0.5175323637
0.1324079021 0.5013623138 0.5216773669
0.1826619466 0.2493570437 0.2612472674
0.1724676136 0.4993868612 0.5109784169
0.1824406588 0.4974140121 0.7617340808
0.172647663 0.2489593496 0.5094439465
0.1626013462 0.2507011326 0.7622016939
0.1725961152 0.2498738508 0.0109789152
0.1824583324 0.5009327261 0.2596069397
0.1625659991 4.9844873308e-05 0.7616098136
0.1626366933 0.2478092261 0.2664002161
0.1825312358 0.2519117889 0.7589596994
0.1825257129 -0.0010938348 0.2553413512
0.1925127496 8.5297864596e-04 0.0062210443
0.2025892588 0.2515075859 0.2571630171
0.2024110504 0.5008591754 0.7557434788
0.192413704 0.5013505978 0.006144827
0.2025332926 0.5004985821 0.2545929862
0.1923963987 0.5011169281 0.5072135794
0.1926257868 0.2508625534 0.508437842
0.2026706309 0.2507479967 0.7572705853
0.1926979539 0.2490478707 0.0065057544
0.2025881542 0.0030939946 0.2559387545
0.2126635589 0.2496232579 0.5070847097
0.2226432316 0.2529304325 0.754670178
0.2125578857 0.2513090643 0.0067145234
0.2226082527 0.0014368925 0.7525272583
0.2226572232 0.2492945582 0.2534294765
0.2326888121 0.249563376 0.5014862399
0.2327352052 0.2510630277 1.0004100475
0.2326085447 1.8360286851e-04 0.5020845637
0.2225294581 0.5015907764 0.7560610507
0.2125611995 0.5026061655 0.0037506113
0.2125394757 0.4997077502 0.5048939241
0.2425455064 0.5018934404 0.7495227523
0.2625519815 0.2502279352 0.7397470619
0.2625814374 -8.4330705377e-04 0.2408011624
0.2625957972 -9.9066866017e-04 0.7393807036
0.2525826182 0.2487406504 0.4917197545
0.2425668619 0.2496870452 0.7499866834
0.2526569945 0.2501895326 0.993672001
0.2626156799 0.2489840835 0.2413350513
0.2426972045 4.9856877546e-04 0.2444619835
0.2623851872 0.4979431861 0.2400334669
0.2524857818 -4.8323443603e-04 0.4953768937
0.2427145098 0.0016093785 0.7464188325
0.2525590535 -0.0019439889 0.9941046351
0.2426379244 0.2499161586 0.2482535154
0.2724311359 0.2483514179 0.4853232128
0.2724974117 0.248041594 0.9872193089
0.2725868842 -0.0019566162 0.4888330723
0.2725187673 -0.0027737246 0.988701311
0.2823828255 0.2471349036 0.7353038173
0.2725069849 0.4993692871 0.4869819505
0.2823655202 0.250871015 0.2338339118
0.3124632324 -0.0011440835 0.48420941
0.2925738447 0.5002245572 0.4798664997
0.29243577 0.250045035 0.4854649695
0.3023988738 0.2508163402 0.7329832415
0.2924184646 0.2492275165 0.9842737148
0.2924269332 -0.0017255891 0.4848703277
0.302521116 0.0015366089 0.7334121936
0.3125766378 0.4982549626 0.4777696049
0.3024040286 0.2504778771 0.2329520746
0.3125074163 0.2485108861 0.4821198792
0.3125353995 0.2478066226 0.982184184
0.3224918757 -5.4676134762e-04 0.2339572586
0.3325720669 -9.4100571596e-04 0.4796326932
0.3226270049 -0.0010989117 0.7314349636
0.3324752305 -0.0032731528 0.9825984082
0.3225069719 0.2486976916 0.230491583
0.3225931305 0.4989579243 0.7271748981
0.3223843616 0.498977451 0.2306683187
0.3325551298 0.2499265729 0.4774805685
0.3225857665 0.2482544352 0.7326767156
0.3325941589 0.2472058506 0.978723111
0.3625674198 0.251055217 0.2176828512
0.3525579229 0.4997793481 0.4721527252
0.3525214712 0.2495529617 0.4719704666
0.3426710363 0.2484191105 0.7282905419
0.362497462 0.5000878702 0.7196820431
0.3525152118 0.2495640269 0.9708528517
0.362453278 0.5011058629 0.2198929673
0.3426231704 -3.2916865762e-04 0.2257270846
0.3426135972 0.2492190549 0.2270369534
0.3625711018 0.250603499 0.7167999634
0.3423982006 0.4991701146 0.7290591578
0.3425112378 0.5003358595 0.2245727799
0.3826747815 0.248779053 0.2124792751
0.3925830237 0.2492555048 0.4615743604
0.3925793417 0.2484425426 0.9624671135
0.3926087976 0.0012053708 0.9615558204
0.3825827317 0.4974341897 0.7173412163
0.3925903876 0.5007478732 0.9619240196
0.3726045317 0.249147457 0.4677002756
0.3826784635 0.2526759343 0.714498718
0.3725824397 0.2488610652 0.9686712711
0.3925535677 0.5013258639 0.4636740167
0.3725382558 -0.0010977401 0.4671516587
0.4127382513 0.5006801806 0.9611600062
0.4025980436 0.2501615444 0.710498233
0.4024912658 9.2496713388e-04 0.7097259351
0.4026311815 0.2502904207 0.2123439619
0.4125210137 0.2494091149 0.460043572
0.4125872896 0.250383498 0.9574227836
0.4124547378 2.6457364517e-04 0.4606280883
0.4125651976 -0.0024648966 0.957754163
0.4424703417 -1.5075957497e-04 0.712013373
0.4425145256 0.2521298372 0.2102433851
0.4226796313 0.4995997024 0.7094700366
0.4325805095 0.502846995 0.9623566538
0.4326467854 0.5001581664 0.4581390613
0.4424961156 0.4991961502 0.7122793969
0.4424887516 0.5016454512 0.2100712519
0.4324295478 0.2496818381 0.4617262426
0.4225802175 0.2500176976 0.7100536324
0.4324700497 0.2518961675 0.9594570846
0.4224734398 0.0020699486 0.2092234731
0.4325363256 0.0019747884 0.9596319792
0.4225213057 0.2517197762 0.2094692462
0.4425771195 0.2525522651 0.7082954809
0.4723497118 0.248570768 0.4549265227
0.4624488336 0.2489228998 0.7056941531
0.4723386658 0.2520035644 0.9558671418
0.4725301294 0.0017899355 0.9531608772
0.4624414697 0.2496323704 0.2035255896
0.4525037716 0.5001314799 0.9562905709
0.4524964076 0.5010505372 0.456052292
0.4624230597 0.4980069733 0.70254697
0.4725117195 0.5009763357 0.9499483386
0.4624267417 0.5016350369 0.2031113654
0.4523896298 0.2531432737 0.4573290229
0.4523601739 0.2493928427 0.9584537416
0.4524006758 0.0016345029 0.4599137817
0.4824825555 0.2502891189 0.7023057994
0.4826151072 -7.6188065377e-04 0.6979582866
0.4924165716 0.5045666477 0.953234517
0.4925123034 0.5012855087 0.4545380725
0.4824346896 0.2483976311 0.2062935275
0.4924349815 0.2501595917 0.456015472
0.4923024298 0.2477975101 0.9509056567
0.4824089156 0.4976170899 0.1988881199
0.5023321777 0.2502650359 0.702532242
0.5123987455 0.2503789418 0.4557098666
0.5123140597 0.2514756922 0.9564930805
0.5023321777 8.1177727809e-04 0.7004344267
0.5023689976 0.2511053356 0.2004805817
0.5222591218 0.25085279 0.2045381375
0.5224064015 0.2513364017 0.7060651139
0.5124024275 0.5000429588 0.4521134804
0.5224248114 0.5016890608 0.7044855391
0.5424548513 0.5015523738 0.7099220012
0.5523741394 0.4994096423 0.9625591633
0.5423112536 0.4979666181 0.2088138515
0.5523483655 0.4995743176 0.4634089132
0.5323330536 0.0019734866 0.4547166491
0.5322925517 0.2528295445 0.4599837396
0.5324398314 0.2499363362 0.9586378412
0.5324287854 0.4995437258 0.9573491438
0.5523667754 -7.420284939e-04 0.9611784161
0.5423370275 0.2526616147 0.2131512388
0.5525471931 0.2495672813 0.4597453306
0.5423996214 0.250787701 0.7133968817
0.552576649 0.2491025455 0.9618043549
0.5724925471 0.250591783 0.4636537657
0.5723894513 0.2506724934 0.965228608
0.5624333433 0.4991538424 0.7116368892
0.5625364391 0.4975220599 0.2141057954
0.5724262712 0.5021954536 0.9605432724
0.5724336352 0.5007439678 0.4619453212
0.5624075693 0.251316875 0.2110976074
0.5625106651 0.2492203567 0.7116258433
0.602493423 0.5001529593 0.7212008651
0.592522587 0.5014937937 0.9664804855
0.592522587 0.5033416718 0.4637080751
0.5823676513 0.2519807833 0.7141912716
0.602497105 0.2522528555 0.2170200925
0.5924599931 0.250157639 0.4664327497
0.602482377 0.2518493034 0.7196084033
0.592478403 0.2508586481 0.9665541253
0.582500203 0.500493375 0.7153566223
0.5824707471 0.4995984006 0.2127333326
0.5823786973 0.2512687091 0.2102719205
0.6125010789 0.501485983 0.9682478419
0.6125857647 0.5018062211 0.4720330604
0.6226081487 0.4991095818 0.7259349871
0.6125121249 0.002902047 0.4743554773
0.6226302406 0.4994363288 0.2268252389
0.612434803 0.2509133229 0.4729774915
0.6124200751 0.2493596473 0.9716444801
0.6225860567 0.0014234191 0.7270368234
0.6223467272 0.2499103006 0.2243371324
0.622442459 0.2495620742 0.7224343326
0.6424798628 -6.8546611053e-04 0.2291181998
0.6525648406 0.0013000753 0.4780393109
0.6325200728 0.5000338463 0.4731615912
0.6426050506 0.2508046242 0.2244586381
0.6525022467 0.2517627349 0.4761357207
0.6425093188 0.2503294741 0.7239678825
0.6325348008 0.0025462052 0.4764459286
0.6524396529 0.2507824939 0.9771398541
0.6424393609 0.5005786416 0.7251691326
0.6524875188 0.5014768705 0.473248118
0.6323727931 0.2506178186 0.4758982322
0.6325163908 0.2511632648 0.9760076414
0.6824883946 0.4991212978 0.7357235645
0.6625246307 0.0010418671 0.2306609547
0.6824994406 0.5006945002 0.2330708189
0.6625909065 0.0022751744 0.7320277644
0.6724291908 0.5017587061 0.480210766
0.6625135847 0.2532916767 0.228530922
0.6626093165 0.2520393634 0.7295111224
0.6725727885 2.4615344437e-04 0.9848352187
0.6625467226 0.501996932 0.7261467017
0.6625430406 0.4985420053 0.2298444728
0.6824258008 0.2519013746 0.2390126344
0.6724586468 0.2508267544 0.4864250491
0.6824552567 0.2511300694 0.736698372
0.6725948805 0.2504921967 0.9839699504
0.7024558406 0.2506718425 0.2412706164
0.6925144606 0.2500866919 0.4886590981
0.7026620322 0.2492893511 0.7404033771
0.6926028284 0.2517497171 0.98919838
0.6924776406 0.5014794741 0.9828377377
0.6924003188 0.4990835462 0.4832143515
0.7324162146 0.4980655535 1.0013765706
0.7323646667 0.5001731369 0.5029065686
0.7126512782 0.250876873 0.4958730422
0.7125371364 0.2511945076 0.9933958515
0.7224637885 0.0018359535 0.2464539415
0.7325745403 -5.6244780837e-04 0.5023054833
0.7326076782 -0.0012630663 1.0037146359
0.7124193127 0.4998294667 0.9924569434
0.7226110682 0.2491884631 0.2504249706
0.7325156284 0.2472833066 0.5008336067
0.7225190184 0.2478307055 0.7473503767
0.7325855862 0.2512348628 1.0044418294
0.7124045847 0.4989462083 0.4903307228
0.7124414046 -4.3721647856e-04 0.4921174097
0.7125260904 0.0019777174 0.9938192807
0.7525272583 0.5000689944 0.0051475593
0.7424864644 9.7430463284e-04 0.252962784
0.7425048744 -0.0011603558 0.7532351214
0.7425564223 0.2479257355 0.2549298885
0.7425821962 0.2501355087 0.7550439002
0.7625054583 4.095920458e-04 0.2588917126
0.7526303541 -0.0017358732 0.5070607767
0.7625790981 -5.8340648208e-04 0.7603699026
0.7525235763 7.3542782389e-04 0.0085164905
0.7625349142 0.2509523763 0.2554858694
0.7524867564 0.2505774634 0.5061191071
0.7623876345 0.2500665143 0.7556192116
0.7524683464 0.2498211286 0.0058233891
0.7825612721 -0.0024865842 0.2607096965
0.7824913142 -0.002958981 0.7590747617
0.7724578843 -0.0020257212 0.0080744673
0.7825796821 0.2496082874 0.2588944741
0.7725167962 0.2491611257 0.5058935851
0.7825502261 0.250145923 0.7568628046
0.7724983863 0.2505514278 0.0087085985
0.7923737824 -0.0010937046 0.5127328864
0.7924290123 -0.001424357 0.0133190976
0.8124627342 0.4983962058 0.0139797391
0.7925100161 0.2510565188 0.5082693908
0.7923701004 0.248980829 0.0069363634
0.8023225265 -0.0010241244 0.2651492591
0.8123927763 -0.0024661593 0.5175627402
0.8024329863 -0.0017675065 0.764160514
0.8122454966 -0.0019550736 0.016385277
0.8024035303 0.249664264 0.2606369771
0.8123780483 0.2475514735 0.5124410885
0.8024513962 0.2498100635 0.7598231267
0.8124295962 0.2477252613 0.0144948499
0.8323528583 -0.0025776048 0.5210716792
0.8224004322 -0.0015626061 0.7694119559
0.8324044062 -0.0017261098 0.0191229305
0.8223047004 0.250115982 0.2691350161
0.8324301801 0.2519026764 0.5183203102
0.8223304744 0.2492092916 0.7662979107
0.8323749503 0.2473516501 0.019883262
0.8224041142 -3.3086097289e-04 0.2700343428
0.8424046982 -0.0012543444 0.7719147904
0.842456246 0.2483846133 0.2684667344
0.8423200123 0.2471056135 0.7698261801
0.862442102 -0.0031976626 0.2770632667
0.8424120621 0.4973996925 0.7718687655
0.8524086721 -6.296197067e-04 0.5277544958
0.862449466 -9.13017425e-04 0.7752700062
0.8523828982 -3.1244077209e-04 0.0222689171
0.8625488798 0.2494182274 0.2785866911
0.8424452001 -0.0015849968 0.273894912
0.8524307641 0.2493635526 0.5232219628
0.862427374 0.2479608836 0.7759723463
0.852474948 0.2485297619 0.0250210225
0.872405574 -0.0022584471 0.5280748291
0.8925460737 -7.5387470078e-04 0.5302619327
0.8723650721 -0.001155409 0.0330056996
0.8824390039 0.2491350901 0.2810637517
0.8925055717 -0.0021110139 0.0326014168
0.872438712 0.2456365537 0.5283767525
0.8924650698 0.248327335 0.5305785841
0.8824831878 0.2499532594 0.7812606082
0.872409256 0.2453547181 0.0266135763
0.8924061579 0.2490667465 0.0316092119
0.9024948177 -5.0529962356e-04 0.2830419022
0.9126497534 0.0010131628 0.5328779885
0.9026052775 -0.0012074803 0.7807414472
0.9026052775 0.2506692389 0.2792245964
0.9125503396 0.250829358 0.5294868733
0.9024690438 0.2479205284 0.7821801859
0.9026126415 0.4978038955 0.7806383514
0.9125098377 0.2497085246 0.029517748
0.9224917196 -0.0027828956 0.2808023302
0.9227052752 -6.0612256009e-04 0.7848661995
0.9225837695 0.2483162698 0.2855751131
0.9224917196 0.2488486982 0.7842770807
0.9425880354 5.6105426227e-04 0.2836917739
0.9325325135 -3.6809190878e-04 0.5355575586
0.9426506292 -8.0894003603e-04 0.7820761696
0.9326761112 0.0020625284 0.0349474905
0.9425659434 0.2501446212 0.2835564607
0.9325214675 0.2492743806 0.5311667824
0.9425659434 0.2488447929 0.7854083729
0.9324920116 0.2511886495 0.0351696067
0.9526141013 -5.8028220774e-04 0.5317687882
0.9524925955 2.4647888961e-04 0.0318857295
0.9625039335 0.2486039634 0.2856625604
0.9527024691 0.2504375219 0.5345836716
0.9725557733 0.2514255737 0.5346876879
0.9624229296 0.2502324914 0.7875420876
0.9526104193 0.2494781093 0.0313849785
0.9725705013 0.2487816565 0.0377477379
0.9626696231 -5.164298509e-04 0.2878597895
0.9824934714 0.4974823556 0.7860398346
0.9825008354 0.5001581664 0.2870939351
0.9825266093 4.5547982518e-04 0.2869687473
0.9925821312 -0.0010776276 0.5380962925
0.9824824254 0.2494559791 0.2900468932
0.9925195373 1.8537040855e-05 0.0414174879
0.9924569434 0.24885 0.5394144459
0.9824934714 0.2506737952 0.7895819115
0.9925416293 0.2527618518 0.0363789572
0.0124798058 0.7494472705 0.035700458
0.0024985498 0.4994089914 0.7873570675
0.0123143371 0.5000013018 0.0339615449
0.0225080809 0.7500200541 0.2879702493
0.0024967088 0.7488419423 0.2874556909
0.012322327 0.7505342576 0.5344860988
0.0224385281 0.7497987513 0.7871610014
0.022289886 0.4976964986 0.2870442282
0.0024382387 0.7512111837 0.7878615005
0.0124004957 1.0004696959 0.0380427576
0.0522063706 0.99985135 0.5354406554
0.0523658009 1.0002874466 0.0355985588
0.0324418024 0.7499354383 0.0349760259
0.0423791323 0.4991186943 0.7834937367
0.0422753001 0.7496685732 0.2875440587
0.0323950411 0.7503324815 0.5337248468
0.0424052745 0.7472082072 0.7848717225
0.0521975338 0.7489460848 0.0340591177
0.052341868 0.7475206346 0.5344133794
0.0524438592 0.4988466221 0.540096535
0.0423868645 1.0013418892 0.2846895939
0.0324193423 0.999988037 0.5325963161
0.0323188239 1.0007951412 0.0340939125
0.0725129281 1.0011661487 0.5342633382
0.0624592473 1.0017975125 0.7879848472
0.0725055641 0.9996105205 0.0330684776
0.0722897994 0.7505212398 0.0356773535
0.0622567377 0.7474815812 0.2863216371
0.072381481 0.7463945941 0.5344907013
0.0623565197 0.7503324815 0.7847741497
0.0624202182 1.000261411 0.2852575413
0.082538994 0.9987057827 0.2815322852
0.1025296366 0.9991548971 0.7750113462
0.0824903917 1.0015306474 0.7839705548
0.0925768423 1.0008602302 0.0294384931
0.0924111527 0.7474815812 0.0293955058
0.0926442228 0.5022377615 0.0315473544
0.1025086492 0.7510224254 0.2756751555
0.0823906097 0.7493756725 0.284126249
0.092428458 0.7517644406 0.5307010104
0.1024456871 0.7500525986 0.7768983674
0.0824038649 0.7521094126 0.7850843575
0.0925823653 0.5011774609 0.5313011752
0.1124654937 1.0017194057 0.0249362446
0.1124146822 0.7534827915 0.0263041969
0.1224584216 0.5022260455 0.7739196354
0.1224429573 0.7519662167 0.2724616964
0.1124750668 0.7538668169 0.5261316575
0.1225246975 0.7509768631 0.7733599725
0.1125361879 1.0019862707 0.5242087369
0.1225519442 1.0002679199 0.7761490819
0.1525167366 1.0041277005 0.5131728845
0.1325743282 1.0008407035 0.5205341082
0.1426073899 1.0011531309 0.7680615851
0.1525668117 1.0019862707 0.0130235257
0.1324874331 1.0009578638 0.0183060805
0.1524618749 0.7519466899 0.0136008621
0.1325375082 0.7501111788 0.0195689119
0.1425989213 0.7497922424 0.2660844852
0.1524718163 0.7498833671 0.5141688635
0.1325956837 0.7525194736 0.5187971282
0.1424958255 0.5016532618 0.2670510083
0.1425860343 0.7496620643 0.7666559845
0.1724889692 0.7503324815 0.0086830087
0.1625199741 0.5010062767 0.7647192563
0.1725309439 0.5003039659 0.0103779219
0.1625284427 0.7487182731 0.2597707883
0.1824925749 0.9992785663 0.7574896638
0.1724039151 0.7490957896 0.5092782568
0.1624872044 0.4976971495 0.2638007293
0.162589932 0.7511591124 0.7592192799
0.1824170941 0.7502413569 0.2580586618
0.1824587006 0.74879638 0.7581689915
0.1625137148 0.9977815182 0.2614746304
0.1725449355 0.9983933553 0.5074280555
0.1726060565 0.9990637725 0.0098462422
0.1925874941 1.0008472124 0.5050964337
0.2025575937 1.0012377467 0.7538730266
0.1924792435 0.7481845429 0.0055664781
0.2025281378 0.7496490465 0.250457188
0.1924214362 0.7492324766 0.5060528313
0.2025656941 0.7507360336 0.7575025508
0.2326869711 0.7501241966 1.0008610916
0.2325360094 0.500903436 1.0014318004
0.2326726113 0.7505928377 0.4997115195
0.2325838753 0.5010895907 0.4993009773
0.2226410225 1.0011140775 0.2534791835
0.2125681952 1.0015827186 0.5033060648
0.2124857186 1.0033466319 0.0057458831
0.2124963964 0.7526171071 0.0058604852
0.2325448462 1.0014460316 1.002628448
0.2225228305 0.7510159165 0.2504709955
0.2125873416 0.7520443235 0.5058282297
0.2225673826 0.4995294062 0.255699425
0.2225817424 0.7535413716 0.7512781423
0.2526039738 0.7506318912 0.9912050659
0.2526488941 0.4985094608 0.9948318287
0.2426106776 0.7521354482 0.2458648227
0.2525899822 0.7483017032 0.4919185821
0.2426305604 0.5025553961 0.2484210461
0.2425436654 0.7516212447 0.7460405078
0.2525557397 0.4969551343 0.4930176569
0.2624687684 0.499352364 0.7360310108
0.262704416 0.7499940185 0.2375425989
0.262479078 0.7517449139 0.7395519163
0.2824159635 0.4997643776 0.7334904359
0.2823975535 0.7495904664 0.2352781734
0.2823890849 0.4982328323 0.2322699855
0.282548147 0.7489070314 0.7339792205
0.2725438048 0.7483082121 0.985194213
0.2725095623 0.4982126547 0.9874678434
0.2725084577 0.7486401663 0.4866478096
0.2825437286 0.9994673246 0.2322175171
0.2824163317 0.9987057827 0.7334931974
0.3124812742 0.9981004545 0.9836293661
0.2924125734 0.7487052553 0.9847891938
0.302511911 0.4980440741 0.7299161416
0.292432088 0.4999231949 0.9847523739
0.3025277435 0.7498508226 0.2302375255
0.2925543301 0.749069754 0.484484639
0.3025907056 0.5006131388 0.2308717488
0.3024559447 0.7498703493 0.7328396437
0.3025763459 0.9999554924 0.2320518274
0.3125041026 0.7484579169 0.9804168276
0.3125037344 0.4987554974 0.9777657929
0.3125044708 0.7506058555 0.4841578621
0.2924169918 0.9994543068 0.9865749602
0.33252236 0.7476833572 0.981668705
0.3326129371 0.4998151471 0.9784101416
0.3224977669 0.7481064361 0.2358028574
0.3324785443 0.74927153 0.4775523674
0.3225298003 0.7497922424 0.7321225757
0.3326015229 0.4999088753 0.4792810629
0.3525527681 0.999708154 0.4711613487
0.3425049784 0.9968897982 0.729985179
0.3625305999 0.749069754 0.2239017367
0.3525133708 0.9995128869 0.971690505
0.362468006 0.7492194588 0.7229157531
0.3625342819 0.9995975027 0.2222218276
0.3524334715 0.7487377998 0.9780787622
0.3626999716 0.9981264902 0.7209468076
0.3524725007 0.5006899439 0.9734026316
0.3425193382 0.7501502322 0.2290896643
0.3525170528 0.7493366191 0.4767708644
0.3424633719 0.7488549601 0.7308817442
0.3926492995 1.0003134822 0.4623595453
0.3725235279 0.7498312959 0.9710185414
0.3724977539 0.5008513648 0.9683306868
0.3825827317 0.7505342576 0.2168074574
0.3725566658 0.7494537794 0.4710306379
0.3825753677 0.4981696959 0.2131447953
0.3826121876 0.7500135452 0.7192033841
0.3826232336 1.000534785 0.2141619457
0.3825937777 1.0004241336 0.7143146184
0.3725124819 0.9993761999 0.9680637423
0.3727481294 0.5002811847 0.4660424584
0.3926898014 0.7493561458 0.9645474394
0.392439426 0.7494928328 0.4650593664
0.4125394237 0.7482366142 0.9598436938
0.4124952398 0.7480543648 0.4603611438
0.4126867034 0.5017242089 0.4640505004
0.4025980436 0.9991548971 0.2091525948
0.4024802198 0.4985843132 0.708489706
0.4025943616 0.747839571 0.2138627838
0.4026311815 0.4970286849 0.2098742653
0.4025354497 0.7494407616 0.7106344667
0.4326026015 0.7524478756 0.9576897281
0.4225618076 0.7501176877 0.211810073
0.4326467854 0.7488484512 0.4598106859
0.4226170375 0.5015888237 0.2111371888
0.4225875815 0.7507230158 0.7091681132
0.4425292536 0.7492324766 0.2092483266
0.4425918474 0.7496034842 0.7074044387
0.4325584175 0.9970980832 0.4620944419
0.4225544436 1.0000856705 0.7090659379
0.4424924336 0.9991939506 0.2110276495
0.4523601739 1.0003004644 0.9589508106
0.4625335195 1.0025330188 0.2066331913
0.4725964053 1.0013093446 0.4529262802
0.4623310099 0.9994477978 0.7073169914
0.4524779976 0.7482170874 0.9554713276
0.4524632697 0.7517709495 0.4577957155
0.4724123057 0.7478265532 0.9498839038
0.4626218873 0.7481194539 0.203794375
0.4724233517 0.7475596881 0.4516403443
0.4624966995 0.7494342527 0.7047239481
0.4725706314 0.5021140923 0.4526041059
0.4824383716 0.999844841 0.2022065157
0.4923981616 1.0023572783 0.4534730561
0.4925159854 1.0006128918 0.9551215383
0.4825561953 0.5026146271 0.6993767743
0.4923613417 0.7520313057 0.4516173319
0.4824715095 0.7504105884 0.2031362188
0.4923687057 0.7490502273 0.9487148711
0.4824530996 0.7516472803 0.7020802774
0.5123987455 1.0012377467 0.4533497094
0.5123361517 1.0039454511 0.9540261454
0.5023174497 1.0033921942 0.2002338882
0.5222517578 0.752760303 0.703254833
0.5224542674 1.001009935 0.2064223973
0.5224432214 1.0032620161 0.7045849529
0.5023100858 0.7510094076 0.2045436605
0.5024094996 0.5027057518 0.2012326287
0.5023395417 0.7505928377 0.7036856262
0.5023579517 0.4996680459 0.7043686358
0.5123214237 0.7525455092 0.9541458102
0.5123619256 0.5006255058 0.9507215571
0.5125386613 0.7517774584 0.4539194977
0.5223364436 0.5029609008 0.2066681703
0.5224653134 0.7521875194 0.2003250175
0.5324950613 0.7511005323 0.4587226571
0.5323256896 0.5014358644 0.4562170611
0.5322999156 1.0004306425 0.954228655
0.5422744337 0.9985560779 0.2100979464
0.5523520475 0.9989661389 0.4603408929
0.5525435111 0.7486792197 0.9609206766
0.5425063992 1.0018626016 0.7084657731
0.5422854796 0.7533721401 0.2094020498
0.5524367333 0.7500200541 0.4614491726
0.5422744337 0.7521679927 0.7103003259
0.5323514635 0.7493105835 0.9569349196
0.5624222973 0.9985040066 0.2121930002
0.562580623 0.9982501594 0.7121127868
0.5624186153 0.7519792345 0.2090826369
0.5624664812 0.7499940185 0.7124229947
0.5725109571 1.0002483931 0.4603565413
0.5725698689 0.9985170245 0.9638662707
0.5725956429 0.7527993565 0.9620897093
0.5724189072 0.7526171071 0.4627774515
0.602456603 1.0008472124 0.218798495
0.5924526291 0.7514845577 0.9680545373
0.5925262689 1.0002288664 0.4653115829
0.602500787 1.0012377467 0.7193626302
0.592511541 1.0009188104 0.9628629277
0.6025228789 0.7521745016 0.2185481195
0.602475013 0.5004758009 0.2233070949
0.592482085 0.7500851431 0.4679156722
0.6024124191 0.7523242064 0.7192171915
0.582514931 0.9998253143 0.2146765042
0.5824744291 1.0021164488 0.7120593979
0.5824744291 0.7526105982 0.2125299025
0.5824191992 0.7516277536 0.7162946099
0.6125526268 0.7490892807 0.9754185226
0.6125673548 0.7514455043 0.4733953977
0.6123132973 1.0011336042 0.972703053
0.6226044667 0.9999424746 0.2231165518
0.6223393632 0.7512632549 0.2268114314
0.6225087349 0.7519727256 0.7288732172
0.6424835448 1.001081533 0.7278128033
0.6526090245 1.0026046167 0.9750135034
0.6325495287 1.0005087493 0.9763390207
0.6325937126 0.7507425425 0.9789532355
0.6325532107 0.5028359299 0.973734011
0.6325348008 0.7499679829 0.4760712858
0.6525906146 0.7529100079 0.9786494711
0.6524801548 0.5020034409 0.9747833788
0.6426234605 0.7504756774 0.2264588806
0.6425093188 0.5018849789 0.2234037472
0.6525648406 0.7519987612 0.4778708597
0.6424688169 0.7498573315 0.7266005072
0.6724917847 0.7516212447 0.981171636
0.6725175586 0.5010921942 0.9814661955
0.6825325786 1.0010750241 0.2353177548
0.6725359686 0.999298093 0.4809186291
0.6824847127 1.0000140726 0.7366882465
0.6825141686 0.7514194686 0.2373916372
0.6725359686 0.7516733159 0.4834187021
0.6825546705 0.7486987464 0.7340952032
0.6626240445 0.7494407616 0.231995677
0.6625909065 0.7525455092 0.729706268
0.7023895648 1.0009578638 0.2400675253
0.7024889786 0.4986799941 0.7391045542
0.6925586445 0.749479815 0.988682901
0.6924997326 0.9991939506 0.4903390072
0.7024263847 1.0003460267 0.7378232208
0.6924923686 1.0001507596 0.9862711958
0.7025442085 0.7499810007 0.2361416007
0.7024374307 0.5003352086 0.24074133
0.6924776406 0.748861469 0.4886526546
0.7025515724 0.7501372144 0.7377440579
0.7224601065 0.5004959786 0.7470392483
0.7324714445 0.7512046748 1.000640172
0.7225116544 0.7491413519 0.2452738629
0.7223275548 0.5006632574 0.2476192922
0.7324861724 0.7505472754 0.5013067428
0.7224527426 0.7478070264 0.7472730548
0.7225300644 1.0016998789 0.7478161487
0.7124156307 0.7516993516 0.9940678152
0.7124782245 0.7499484561 0.4952526264
0.7425011924 0.4995560927 0.7525705217
0.7424275525 0.7493301102 0.2541723186
0.7424864644 0.4976235988 0.2529324075
0.7423796866 0.7469413421 0.7550705947
0.7524241625 0.4981306425 0.5083117337
0.7524830744 0.7480673826 0.0047082056
0.7624870483 0.4992059136 0.7572797903
0.7624465464 0.7496880999 0.2570590008
0.76263801 0.5006079317 0.2540664613
0.7525861702 0.7496034842 0.505172835
0.7625128223 0.7500460897 0.7575301658
0.7825502261 0.7459064262 0.2587610019
0.7824876322 0.4990002322 0.2572532259
0.7725793901 0.7495579218 0.5070626177
0.7824949962 0.7485620594 0.758674345
0.7724026544 0.9980874367 0.5083365872
0.7725204782 0.4988121249 0.5025982017
0.7725241602 0.7521745016 0.0090915257
0.7824397663 0.499168162 0.7525944546
0.77263462 0.4995860336 0.00829014
0.7924032384 0.7485295149 0.511146868
0.8122454966 0.4989364449 0.5123343107
0.8122823165 0.7492975657 0.0130923789
0.8023593464 0.4997533125 0.7614478059
0.8023888024 0.7494017081 0.2626703575
0.8023151625 0.4983740756 0.2598573152
0.7924842422 0.4958857212 0.5096234436
0.7924437403 0.7503780439 0.0101825002
0.8124222322 0.7493626547 0.514910785
0.7924952882 0.4973495739 0.0113531897
0.8022525686 0.7489135403 0.763412149
0.8324559541 0.5009053887 0.5182503523
0.8324449081 0.7486011128 0.0197322083
0.8223231104 0.4995860336 0.7659959873
0.8324301801 0.4999537868 0.0168284048
0.8223599303 0.7473318764 0.2663192122
0.8222973365 0.4977121199 0.2666487506
0.8322792184 0.7470064311 0.5192463313
0.8223341564 0.7484644258 0.7686718754
0.8623758261 0.7496946089 0.7759833923
0.8625967457 0.4984730109 0.774613691
0.852449174 0.747286314 0.0219308181
0.8525191319 0.4989644332 0.0217932957
0.8624752399 0.7495579218 0.274401186
0.8625046959 0.4982334832 0.2750713087
0.852449174 0.7495383951 0.5197958687
0.8424010162 0.7512957995 0.2673271577
0.8425740698 0.4974543673 0.2689932594
0.8423973342 0.7509378097 0.7694395709
0.852467584 0.4970833597 0.5221928459
0.87243503 0.4963764927 0.5291729834
0.8825384177 0.747631286 0.782365206
0.8925755296 0.4988388114 0.5316905459
0.8725197158 0.7472537695 0.0294351793
0.8926454875 0.7456005077 0.0296327182
0.8824831878 0.500885862 0.7787936731
0.8725049878 0.4970117618 0.0291982431
0.8924945258 0.4984684547 0.0324599363
0.8825347357 0.7490762629 0.2809486894
0.882391138 0.4997585196 0.2785857706
0.872442394 0.7454898563 0.5298237756
0.8925423917 0.7482626498 0.5333953085
0.88241323 0.9993176198 0.2795587372
0.8824316399 0.9993306376 0.7805242097
0.9126718453 0.7471105736 0.532877068
0.9124803817 0.9994412889 0.033832307
0.9126350254 0.4997760937 0.529608379
0.9025316376 0.7498117691 0.7814493103
0.9126644813 0.7483342477 0.0306942367
0.9126939373 0.5006202986 0.0315731283
0.9025537296 0.7495514129 0.2820753791