POSCAR file written by Ovito 3.7.11
1
271.5997307122 0.0 0.0
0.0 15.3640009084 0.0
0.0 0.0 10.8639892285
Sr Ti O 
800 800 2400 
Direct
0.0225613491 0.4999004166 0.7777180624
0.0126317 0.2513199835 0.5260462371
0.0224768865 0.2479712464 0.7773452712
0.002564422 0.2476464612 0.7749428388
0.0127102715 0.2507042584 0.0260425197
0.0224797952 -0.002174736 0.2749174903
0.0025894957 8.5944112357e-04 0.2754265114
0.0025713808 0.5006886227 0.273172275
0.0124122963 0.5002557927 0.5248137248
0.0126245572 -0.0016884629 0.5261023859
0.0225287275 -0.0015858855 0.7747412554
0.0025445398 8.8964159042e-04 0.7745995027
0.02249062 0.250727039 0.2760929333
0.0025453498 0.2493699706 0.2752534626
0.0324380525 0.5000969799 0.0254907886
0.0426232614 0.4966278315 0.2727479373
0.0324888626 0.4990620933 0.5232387969
0.0324328979 0.2502102465 0.5269298904
0.0425411553 0.2514456018 0.7733789565
0.032548141 0.2489384423 0.0264535105
0.0525293832 0.4990607915 0.0193546449
0.0425209049 3.3542397153e-04 0.7712655524
0.0424538946 0.2473249303 0.2758453263
0.0524910915 0.2488069662 0.5185959351
0.0524502226 0.2500820247 0.0189327004
0.062492206 0.2511650759 0.2673429246
0.0623040615 0.4996146837 0.7705954486
0.0726107728 0.4980219996 0.0153886984
0.0625327068 0.5012854725 0.2679817323
0.0724108462 0.5000657381 0.5144924701
0.0725271939 0.2512900433 0.5172474434
0.0624899969 0.2491616915 0.7671722125
0.0725054707 0.2505949119 0.0176496542
0.0924226481 0.2512991556 0.5129534406
0.102370007 0.2504374009 0.7666714756
0.0824388385 0.248359817 0.7644153983
0.0925945923 0.2494610927 0.015191165
0.102467577 0.0025584126 0.2602331974
0.0924646216 -1.0944712948e-04 0.5130859886
0.1025198599 0.2502375831 0.2651411551
0.0825058488 0.2493179008 0.2642216034
0.1023339245 0.5016252277 0.7646574825
0.0824082788 0.4997604791 0.7644871951
0.1023777389 0.5008975527 0.2646661915
0.0824491478 0.5004406404 0.2654697637
0.1225798945 0.2509379215 0.2594940582
0.112379958 0.5005721166 0.01143481
0.1125611069 0.2502714285 0.511995229
0.1225463893 0.4995665192 0.2608664822
0.1125559523 0.499373861 0.5119446031
0.1226693644 0.2522149326 0.7593362327
0.1124561731 0.2497019153 0.0126137508
0.1224977884 -0.0018626168 0.2543541415
0.1526977447 0.2497845761 0.5012634437
0.1325972093 0.2484659092 0.5076036562
0.142669016 0.2509717669 0.7566226807
0.1527084221 0.2489905121 0.0029631522
0.1325972093 0.2481398222 0.0080092728
0.1424805033 0.0014482201 0.2557753505
0.1425508274 0.2492339383 0.2520851775
0.1424919172 0.5006346003 0.7530273163
0.1526152703 0.5005024733 0.0029408767
0.1325486083 0.5031808121 0.0051478009
0.1525261686 0.5019968757 0.5039512225
0.1326148823 0.5025364487 0.5027113465
0.1827010881 0.2489716368 0.2552608066
0.1725979853 0.5000214788 0.5034716565
0.1826234002 0.4990640459 0.7539247767
0.1726186039 0.2506059767 0.5043534689
0.162655781 0.2499017331 0.7553174511
0.1726108719 0.250380775 0.002383807
0.1825670674 0.5001750846 0.2537383456
0.162616753 -0.0013006082 0.7555779448
0.1626075483 0.2509724177 0.2541838541
0.1826337095 0.2520997283 0.7546105285
0.1825085253 -0.0011291034 0.2531648914
0.1924102288 -2.6168612073e-04 0.0030960683
0.2026565571 0.2503664558 0.2542013431
0.2025597234 0.5008090341 0.7520727866
0.192457357 0.5008832335 0.006264978
0.2025512551 0.499974616 0.2520538815
0.192510008 0.5032341836 0.5014033555
0.192609419 0.2508402907 0.5067457761
0.2026433023 0.2490848886 0.7554858975
0.1926631746 0.2474596609 0.0045261139
0.2024628897 0.0034773139 0.2535505692
0.2124949321 0.2501894186 0.5041012595
0.2225792572 0.2502193587 0.7522237441
0.2125578924 0.2502818424 0.0043786543
0.222329257 3.4212795447e-04 0.7490416717
0.222652895 0.2498301372 0.2545897824
0.2324765425 0.25264581 0.5012809327
0.2324205778 0.2525156356 1.0038845238
0.2325188842 0.0011860488 0.5039871209
0.2224632777 0.4992202552 0.7492331299
0.2124249762 0.5028254359 0.0046940081
0.2125332237 0.499979823 0.5059725795
0.2425450355 0.5011253579 0.750291673
0.2624029344 0.2527955106 0.7490315465
0.262417662 0.0022618753 0.2447011496
0.2625273823 6.5194308846e-04 0.7465941362
0.2525328952 0.2512783276 0.4976146919
0.2424934891 0.2507433108 0.7497854132
0.2525015991 0.2527740318 0.9987574937
0.2624257621 0.253200353 0.2451807156
0.2423020308 0.0013569678 0.2488920595
0.2623657474 0.4983135903 0.2454402887
0.2524113929 0.0018048329 0.4963324742
0.2424051237 0.0020781992 0.7487563253
0.2525155903 0.0012415031 0.9968521162
0.2424518837 0.2523542193 0.248676669
0.2725045645 0.2512444823 0.4943111172
0.2725284968 0.2528130841 0.9923786214
0.272513401 -3.7773662155e-04 0.4960020247
0.2724441815 3.0457263256e-04 0.9949283294
0.2825793167 0.2506717148 0.7414229234
0.272453018 0.5011455349 0.4955924145
0.2823977996 0.2505552087 0.2436831073
0.3125557824 5.8490325905e-04 0.493889541
0.2923595179 0.50120151 0.4919988911
0.2925509761 0.2517118085 0.4932415285
0.302486553 0.249978536 0.7391788122
0.2926529644 0.2510147244 0.9890557168
0.2924622426 -0.0011976402 0.4925999594
0.3025163763 -2.5205321321e-04 0.7452456444
0.3125049723 0.5007829992 0.4894694335
0.3025270537 0.2506567448 0.2406243782
0.3125694054 0.2497396659 0.4886318038
0.312508286 0.2524049873 0.991531787
0.3225719926 7.1221384772e-04 0.2435358318
0.332463755 6.2818625571e-04 0.4930721617
0.3225734654 7.3981082604e-04 0.744182499
0.3326588951 0.0014658587 0.9892398112
0.3225874565 0.2509450811 0.238612226
0.3225841428 0.500661937 0.7419282626
0.3225904021 0.5006365529 0.2377074018
0.3325311336 0.2515067838 0.4857286345
0.3224873092 0.2513889759 0.7411541455
0.332687982 0.2493940528 0.9892858348
0.362468203 0.2517235242 0.2347453223
0.3523466908 0.5022058056 0.4869832381
0.3526611241 0.2514371404 0.483493728
0.3426419683 0.251485305 0.7391604027
0.362567614 0.50176126 0.7343141166
0.3525720224 0.2520652321 0.9846558597
0.3625823416 0.5016916167 0.2362143959
0.3426231907 0.0041086599 0.24097876
0.3424854881 0.251474891 0.2421993062
0.3625160676 0.2517423995 0.73781007
0.3425668578 0.5033728194 0.7382758289
0.3425701715 0.5014937515 0.2400223894
0.382497678 0.2513714024 0.2313994059
0.3925713256 0.2498997805 0.4794602189
0.3925492343 0.2514957189 0.9777891371
0.3924719146 -2.1280562376e-04 0.9816551203
0.3824792685 0.4985160115 0.7331552421
0.3925823713 0.4998919552 0.9795288295
0.3724387578 0.2514091529 0.4853871393
0.3825418606 0.2527785879 0.7314192316
0.3725271231 0.2514312826 0.9828425294
0.3926228721 0.4989592555 0.4800916628
0.3725050318 -0.0017797803 0.4864843422
0.4125971187 0.4994474096 0.9775314049
0.4026192001 0.2492196191 0.7249464711
0.4025639718 4.8688191623e-04 0.7274704059
0.4026192001 0.2502883511 0.2292869222
0.412586073 0.2500364636 0.4754718128
0.4127038935 0.2509216497 0.9762151297
0.4126155281 0.0021520732 0.4738232471
0.4125492541 -7.3122527548e-04 0.9746503269
0.442611876 -5.9564861075e-04 0.7240388855
0.4427517878 0.2487360211 0.2209907063
0.4225897648 0.4976171571 0.7268205525
0.4326450031 0.4992554023 0.9775129954
0.4325603196 0.4992384796 0.4748992791
0.4425897847 0.4981098673 0.727679353
0.4425419201 0.4960355379 0.2247029707
0.432549274 0.2490582028 0.4750815326
0.4227075853 0.2469519806 0.7240002257
0.4326302755 0.2492482575 0.9724043748
0.422748086 -6.48889951e-04 0.2256832736
0.4324609086 -4.5759863193e-04 0.9765096808
0.4227112672 0.248644899 0.2265052552
0.4426965594 0.250823368 0.7225652095
0.4725309042 0.2487002231 0.4708961456
0.4624351652 0.2494890802 0.7224980151
0.4725566774 0.2524440396 0.9673417777
0.4724830396 0.001404872 0.9699927376
0.4625272124 0.250507695 0.2195520083
0.4525235206 0.4979510545 0.9730395006
0.4524830198 0.4992430357 0.4723366846
0.4625750769 0.4965679513 0.7217846491
0.4724867215 0.5030747199 0.9718889103
0.462571395 0.5013460036 0.2234989931
0.4525824308 0.248614308 0.4725244609
0.4525198387 0.2472819728 0.9707383201
0.4526118859 -9.1587769882e-04 0.471906824
0.4824940952 0.250803191 0.7205889557
0.4825493235 9.8785819487e-04 0.7213023217
0.492597198 0.5006547774 0.9686488482
0.4925088327 0.4986045302 0.469971071
0.4824167755 0.2505207125 0.2227396035
0.4925603791 0.2533324801 0.4701846206
0.4924278311 0.2495014467 0.9737574689
0.4825787787 0.4994155168 0.2208802497
0.502394704 0.2497155837 0.7224473891
0.512394714 0.2503970468 0.4730831875
0.5124830793 0.2483975676 0.9729842722
0.5024572962 -0.0021336595 0.720679162
0.5023873403 0.250747216 0.2224965988
0.5223763144 0.2502271692 0.22201151
0.5224536341 0.2494259456 0.7190103459
0.5124499423 0.5003430096 0.4722952633
0.5224204971 0.4992436866 0.7224446277
0.5423431973 0.5011930486 0.72628944
0.5523542528 0.5015952876 0.980209979
0.5423100603 0.5024537879 0.2273318393
0.5523726623 0.5013290809 0.4802361769
0.5323468692 0.0020552234 0.4692871602
0.5323763243 0.2522533341 0.4744279974
0.5323137322 0.2514774945 0.9729014298
0.5324610078 0.5035218691 0.9722663039
0.552350571 0.0035578919 0.978553129
0.5424094713 0.2510388067 0.2242528598
0.5524315725 0.2520274815 0.4790598135
0.5423100603 0.2480408897 0.724603135
0.5523984355 0.2546394313 0.9762979721
0.5724315923 0.2524381818 0.4825438007
0.5723800459 0.2498900174 0.9818392148
0.5624426281 0.5031892734 0.7341889324
0.5625199478 0.5000715959 0.2340724572
0.5725935954 0.4989215049 0.9830450333
0.5724647293 0.4993471753 0.4837569831
0.5623984454 0.251709205 0.2289270176
0.56244631 0.2518035815 0.7309994962
0.6024389859 0.4987744078 0.737328663
0.5925015681 0.4992749284 0.9859813396
0.5926193885 0.5000188753 0.4854690613
0.5823616464 0.2504491166 0.7345295071
0.6025199874 0.2498600773 0.2362806699
0.5925199775 0.2513141256 0.4832387572
0.6023727119 0.2498639825 0.7404352567
0.5923727019 0.2528879344 0.9821981989
0.5824831487 0.5011637594 0.7321712573
0.5826009691 0.4990106744 0.2344369641
0.5824463298 0.2500221444 0.230105222
0.6126083627 0.4986064828 0.9870398827
0.6125347249 0.5004113512 0.4880187693
0.6227004198 0.5029588647 0.7378395251
0.612497906 -3.2586211277e-04 0.4894823201
0.6225678718 0.500453007 0.2414399166
0.612431632 0.2496745787 0.4878392772
0.612497906 0.2505493509 0.9864139616
0.6225384167 9.7790556787e-05 0.7383200116
0.6225494624 0.2500690072 0.2395998927
0.6225531442 0.2516135268 0.7411099628
0.6424206161 -3.9719769825e-04 0.241988518
0.6523727614 7.8947236958e-04 0.4899223058
0.6326047006 0.5011051809 0.4904718277
0.6424132523 0.2522194887 0.2407063003
0.6524390354 0.2510388067 0.4897151996
0.642490572 0.2514416965 0.7409856991
0.6324758345 3.0307562666e-04 0.4898376224
0.6524905819 0.2488186819 0.9926823772
0.6425126633 0.5012392605 0.740443541
0.6524500811 0.4995144494 0.4895071729
0.6324611069 0.2501197753 0.4912367401
0.6326452014 0.2512776768 0.9909702989
0.6825716132 0.498473054 0.7436145677
0.6625237288 0.0018367256 0.2414159843
0.6825016573 0.4991226244 0.2445041685
0.662383817 -5.1051453612e-04 0.7432601859
0.6724169639 0.500427623 0.492349591
0.6623801351 0.2537633574 0.2411021033
0.6624316816 0.2500416706 0.7403468914
0.6724501009 4.7087617843e-05 0.9925074875
0.6625090012 0.4990985421 0.7426867317
0.6624537729 0.4996979953 0.2432394397
0.6823359723 0.2500117305 0.2428924217
0.6724942836 0.2493654145 0.4942908668
0.6823212447 0.2497702569 0.7425615475
0.6723285986 0.2491415144 0.9916514483
0.7023249465 0.2501965782 0.2445833291
0.6924022562 0.2477720795 0.4910636913
0.7025421779 0.2506697622 0.7438594133
0.6924501208 0.2483116525 0.9927007866
0.6923838468 0.499139547 0.9942471799
0.6924169838 0.4991174174 0.4946369644
0.7324943431 0.500585134 1.0013532253
0.7324501604 0.5009789117 0.4969363039
0.7124538225 0.2486169115 0.4957120759
0.7124170036 0.2490054822 0.9931978416
0.7226452906 6.8494230546e-04 0.2529191253
0.7325458895 -3.7773662155e-04 0.5011345776
0.7323470675 -0.0022738313 1.000469572
0.7123507296 0.5006645404 0.9989323834
0.7225053788 0.2516903297 0.2439123049
0.7325348439 0.2483474504 0.5009293123
0.7223949222 0.2480727824 0.7427005388
0.7324059778 0.2499577081 1.0000093359
0.7124280493 0.502285212 0.4985397665
0.7124648681 -7.6741376592e-04 0.4976956935
0.7125937342 1.0501523743e-04 0.9980211159
0.7525127724 0.5014612079 -5.6565288239e-04
0.7424575341 3.6289077543e-04 0.2518707075
0.7423838963 9.1059967301e-04 0.7547228261
0.7424096696 0.2481678097 0.2463221011
0.7423691688 0.2522578902 0.747028599
0.7622440044 -9.3006671126e-04 0.2515365761
0.7523802244 -0.0010311472 0.4974131085
0.7623875981 -0.001148174 0.7483181806
0.7525459094 -1.1602093799e-04 0.0024840464
0.7624060075 0.2497591921 0.2507182763
0.7523618149 0.2495964741 0.4999057472
0.7624465083 0.2497409677 0.7511836105
0.7524170432 0.2484659092 -0.0010508982
0.7824465281 -0.0019048128 0.249403842
0.7823802541 -0.0025258099 0.7522403126
0.7724502001 -0.0035805547 0.0033775487
0.7825091202 0.2490256592 0.2490595854
0.7724281087 0.2470697885 0.5010692241
0.7824281187 0.249810611 0.7497191392
0.7723912899 0.2482231339 1.8653661598e-05
0.792380264 -9.1756996636e-04 0.4995983095
0.792446538 -0.0015609571 -6.7039341334e-04
0.8123618744 0.4998984639 -0.0051766663
0.7924502199 0.2504243834 0.4971618196
0.7924686294 0.2478371667 -0.0022608037
0.8023913196 -0.001693019 0.2508057212
0.8125165137 0.0012262727 0.4976662384
0.8023360913 -0.002659089 0.7499962014
0.8124060571 3.2422897089e-04 5.6545096368e-04
0.8024575936 0.248670283 0.2438736451
0.8125312413 0.2481443783 0.4971829905
0.8024723212 0.2500208427 0.7461477071
0.8125496507 0.2512679137 -0.0024441525
0.8323839856 -0.0020551447 0.4964272828
0.8224207945 3.3874913599e-05 0.7525109314
0.8325459887 7.8263821221e-04 0.0042947072
0.8224281583 0.2489983226 0.2492584074
0.8326269902 0.2496706735 0.4991886994
0.8226012071 0.2492951203 0.7481847121
0.8325128517 0.2492300331 -0.0010058227
0.8224428859 1.6229198489e-04 0.2496035845
0.8424208144 -5.2626564167e-04 0.7528192896
0.8425349529 0.2488121731 0.2505084086
0.8425864994 0.2490900955 0.7542635105
0.8624539712 -0.0010887493 0.2574561328
0.8425791356 0.5008519916 0.7497605605
0.8524797345 -0.0013981089 0.5069215863
0.8625018358 -0.0023024762 0.7560685564
0.8525165534 -6.8429739489e-04 0.0037013709
0.8626748845 0.250487518 0.2557090765
0.842498134 -3.8652339531e-04 0.2524865034
0.8524797345 0.2492079034 0.5043543893
0.8626086105 0.2489286793 0.7551398
0.8525423266 0.250268825 0.0040951489
0.8725313008 -1.0515137342e-04 0.5074582216
0.8925165931 -6.0964236155e-04 0.5097308674
0.8725497102 0.0013355541 0.0100500517
0.882487128 0.2487334176 0.2561186867
0.8925239568 -0.0016813684 0.0098472717
0.8725202551 0.2498425037 0.5078172057
0.8925644576 0.2493179008 0.5071461815
0.8825791752 0.2485759066 0.758829973
0.8725165732 0.2487535947 0.0048493838
0.8925865489 0.2496049354 0.0081818613
0.9026233777 -0.0037142504 0.2609198696
0.9126012963 -0.0019170883 0.5136318286
0.9026454691 -0.001843722 0.7575891765
0.9024797841 0.2495515639 0.2623180669
0.9125534318 0.2487659612 0.5129792138
0.9025202849 0.2471915015 0.7622136288
0.9026233777 0.499491018 0.7597670137
0.9125828869 0.2481189943 0.0145929501
0.9225718511 -9.282442693e-04 0.2667133216
0.9225313504 -0.0028690799 0.7666245316
0.9225018952 0.2470203222 0.2626190613
0.9224687582 0.2480506528 0.7648056785
0.942505597 -0.0011470675 0.2719167509
0.9325534516 -0.0013246254 0.516913312
0.9426270993 -0.0017353908 0.7708338509
0.9326160437 -0.0021806524 0.0145252954
0.9424982332 0.250467341 0.2705434064
0.9324282674 0.2495847584 0.5175438354
0.9424982332 0.2475006658 0.7717460389
0.9325019052 0.2495079555 0.0211179014
0.9524319691 8.4258133077e-06 0.5212036329
0.9524172415 -0.0010955835 0.0226582196
0.962398842 0.2484574478 0.2715421188
0.9525129707 0.2515731727 0.521794576
0.9726013558 0.2498620299 0.5218829413
0.9625350719 0.2488896269 0.772071886
0.9525645171 0.2471596088 0.0197388499
0.9725498094 0.248863592 0.0239150323
0.962465116 -0.0029828263 0.273521134
0.9824651358 0.4984034107 0.7704923557
0.9824909091 0.5009157771 0.2742271361
0.9826381846 -1.7674159114e-05 0.2719784226
0.9925130103 -4.284395605e-04 0.5257378789
0.9825424555 0.2500579424 0.2753528736
0.9924356906 -9.0657022736e-04 0.0241878602
0.9927081504 0.2500149848 0.5255326136
0.9825130004 0.2509301111 0.7746897089
0.9926455583 0.2504790567 0.0227803662
0.0125973112 0.7493881654 0.0245044106
0.0025289286 0.4993562875 0.7764533337
0.0124868914 0.5012900286 0.0251655858
0.0225827408 0.75089168 0.2742252952
0.0024832732 0.7503579649 0.2733177096
0.0125573259 0.7496420055 0.5260186229
0.0225234624 0.7483662962 0.7729914377
0.0226220634 0.5008285602 0.2761481616
0.0025477799 0.7498958457 0.7725882709
0.0125858237 0.9980864064 0.0229864599
0.052521283 1.0014839589 0.5206449062
0.0525117101 1.0002342844 0.0190662609
0.0326361381 0.7485029793 0.0215687487
0.0424988136 0.4997468107 0.7757049898
0.0424399034 0.7491473427 0.272312554
0.0325731778 0.7467326071 0.522687434
0.0424807723 0.7494142003 0.7711643004
0.052302947 0.750169212 0.0172328644
0.052450959 0.7505337004 0.517242841
0.0524712093 0.5005285082 0.5221517192
0.0425750287 0.9995313425 0.2730130333
0.0325234723 0.9987828396 0.5254856695
0.0324479936 1.0013082234 0.026715661
0.0724399331 1.0011650316 0.5163886428
0.0626148129 1.0007940344 0.7690002703
0.0725146755 0.9989390489 0.0179516611
0.0725529671 0.7490887642 0.0127294542
0.0624911015 0.7514579388 0.2668615176
0.0723755001 0.7493230782 0.5128521886
0.0625238703 0.7508981888 0.7633200364
0.0624719556 1.0017638339 0.2654973779
0.0824922259 0.9999934617 0.26357175
0.1024638951 1.0007484734 0.7629592113
0.082568441 1.0013342583 0.7636118261
0.0923298645 1.0011845577 0.0148779283
0.092445844 0.7481645258 0.0140217051
0.0924200708 0.5004282739 0.0162004628
0.1023596977 0.7502993864 0.2607072406
0.0823685144 0.7539703052 0.2625988109
0.0924841356 0.7529224011 0.511219271
0.1022974738 0.7522324766 0.7629334381
0.0823633598 0.7512822033 0.7627631507
0.0923486421 0.4997051549 0.5132120933
0.1123424027 1.0019981479 0.012779804
0.1124256134 0.7534756424 0.0113537164
0.1224068457 0.5012789637 0.7595378161
0.1223928545 0.7496745492 0.2571321266
0.1124760553 0.7517052702 0.5083243859
0.1225158296 0.751685744 0.7575293458
0.1124108859 0.9999283745 0.513603294
0.1224215733 1.0010999443 0.7574428214
0.1525685104 0.9997721652 0.502412193
0.1325681223 0.9985875779 0.5057516661
0.1425442 0.9999479007 0.7514358199
0.1524871406 1.0004751071 0.004693916
0.132440729 1.0017052554 0.0055159897
0.1523251375 0.7509242236 0.0023494734
0.132405751 0.7502473166 0.0020457175
0.1425261587 0.7521153196 0.2527635655
0.1523936206 0.7483793136 0.5038564139
0.1324263696 0.7509242236 0.5037735714
0.1424690895 0.5014520957 0.2531906646
0.1425327861 0.7503514562 0.752954599
0.1724127863 0.7503970172 0.0040624721
0.1625029827 0.4997363968 0.7545727891
0.1725582209 0.501618719 0.0027253021
0.1625044554 0.7495443747 0.2539307243
0.1825346667 0.999824235 0.7529858951
0.1725736848 0.7490822555 0.5034974297
0.1625519518 0.5013720385 0.2541304667
0.1625420107 0.7496615317 0.7551968693
0.1823384221 0.7489130288 0.2560938339
0.1824580834 0.7492384648 0.7551867441
0.1626171212 1.0006443338 0.2524377184
0.1724860559 0.998001793 0.5055417985
0.1725619028 0.997487604 0.0056106143
0.192582173 1.0010934356 0.5039153241
0.2025678236 1.0018289211 0.7513207609
0.1924871803 0.7494662701 0.0039904912
0.2022585449 0.7487698369 0.2559557631
0.1924536751 0.7499023544 0.5020035034
0.2024547896 0.7510478893 0.7561854564
0.2325472347 0.7488284154 0.9992269345
0.2325299298 0.5008708669 1.0025958627
0.232385968 0.7523431249 0.497909243
0.2324227869 0.5042287162 0.5025410591
0.222475428 1.0003319152 0.2497168026
0.2125008231 0.9997591477 0.5023201458
0.2125899248 0.9998632873 0.0029496212
0.2123546521 0.7519721278 0.0038217686
0.2325836854 0.9986917175 1.0011415167
0.2225214516 0.7493946741 0.2518651847
0.2124069349 0.7510023283 0.4995771387
0.2224386091 0.5007426451 0.2516829312
0.222395531 0.752434247 0.7550928559
0.2523587419 0.7533389592 0.9986378323
0.252478035 0.5026646705 0.9978278168
0.2423602047 0.7506573661 0.251573395
0.2524062382 0.7521738981 0.4976377037
0.2424360516 0.5015972402 0.2517639327
0.2423399543 0.7504360695 0.7501554431
0.2521941614 0.5018185367 0.4947731943
0.2624519036 0.4991590732 0.7457473017
0.2622611817 0.7500780899 0.2449137787
0.2624110346 0.7503449474 0.7458559175
0.282437564 0.5013974225 0.7419393083
0.2823676081 0.7486722061 0.2432541673
0.2824891105 0.4990770633 0.2407523239
0.2824383004 0.7501561945 0.7414956407
0.2723952124 0.7513733254 0.9943484319
0.2723499251 0.5006150742 0.9944496838
0.2724092036 0.751477465 0.4985259594
0.2823775492 0.9990171535 0.2448649936
0.2824051634 1.0009632612 0.7451581995
0.3123753698 1.0013798194 0.9939342194
0.2924427286 0.7482556479 0.994541731
0.3024165971 0.4970437388 0.7398618025
0.2923801365 0.5011409788 0.9930689755
0.3024239609 0.7516922528 0.2425233124
0.2924158508 0.7512496597 0.4935121474
0.3023908239 0.501333637 0.2385523953
0.302400765 0.7494142003 0.740474837
0.3025115898 0.9994987989 0.2443964733
0.3124872993 0.7495313573 0.9914213303
0.312494663 0.5018152824 0.9935015975
0.3124722035 0.7492319561 0.4925925957
0.2924467787 0.999824235 0.9952136757
0.3327446831 0.7511390114 0.9904732439
0.3325775254 0.50385837 0.9913937161
0.3226128616 0.7496420055 0.2438672018
0.3325193515 0.7501106335 0.4895863335
0.3223554976 0.7511650463 0.7428818718
0.3324740643 0.5033194479 0.492482139
0.3524210649 0.9999479007 0.4894482626
0.3425723806 1.00208927 0.7392340405
0.3625455227 0.7496745492 0.2357900583
0.3524832888 1.0025123369 0.9904824487
0.3625271132 0.7525774389 0.7368325285
0.3625123857 1.0013798194 0.235037112
0.3526810063 0.7512496597 0.988715142
0.3625639321 1.0012756798 0.7381018597
0.3524891799 0.5009170788 0.9890741262
0.3425300389 0.7516922528 0.2403298271
0.3526386645 0.7517182876 0.4895301847
0.3426014676 0.7519460929 0.7412231809
0.3925345068 1.0001236361 0.4816104419
0.3724866224 0.7512171161 0.9842968755
0.3723393468 0.5000872169 0.980707034
0.3825381787 0.7502668428 0.2304430353
0.3725013499 0.7502212817 0.4860756525
0.3824498134 0.499384275 0.2320713506
0.3825124055 0.7498958457 0.7295911738
0.3825344968 1.0016662031 0.2315540452
0.3825455425 1.0010413658 0.731885911
0.3724755767 0.9989325401 0.9868005599
0.3724608491 0.5000624837 0.4842328672
0.3925381886 0.7495964445 0.9830266239
0.3925050516 0.7486722061 0.4824416283
0.4127002116 0.749140834 0.9745398703
0.4126670746 0.7509437498 0.47755208
0.4126265738 0.5003456131 0.4788020812
0.4024019687 1.0015360287 0.2264399017
0.4025971088 0.4981658423 0.7291290967
0.4026265639 0.750286369 0.2317896861
0.4027296568 0.4993478261 0.2263496954
0.4025750174 0.750052055 0.7255769945
0.4326192299 0.7494011829 0.9741900908
0.4225529459 0.7501627033 0.2260275302
0.432449863 0.7502993864 0.4772704155
0.4226118562 0.5000071596 0.2276208675
0.4223504421 0.7505857701 0.7267257438
0.4425271926 0.7489195375 0.2251770139
0.4424940556 0.7509437498 0.7224796056
0.4326891857 0.9983011942 0.4768810558
0.4226229018 0.9991538367 0.7269291682
0.4425308744 0.998913014 0.2232210105
0.4524867017 0.9992189239 0.9719165245
0.4626008502 1.0020502176 0.2225996917
0.4724425389 1.0007029123 0.4708179054
0.4625971683 0.9983923163 0.717899336
0.4524867017 0.7493621305 0.9728646109
0.4525897946 0.7516076394 0.473513048
0.4724904034 0.7535277122 0.9707567295
0.4625456218 0.7499218806 0.2230976672
0.472604542 0.7507029271 0.4731273702
0.4625603494 0.7498633021 0.721390687
0.4725198585 0.501481385 0.4702785087
0.4824388669 1.0030851043 0.2202248735
0.4925161965 1.0019851304 0.4717844012
0.4925382878 0.9993035373 0.9724503984
0.4826119157 0.5023294714 0.7217487507
0.4925787886 0.7491863951 0.4730362434
0.4825714149 0.7499674416 0.2167556138
0.4926340169 0.7480994386 0.9710696901
0.4825198684 0.7508331015 0.7183678563
0.5123026667 0.9994467291 0.4714327809
0.5123836683 1.0007745083 0.966504148
0.5025014788 0.9997461303 0.221350611
0.5225456813 0.7510153457 0.7224243773
0.5223652688 0.9958669324 0.2205166632
0.5223799963 0.9989846099 0.7205963195
0.5025419796 0.7483597875 0.2215052503
0.5025419796 0.5016525643 0.2189076778
0.5024572962 0.7494597614 0.7189643223
0.5025567071 0.5008812809 0.7189054121
0.5124793974 0.7485680665 0.9736009886
0.5124757155 0.501414996 0.9695417062
0.5125198982 0.7476763717 0.4710075227
0.5223615869 0.5025676906 0.2236886103
0.5225530451 0.7497396364 0.2202442034
0.5325420093 0.7505597353 0.472817171
0.5324646897 0.5014917989 0.472304468
0.5324094613 1.00066386 0.9699835329
0.5423652886 0.9989846099 0.2248327573
0.5523800261 1.000898174 0.479076382
0.5525898937 0.7529744709 0.9794367823
0.542449972 1.0012626624 0.7249851309
0.5424241988 0.7525644214 0.2284143146
0.5525125741 0.751523026 0.4824729244
0.5424573358 0.7507549969 0.7289376385
0.5324278708 0.7506052963 0.976003421
0.5625494029 1.0015685723 0.2332090542
0.5624978564 1.0029093689 0.729650084
0.5626083131 0.7519265667 0.2322600474
0.5624720832 0.7503644736 0.7353376817
0.5724536837 1.0003188978 0.4800824581
0.5725972773 0.9970645371 0.9823454745
0.5725825498 0.7507029271 0.9836801591
0.5724168648 0.7516532004 0.4837551421
0.6024205764 1.001178049 0.2355093142
0.5923506106 0.7499674416 0.9854474658
0.5925531145 0.9989325401 0.4820034835
0.6025126236 0.9997656565 0.7367404813
0.5925089318 1.0009111914 0.9844073322
0.6024978961 0.7498047236 0.2371588004
0.6025273512 0.5021029679 0.2353537544
0.5924978862 0.7489520811 0.486406102
0.6025273512 0.747155674 0.7388446808
0.5825678321 1.0000129879 0.2313055177
0.5824279204 1.001737799 0.7315996441
0.5824941944 0.7499479154 0.2321201356
0.5823837377 0.7495639009 0.7345911787
0.6125199973 0.7484444008 0.9888532129
0.6125789075 0.7500325288 0.4886336447
0.6125752257 1.0010543833 0.9902523306
0.6226083726 0.9982165808 0.2398042375
0.6225494624 0.7497266189 0.2396210635
0.6223985049 0.7499869678 0.7403560961
0.6425384365 0.9996094472 0.7398240632
0.6524095803 1.0015490461 0.9880708115
0.6324021967 0.9986461564 0.9893686773
0.6324795164 0.7487633282 0.9871319299
0.6324942439 0.502234444 0.9893226537
0.6325310628 0.749889337 0.4905344198
0.652420626 0.7508981888 0.9911083697
0.6525568559 0.5007777922 0.9886230948
0.6424942538 0.752082776 0.2391129629
0.6425421184 0.5019044519 0.2388533897
0.652354352 0.7513668167 0.491737477
0.6423985247 0.7495899358 0.7382472943
0.6724832379 0.7512301335 0.9932254558
0.672347008 0.4987919813 0.9912924642
0.6824096101 0.9989911186 0.2431676429
0.6724685104 1.0006703687 0.4901422987
0.682446429 1.0000650577 0.7450698342
0.6824096101 0.7494467439 0.245746806
0.6725053293 0.7505792614 0.4932626994
0.6824758841 0.7489000113 0.7440481101
0.6624685005 0.7505857701 0.2422306022
0.6624574548 0.75033193 0.7428165183
0.7025200866 0.9991473279 0.2462503043
0.7023912205 0.4987919813 0.7435179181
0.6925311223 0.7489325549 0.9961433526
0.6924243475 0.9983337378 0.4951045643
0.7025789968 0.9998567786 0.7479242185
0.6924832578 0.9994402204 0.9958027779
0.7024906314 0.7490301857 0.246606527
0.7024464488 0.4976978653 0.2463681247
0.6925127129 0.7497136015 0.4971342055
0.702439085 0.7512236248 0.7465287826
0.7224648781 0.4996556886 0.7475983713
0.7324906612 0.7479302118 1.0006812806
0.7225863804 0.7500455463 0.2489371626
0.7224206954 0.4989143453 0.2464380806
0.7325385257 0.7464657496 0.4979828808
0.7224869694 0.7472858484 0.7482123263
0.7224501505 0.9987633134 0.7510216074
0.7124096398 0.7483793136 0.9978278168
0.7125421878 0.7490692381 0.4971296031
0.7423470774 0.4989494924 0.7528966093
0.7423728507 0.7510023283 0.249885249
0.7424059877 0.4978007031 0.2494277743
0.7425238081 0.7511390114 0.7517699513
0.7523875881 0.4999915387 0.4978567761
0.7523875881 0.7483272438 0.0016724661
0.7623581429 0.4977512368 0.7486246978
0.7623912799 0.750214773 0.2500739458
0.7623728705 0.4984919293 0.2492160657
0.7523728606 0.7498502846 0.4999158724
0.7623728705 0.7502928777 0.7502879911
0.7824612557 0.7486852235 0.2497066774
0.782383936 0.4984502735 0.2497471781
0.7723434253 0.7481384909 0.5004819628
0.7824244368 0.7500845986 0.7513097152
0.7724428363 0.9983727901 0.5074968814
0.7724170631 0.4999095288 0.5012800122
0.7723029245 0.7476177932 4.1591105106e-04
0.7824465281 0.4983877897 0.7488152356
0.7724317906 0.4989878938 -0.0026864024
0.7923765821 0.7479302118 0.5002039802
0.8124796948 0.4981938298 0.4975833959
0.8125606964 0.7485615578 0.0021105188
0.8025385952 0.4978456132 0.7504776083
0.8025312314 0.7499153718 0.2503666559
0.8024612755 0.4972357461 0.2479016314
0.792479675 0.4970522001 0.496371134
0.7924244467 0.7481710345 0.0024588254
0.8124981043 0.7510674155 0.4992945537
0.7923913097 0.4982192139 -0.0046428569
0.8024134109 0.7487503107 0.7503929249
0.8326196264 0.4996394168 0.5015414263
0.8325091698 0.7500780899 0.0030375263
0.8226159346 0.4995886488 0.7482473042
0.8325754438 0.4991271805 -0.0021316982
0.8225864795 0.7476503368 0.2507725842
0.8225238874 0.498543999 0.2475785457
0.8325791257 0.7486656974 0.5036189321
0.8226785268 0.7486136276 0.751993626
0.8625681098 0.7496615317 0.7543491144
0.862660157 0.5005538922 0.7560473856
0.8525938731 0.7479887903 0.0094317705
0.8525533723 0.4998301224 0.0045873253
0.86262702 0.7498698108 0.2571542179
0.862560746 0.5004113512 0.2591912229
0.8525570542 0.7498437759 0.5058087354
0.8425680899 0.7494402352 0.255727486
0.8426122726 0.4985277272 0.2515457808
0.8424723608 0.7502603341 0.7549142843
0.8525644179 0.4980617028 0.5081817127
0.8726012567 0.5005519396 0.5094703738
0.8827043595 0.7482947002 0.7596105334
0.8926233678 0.5001802916 0.5056688236
0.8724908 0.7496615317 0.008713434
0.8926896418 0.7492059212 0.0055482063
0.8826049485 0.5002453788 0.7569798239
0.8727301228 0.4995587087 0.0081293944
0.8926086403 0.4996478782 0.0086424656
0.8826675406 0.7487893631 0.255378627
0.8825902209 0.4998568081 0.2587668852
0.8724502992 0.7494467439 0.5102748665
0.8926270497 0.7496615317 0.5053834773
0.882520265 0.9987763308 0.2576181359
0.8824797643 0.997487604 0.7543905356
0.9125534318 0.7477479676 0.5135913278
0.9126160239 0.998281668 0.0160069795
0.9125607955 0.4967638638 0.5097354698
0.902516603 0.7499153718 0.7593307099
0.9125828869 0.7474485665 0.0142728099
0.9125387042 0.4977037231 0.011224114