POSCAR file written by Ovito 3.7.11
1
271.7107814627 0.0 0.0
0.0 15.3702828875 0.0
0.0 0.0 10.8684312585
Sr Ti O 
800 800 2400 
Direct
0.0125467296 0.2515081519 0.506819387
0.0223535543 0.2497248406 0.7510754288
0.0025139661 0.2512908495 0.7543620117
0.0124256082 0.2496825512 1.0048563043
0.0224351484 0.0015236833 0.254001852
0.0025190451 1.0009211643 0.2556285817
0.0124752197 0.0020254308 0.5038253947
0.022451931 0.0013672776 0.7531824486
0.0025229095 5.3391624683e-04 0.7563595401
0.0124240992 1.0010577916 1.0036049738
0.0223752318 0.250852341 0.2550139576
0.0024621095 0.25060446 0.2522131854
0.0324053821 0.2495062369 0.500722831
0.0424156585 0.2508204613 0.7477106378
0.0324646363 0.2524469766 1.0020040068
0.0423851113 0.9995939279 0.247598904
0.0324841424 6.1699864741e-04 0.5030387126
0.0423943122 1.0011163462 0.7512769299
0.0324388736 4.5532302842e-04 1.0025928682
0.0423957844 0.2511041255 0.2491115418
0.0724866036 0.249093102 0.4968381857
0.0523471746 0.2507007497 0.4970433671
0.062396831 0.249795106 0.7477225991
0.0724774026 0.2513689222 0.9958577656
0.0524178379 0.2506460988 0.9973483211
0.0623865259 0.9988327187 0.2449425869
0.0724413349 1.0008951401 0.4970240451
0.0525223608 5.7835264432e-04 0.4979505818
0.0623644436 1.0001274249 0.7473352386
0.0723684633 0.001025254 0.9960601867
0.0524016442 0.9997565794 0.9970630913
0.062415969 0.2494346703 0.2462583242
0.0925675145 0.249190693 0.4990298544
0.102455234 0.2494600439 0.7466598882
0.0824862068 0.2515101038 0.7459955789
0.0925299746 0.2512745843 0.9978543739
0.1024574423 1.0001664612 0.2489036001
0.082449771 0.9999387491 0.2479448601
0.0923750304 0.0014351358 0.4958362012
0.1024000283 3.264379575e-04 0.7473913645
0.0824442504 0.9990279005 0.74782749
0.0923558924 0.9990669369 0.995747354
0.1025225851 0.2499486491 0.2469852
0.0824357855 0.249687756 0.2458387604
0.1124883287 0.2510644386 0.4994135344
0.1225041256 0.2506337373 0.7442814401
0.112491273 0.2512010658 0.9960141819
0.1224341983 1.8649258266e-04 0.2474268461
0.1124419559 1.0003226067 0.4952823034
0.1224356705 0.9991385036 0.7450920446
0.1124820721 0.001270012 0.9945144254
0.1224452395 0.2496714909 0.2476881533
0.1523766981 0.2509134979 0.496850147
0.1325254431 0.2496357075 0.4960441429
0.1425298308 0.2507287258 0.7474962554
0.1524157101 0.2496096833 0.9967686606
0.1323951575 0.2489161372 0.998286819
0.1424952352 -2.5169063422e-04 0.2467367741
0.152462451 1.0011683946 0.4968906312
0.1325169782 0.0018310297 0.4954552815
0.1423800392 0.0020399393 0.746849428
0.1524922621 0.9994117581 0.9978727758
0.132428281 -5.6411168952e-04 0.9982132113
0.1424922909 0.2487704014 0.2470845704
0.1725566113 0.2489070287 0.4972209457
0.1625536958 0.2495198997 0.7506908287
0.1724211732 0.2487346181 0.9987928718
0.162402432 -0.0014518637 0.2483451019
0.1724347906 -6.4205430182e-04 0.4980729545
0.1624208339 0.9997630854 0.7486390147
0.1725231198 -0.0011404836 0.9983512257
0.1625584803 0.2483351459 0.24880607
0.1924424619 0.2481783499 0.4968657886
0.2025340747 0.2485693641 0.7470868127
0.1825867617 0.2498757812 0.7477584828
0.1924947233 0.2482687841 0.9975139383
0.2025300263 -0.0012667012 0.2492716385
0.1824498514 -0.0015997465 0.2457108671
0.192472641 -1.2729474548e-04 0.4991191037
0.2024291837 0.9996589885 0.7477676838
0.1825164664 0.9986700672 0.7469561591
0.192376951 -0.0011208353 1.0004858484
0.2025432756 0.2487697508 0.2454201167
0.1824737739 0.2462558088 0.2477764826
0.2125590725 0.2484132187 0.498182446
0.2225962156 0.2506168216 0.7475965459
0.2125524478 0.2488790526 0.9981396036
0.2223864338 1.0000038097 0.2493158032
0.2124523414 0.9993662157 0.4964029803
0.2225733973 1.0011553825 0.7468770308
0.2125126997 0.9993141672 0.9962718088
0.2225792859 0.2500221676 0.2486330919
0.2526862988 0.2501412285 0.4998018149
0.2327422981 0.2486968829 0.4954331992
0.242556778 0.2497085754 0.7485442448
0.2525946572 0.2508425819 0.9974495316
0.2325071216 0.2498972512 0.9977347614
0.2425799644 0.999079949 0.2489146413
0.2525195774 7.4887650645e-04 0.4978732937
0.2325236833 6.215528902e-04 0.4979036569
0.2426384825 1.0011293583 0.7498728634
0.2525987056 0.0011184858 0.9968606702
0.232530308 0.0022709695 0.9982040103
0.2426248651 0.2509798598 0.2470063622
0.2726214665 0.2505133752 0.4973350376
0.2626560909 0.2511490174 0.7469773213
0.2726652631 0.2495797554 0.9969526798
0.2624993065 1.0003486309 0.2472879116
0.272588343 -6.5018687823e-04 0.4961904382
0.2625626091 1.0004527279 0.7486482156
0.2725382898 0.0015510088 0.9982316132
0.2625942604 0.2506844846 0.2471710594
0.2925982226 0.2484379417 0.4967967814
0.3025790558 0.2509460283 0.7505868579
0.2827035103 0.2509928719 0.7489141234
0.2926755106 0.2497638769 0.9989216852
0.3026879952 0.0013266147 0.2490048107
0.2825772731 1.0000168218 0.2495375463
0.2925124696 0.0021141734 0.4950725215
0.3025727991 0.0011967538 0.7477594029
0.2825246436 0.9993792278 0.7480556738
0.2925374962 8.0996842043e-04 0.9950388801
0.3025797919 0.2503891094 0.2481132377
0.2825986194 0.2515445859 0.2468655875
0.3326172455 0.2512954037 0.4973469988
0.3126298163 0.2512270901 0.4979211387
0.3226091774 0.2495634903 0.748680419
0.3325086742 0.2488731972 0.9977623643
0.3126029495 0.2504496158 0.9986824602
0.3226191145 -5.7426114488e-04 0.2454394388
0.3324932166 -3.8636609954e-04 0.4976901946
0.3124700877 0.0014201719 0.4960616247
0.3225686932 6.8882556225e-04 0.7466930116
0.3324582529 -4.9879083581e-04 0.9970538903
0.3126206154 0.9987351278 0.9957197512
0.3225709014 0.2490937527 0.2494446166
0.3525940016 0.2502518315 0.4969679193
0.3426326744 0.2511756922 0.7441498663
0.3524802777 0.249046909 0.9999981975
0.3425450812 1.8811909794e-04 0.2475528992
0.352521498 7.8973457032e-04 0.4975577008
0.3425932943 0.9997305551 0.7447286067
0.3525086167 3.7451774922e-04 0.9974863355
0.3425708439 0.2494691524 0.2469299943
0.3725019344 0.2497482624 0.4953752331
0.3824720946 0.2482648805 0.7477980469
0.3625722585 0.2500299748 0.7466037623
0.3725240167 0.2488517272 0.9968790721
0.3826156295 0.9998151339 0.2480764339
0.3624986509 0.998975852 0.2482107679
0.3724908933 -6.0431914728e-04 0.4974150859
0.3825825061 5.083474266e-04 0.7494164958
0.3625612174 0.9983122338 0.7493493288
0.3724835325 -0.0022385571 0.9970998951
0.3825751453 0.2498725282 0.2468398248
0.3625796193 0.2515816704 0.2475234562
0.3924790585 0.2498621185 0.498364625
0.4024786617 0.2480553853 0.7470996941
0.3925563466 0.2501867709 0.9974863355
0.4025817125 0.9973233125 0.2484067483
0.392560027 0.9964905367 0.4974905338
0.4026332379 -7.7484300941e-04 0.7467104935
0.3926189131 0.9980064489 0.9960325838
0.4025559498 0.2486545935 0.2463825371
0.4325768417 0.2500618545 0.4950090349
0.4124745846 0.2498816367 0.4967121326
0.4224373839 0.2510937158 0.746169477
0.4325289967 0.2500911318 0.9974311297
0.4124267396 0.2487769075 0.9960325838
0.4225809189 0.9993727218 0.2467294133
0.4325437183 0.9985659702 0.4953411896
0.4124414611 -0.0018664234 0.4982468527
0.4226177227 0.9988522369 0.7464703484
0.4324222656 0.99939224 0.99484566
0.4124856257 -7.0626912514e-04 0.9967134548
0.4224594662 0.248743076 0.2452038942
0.4525061208 0.2481510244 0.4939113604
0.4425175588 0.2477678174 0.7476959163
0.4524913993 0.2499740227 0.9952505022
0.4425470018 0.9985269338 0.2462960481
0.4524913993 -8.5128922765e-04 0.4950228363
0.442510198 4.3977354232e-04 0.7476922359
0.452469317 0.997902352 0.9937047409
0.4425396411 0.2485602556 0.2454375986
0.4725384507 0.2504990619 0.4917712171
0.4824460443 0.2507105088 0.7368323429
0.4624173948 0.2496805994 0.7440394548
0.472464843 0.2508627507 0.9913400943
0.4824202816 0.0011123701 0.2397330034
0.4624946829 5.8661534195e-04 0.2431060753
0.4724280392 0.9996915188 0.4908759637
0.4825233323 1.0009406825 0.7409322907
0.4625020436 0.0011827657 0.7446099143
0.4724427607 0.0010887531 0.9911928789
0.4824497247 0.2513363919 0.239364965
0.4625130848 0.2488406669 0.243112516
0.5124632558 0.0014677963 0.4888388712
0.512455895 2.4667364808e-04 0.9918277451
0.4924530082 0.2499538539 0.4903073444
0.5025188584 0.2506311349 0.7386136488
0.4924898121 0.2493201636 0.9889938495
0.5124154108 0.2505257367 0.4890596942
0.5123270816 0.2496246472 0.9893894908
0.5024783741 -7.2058245962e-04 0.2427067537
0.4925671002 1.1720303166e-04 0.488529719
0.5023863645 5.5369467265e-04 0.7403213469
0.4924419671 6.3391440634e-04 0.988635012
0.5024342095 0.2500013482 0.2377529569
0.5225475078 0.9989368157 0.2438899971
0.5324440603 0.0022261427 0.4929075357
0.5224739002 1.0001209188 0.7397260448
0.5324624622 0.9983447641 0.9938611573
0.5224886217 0.2505823394 0.2427159546
0.5324661426 0.2500098061 0.4932212884
0.5224849413 0.2498484557 0.7416205225
0.532326288 0.250794437 0.9928858555
0.54250623 0.0021733135 0.2427858819
0.562453911 0.0014204321 0.2445570667
0.5523991021 4.1439990393e-04 0.4947983329
0.5424988692 1.0005308007 0.7454223591
0.562472313 0.9998541703 0.7449199867
0.5524800705 -0.0023347232 0.9971090961
0.5424252616 0.2506610628 0.243160361
0.562406066 0.2508061479 0.2460154188
0.5523328552 0.2507384849 0.4929388189
0.5424179008 0.2518802986 0.744654999
0.5623250976 0.2498471545 0.7447543694
0.552417504 0.2503728443 0.9951492916
0.5824862409 0.0010078177 0.2464184209
0.5724903181 -7.5961923187e-05 0.4959760558
0.582515684 0.9999127248 0.746380179
0.5724387927 -3.9794688834e-04 0.9966582491
0.5824567978 0.2493605012 0.245959293
0.5723247008 0.2501086982 0.494818575
0.5824052724 0.2512414034 0.7459468138
0.5724203908 0.2496721415 0.9956829473
0.6023934377 1.0021963523 0.2484969177
0.5924821637 0.9996915188 0.4974482094
0.6125844209 0.0016022115 0.497866853
0.6024412827 0.0027623723 0.7485838089
0.5924748029 0.0014571914 0.9959129713
0.6125328955 6.036612221e-04 0.9990320967
0.6024670454 0.2501639997 0.245278422
0.5924232776 0.2522465899 0.4964591062
0.6124960916 0.2513097171 0.4947357664
0.6025516942 0.2508386782 0.7484844385
0.5924784833 0.250730027 0.9969986846
0.6124372055 0.2513240304 0.9945880331
0.6224809733 0.0017865282 0.2450953229
0.6324621746 0.0016994771 0.4966146024
0.6225729829 0.0019196422 0.7477152383
0.6325247411 1.0000688703 0.9967502587
0.6224184068 0.2504105794 0.2451551291
0.6324474531 0.2496265991 0.4944790596
0.6224993752 0.2507287258 0.7474668124
0.6324916177 0.2503526755 0.9954713252
0.6425243443 1.0007259825 0.2464662659
0.662593478 0.0023973823 0.2486478135
0.6524871437 0.0013821765 0.498201768
0.6425464266 1.0007520067 0.7470233261
0.6624867469 0.9997891097 0.7486859396
0.6524834633 1.0004917643 0.9973023163
0.6425096228 0.2513272834 0.2461313509
0.6625529938 0.2503826034 0.2481049568
0.6524172164 0.2501913252 0.4947247252
0.6424396955 0.250300627 0.7455861362
0.6624536234 0.2509974261 0.7462697675
0.6525129064 0.2498042145 0.9951492916
0.6824822729 0.9999192309 0.2462804065
0.6725121128 0.9993792278 0.498776828
0.6825301179 0.0018564684 0.7462044407
0.6724716285 0.0015332472 0.9968330673
0.6825006748 0.2488855587 0.2480276688
0.6723869797 0.2503286031 0.4968243843
0.6825632413 0.2500117579 0.7476949962
0.6724605874 0.2512212346 0.9961797992
0.7024373147 -2.631413018e-04 0.2467698976
0.6924377115 0.9990279005 0.4965768785
0.7125399686 0.999073443 0.4990924209
0.702507242 0.9995874218 0.7479066182
0.6925812465 1.0007064643 0.9981304026
0.7124737217 6.3300355778e-04 0.9999889965
0.7025403654 0.2507885816 0.2485272809
0.6924340311 0.2493234166 0.4988117916
0.7125878136 0.2509375704 0.4984842375
0.7025293243 0.2519707329 0.7470711711
0.6925665249 0.2501685539 0.9958209617
0.7125289275 0.2500917824 0.9974955364
0.7225211699 -2.2332420771e-04 0.249726166
0.7424173256 0.999294649 0.2506011772
0.7324287635 -9.203189417e-05 0.4968427862
0.7224659642 0.9988977793 0.7469782414
0.7424357275 -3.0263309284e-04 0.7497569313
0.7324913301 1.0001989915 0.9987652689
0.7224622838 0.2512472589 0.2488943992
0.7425314175 0.2512752349 0.2499138655
0.732539175 0.2503995191 0.4985238016
0.7225469326 0.2509850646 0.7473619214
0.7424578098 0.2500195651 0.7484062304
0.7324876497 0.2516655986 0.9958485646
0.7625453454 7.6006693159e-04 0.2502957054
0.7523948465 -0.0020937062 0.4981723249
0.76258951 -3.3028385263e-04 0.7507984799
0.7524978972 0.9996004339 0.998277618
0.762637355 0.2496649848 0.2504235987
0.7524058876 0.2488797032 0.4972043839
0.7625453454 0.2496083821 0.7507303928
0.7524905365 0.2511392583 0.9969710817
0.7825739949 0.0017325929 0.2481960463
0.7725155055 0.9994703127 0.5002314997
0.7924779081 0.9990344066 0.4985431236
0.7825335107 9.195304898e-04 0.7487742688
0.7725375879 0.9999973036 0.9989308862
0.7925294335 2.1576985773e-04 0.9982500151
0.7825923968 0.2516155019 0.2507897969
0.7725228663 0.2500976379 0.499409854
0.792514712 0.247388514 0.5006630248
0.7826218399 0.2495081887 0.7523396407
0.7725155055 0.2515016459 0.9997129677
0.7925662373 0.2493559469 0.999427738
0.8025658405 0.999079949 0.2494381759
0.8124292695 -6.0958905679e-04 0.4978742138
0.8024480682 -3.7907931108e-04 0.7485690874
0.8124734341 1.0000948946 0.9995749534
0.8024959132 0.2502720003 0.248489557
0.812510238 0.2495081887 0.5006455429
0.8025732013 0.2497300454 0.7498618222
0.8125654437 0.2504853991 1.0002558244
0.8224767177 0.9997045309 0.2501540106
0.8424354399 0.9973493368 0.2483598234
0.832505764 0.0017428075 0.5003216691
0.8225024804 -4.8512810744e-04 0.7506071
0.8424832849 -9.1966833559e-05 0.7484660366
0.8324984032 1.7380576347e-04 1.0005318532
0.8225356039 0.2492427415 0.2493562874
0.8426341806 0.2490996081 0.2487876681
0.8325131248 0.2497326479 0.4976000252
0.8225540058 0.2487853654 0.7493511689
0.8425495318 0.2489005226 0.749418336
0.8324947228 0.2499479985 0.9985628478
0.8625450578 -6.8343285058e-04 0.2496295559
0.85250129 0.9997370612 0.4991651085
0.862537697 0.9987221157 0.749140467
0.8524681665 -0.0011516741 0.9973483211
0.8626076243 0.247624684 0.2445303839
0.8525123312 0.2494984297 0.49630361
0.8625229755 0.2503422658 0.7459532545
0.8526190623 0.2500904812 0.9970538903
0.8824816977 1.0005242946 0.2495035027
0.8724379299 -1.4922017147e-04 0.4941294231
0.8925806713 9.7828022178e-04 0.4972255461
0.8825332231 0.9992035642 0.7456404218
0.8725041768 -6.1258184491e-04 0.9969434788
0.8825369034 0.251085258 0.2467487353
0.8926432378 8.0599972314e-04 0.9979831873
0.8725152179 0.2517417195 0.4950522794
0.8925365066 0.2501529394 0.4952372187
0.8825185015 0.2500475412 0.7469294763
0.8725741041 0.2500533967 0.995526531
0.8925217851 0.2507072558 0.9954529233
0.902499306 4.9370878906e-04 0.2478326084
0.9225500378 5.0073533508e-04 0.2462021983
0.9125136307 -0.0014227166 0.4970525681
0.9025250687 0.9989628399 0.7458778066
0.9224985124 0.9978112671 0.7475192578
0.9126277226 0.9974013853 0.9973483211
0.9024625022 0.2493559469 0.2451505286
0.9223770597 0.250573231 0.244895662
0.9124841877 0.2505784358 0.4973249165
0.9025103472 0.2483793871 0.7463314139
0.9223954617 0.2496064303 0.7462412445
0.9125025896 0.2496929609 0.996446627
0.9426228519 1.0001989915 0.2471995824
0.9325459606 0.9995874218 0.4979588626
0.9425308423 0.998969346 0.7471530596
0.9324981156 0.9992751309 0.9974035268
0.9425529246 0.2508660037 0.2489799681
0.9325275587 0.2484509538 0.4970820112
0.9424793169 0.250214747 0.7458998889
0.9325422802 0.2496890572 0.9977623643
0.9626110171 0.0010259696 0.2503049063
0.9525598885 0.9995418794 0.499486222
0.9725627753 0.9991189854 0.5020128056
0.9625300487 1.0010187552 0.7503835166
0.9524899612 0.9995158551 0.9983236228
0.9624858841 0.2478634565 0.2501070857
0.9726143007 -4.2501210263e-04 1.0018475904
0.9525562082 0.2496819006 0.4990464161
0.9725222911 0.2486630514 0.5037968717
0.962581574 0.2483104229 0.7490852612
0.9525893316 0.2503591815 0.9992161159
0.9725480538 0.2483364471 1.0015715616
0.9825807804 0.0013149038 0.2520687303
0.9925509406 1.0011293583 0.5027240398
0.9825586981 0.9996004339 0.7533664678
0.9825807804 0.2494743572 0.2540993822
0.9926098267 0.0018526298 1.0036601795
0.9925398994 0.2505563152 0.5068304282
0.9824372455 0.2511158364 0.7529331026
0.9924810133 0.2503442176 1.0066228886
0.0123771375 0.7493382866 1.0055095725
0.022456237 0.5008692098 0.7508941699
0.0024243488 0.5003233512 0.7557209935
0.0124171433 0.4999642167 1.0023444423
0.0223936337 0.750333714 0.2530633541
0.0024718625 0.7521163747 0.252333718
0.0124565234 0.7495594927 0.5076539141
0.0224878147 0.7506655231 0.7502464223
0.0224235184 0.4991223324 0.2538702783
0.002430127 0.500533497 0.2547232073
0.0023871401 0.7511599837 0.7552112603
0.0124012072 0.4988627405 0.5035245233
0.0324226799 0.7509517898 1.0013507386
0.042449886 0.5026141354 0.7502096185
0.0324053821 0.4992719718 1.0014243463
0.0424844816 0.7503141958 0.2508845668
0.0324083264 0.7504963655 0.5015628786
0.0424922104 0.7504313049 0.7502758654
0.0423913679 0.4998965536 0.2501724125
0.032413847 0.4996161424 0.5000088365
0.0724663615 0.7512510686 0.9935483246
0.0623530344 0.5020656744 0.7496253576
0.0523725692 0.7501710624 0.9981764074
0.0724096836 0.5004977137 0.9986456564
0.0524001721 0.4992374896 0.9974679335
0.0624362111 0.750333714 0.2452517392
0.072500589 0.7500799776 0.495402836
0.052380298 0.7497091321 0.4978640928
0.0623361046 0.4997657818 0.2469640378
0.0724770346 0.4998887464 0.4999241877
0.0624663902 0.750444317 0.7450607614
0.052399068 0.500165254 0.4982450125
0.0924773451 0.7504573291 0.9948916648
0.1024559701 0.49967795 0.7477060373
0.0824148073 0.4998295412 0.7479912671
0.0924431175 0.500573184 0.997587546
0.1024335198 0.7522790262 0.246592319
0.0824258485 0.7514137201 0.2480552716
0.0924464299 0.7508411867 0.4968133431
0.1023470307 0.7511795019 0.7465844403
0.1025063914 0.5017019856 0.246132271
0.0823220617 0.5008588001 0.2482797751
0.0823916209 0.7525848111 0.7450819236
0.0925251901 0.5008256192 0.4982220101
0.112480968 0.749487926 0.9963730193
0.122508174 0.4991919472 0.7465733992
0.1124169293 0.50032205 0.9990689006
0.1223837771 0.7501905806 0.2494133333
0.1124482125 0.7504638352 0.4973589601
0.1224669537 0.4996141906 0.2493250041
0.1224526002 0.7507240776 0.7463838594
0.1124629341 0.5007540525 0.5000106767
0.1525128723 0.7483493653 0.9987008622
0.1424532788 0.5007091607 0.7467905418
0.1324680291 0.7491756351 0.9981580055
0.1525894242 0.498173098 0.9994737428
0.1323458403 0.4981854596 0.9990044938
0.1425272545 0.7486161138 0.2479927051
0.1524768045 0.7500279291 0.4979837052
0.1324014141 0.7499043139 0.4952482599
0.1425117969 0.499681203 0.2470440862
0.1424565911 0.7484404502 0.7489270047
0.1525091919 0.4995458769 0.4988780385
0.1324750218 0.4991307902 0.496140753
0.1724046114 0.7482712926 1.0008262839
0.162479352 0.4987918244 0.7458373224
0.1724911005 0.4972355746 1.0006422647
0.1625378701 0.7491235866 0.249371929
0.1724844758 0.7488893684 0.4990013314
0.1623840301 0.4993598036 0.2466364836
0.1625330856 0.749169129 0.7495140259
0.172591943 0.498108688 0.5004891266
0.1925245344 0.7491951533 0.9990781015
0.2024280796 0.4989733436 0.7511996418
0.1825392847 0.4994808163 0.7464335446
0.192463072 0.498323388 0.9981027998
0.2025892804 0.7486421381 0.2476449088
0.1824524277 0.7486226199 0.2492808395
0.1925410962 0.7479329774 0.4974472893
0.2026437501 0.4972980328 0.2489229222
0.2025127285 0.750014917 0.7500283596
0.182407895 0.4994216112 0.2466061205
0.1825713041 0.7492667199 0.7492720407
0.1925668589 0.4989082829 0.4980619134
0.2125436149 0.7486876805 0.9967778615
0.2225579397 0.4993279239 0.7462274431
0.2126179587 0.4998640233 0.9960785886
0.2226374359 0.7494684078 0.2499617105
0.2125005544 0.7492927442 0.4995469483
0.2225123029 0.5001405309 0.2498190957
0.2225822302 0.7501450382 0.7489527674
0.2125053389 0.5003448212 0.4977840444
0.2524673159 0.7515568535 0.9997681735
0.24253764 0.4988770538 0.7507589158
0.2324081193 0.7497091321 0.9974035268
0.2525188413 0.5007534019 0.9983420247
0.2325284678 0.5000845788 1.001727978
0.2425398483 0.7500279291 0.2493599678
0.2525696306 0.7493122624 0.4987335835
0.2325597511 0.7507045595 0.4944146529
0.2425111413 0.4999473009 0.2500435991
0.2424743374 0.75034022 0.7482764968
0.2524283039 0.5007989443 0.4991043821
0.2324982887 0.4998718306 0.4981125187
0.272454009 0.7507045595 1.0006882695
0.2625464154 0.5004755931 0.7493888929
0.2725570598 0.5013981525 1.0002006186
0.2624352678 0.7515308292 0.2492394352
0.2725478588 0.7504638352 0.4977380396
0.2624996745 0.50006441 0.2466217621
0.2624919457 0.7522204717 0.7496667619
0.2725128952 0.5003331103 0.4990510166
0.2925941741 0.7505939564 0.9980199911
0.3025816321 0.4994164063 0.7486445352
0.2826740672 0.4989297529 0.7477925263
0.2926088957 0.5001574467 0.9973391201
0.3024991915 0.7511209474 0.2474627298
0.2824915202 0.7503207018 0.2472658293
0.292496644 0.7519146868 0.4985017193
0.3025404118 0.4996154918 0.2491934304
0.3024991915 0.7507435958 0.7472441491
0.2826424159 0.4993604542 0.2465417137
0.2825978833 0.7505874504 0.7477373206
0.292526087 0.5015822741 0.4970783308
0.3324946887 0.748739729 0.997127498
0.3225348337 0.4993467915 0.7475625023
0.3126353369 0.7494619018 0.9967594596
0.3325502625 0.5001119043 0.9968422683
0.3127019519 0.5003786528 0.9977623643
0.3225613324 0.7516023959 0.2473164346
0.3325480543 0.7487137047 0.4976083061
0.3125863878 0.7507826322 0.4999306283
0.3224976618 0.499000669 0.2477056352
0.3225451387 0.7505093776 0.7463203728
0.3325789695 0.5005315452 0.4968188637
0.3125569447 0.501174344 0.4974086452
0.3525340113 0.75055492 0.9983880295
0.3425642192 0.4995530336 0.7483133007
0.3524799097 0.5010273071 0.9953885166
0.3424869312 0.7519732414 0.2464653458
0.3525421082 0.750444317 0.4972660304
0.3424766261 0.4999648673 0.2468085416
0.3425034929 0.7502100988 0.7462900096
0.3525354835 0.5005452079 0.4967986216
0.3725424187 0.7497546745 0.9986732593
0.3824389711 0.4994528403 0.7480703953
0.3624876097 0.4983689305 0.7478302503
0.3725497794 0.4989616326 0.9987192641
0.3824463319 0.7489349108 0.2478565309
0.3624508059 0.7503727503 0.248020308
0.3725681814 0.7496896139 0.4997944541
0.382505218 0.4995510818 0.2462380821
0.3823874457 0.7488243078 0.7487623075
0.3625869801 0.4987293663 0.2476614706
0.3624655274 0.7486616563 0.7486859396
0.3725203364 0.498445702 0.497635909
0.3925673878 0.7494033472 0.995747354
0.4024897029 0.4994990333 0.7478955771
0.3925232232 0.4996772994 0.9971735028
0.4025412283 0.7496766018 0.2489827284
0.3925489858 0.7506069685 0.498786949
0.4024160952 0.4996011785 0.2479347391
0.4024124148 0.7485055108 0.746840227
0.392464337 0.4995107442 0.4959383319
0.4324885125 0.7488893684 0.9970814932
0.4225293935 0.498488642 0.746188799
0.4124341003 0.7492211775 0.9970262875
0.4325142752 0.4975602271 0.9969250769
0.4124782649 0.49974236 0.9967042539
0.422466827 0.7494358775 0.2486478135
0.4324701106 0.7478028562 0.4958454022
0.4124966669 0.7490780442 0.4962677262
0.4223895389 0.4991353445 0.247358759
0.4224594662 0.7485445472 0.7476094272
0.4325142752 0.4989961148 0.4972687907
0.4125371511 0.4997299985 0.4964158617
0.4525355639 0.7505028716 0.9969894836
0.4425175588 0.4993890809 0.7467463772
0.4524950797 0.4981802547 0.9959589761
0.4424697138 0.7492602139 0.2463576945
0.4524840385 0.749058526 0.4979873856
0.4424991569 0.4996792512 0.2463944984
0.4423887453 0.7476206865 0.7466690891
0.4525282031 0.4978133129 0.4950955239
0.4724611626 0.7505028716 0.9918737499
0.4825306931 0.5012901519 0.740341589
0.4625278063 0.4999830842 0.7434965982
0.4724795645 0.5003871106 0.9937323438
0.4824497247 0.7516609504 0.2403660295
0.4624726006 0.7499888927 0.2426303857
0.4726046976 0.7495009381 0.4893762073
0.4824423639 0.499365659 0.2402086931
0.4824276424 0.7509648019 0.7400968435
0.4625130848 0.4987560411 0.244885541
0.462410034 0.7489739472 0.7442271544
0.4724611626 0.5020969035 0.490600855
0.4924934925 0.5001457358 0.9889386437
0.5024857349 0.7512705868 0.2374484051
0.4924898121 0.7493968412 0.4881957241
0.5024415703 0.5000227712 0.2424022019
0.5024746938 0.7506329928 0.7369924396
0.4925450178 0.7496700957 0.9892422754
0.4925229355 0.5010715483 0.4898270543
0.5024084468 0.4993890809 0.7421072532
0.5123749266 0.7512705868 0.9897759311
0.5124227716 0.4999791806 0.9883313804
0.5125331831 0.7504898594 0.4912670045
0.512378607 0.5006141722 0.4881929638
0.5223892513 0.4997553721 0.7415220722
0.5324366995 0.7518626383 0.9908800463
0.5324330191 0.5011047292 0.9941923918
0.5224334159 0.5022374344 0.2442902389
0.5224554982 0.7519537232 0.2419660764
0.5324845445 0.7518040838 0.4957736347
0.532374133 0.5017702992 0.493629811
0.5225217451 0.7519992656 0.7405403298
0.5423737362 0.5008139082 0.7447479287
0.5524543078 0.7514072141 0.9973851249
0.562424468 0.5013369956 0.7455796955
0.5524322255 0.5005165813 0.9992897236
0.5423406127 0.5001060488 0.2438163894
0.5424289419 0.7497156382 0.2432247677
0.5624281483 0.5008132576 0.2484435522
0.5625532814 0.7493252745 0.2476807926
0.5524285451 0.5007976431 0.4970590088
0.5523328552 0.7516023959 0.4953706326
0.542458385 0.750977814 0.7466405662
0.562406066 0.7509062473 0.7452374198
0.5824788801 0.5018861071 0.7476204684
0.5725234415 0.7510428746 0.9968146654
0.5725124004 0.5002238085 0.9965846414
0.5824788801 0.5007013534 0.248576046
0.5825819309 0.7488308138 0.2475740614
0.5724939985 0.5005809913 0.4972273863
0.5723431027 0.7514332383 0.4969209944
0.5824788801 0.7500994958 0.7476305895
0.6024707258 0.5016408286 0.7469616797
0.5925116068 0.749383829 0.9974035268
0.6125549778 0.7510038383 0.9963362155
0.5924490403 0.5017084917 0.995747354
0.6124445663 0.5002693509 0.9962902107
0.6025664157 0.7511014292 0.2459243293
0.6025516942 0.5000494461 0.2497832119
0.5924343187 0.751615408 0.4977076764
0.5925778537 0.5006493049 0.4968271446
0.6125881012 0.7511404655 0.497635909
0.612547617 0.5006675219 0.4965097115
0.6025811373 0.7507110655 0.7479369814
0.6224552106 0.4992804296 0.746725215
0.6324952981 0.7492406957 0.998268417
0.6325652253 0.5014332853 0.9975507422
0.6225140968 0.7491886472 0.2464754668
0.6224368087 0.4996076845 0.2466935296
0.6324879373 0.7496180472 0.4976561511
0.6326020292 0.5006271843 0.4965483555
0.6225030556 0.7509322716 0.7470776118
0.6424617778 0.5000728679 0.7476572722
0.6525202671 0.7494228654 0.9973759239
0.6625345919 0.5000130121 0.747645311
0.652509226 0.5016486359 0.9998049773
0.6425427462 0.7501775685 0.2486441331
0.6424949013 0.4999882891 0.2463917381
0.6625529938 0.7494749139 0.2482236492
0.662468345 0.4998412521 0.2495090233
0.6524761025 0.7511079352 0.4969771202
0.6525901944 0.5013545619 0.4971344566
0.6424139328 0.7503987746 0.747521098
0.6624389019 0.7504963655 0.7464160627
0.6825742825 0.4984821359 0.7465108326
0.6725010716 0.7504117867 0.9990320967
0.6724237836 0.4999154212 0.997357522
0.6825227571 0.749800217 0.2495982726
0.6825706021 0.4989668375 0.2482070875
0.6725010716 0.7499693745 0.4994807014
0.6725231539 0.4989082829 0.4996555196
0.6825190767 0.7495659988 0.7495738322
0.7026102927 0.4993767193 0.7471751419
0.6925407622 0.750021423 0.9957013492
0.7125657313 0.7508802231 0.9970906942
0.6924340311 0.4987820654 0.9993541303
0.7125068452 0.5003161946 0.9985536468
0.7024483558 0.7483298471 0.2507143491
0.702602932 0.5003636888 0.2484242301
0.6925186799 0.7496440715 0.4962612855
0.6924266703 0.4991821881 0.4987823486
0.7125767725 0.49942031 0.4997392484
0.7125068452 0.7484599684 0.4980711144
0.7024962008 0.75034022 0.7482792571
0.7226205403 0.50045087 0.746782261
0.7324839693 0.7505809443 1.0008354849
0.7424725313 0.5000234218 0.7498563016
0.7326091023 0.5011860549 0.9997773745
0.7224438819 0.748843826 0.2503573518
0.7226536638 0.500834077 0.250541371
0.7425534998 0.7505223897 0.2498365775
0.7425203763 0.5000006506 0.250732751
0.7325318143 0.5003116403 0.4969550379
0.7325943808 0.7508541989 0.5013245738
0.7224696446 0.750867211 0.7506236617
0.7424946136 0.749058526 0.7486592568
0.7524463719 0.5000513979 0.4994659799
0.7525126188 0.7517715535 1.0029977104
0.7623834085 0.5008139082 0.7484752376
0.7525788657 0.5001567961 0.9982592161
0.7625048612 0.7492276836 0.2478500902
0.762464377 0.5014840325 0.2474572093
0.7524537326 0.7499173261 0.5006722257
0.7624606966 0.7493447927 0.7491689899
0.7725449486 0.4999954458 0.4999278681
0.7725927936 0.7498522654 1.0011299156
0.7924852689 0.5006460519 0.4988430749
0.7925367943 0.7492016593 0.9994737428
0.7823862953 0.4999232285 0.7501084079
0.7725081448 0.5007494982 0.997366723
0.7925220727 0.5002218567 1.0004030397
0.7824709441 0.7492211775 0.2491492658
0.782459903 0.4979017953 0.2483579832
0.7725596702 0.750229617 0.500665785
0.7924705473 0.7492081654 0.4983931479
0.7824304599 0.7500604594 0.7518069051
0.8124476714 0.5004235446 0.4976717927
0.8125764849 0.7491496108 1.0003018292
0.8025106348 0.498696836 0.7476673933
0.8124329499 0.4996890103 0.9970078855
0.8025106348 0.7495074442 0.2491869897
0.8025474386 0.4992940924 0.2485447627
0.8125065576 0.7505614261 0.49917983
0.8025216759 0.7490845502 0.7501691343
0.832583052 0.5001171091 0.4985550848
0.8325352071 0.74948142 0.9984800391
0.8225503254 0.5002335676 0.7470362074
0.8425642533 0.5004437134 0.7458557243
0.832505764 0.4988119932 0.9970354884
0.8225024804 0.7518756505 0.2488364331
0.8225319235 0.4991763327 0.2461387117
0.8425495318 0.7505288958 0.2500481996
0.8425752945 0.5010012828 0.2464938688
0.832553609 0.7481541835 0.4997521297
0.822450955 0.7504378109 0.7495673915
0.8425200887 0.7511729959 0.7482001289
0.8526558661 0.5001398803 0.4977334391
0.8624714501 0.7500279291 0.7469037136
0.8624861717 0.4993142612 0.7483961093
0.8525196919 0.747991532 0.9965662395
0.8526117015 0.4997696854 0.9974587326
0.8625450578 0.750021423 0.2467606966
0.8624898521 0.5008269204 0.2488023896
0.8524828881 0.7498587715 0.4971749409
0.8725115376 0.5006180758 0.4974178462
0.8825553054 0.7515178171 0.7457719956
0.8925070636 0.499144453 0.4945048223
0.8724710533 0.7508607049 0.9997681735
0.8924997028 0.7496050351 0.9958301627
0.8825148211 0.5007215222 0.7457361118
0.8725704237 0.4993279239 0.9970446894
0.8924997028 0.4995712506 0.9954069185
0.8825111408 0.7502881715 0.246649365
0.8825148211 0.5008165107 0.2458148379
0.8724673729 0.7511795019 0.4975199769
0.8925181047 0.7493382866 0.4971767811
0.9124547446 0.4997176369 0.4955776542
0.9026575625 0.7502686534 0.7455916567
0.9225316359 0.7496700957 0.747951703
0.9125614757 0.7500669655 0.9950848849
0.9025140275 0.500315544 0.7458133999