POSCAR file written by Ovito 3.7.11
1
271.6085881422 0.0 0.0
0.0 15.3645019603 0.0
0.0 0.0 10.8643435257
Sr Ti O 
800 800 2400 
Direct
0.0223831105 0.5010615378 0.7648633148
0.0124482258 0.2524722891 0.5157557646
0.0224341398 0.2514387378 0.7668542312
0.0023840374 0.2513007574 0.7689463963
0.0124851908 0.2509870473 0.012600559
0.0226059312 3.3577269002e-04 0.2658327026
0.0025470662 6.8977049705e-04 0.2663177757
0.002332824 0.4982387975 0.265691875
0.0123399082 0.5005558267 0.5173076301
0.0123354164 0.0015272854 0.516227031
0.0223976903 -4.0614388122e-05 0.7632700294
0.0024581146 0.0018329901 0.7673604744
0.0224705157 0.2505327534 0.2656964772
0.0023337077 0.2499437333 0.2702066439
0.032386292 0.5016863547 0.0162458782
0.0423686715 0.5016538121 0.2598019655
0.0322935114 0.499183833 0.5136810879
0.0323343791 0.2501207647 0.5102294298
0.0424872244 0.2493449505 0.7610011394
0.0324790726 0.2524169667 0.0099165496
0.0524990581 0.4996120929 0.0114595789
0.0424423069 0.0013648981 0.7621010678
0.0424054892 0.2508230329 0.2657130452
0.0524062775 0.2503778508 0.5103628939
0.0524765993 0.2492974383 0.009911027
0.0624766513 0.2524351906 0.2586284017
0.0625650137 0.5011721825 0.7573819608
0.072538557 0.4996407303 0.0099271347
0.0626537443 0.5032112984 0.2580871817
0.0725006348 0.5008545672 0.510544221
0.0725102074 0.2510820715 0.5067924987
0.0624545607 0.2479905297 0.7584266626
0.0723864999 0.2500784594 0.0065532539
0.0922886688 0.2516346439 0.5058628521
0.1023708243 0.2505028142 0.7487528154
0.0823489979 0.2534062601 0.7584100947
0.0924212125 0.2524807501 0.0023539206
0.1025468128 0.002728561 0.2519054921
0.0924536121 0.0016560888 0.5042171015
0.1023472609 0.2518813164 0.251668018
0.0825205683 0.2497888308 0.2566430079
0.1023568335 0.5038803731 0.7548976873
0.0824299968 0.5025812747 0.7523425398
0.1024459323 0.5005649386 0.255837621
0.0825382408 0.5049685958 0.2557851558
0.122355833 0.2518227399 0.2477828316
0.1122987136 0.50071138 5.1499676571e-04
0.1123027635 0.2533040765 0.4990027965
0.1224449318 0.4999323115 0.2519837296
0.1124883247 0.5016700834 0.4987597998
0.1223760827 0.2480438995 0.7507492544
0.112380817 0.2514875516 6.0643349152e-04
0.1224081141 0.0013274091 0.2495979435
0.1523118077 0.2511790483 0.495979144
0.1324004344 0.248308145 0.4953274709
0.1423088103 0.248272999 0.7456877429
0.1522646811 0.2516405016 -0.0050702832
0.13238718 0.2520661581 -0.0010005665
0.1423802366 -7.3077668739e-04 0.2436270351
0.1423721367 0.2481975003 0.2426136283
0.1422966605 0.5018659895 0.7478839179
0.1523872839 0.4982173194 -0.0067732945
0.1323783437 0.5001230108 -8.7980449073e-04
0.1523327938 0.499642032 0.4936080849
0.1324136887 0.5007237462 0.4984532926
0.1823786036 0.2496970608 0.2393248884
0.172510359 0.4996804322 0.490550376
0.1824629162 0.4976614927 0.74218454
0.1723759744 0.2516196744 0.4923084206
0.16235825 0.2491776818 0.7422683002
0.1722842984 0.252101304 -0.0097057312
0.1824677025 0.4997962837 0.2411114667
0.1623715043 -1.2353279337e-04 0.7429945291
0.1624337262 0.2503583253 0.2410958191
0.1823034956 0.2501233681 0.7402488501
0.1823620357 -9.4438595429e-04 0.2430038958
0.1923701876 0.0011480346 -0.0104231423
0.2024759063 0.2493111062 0.2400087769
0.2025657415 0.503025155 0.7414619929
0.1923801283 0.5007569396 -0.0126084009
0.2025094104 0.5006586611 0.2401597295
0.1924626 0.5008259298 0.4878939799
0.1923466242 0.2499287637 0.4872828063
0.2023544079 0.2513528255 0.7381898209
0.1923790238 0.2511796992 -0.011143554
0.2025097786 -2.8357703082e-04 0.2388573038
0.2124291998 0.2496261181 0.4887389458
0.2224299882 0.2484051218 0.7404679153
0.2124575494 0.2504605089 -0.0146875601
0.2225492775 6.6770665138e-04 0.7416111045
0.2224583378 0.2491887462 0.2362782248
0.2324149449 0.2498408989 0.491299616
0.2324270947 0.2503322913 0.9900246413
0.2325427023 -0.0025209746 0.491434921
0.2224955236 0.5001653161 0.7395502345
0.2125687389 0.4992443621 -0.0126015344
0.2123806005 0.5001822383 0.4898020565
0.2424591781 0.5016681309 0.7421385179
0.2626245935 0.2490013012 0.7467517741
0.262636007 -0.0011837689 0.2459023682
0.2626268025 -0.0011748523 0.7493115238
0.252648473 0.2493527607 0.4927410284
0.2425000457 0.2494614528 0.7428583037
0.2525545879 0.2508184769 0.9949121892
0.262425778 0.2505242923 0.2452718653
0.2425372316 -0.0018317496 0.2475186647
0.2624994133 0.5008272315 0.245523146
0.252565265 -0.002204993 0.4990009556
0.2425225045 -0.0012517828 0.745996091
0.2524783753 -0.0024501295 0.9955196811
0.2424599144 0.2477009011 0.2437457722
0.2727332576 0.2490182233 0.4959009064
0.2726294318 0.2501793413 0.9989621348
0.2724401888 -0.0016460683 0.5016914081
0.2725771506 -0.0024259699 0.999643262
0.2825819889 0.2479410651 0.7473196869
0.272465593 0.4998021413 0.4996093679
0.2825304442 0.2498923161 0.2475343122
0.3125335455 -0.0011432209 0.5015956821
0.2925846181 0.4997077679 0.5024885111
0.2924266703 0.2497940376 0.4975678272
0.3025051439 0.2478616612 0.7528248515
0.2925076692 0.2483680233 1.0008582457
0.2925360188 -7.8616409937e-04 0.500229746
0.3025809884 -0.0011881296 0.7522109166
0.3124963597 0.4983618083 0.4961890048
0.3024609627 0.2484780171 0.2456529284
0.3126373714 0.2483335282 0.4952906532
0.3127102704 0.2487448659 0.9945716256
0.3225078251 -0.0011005251 0.2466957893
0.3325086135 7.1378689543e-04 0.4940351701
0.3226278508 4.9692337401e-04 0.7473997654
0.3324986727 -0.0010091456 0.9951146865
0.3225118751 0.2486960521 0.2445861359
0.3226090738 0.4982173194 0.7467885917
0.3225648925 0.4970627099 0.2485403555
0.3326444707 0.2494328153 0.4951130079
0.3226613549 0.2473266618 0.7466560481
0.3326363708 0.2499971031 0.9952251396
0.3625500052 0.2495122191 0.2418146845
0.3525179218 0.500388558 0.4950568609
0.3525819846 0.2505659468 0.4956707959
0.3425429059 0.2499105399 0.7421127455
0.3626383677 0.500964561 0.7423842759
0.3526677698 0.2508314939 0.9922429069
0.362697276 0.4980864983 0.2430213842
0.3425325969 0.0014172266 0.2451752189
0.3425440104 0.2516828069 0.2439519512
0.362362235 0.2503322913 0.7436231911
0.3426776586 0.4983182013 0.7417500913
0.3427037992 0.4988310718 0.2453786366
0.3825346457 0.2509382335 0.2446229536
0.392479103 0.2508685924 0.4936992087
0.3925858743 0.2501207647 0.9928135811
0.3926779185 6.2227725824e-04 0.9917826858
0.38268928 0.5018685929 0.7416203089
0.3926852821 0.5010446157 0.9864717345
0.3725386437 0.251106153 0.494927999
0.3824941463 0.2509004841 0.7397002665
0.3725349619 0.2489570433 0.9936972056
0.3926079649 0.4997240392 0.49018404
0.3724097818 4.7147510364e-04 0.4914873862
0.4125962872 0.5023157275 0.9903744093
0.4025413769 0.2489596467 0.7386684509
0.4026628753 -0.0012974726 0.742072246
0.402522968 0.2494595002 0.2413793153
0.4125410607 0.2483543554 0.4924188736
0.4125741966 0.2510820715 0.9892054477
0.4125226518 -6.6191666168e-04 0.4898103405
0.4125373789 2.5226851896e-04 0.9878892154
0.4425364303 -0.0035464683 0.7394048046
0.4423891596 0.2469407072 0.2382258804
0.4224781544 0.4979198805 0.7377774628
0.4325220195 0.4986572946 0.9893251052
0.432529383 0.5002238927 0.4926333367
0.442716837 0.4995261805 0.7406777761
0.4425622027 0.4975879465 0.2369667155
0.4324483841 0.2487136251 0.4909259164
0.4224634274 0.2480725369 0.7396790964
0.4324667929 0.2487370557 0.9871988838
0.4224118826 0.0018284342 0.2376818991
0.4326950626 -0.0012375943 0.992178476
0.4223750649 0.2486303162 0.2390662441
0.4424333408 0.2483328773 0.7405194601
0.4726091171 0.2505308008 0.4877743224
0.4624584808 0.2459104102 0.7376173059
0.4725612541 0.2498877601 0.990760995
0.4724802552 -0.0013840357 0.990411227
0.4624695261 0.2482925245 0.2403539427
0.4525103418 0.4959686295 0.9922521114
0.4525177053 0.4960206976 0.4910501761
0.4625137073 0.5000722445 0.7374746374
0.4724544828 0.4987510171 0.989297492
0.462550525 0.4988317226 0.2383446175
0.4525250688 0.2489290567 0.4893639261
0.4524551152 0.2480263265 0.9889661328
0.4524992965 1.0172670472e-04 0.4891568266
0.4824099854 0.2481011744 0.7434621137
0.4825388473 -0.0022292112 0.7368735886
0.4924722593 0.4979452637 0.9858734471
0.4925679853 0.5008786487 0.4865510548
0.4825535744 0.2482196292 0.239665452
0.4924869864 0.24960464 0.4901389384
0.4924354416 0.2504318715 0.9904388403
0.4824431213 0.4982179702 0.2360950568
0.5024240801 0.2508360499 0.7399211727
0.5124789904 0.252629795 0.4913585243
0.5123059473 0.251673695 0.9920220008
0.5025161243 6.0236122056e-04 0.7430727667
0.5024056713 0.2506401438 0.2422564967
0.52238663 0.2514146563 0.2450325503
0.5224529019 0.2508458126 0.7416368769
0.5125452623 0.5014390314 0.4911569474
0.5224749925 0.5010218359 0.7427911114
0.5424449059 0.4989247943 0.7509591152
0.552455635 0.5011969148 1.0003612069
0.5425590408 0.500938527 0.2506030664
0.5523415002 0.5024797419 0.4996286972
0.5323494961 9.4965526327e-04 0.4951719162
0.5324599492 0.2531198857 0.4992476342
0.5323863138 0.2528530368 0.9982257811
0.5325483116 0.4997259918 0.9974618141
0.5524850892 -3.6669069134e-04 1.0011159695
0.5423454982 0.2502118839 0.2468117651
0.5524224991 0.248988935 0.5002748476
0.5424044065 0.2512473877 0.7478958837
0.5524519533 0.249643691 1.0008582457
0.572418185 0.2500166286 0.4977896537
0.5725028656 0.2461382081 1.0002231406
0.5625363178 0.4988902992 0.7509103318
0.5624185012 0.4997201341 0.2462512158
0.5724550026 0.4997246901 1.0014013066
0.5725102292 0.4988662177 0.5017668844
0.5623227752 0.2485092579 0.2481399631
0.5624442735 0.2494458324 0.7485908175
0.6023656916 0.4987698918 0.7510594434
0.5925648233 0.4994819227 1.004116611
0.5925500962 0.4980819424 0.5051311005
0.5823773693 0.2491770309 0.7538198495
0.6024245999 0.2501344326 0.2559048133
0.592443325 0.2512564996 0.5025520216
0.6024835082 0.2500765069 0.7534212981
0.5925869139 0.250329037 1.0064361253
0.582557776 0.4974454102 0.7528727145
0.5824510047 0.4994903837 0.2492067556
0.5823589605 0.2491412341 0.2523371794
0.6125126462 0.4984490223 1.0044847879
0.6124758285 0.5022076863 0.5031134913
0.6226411919 0.5009150964 0.7543270132
0.6125016009 0.0011439993 0.5053998697
0.6224460581 0.4992085653 0.25321252
0.6125347368 0.2511705872 0.5025198061
0.6124611014 0.2494360696 1.00588386
0.6224350128 -3.5074484418e-04 0.7559755251
0.6224865576 0.2489642027 0.2564708853
0.62257492 0.2523291019 0.7547540983
0.6425926965 -0.0012672731 0.252001218
0.6524524731 -0.001225879 0.5044131556
0.6325156955 0.5003794461 0.5041747611
0.6424270169 0.2514797414 0.2556332829
0.65227943 0.2510781664 0.5009081118
0.6424527893 0.2506017436 0.7549759249
0.6325488315 -4.9465960425e-05 0.507328196
0.652437746 0.2494438798 1.0051843239
0.6424527893 0.498529077 0.756135682
0.6524193372 0.5040775809 0.5046432662
0.632460469 0.2488125544 0.5050261701
0.6325966945 0.2497868782 1.007062026
0.6825435687 0.4986507861 0.743106823
0.662433748 0.0015507812 0.2466147904
0.6823815709 0.502370399 0.2425970603
0.6624632022 0.0030493003 0.7488071214
0.6724223865 0.5004438803 0.4959487694
0.6623159314 0.2511419498 0.2483028814
0.6624411116 0.2488763378 0.7483800363
0.6724923401 4.2747758249e-04 0.9993855382
0.6624447934 0.4999114843 0.7481351987
0.6624963381 0.5013179731 0.2506895879
0.6825177963 0.2506323336 0.2481086681
0.6723487512 0.2502997487 0.4965801927
0.6824220703 0.2499717199 0.7481315169
0.6723782053 0.2516164201 0.9949305981
0.7024030291 0.2511985738 0.2438497821
0.6923591641 0.2505034651 0.4956781594
0.7024030291 0.250809365 0.7433166839
0.6924033453 0.2498181191 0.9949766202
0.6925285254 0.5025168404 0.996348079
0.6925322072 0.5005538741 0.493614528
0.7324131258 0.4983403302 0.9847413032
0.732346854 0.4999707117 0.4874705765
0.7123953494 0.2497855765 0.4896685924
0.7124063947 0.2504631123 0.9910739454
0.7224244873 1.476116935e-04 0.2376404792
0.7325419877 6.1270974994e-04 0.4841689504
0.732394717 -0.0010335525 0.9858826515
0.7124284853 0.5005922743 0.9927491501
0.7223766243 0.2489375178 0.2372502117
0.7324094441 0.2505451195 0.4826759932
0.7224686686 0.2484051218 0.7383462961
0.7323799899 0.250433824 0.9855420879
0.7123806223 0.4994103291 0.4910814712
0.7123806223 3.8966314493e-04 0.4902705616
0.7124027129 4.4095019621e-04 0.9911199675
0.7524088117 0.501610856 -0.0123127364
0.7424201732 -8.9570230662e-04 0.2356081429
0.7423833555 4.4316308929e-04 0.735052954
0.7424017643 0.2493579675 0.2347622565
0.742294993 0.2522776846 0.7351394756
0.7624269043 4.7505478361e-04 0.2338813934
0.7525119012 -0.0023146224 0.4875801091
0.7624305861 0.0017703132 0.736422572
0.7526554902 3.6916134143e-04 -0.0095682632
0.7624968579 0.2537720383 0.2354111683
0.7523940846 0.2505483738 0.4904868655
0.7624526767 0.2526707986 0.7335848487
0.752515583 0.2508041582 -0.0124649868
0.7825072708 -1.2965079188e-04 0.2353108401
0.7825698609 6.6113305725e-04 0.7362467675
0.7724192246 0.001021379 -0.0123004853
0.7824446808 0.251031956 0.2375944571
0.7724634058 0.2505639942 0.4838256255
0.7825256797 0.2485007968 0.7373743092
0.7725186323 0.2496091959 -0.0164787866
0.7925842718 0.0016275165 0.4880246827
0.7925400906 -0.0011166662 -0.0114631315
0.8126241389 0.5009183506 -0.0100722053
0.7924259557 0.2493638251 0.4857944513
0.7925069546 0.249464707 -0.0134707539
0.8025692285 -6.6530108638e-04 0.2377085919
0.8126462295 0.0017427171 0.4885244828
0.8025692285 2.6255196325e-04 0.7408683077
0.8125762759 -4.4511822535e-04 -0.0121558102
0.8025213655 0.2507677105 0.2366942647
0.8124216416 0.2513775578 0.4890951569
0.8025876374 0.2510827224 0.7414702769
0.812447414 0.2515305078 -0.0113496778
0.8326198247 -3.89470473e-04 0.4933623269
0.8225538691 0.0012295212 0.7401678512
0.8326235065 8.3582144005e-04 -0.0085180111
0.8225060061 0.2520661581 0.238247971
0.8325572346 0.2517296682 0.4940498972
0.8223403265 0.2500517745 0.7385773271
0.8325056899 0.2514172597 -0.0082761306
0.8225649144 -0.0015365301 0.2439887689
0.8424611924 -3.0851624553e-05 0.7412953928
0.8426158267 0.2500869205 0.245404409
0.842612145 0.2511901128 0.7440438332
0.8625746949 -3.0427408959e-04 0.2445603635
0.8425753273 0.498345537 0.7447792665
0.8526265558 -0.0022424365 0.4951001217
0.8625305137 -0.0028472202 0.7455524379
0.8525529205 -2.2155093961e-04 -0.0060514377
0.8626188761 0.250809365 0.2494847291
0.8426379173 2.7582932171e-04 0.2425363111
0.8526302376 0.2502997487 0.4964798645
0.8626336032 0.2489310093 0.7476252737
0.8526965094 0.2503453083 -0.0025748816
0.8726296052 0.0010240475 0.500689967
0.892562701 -5.1866437757e-04 0.4988628893
0.8725743787 -0.0020261783 -0.0014781563
0.8824304735 0.2489602976 0.2517876755
0.8925001109 -0.0013301453 0.0032139817
0.8726038328 0.2499248586 0.4998772166
0.8926179275 0.2494224017 0.4994786651
0.8824083829 0.250093429 0.7504906102
0.8725633334 0.248814507 0.0011715206
0.8925995187 0.249840248 0.0028901702
0.9024997947 3.7293627668e-04 0.2530910216
0.9126062498 -1.519749779e-04 0.5029128349
0.9025402942 -8.2833923799e-04 0.7520986227
0.9023746146 0.2505008617 0.2495049789
0.9125105238 0.2506577167 0.5078169508
0.9024298411 0.2504806853 0.7506636533
0.9025918389 0.4993530542 0.7542469347
0.9125215691 0.2494158932 0.0052143787
0.9225138894 -0.0022437577 0.2504953746
0.9225286165 0.0016551126 0.7529859289
0.9226022519 0.2493410454 0.257469565
0.9225175712 0.2513801612 0.7530687687
0.94256112 -0.0014482747 0.2555384773
0.9326240263 -0.0012513272 0.5064703439
0.9424838029 -0.0020309555 0.7567542192
0.9326240263 -0.0018181598 0.0062688373
0.9424985299 0.2480178655 0.2581286016
0.9325319821 0.2520694123 0.507082438
0.9425316659 0.2471457253 0.7555033383
0.9324288925 0.2513606357 0.0058069594
0.9524650778 -0.00260196 0.5110357371
0.9525055773 -0.002698683 0.0104859352
0.9625936235 0.2504832887 0.262332261
0.9524798049 0.249067688 0.5094525766
0.9725454444 0.247579192 0.5122332324
0.9625825782 0.2472309867 0.7635029012
0.9524798049 0.2490462099 0.0065475472
0.9724497184 0.249561033 0.0131982942
0.9625310335 -0.0012016673 0.2616584974
0.982372085 0.4981672039 0.7684392326
0.9823389491 0.4987816071 0.2680178324
0.9824714928 -4.086054896e-04 0.267363398
0.9923570418 -6.2813749973e-04 0.5196648825
0.982419948 0.2494725172 0.2670062664
0.9923091788 0.001134562 0.0184363465
0.9924049047 0.2514563108 0.5146254616
0.9825083105 0.2507325646 0.7672592258
0.9924601313 0.2518923809 0.0169038103
0.0126389783 0.7514497385 0.0190570007
0.0024956687 0.5011227178 0.766841345
0.0123110431 0.5031325454 0.0180527982
0.022494484 0.7502847154 0.2626083937
0.0024182411 0.7499332559 0.2685305187
0.0125194312 0.7515408576 0.5170526676
0.0225091743 0.7523609298 0.7628521486
0.0223040261 0.5046132312 0.2630446833
0.0024067908 0.7511178045 0.7677231286
0.0124154581 1.0002440053 0.0135588314
0.0524445679 1.0014025199 0.5130533464
0.0526120884 1.0015912667 0.0150791257
0.0325354036 0.752556185 0.0151906833
0.0423686715 0.5024979658 0.7594529557
0.0425785323 0.7491912859 0.2603302993
0.032405069 0.7502651898 0.512963143
0.0425892094 0.7507988876 0.7637716703
0.0526073021 0.7501220026 0.0101259502
0.0525892614 0.7524715744 0.5084677034
0.0524791765 0.4999485828 0.51112502
0.0425568099 0.9984932164 0.2608945304
0.0325832666 1.000009699 0.5127845772
0.0325597033 1.0026196111 0.0158351769
0.0724708124 1.0020403538 0.5119561793
0.0624567697 1.0003416329 0.7558227317
0.0725072619 1.0009013647 0.0115199599
0.0723375324 0.7513390938 0.0068301229
0.062534455 0.750382343 0.2582031574
0.0725565976 0.7497575261 0.5082431155
0.0624748104 0.7501870877 0.7585730129
0.0624564015 1.0016433347 0.2575119054
0.0825040003 1.0017214368 0.253449994
0.1023884968 1.0044615192 0.7524318227
0.0825404498 1.0022941856 0.7564173374
0.0924197398 1.001851607 0.0017984337
0.0926226053 0.7537081911 0.0041589077
0.0925231975 0.4996029809 0.0015864559
0.1025151496 0.7538188358 0.2530422382
0.0825040003 0.7511893981 0.2582767928
0.0924352032 0.7513521109 0.5050823171
0.1025390811 0.7530247977 0.7537397711
0.0823813974 0.7551075206 0.7578596702
0.0925810013 0.5013980277 0.5037559599
0.1124003304 1.0001593947 -0.001735061
0.1125428148 0.7524195063 0.0022797329
0.1224025914 0.4999368675 0.7496299967
0.122620184 0.7526473042 0.2513964875
0.112553492 0.7531549679 0.5047205833
0.1224972129 0.7535324614 0.7516512878
0.1123528356 1.0028278834 0.5012818114
0.1225082582 1.0017669964 0.7509268998
0.152514305 1.0006149903 0.4935215634
0.1324103751 1.0007972286 0.4982986583
0.1423540961 1.0007907201 0.7469625553
0.1525419182 0.9999576309 -0.0035863463
0.1323971208 1.0018971666 -0.0015132252
0.1524318334 0.7506947514 -0.0050945276
0.1324405656 0.7524845914 0.0017109917
0.1424089544 0.7512935343 0.2457771881
0.1524432468 0.7502912239 0.4897293416
0.1324387247 0.7515603831 0.4974408062
0.1424328859 0.5002759608 0.2455010554
0.1423728731 0.7497380006 0.746043954
0.172506309 0.7509420748 -0.0077965952
0.1624127401 0.5003872563 0.7441533658
0.1724050604 0.4996172997 -0.0107618006
0.1624432988 0.7514106874 0.2432929146
0.1823554085 0.9994890182 0.7417353642
0.1724974728 0.7500569176 0.4913134226
0.1623435229 0.5002492759 0.2414373032
0.1622871918 0.7505580728 0.7428675081
0.1824496618 0.7511893981 0.2421129077
0.1824456118 0.7501089856 0.7389105272
0.1624974208 1.0001268521 0.2455305095
0.1724455599 0.9975234485 0.4938556839
0.1725464403 0.9974583634 -0.0097583529
0.1924692271 1.0009989923 0.4893565625
0.2024795881 0.9987991163 0.7382846265
0.192512672 0.7512675002 -0.0115004186
0.2025672142 0.7517230959 0.2376892626
0.1925277673 0.7506882429 0.4901370975
0.2026537357 0.750753328 0.7362449266
0.2325128799 0.7478310075 0.9912948515
0.2325290797 0.50009177 0.9944151505
0.2325033073 0.7499592899 0.4924906681
0.2325360751 0.5002304012 0.4890426917
0.2225573774 0.9995671204 0.2414511098
0.2124071092 1.0005564137 0.4925983599
0.2124715402 0.9999706479 -0.0082578778
0.212521244 0.7502131218 -0.0110934083
0.2324694351 0.9993978991 0.994709692
0.2224822693 0.7506687174 0.2407534147
0.2125746297 0.7503107494 0.4925256449
0.2224432425 0.4999609489 0.240818766
0.2224616514 0.7498356282 0.7378915977
0.2524411894 0.7487096562 0.9957129739
0.252571524 0.5005701454 0.9942034488
0.242558954 0.7477789394 0.2423595863
0.2526595183 0.7507988876 0.4913419563
0.2425523268 0.4976966386 0.243947349
0.2425269226 0.7490806412 0.74516125
0.2525350745 0.5018178266 0.4925900759
0.2625682624 0.4982427026 0.7471705753
0.2626691429 0.7486901307 0.2476659354
0.2626198072 0.7482019925 0.7510032965
0.2823956914 0.4976204891 0.7498030399
0.282565421 0.7489569795 0.250887483
0.2825274987 0.5000950242 0.2483921643
0.282555112 0.7487552157 0.7531396428
0.2725929822 0.7486120285 0.998879295
0.2725407011 0.5005206807 0.9989069083
0.2725789915 0.749295422 0.5002868134
0.2825120353 0.9983890802 0.2468412192
0.2825304442 0.9994434587 0.7483082418
0.3125442226 0.9981938249 0.9987780464
0.2925691547 0.7505710898 1.0002415494
0.3024701671 0.4957030823 0.7499429471
0.2923416214 0.4984060661 0.9999562124
0.3025706794 0.7517621469 0.2486397632
0.2925463277 0.750382343 0.5000659072
0.3025762021 0.4987158712 0.2504484321
0.3025747293 0.7470434779 0.7502494543
0.3026476284 1.0010250264 0.2491018252
0.3126252216 0.750766345 0.9973145433
0.3124496012 0.4974193762 0.9981981678
0.3125103504 0.7482540606 0.5002757681
0.2924866831 0.9986884716 0.9980140794
0.332384906 0.7472257161 0.9954644545
0.3325737808 0.4976282993 0.9942862886
0.3224422896 0.7482735861 0.249463559
0.3325520583 0.7477398883 0.4946932863
0.3225486927 0.750343292 0.7497570178
0.3326083894 0.4993829933 0.496982426
0.3526353703 0.9963128658 0.4932822484
0.3425708873 0.9987730823 0.7436149071
0.3625941864 0.748208501 0.2437282838
0.3525315444 0.9987275227 0.9953908192
0.3625794594 0.7483777222 0.7390283438
0.3625647323 0.9970483274 0.2422169177
0.3526427338 0.7490350816 0.9899878236
0.3625426417 1.0013309263 0.741849499
0.352512031 0.4977929646 0.9927215369
0.3425712555 0.7493539986 0.243501855
0.3524803678 0.7480978563 0.4937636397
0.3424652206 0.7481629414 0.7416709332
0.3925932378 1.0005433967 0.4951544278
0.3725202349 0.7484818584 0.9909082658
0.3725275984 0.4977962188 0.9924085865
0.3826487806 0.7503302749 0.241424417
0.3725828249 0.7482931116 0.4898775328
0.382483101 0.5013947735 0.2427157974
0.3825825087 0.7478570415 0.7403095993
0.3823947385 1.0006084818 0.2413747131
0.3824462833 1.0011551966 0.7403602236
0.3725055078 0.9972761252 0.9909634923
0.3725717796 0.501226854 0.4888199447
0.3925416931 0.7527774743 0.9913316692
0.3925196025 0.7513195683 0.4900551781
0.4126036508 0.7494776603 0.9890029505
0.4126772861 0.7491392178 0.4881222496
0.4125300154 0.5001060887 0.4861543442
0.4025892399 1.0014220454 0.2402508532
0.4025266498 0.4996576524 0.7400454324
0.4026739206 0.7505580728 0.2392797867
0.4025340133 0.499122653 0.2401937858
0.4025855581 0.7521331319 0.7410606801
0.4325662007 0.7503237664 0.9906689508
0.4226070163 0.7509550918 0.24001522
0.4324557476 0.7499072218 0.4897772046
0.4224634274 0.4991148428 0.2403861582
0.4225444263 0.750382343 0.7372132318
0.4426027022 0.7473363608 0.2379083279
0.4425695663 0.747889584 0.7391498421
0.4325367465 0.999293763 0.4907565551
0.422548108 0.9998144437 0.739819924
0.4425327486 1.0001203436 0.2383556628
0.4524146158 0.9988576929 0.9897300998
0.4624327084 0.9976991783 0.2369473863
0.4726312077 0.9980246037 0.4887490707
0.4625321162 0.9995606118 0.7355039707
0.4524367064 0.7491262008 0.9897024865
0.4525692501 0.747466531 0.4887849679
0.4724508011 0.7499918325 0.9883586409
0.4626167969 0.7475967011 0.2389778817
0.4725354817 0.7500569176 0.4873021356
0.4625284344 0.7479676862 0.7378474164
0.4724802552 0.499463048 0.4915941575
0.4824578484 1.000777703 0.2381660517
0.4924391234 0.9998209522 0.4901343362
0.492365488 0.9999836649 0.9925374484
0.482527802 0.4975853431 0.735681616
0.492413351 0.7508769897 0.489197326
0.4825719832 0.7504864792 0.2432238815
0.4924906681 0.7514171959 0.9870055909
0.4825314838 0.7483321627 0.7412963133
0.5124900357 0.9996712565 0.4941198508
0.5124164004 0.9999771564 0.9927767634
0.5024829884 0.99856481 0.2398035183
0.5226517174 0.7483777222 0.7455598014
0.5223829483 1.0049301318 0.244854905
0.5223682212 1.0005954648 0.7460098977
0.5025455785 0.7514952981 0.2427084338
0.5024866702 0.4984203849 0.2390551988
0.5024608978 0.7494711517 0.7426410793
0.5025013972 0.5027322721 0.738100538
0.5125378987 0.7504148856 0.9965321675
0.5124237639 0.501099938 0.9897945307
0.5124642634 0.7518467575 0.4964283198
0.5224160842 0.5009945002 0.2422574172
0.5226038544 0.7497835602 0.245283831
0.5326624465 0.7500439005 0.5002509161
0.5326403559 0.501807413 0.496272765
0.5324194497 0.9992547119 0.9966702338
0.5424890872 1.0008948562 0.249559285
0.5524114538 1.0005564137 0.4985885976
0.5525439975 0.7501024771 0.9995972399
0.5423933612 1.0000422415 0.7457521739
0.5424964507 0.7455920804 0.249844622
0.5525255886 0.7487161647 0.5009587362
0.5426069038 0.7493409816 0.7494274995
0.5326109017 0.7496208475 1.0033618484
0.5626099531 0.9994694927 0.2485237875
0.5625510448 0.9984541653 0.7514349839
0.5622970028 0.7495232198 0.2520812965
0.5624295465 0.7480848393 0.7495968608
0.5724881386 0.9978683995 0.5006927284
0.572528638 0.9965862232 1.0012172181
0.5724991839 0.7484753499 1.0033802573
0.5725323198 0.7493735241 0.5006080477
0.6023877822 1.0015587241 0.2517830733
0.5924396432 0.7497640347 1.0069147552
0.5925574598 0.9987079972 0.499257759
0.6023988275 1.0003286159 0.7530706096
0.5924396432 1.0007972286 1.0038312739
0.6023141469 0.748963488 0.2546419667
0.6023325557 0.4993231151 0.2536635366
0.592443325 0.7492108114 0.5036860063
0.6024025093 0.7498681708 0.7525919797
0.5824694135 0.9988316588 0.2504824885
0.5825614577 1.0013439433 0.7482640606
0.5824878224 0.7498811878 0.2527274469
0.5824399594 0.7510331939 0.7533439809
0.6124426926 0.7505710898 1.00317776
0.6124721467 0.7500829516 0.503516645
0.6125052826 1.000406718 1.0043283127
0.6225491477 0.9990529481 0.2546658982
0.6225933289 0.7512024151 0.2545361158
0.6225049664 0.7513325853 0.7534074914
0.6426147871 0.9988186418 0.7527576593
0.652389883 0.9986884716 1.0012540358
0.6325709221 0.9973477188 1.0034999147
0.6324899232 0.7519378767 1.0044939923
0.632460469 0.5003853037 1.0047517161
0.6325267409 0.7506752259 0.5065485815
0.6526034256 0.7501675622 1.0007201794
0.6524340642 0.5012203454 1.0040153624
0.6424270169 0.750024375 0.2547671468
0.6424785617 0.4990146117 0.2550488021
0.6525150632 0.7498486453 0.5017116579
0.6423975627 0.7494190837 0.754226685
0.6725033855 0.7521070979 0.9950502556
0.6725254761 0.5015112758 0.9964585321
0.6824809786 1.0036674811 0.2466810623
0.6724555225 0.9997168161 0.4970118801
0.6824404792 1.0017865219 0.7436130662
0.6824662516 0.7503107494 0.2480838161
0.6725070672 0.7487421987 0.4956643528
0.682363162 0.7486836221 0.7465925376
0.662419021 0.7502977324 0.2492168805
0.662481611 0.7502066133 0.7507363682
0.7024140744 0.9993718651 0.2414897684
0.7023551661 0.4996491914 0.7421228704
0.6924180724 0.7502326473 0.9945532168
0.6925911155 0.9990334226 0.4953965041
0.702388302 1.0009339073 0.7414905266
0.6924180724 1.0010770945 0.9941758355
0.7024803463 0.751430213 0.2415891762
0.7024656192 0.4995164178 0.2425326294
0.6924364812 0.7500634261 0.4928662085
0.7023662114 0.7531419508 0.7445832123
0.7223950332 0.5002434182 0.7403040766
0.7323836717 0.7499332559 0.9857353807
0.7224318509 0.7498616623 0.2385222628
0.7222882619 0.5031331963 0.238241528
0.7324352164 0.7473363608 0.4867885289
0.7224723503 0.7500439005 0.7374332175
0.7223803061 0.9983760632 0.7382413657
0.7124763483 0.7494711517 0.9916078018
0.7124137582 0.7504994962 0.4912977751
0.7423465378 0.501763806 0.7355637994
0.7425232627 0.7500178665 0.2328909976
0.7425085356 0.5003443001 0.2360895341
0.7425858528 0.7482150095 0.7326459977
0.7525339918 0.4989352079 0.4873177831
0.752563446 0.753604055 -0.0145892937
0.7624048137 0.4983767778 0.7364004813
0.7625520845 0.7499332559 0.2339872442
0.762415859 0.500357968 0.2330373479
0.7524603564 0.7522502851 0.4840732244
0.7625152668 0.7493409816 0.7343497362
0.7826140421 0.7495492539 0.2333190032
0.7825330432 0.5021504114 0.234746609
0.7724044975 0.7519834362 0.4822894075
0.7827134499 0.7515538746 0.7328429723
0.7724523605 1.000367667 0.4862795243
0.7726254036 0.4996042826 0.4850829495
0.7724265881 0.7511178045 -0.019585371
0.782488862 0.5007126817 0.7343635428
0.7726143583 0.4986143384 -0.0158704387
0.7925732265 0.7495167113 0.4837151724
0.8125026405 0.4996101403 0.487844276
0.8126204571 0.7518727916 -0.013428386
0.8026391821 0.5011396399 0.7356604458
0.8025360926 0.7502326473 0.2346122245
0.8025213655 0.4996446354 0.2407856301
0.7926063624 0.4994409191 0.4853047761
0.7926063624 0.7514367215 -0.0161118983
0.8126315024 0.7507077685 0.4859297563
0.792484864 0.4998659247 -0.015290146
0.802561865 0.7510527194 0.7352775419
0.8325240987 0.5023788601 0.4885161988
0.8325277805 0.7511828896 -0.0100950599
0.8225170514 0.5007530345 0.7418228062
0.8325866888 0.5011227178 -0.0067264716
0.8225170514 0.749308439 0.2384504683
0.8225170514 0.4992300434 0.2401910245
0.8325756435 0.7494841688 0.4857429065
0.8225207331 0.7502066133 0.7388709481
0.8626777844 0.7510917705 0.7454244964
0.8626004673 0.4999479319 0.7497386089
0.8525971017 0.7498551538 -0.0070409591
0.8525860564 0.4997526767 -0.0034080382
0.8626004673 0.7481238904 0.2460431958
0.8626078308 0.5006293728 0.2464399064
0.8526486465 0.7494581347 0.4956588301
0.8425753273 0.751827232 0.2398725515
0.8425237825 0.5009294151 0.2390754486
0.8426489626 0.7495362368 0.7432458098
0.8525418752 0.4991844838 0.4942551558
0.8725486063 0.4993725797 0.4979258792
0.8826440161 0.7496143389 0.7497496542
0.8925479739 0.4995912656 0.5024415685
0.8726296052 0.7498942048 -7.3711754454e-04
0.8926032004 0.7497314921 0.0013135448
0.8826661067 0.5002369097 0.7536965103
0.8724933798 0.4984757072 -0.0015934601
0.8926731541 0.5000162713 0.0022601275
0.8825446083 0.7492303369 0.250808325
0.8825740625 0.5023007579 0.2501916287
0.8726516958 0.7496729155 0.4972180592
0.8926547452 0.7510136684 0.4975540205
0.8825556536 0.9995801374 0.2483203698
0.8825998349 0.9997233246 0.7520084193
0.9124332067 0.750369326 0.5023007408
0.9125657504 0.9994369502 0.0022138293
0.9125915227 0.5016245239 0.5081556735
0.9026249749 0.7499267474 0.7550173448
0.9126320222 0.7522633021 0.0032708651
0.9125105238 0.5000234306 0.0054012285