POSCAR file written by Ovito 3.7.11
1
271.6084088619 0.0 0.0
0.0 15.3644918187 0.0
0.0 0.0 10.8643363544
Sr Ti O 
800 800 2400 
Direct
0.0226696789 0.4997578833 0.7656707179
0.0127242946 0.2514040786 0.5165933779
0.0226564981 0.2511567551 0.7687256675
0.0025307589 0.2501785256 0.7680850393
0.0126762475 0.2498836899 0.016262403
0.0225912571 2.825286637e-04 0.2700058357
0.0025117242 -5.4873866039e-04 0.265792969
0.0026850988 0.4980760835 0.2619565635
0.0126219045 0.4996999575 0.5185842957
0.0124827336 0.0016836163 0.515602061
0.0224237734 6.6555467389e-04 0.7658179888
0.0025393743 0.0015428372 0.7653430403
0.0226067574 0.2498804357 0.26860124
0.0026130465 0.2494508738 0.2687641583
0.0325111636 0.5017605529 0.0179204886
0.0423992963 0.5022181013 0.2619068596
0.0326311893 0.4990015941 0.5148822748
0.0325023273 0.2502384039 0.5137400053
0.0425970074 0.2502325462 0.7617625179
0.0325450359 0.2519898448 0.0126125712
0.0524608405 0.5010394096 0.010782731
0.0424582046 0.0028906201 0.7598590422
0.0425395718 0.2514450823 0.264595473
0.0525657709 0.2508580144 0.5116404753
0.0525241669 0.2500685317 0.0106443884
0.0625470525 0.2506126434 0.2529951326
0.0624612672 0.5018510212 0.7579721345
0.0724303989 0.5009561006 0.0066643938
0.0625617796 0.5022376269 0.2588141718
0.0723530817 0.5015080225 0.5067915827
0.072650937 0.2511203075 0.5032322305
0.0624844624 0.2486242926 0.7567755589
0.0725231796 0.2500040974 0.0017768426
0.0925439146 0.2493981548 0.5052167051
0.1025616457 0.248941908 0.7516956351
0.0826307459 0.2523269858 0.7538476304
0.0925313966 0.2514203499 0.0033743631
0.1025469186 0.0017196735 0.2515564805
0.0925645326 -2.2110009873e-04 0.5035829192
0.1025104691 0.2512739084 0.2552962395
0.0826012917 0.2491130819 0.2523968448
0.1023797662 0.5013824082 0.7517490208
0.0823888535 0.500595529 0.7517950429
0.1024327837 0.4991662594 0.2530255072
0.0823807536 0.5042350896 0.2521216324
0.1225024864 0.251332485 0.2490666828
0.1123430071 0.5003957176 -6.7177438186e-06
0.1124302651 0.2525352583 0.499491551
0.122518318 0.4996869405 0.2484472248
0.1124681873 0.5017690139 0.4984330418
0.1224619869 0.2484069082 0.752420944
0.1125893176 0.2507519256 2.3700630095e-04
0.1223658927 7.8719878826e-04 0.2502153954
0.1524238722 0.2495101013 0.4982931345
0.1324557865 0.2483698097 0.5003208699
0.1425029717 0.24895102 0.7501483708
0.1524253449 0.2519429835 -6.543688999e-04
0.1325117494 0.2509836287 4.4879098111e-04
0.1424149774 4.8663564211e-04 0.249399883
0.1424845629 0.2503073941 0.2482309207
0.1424551087 0.5015607415 0.7525718967
0.1525383753 0.5001425364 -0.0021993781
0.1325308946 0.5005128709 6.0081131131e-04
0.1524735761 0.4997175305 0.4990801131
0.1324999677 0.5004751215 0.4982415897
0.1823474671 0.2503093467 0.2426815712
0.1724729569 0.5005590813 0.4933623225
0.1824744882 0.4969065036 0.7429054065
0.1724162577 0.2520256417 0.4941446989
0.1624625894 0.2490492985 0.7466985513
0.172381649 0.2519800821 -0.0064374097
0.1824663883 0.5002375607 0.2432172689
0.1624323989 -5.9166669615e-07 0.7437227597
0.1625156069 0.2508215667 0.2443641406
0.1823776576 0.2497339941 0.7409991695
0.1823448899 3.0453941947e-05 0.2402589658
0.192356362 -7.7276168963e-04 -0.0125422648
0.202484178 0.2496415732 0.2429687493
0.2024849143 0.5013602793 0.7407561726
0.1923125489 0.4997116729 -0.0126211744
0.2024348423 0.5017397256 0.2405231328
0.1923390576 0.5003299816 0.4890887066
0.1924156385 0.2502481667 0.4911458963
0.2024480966 0.2501140913 0.7415229015
0.1923467893 0.2506282638 -0.0101680839
0.2024190106 -8.0244051047e-04 0.2369582579
0.2124993318 0.2504056727 0.4949510067
0.2224938678 0.2483626503 0.7472793506
0.2124315872 0.2503789878 -0.0099866462
0.2225060176 -1.9037991576e-04 0.7395025296
0.2224938678 0.24967737 0.2421118171
0.2324166091 0.2503171569 0.4935896719
0.2324681539 0.2506347724 0.9923444806
0.2324342817 -0.0010201503 0.4867185665
0.2225270037 0.4998346838 0.7393561792
0.2124389508 0.500223242 -0.0122023269
0.212445578 0.4991929443 0.4883311822
0.2424413356 0.4995561194 0.7429643149
0.2625515377 0.2490922547 0.7452147975
0.262550065 -0.0019924115 0.2411251024
0.2625636876 -9.9619895267e-04 0.7442345259
0.2525253386 0.2498713237 0.4924869814
0.2425079757 0.2500503079 0.7450012548
0.2525172387 0.2506725217 0.9945167255
0.2624322483 0.249375375 0.2428297625
0.242357023 -0.0020016927 0.2421836116
0.2624815841 0.4991994529 0.2408876282
0.2522948597 -4.4707568198e-04 0.4939035428
0.2423426641 -0.0016329268 0.7410746458
0.2524384488 -0.002588344 0.9894819035
0.2423559185 0.247952614 0.2449605875
0.2726856128 0.2491182887 0.490611119
0.2726024047 0.252256043 0.9953911462
0.2724481385 -5.9735725505e-04 0.4984238374
0.2724786972 4.0313141593e-04 0.9966981749
0.2826168222 0.2500991217 0.746082775
0.2724002755 0.4994077253 0.4923185404
0.2825829499 0.2486692013 0.2448013509
0.3125102266 2.1211853001e-05 0.5001533494
0.2925458226 0.4999231995 0.4961761161
0.2925207866 0.2501830815 0.4954728978
0.3025403586 0.2488826806 0.7512197662
0.2926091491 0.2483782708 0.9971399875
0.2924604055 -0.0019727363 0.5012247448
0.302530786 -9.5395870108e-04 0.7503674362
0.3126114753 0.5015334057 0.4964412036
0.3025473539 0.2493402291 0.2445933308
0.3125882802 0.249686482 0.5002058146
0.3125923301 0.2497522179 0.9987507623
0.3224576359 -0.0015648478 0.2490952165
0.3325099756 0.0019683638 0.4975945184
0.322572139 -9.5225450694e-05 0.750940872
0.3325902382 -7.0403178874e-04 0.9972228273
0.3224627904 0.2487752901 0.2497367651
0.3226936374 0.500525237 0.7504760484
0.3226895875 0.4994799698 0.2504768011
0.3324245585 0.2489223825 0.4997759678
0.3226310473 0.2469880523 0.7517563843
0.3326263196 0.2492211233 1.0023220803
0.3624983697 0.2493727716 0.2443043118
0.3525038338 0.4996049332 0.4959496872
0.3524883703 0.2485247123 0.4989917506
0.3424982525 0.2494333008 0.7459585153
0.3625683233 0.4998268735 0.743178778
0.3525447014 0.2507844682 0.9986219003
0.3626198681 0.4990927132 0.2468677449
0.342449285 0.0022920972 0.2513429378
0.3424500213 0.2503640182 0.248387396
0.3624431431 0.2508697297 0.7436325563
0.3425070888 0.4980539545 0.7492076783
0.342603183 0.498769891 0.2497422878
0.3825713859 0.2496890854 0.2421256237
0.3925342586 0.2477228635 0.4889386745
0.3925268951 0.2471937214 0.9908441588
0.3926373482 -0.0016690491 0.9912583581
0.3824977505 0.5006339292 0.7439409047
0.3925379404 0.4982960712 0.988717936
0.3724722877 0.2492718897 0.4960739469
0.3824498875 0.2514717672 0.7406475604
0.372612195 0.2498290184 0.9918934636
0.392512168 0.4972208648 0.4877089629
0.3724575606 3.6232303727e-04 0.4936964432
0.4126109566 0.5003085035 0.9855424084
0.4026075844 0.2474058989 0.7347732945
0.4026039027 -0.0022540342 0.7386538813
0.402581812 0.248180412 0.2390255724
0.4126035931 0.2474879062 0.4887803583
0.412588866 0.2495999187 0.9874477249
0.4125520483 -0.0028641358 0.4879344714
0.4125336394 -0.0015902961 0.9851190047
0.4425732101 -0.0040827377 0.7306082909
0.4424701205 0.2501882883 0.2330178424
0.4225738293 0.4968049708 0.7366473161
0.4324667483 0.4972957127 0.9846403744
0.432536702 0.4993842946 0.4846751835
0.4427057539 0.5003280291 0.7309028326
0.4425327106 0.5000390511 0.2288583614
0.432536702 0.2485793838 0.4823032024
0.4224081496 0.2469522555 0.7354516609
0.4325219749 0.2488293108 0.9805996306
0.4225517387 -1.0531364637e-04 0.2314945096
0.4327244723 -0.002189242 0.9867665973
0.4224081496 0.2476525715 0.2336962087
0.4425069382 0.2492094079 0.7303073062
0.4725870084 0.2487160626 0.4862150843
0.4624842284 0.2485605092 0.7304021118
0.4725575542 0.250119949 0.9857172925
0.4724213287 -6.282076083e-04 0.9829283509
0.4624363654 0.2501049794 0.2338987061
0.4525397646 0.4978912417 0.9869875035
0.4524145844 0.4974955241 0.4831159534
0.4625909998 0.5008324389 0.7318545705
0.4725281001 0.4994695562 0.9877330622
0.4625357732 0.4994454747 0.232871492
0.4525876276 0.2516761345 0.4787410889
0.4525876276 0.2507779596 0.9814832557
0.4523924937 0.0014974078 0.4821973515
0.4823694743 0.2500385925 0.7412090305
0.4825204269 -0.0010733248 0.7329931582
0.492685797 0.4978124887 0.9904115507
0.4926084799 0.5007113805 0.4923102564
0.4825167452 0.2507961835 0.2362219037
0.4924796179 0.249344785 0.4904233487
0.4924538455 0.2489249859 0.9894082681
0.4825314723 0.4992359005 0.2349222385
0.5024461723 0.2499344563 0.7442989569
0.5124384992 0.2502572786 0.4949721769
0.5125121346 0.2497112143 0.995925003
0.5025345348 0.0025077243 0.742794033
0.5025198077 0.2497040549 0.2439508618
0.5225633698 0.2478901323 0.248202387
0.5225670516 0.2492107096 0.7440182219
0.5125747247 0.500928114 0.4978715717
0.5224565984 0.499964854 0.7482237249
0.5424007527 0.4992098665 0.7475554835
0.5523820342 0.5005005047 1.0016317482
0.5424486157 0.4994018676 0.2480413095
0.5524630332 0.5031227847 0.5030435397
0.5325372878 -0.001686557 0.4947448276
0.5326551045 0.2508677771 0.5001441449
0.5325078337 0.2507467188 0.9988428066
0.5325372878 0.4989215393 0.9963392022
0.5524630332 -7.5753176841e-04 1.0013556154
0.54254066 0.2485644143 0.2495186202
0.5526176676 0.2495563117 0.5041489915
0.5425774777 0.2507870716 0.7517158849
0.5524777603 0.2492373945 1.0032333187
0.5724771411 0.2516891515 0.5044242039
0.5725949578 0.2495452472 1.0070439518
0.5624811325 0.499133066 0.7539120613
0.5624369512 0.5009951517 0.2506746963
0.5725250041 0.5022037826 1.0058933983
0.5725029135 0.4992001037 0.5053925097
0.5624443148 0.2511359279 0.2546482478
0.5624958596 0.2513624241 0.7535935881
0.6023289415 0.5005389049 0.757931635
0.5925427938 0.5013811065 1.009952551
0.5924617948 0.4991760222 0.5098290439
0.5823700601 0.2499071206 0.7581203258
0.6024025769 0.2499481242 0.2608281007
0.592491249 0.2524558544 0.5088634994
0.6024430764 0.2488943959 0.7583458342
0.5925022943 0.2509126859 1.0111675355
0.5825210128 0.5005896713 0.7562085661
0.5825136492 0.5017267086 0.255496896
0.5824289685 0.250447978 0.2576166758
0.6124354032 0.4993777861 1.0128427413
0.6123544043 0.5022949018 0.5110633577
0.6224976838 0.5026522192 0.7624528499
0.612439085 9.7125954558e-04 0.5124200903
0.6224645478 0.501812621 0.26084743
0.6124501303 0.2524122473 0.5070483862
0.6123617678 0.2502989331 1.0112963975
0.6223577764 8.9621638674e-04 0.7626866424
0.6224571843 0.2507519256 0.2603052892
0.6224571843 0.2529218639 0.756981738
0.6424933828 4.0488871453e-04 0.2534875694
0.6523936654 -0.0013850175 0.5056686425
0.6324568747 0.5004581993 0.5080912479
0.6423424302 0.2520393095 0.2545506809
0.6523973471 0.2494710502 0.5009256008
0.6424050203 0.2514496382 0.7503490273
0.6325526007 0.001619898 0.5096918979
0.6524268013 0.249743106 1.0020367431
0.6425044281 0.5001679196 0.7576582635
0.6525004367 0.501724756 0.5013434819
0.6323243309 0.2512120775 0.5038544498
0.6324863288 0.2530630987 1.0068598633
0.6825326439 0.4978671602 0.7451025035
0.6624559459 0.0011193933 0.2513622671
0.682418509 0.4991369711 0.2437594097
0.6624117646 0.0026485034 0.7527964847
0.6724004097 0.4985525066 0.4960113568
0.6624007193 0.248574177 0.2500294659
0.6624780365 0.2486451198 0.7489803289
0.6725219082 -0.0016007748 1.0001590398
0.6624264917 0.497106315 0.7494782885
0.6624817183 0.4984945809 0.2512637797
0.6826394153 0.2477313246 0.2437842616
0.672363592 0.2482917076 0.5002205417
0.6826025975 0.248771385 0.7423651066
0.672363592 0.2475438794 0.999754045
0.7024878435 0.2516260189 0.2418108323
0.6924991984 0.2511827892 0.4924823792
0.702576206 0.2497528688 0.7426384781
0.6924955166 0.2481765069 0.9905864348
0.6925765156 0.5000670377 0.9940657086
0.6924771077 0.500337141 0.4924464819
0.7325347777 0.5004074329 0.9870519345
0.7324905964 0.5024055465 0.4886745074
0.7125538057 0.249699499 0.490184954
0.712550124 0.2508951129 0.9913043802
0.7224577701 0.0031572088 0.241188613
0.7325163688 0.0036202245 0.4886800301
0.7325016417 0.0022583831 0.9907152968
0.7124065349 0.4990465028 0.992353685
0.7224540883 0.2509933914 0.2402902608
0.7325200506 0.2512660982 0.4858505889
0.7226160862 0.2495777898 0.7411979852
0.7325863225 0.2525528312 0.9883681677
0.712597987 0.4993224638 0.4919034207
0.7124654432 6.9783690007e-04 0.4917561498
0.7124875339 0.0011605922 0.9915713086
0.7523942512 0.5005564779 -0.0171267878
0.7423209254 1.1031340066e-04 0.2378400421
0.7424755598 8.2826750745e-04 0.7359063596
0.7426044217 0.2500164636 0.2349075114
0.7425749676 0.2530058238 0.7342440399
0.7625043947 7.7789161418e-04 0.2349507722
0.752574658 -1.5217494244e-04 0.4864212635
0.7624344411 9.2446333465e-04 0.7370145727
0.7525857033 3.9896596739e-04 -0.0136778795
0.7625706666 0.2539059512 0.233522245
0.7525636127 0.2496760683 0.4874070577
0.7625043947 0.2522059275 0.7316520731
0.7524899772 0.2496806243 -0.015776351
0.7825369115 7.8003942358e-04 0.2368726568
0.7825737292 7.7593906018e-04 0.7371204236
0.7724304497 0.001897421 -0.0133471921
0.782625274 0.2521239202 0.2384208415
0.7726292654 0.2510584766 0.486098188
0.7826510464 0.2497841097 0.7374177267
0.7725961294 0.2487811478 -0.0152082721
0.7925476472 0.0020068942 0.4877347353
0.7925734196 -6.7759524389e-05 -0.0119867408
0.8127090259 0.5012489837 -0.0090012579
0.7925734196 0.2511971079 0.4864737287
0.7926912363 0.2493551986 -0.0099874654
0.802654109 2.883863257e-04 0.2405406213
0.8125838457 0.0013740714 0.4904389962
0.8024884293 8.0750534989e-04 0.7408905573
0.8126243452 4.3944892038e-04 -0.0087472498
0.8026798814 0.2512172843 0.2400665932
0.8124770744 0.2527773749 0.4908393888
0.8027166991 0.2525730076 0.7415044926
0.8125617551 0.2529752338 -0.0076914108
0.8324543645 -7.7458407337e-04 0.493700125
0.822473083 6.684835049e-04 0.7439160527
0.832623726 -2.1745533126e-04 -0.0039758603
0.8225982632 0.2524298203 0.2389777094
0.8325611359 0.2513845531 0.4953099794
0.8225062189 0.2491618958 0.7420825307
0.8326310896 0.250916591 -0.0077090824
0.822520946 -5.6032219697e-06 0.2445850468
0.8424503732 7.1085392675e-04 0.74195643
0.8426344617 0.2502039088 0.2437005013
0.842549781 0.2503874488 0.744498693
0.8625565254 0.0013302041 0.2446494778
0.8425240086 0.4994812715 0.7443063205
0.8524905631 9.1255275523e-04 0.4951341749
0.8625123441 0.0010666093 0.7469222188
0.8524979266 0.0023536678 -0.0044225696
0.8625049806 0.2494508738 0.2427772972
0.8425645081 0.0017960834 0.2444055605
0.852604698 0.2515719983 0.4962018885
0.8626964327 0.2501661594 0.7444793637
0.8527151511 0.2524376306 -0.0070876841
0.8725157163 0.0014890769 0.4948037359
0.8925555966 9.2414988966e-05 0.5001284974
0.8725157163 8.4252115167e-04 -0.0040657508
0.8824969978 0.2486379605 0.2478213237
0.8924488252 -0.0010317354 0.0010321124
0.8725120345 0.2507232881 0.4935942741
0.892758094 0.2509946931 0.4987699238
0.8825006796 0.2501974003 0.7454568739
0.8725930335 0.2500301315 -0.0030901458
0.8926034596 0.2512394132 -9.592705844e-05
0.9025074239 -3.9936827918e-04 0.2535805342
0.9125586591 -0.0017850308 0.5044693056
0.9024521974 -0.0024915039 0.7523160136
0.902426425 0.2509302589 0.2465198176
0.9124702966 0.2478920848 0.5057754139
0.9025516052 0.249620746 0.7493346994
0.9026141953 0.499124605 0.7519644044
0.9125586591 0.2476467139 0.004583917
0.9225104865 -0.0030945827 0.2567210849
0.9223779428 1.5925742099e-04 0.7557483447
0.9226356667 0.2469086485 0.2549473917
0.9225399407 0.2503900523 0.7526317254
0.9424840949 -9.4491186753e-04 0.2553588296
0.9325285858 -0.0025548447 0.5080857253
0.9425430033 -4.6588528554e-04 0.7574778567
0.9325543582 -0.0029653236 0.0057747859
0.9426019116 0.249235442 0.2567302894
0.9325101769 0.2502013054 0.5078740234
0.9426939559 0.2502416582 0.7551206027
0.932572767 0.2492334894 0.0048849018
0.9524948307 -4.1017241133e-04 0.5090972919
0.9525169213 -0.0010041393 0.0112802303
0.9624871575 0.252952454 0.262624805
0.9524469676 0.2515173268 0.508621423
0.9725862557 0.2485982585 0.5106786126
0.9625350205 0.250338635 0.7625458147
0.9524653765 0.250386798 0.0055038075
0.9725862557 0.2499207884 0.0126874032
0.962527657 2.4399826471e-04 0.2558328577
0.9825969915 0.4977083525 0.7629940703
0.9825417649 0.4994682545 0.2657497082
0.982556492 0.0017647775 0.2612018004
0.9924052298 -9.4666916614e-04 0.5137832661
0.9824607659 0.2493604054 0.2622308555
0.9924162751 4.8227493817e-04 0.011379454
0.9925083194 0.2502234343 0.5110108924
0.982556492 0.2502722482 0.7630677057
0.9925745912 0.2507102711 0.0123705868
0.0126921527 0.7493151121 0.0176648817
0.0026699299 0.5002199878 0.7634340419
0.0125715011 0.5019512523 0.0160002609
0.022560993 0.749744674 0.2642723975
0.002574977 0.7520551962 0.2632350585
0.0126409761 0.7500050145 0.5172993575
0.0224724096 0.7524847581 0.7661880068
0.0225309129 0.5025682594 0.2655610174
0.0025319003 0.7508641383 0.7642882129
0.0123949602 0.9996195182 0.017351563
0.0525385258 1.0020016341 0.50903102
0.0525565665 1.0023986534 0.0116489597
0.0323668381 0.7526084198 0.0150517446
0.0424994405 0.5030271096 0.7619309589
0.0423797829 0.7505191871 0.2594087779
0.0323892969 0.7486577522 0.5149328991
0.0425436217 0.7506493573 0.7610353681
0.0524398544 0.7496926059 0.0121523498
0.0524023003 0.7544503291 0.5082191895
0.0524273363 0.5021185211 0.5112308783
0.0424920769 1.0017998702 0.2618138949
0.0325181589 1.0004460994 0.5152394066
0.0325361996 1.0019690915 0.0155080081
0.0724690575 1.0020081426 0.5049221634
0.0625304845 1.0025353322 0.7545324398
0.0725139751 1.0023726194 0.0047346855
0.0722529376 0.7517492961 0.0014632478
0.062307001 0.750746985 0.2542496961
0.0723784859 0.7510138341 0.5036952132
0.0623891045 0.7522960112 0.7538577552
0.0624027271 1.0026459769 0.2585877429
0.0824179395 1.0013442742 0.252368311
0.1025292461 1.0014158679 0.7495905825
0.082599819 1.0018519383 0.7541237632
0.0923730805 1.0008626443 5.2664203178e-04
0.0923601943 0.7516777024 0.002763005
0.0923491489 0.4990373909 0.003625644
0.1023528893 0.7516516684 0.251910851
0.0823568221 0.7514303789 0.2519117714
0.0923572488 0.750467119 0.4996756395
0.1023514166 0.7501482018 0.7509049748
0.0823166908 0.7530249647 0.7513228558
0.0925615871 0.5010159789 0.5044067155
0.1123308573 0.9989816839 -0.0013454097
0.1123621523 0.7489376183 -0.0025773304
0.1224513098 0.4988714238 0.7470566035
0.1225109544 0.7518599408 0.2495278246
0.1123871884 0.7512676661 0.4985490176
0.1223776743 0.7508836638 0.7475416768
0.1124457285 1.0013312572 0.5016674777
0.1225330451 0.9996650778 0.7494663227
0.152498244 0.9998863673 0.4981808405
0.1323766284 0.999502365 0.5011667569
0.1422787518 1.0006218293 0.7502514604
0.1525604659 1.000010029 0.0013095338
0.13239246 0.9999644694 -4.1473162109e-04
0.15245664 0.7497837251 -0.0041421567
0.1323876737 0.7496535548 7.9777686265e-04
0.1424149774 0.751697228 0.2488669467
0.152465108 0.7484299543 0.4939422014
0.1323850965 0.750011523 0.4962377857
0.1425059171 0.5014631138 0.2491624088
0.1424031957 0.7481826308 0.7502496195
0.1725016747 0.7505647467 -0.0075228317
0.1626297418 0.5014201576 0.7453823181
0.1724630162 0.5004712164 -0.0055754518
0.1623296775 0.7510138341 0.2465916121
0.1823496762 1.0004070483 0.7421846998
0.1725211881 0.7515475322 0.4914726535
0.1624051538 0.5003351884 0.2443153571
0.1624191445 0.7522960112 0.74420139
0.1823459944 0.7531421179 0.2419857164
0.1823747122 0.750961766 0.7408196832
0.1624066265 1.0008235932 0.2450747224
0.1724740615 0.9984870369 0.4928569994
0.172535547 0.9964043126 -0.0091141456
0.1923950205 0.9995609416 0.4877218491
0.2023763021 0.9982006623 0.7369538235
0.1924130612 0.7511960724 -0.0127398195
0.2023895565 0.7510984447 0.2383149906
0.1923935478 0.748768397 0.4903938945
0.2024429422 0.7503890168 0.7359818359
0.23249319 0.7487228374 0.9891413397
0.232524485 0.4998359855 0.994139344
0.2324633676 0.7505712552 0.489349192
0.232464104 0.5011539594 0.4884278287
0.2224191278 0.9991574138 0.2390007205
0.2124032376 0.9989165988 0.4907464241
0.212447787 0.9986562582 -0.0088608425
0.2122975708 0.7502588465 -0.0113123324
0.2324169773 1.0010709167 0.9900617824
0.2223720011 0.7507860361 0.2389795503
0.2124735594 0.7493086036 0.4910023072
0.2223708966 0.499763741 0.2399423334
0.2224743544 0.7492044674 0.7369565848
0.2524310852 0.7489896864 0.9916909662
0.2525551609 0.5009665142 0.9934490119
0.2424461219 0.7495559271 0.2391838886
0.2525268113 0.750493153 0.4885079073
0.242519021 0.4995561194 0.2434519818
0.2425227027 0.7488269736 0.7418542609
0.2523872721 0.5032301752 0.4916622647
0.2623991124 0.4985648728 0.7410203397
0.2626299594 0.7483323266 0.2437281146
0.2624473436 0.7469655388 0.7447361672
0.2823660936 0.4991337169 0.7415873325
0.2825840545 0.7476424242 0.2462050261
0.2825476049 0.4985987171 0.2426300264
0.2824338382 0.7483518521 0.7458397781
0.2724577111 0.7500180315 0.989988147
0.2725431282 0.5020592936 0.9933477632
0.2725004197 0.7494127398 0.4921049976
0.2825649093 0.9972504194 0.2460476304
0.2824467244 0.9993917202 0.7469737636
0.3124988131 0.99829829 0.9982629277
0.2925509771 0.7496275207 0.9971860096
0.3025547175 0.4970112907 0.7485302324
0.2923882428 0.499680432 0.9949217203
0.3025374131 0.7508706468 0.2476004174
0.2924836007 0.749757691 0.4978964236
0.3025293132 0.4987770503 0.2464876021
0.3025955851 0.7485731416 0.748086579
0.302620253 0.999756197 0.2485650414
0.3125952755 0.7521528239 0.9963207934
0.3126317251 0.4989592887 0.9975633911
0.3125772349 0.751697228 0.4987855714
0.2924438376 0.99781666 0.9986955358
0.3324149859 0.749035246 1.0016961792
0.332616747 0.4986332122 0.9979775904
0.3225401075 0.748553616 0.2490823303
0.3325721975 0.7496991144 0.4973367944
0.3226277337 0.7512676661 0.7497976821
0.3325026121 0.4992254869 0.5006154116
0.3526783497 0.9970877065 0.4954112281
0.3426473642 0.9991378882 0.7495270719
0.3626419588 0.7501091507 0.2453361282
0.3525921963 1.0000425716 0.9982261099
0.3626198681 0.749516876 0.7417603757
0.3625278239 0.9984544943 0.248065241
0.3526106051 0.7493867057 0.9947284274
0.3625462327 1.0020471937 0.7456998708
0.3525207699 0.4982648303 0.9951610355
0.3426285872 0.7501156592 0.2461083797
0.3525266607 0.7487749055 0.4975282465
0.3425586336 0.7486642608 0.7460551617
0.3924863956 0.9989816839 0.4930502924
0.3725496049 0.7496795888 0.9918290326
0.3724538788 0.49900615 0.9928415197
0.382667112 0.74731049 0.2418255594
0.3725127872 0.7477335433 0.4940397684
0.3823504796 0.4987295382 0.239282376
0.3825345682 0.745611768 0.7412633366
0.382457251 1.0001532163 0.2396164967
0.3824425239 1.0002052844 0.7403852342
0.3726232403 0.9989296158 0.9921695964
0.3724244247 0.500293534 0.4906525389
0.3925084862 0.7493867057 0.9921788008
0.3923980331 0.7497511825 0.4870039037
0.4125446847 0.7485601245 0.9863984202
0.4124968217 0.7478572051 0.4882658308
0.4125115488 0.4989957364 0.4858478276
0.4025413126 0.9997041289 0.2377986222
0.4025118584 0.499246965 0.736720031
0.402486086 0.7465945535 0.2390126862
0.4024971313 0.4970158466 0.2391378664
0.4025229037 0.7491458907 0.7384725541
0.4325293385 0.7492695525 0.9839592468
0.4225480569 0.748312801 0.2357552392
0.4324851572 0.7486187012 0.4835605273
0.4225075574 0.497657586 0.233297657
0.4224781033 0.7486056841 0.7364218076
0.4425069382 0.7469915728 0.2341693163
0.4425400742 0.748045952 0.7303293968
0.4326029739 0.9982657474 0.4838753187
0.4225922382 0.998539105 0.7361300272
0.4425879372 1.0000881312 0.2296628284
0.452532401 1.000719457 0.983103235
0.4623995477 0.9995218905 0.2341002831
0.4725428272 0.9990662946 0.4845214696
0.4625284097 1.0011425103 0.7303211128
0.4523851302 0.7493020951 0.9833057324
0.452517674 0.7483388351 0.4829585577
0.4725281001 0.7510724107 0.9844838992
0.4624952737 0.749263044 0.2330178424
0.472432374 0.7506037977 0.4853618338
0.4624879102 0.7506493573 0.7329434543
0.4724691917 0.4991167947 0.4865455232
0.4825130634 1.0028412323 0.2346037653
0.492413346 1.0010904422 0.4918813301
0.4925164356 1.0006673889 0.9918750547
0.4825646082 0.4988955053 0.7362754572
0.4923213017 0.7506363403 0.4882446606
0.4825646082 0.7523025197 0.2384889543
0.4924869814 0.7496991144 0.9873464762
0.4824799275 0.7491979589 0.7395108136
0.5125194982 0.9992550415 0.4946039998
0.5123943179 1.0001011482 0.9932741278
0.5024903536 1.0001076567 0.2424698693
0.5224750073 0.7449153571 0.7420088953
0.5224565984 1.0012726806 0.2465925326
0.5224786891 1.0009082039 0.7452755467
0.5025013989 0.7487423629 0.2430037261
0.5026413062 0.4971173794 0.245828565
0.5023835822 0.7484299543 0.7458913229
0.5025124442 0.5014683206 0.7448199275
0.5123317278 0.75050617 0.9955936436
0.5125047711 0.5001588077 0.995989434
0.5123280461 0.7501286763 0.49697414
0.5224345078 0.4983579021 0.2475240207
0.5224381896 0.7453514275 0.2438394882
0.5324710159 0.7474406602 0.4965838722
0.5325630602 0.4992521718 0.4954710569
0.5325446514 0.9985911731 0.995473986
0.5425958866 0.9988189711 0.2495223019
0.5524998509 0.9994177543 0.4984146329
0.5523930796 0.7497056229 0.9955568259
0.5425112058 0.999515382 0.7461333994
0.5424559793 0.7458005149 0.2491090231
0.552514578 0.7493932143 0.5010829966
0.5425148876 0.7496926059 0.7470961825
0.5324157894 0.7488139566 0.9982077011
0.5626357669 1.0004395909 0.2494597118
0.5624001335 0.9979273047 0.7509804511
0.5623817246 0.7505387126 0.2537047939
0.562407497 0.7485210735 0.7515722958
0.572510277 0.9986041901 0.5033574107
0.5725029135 0.9985976816 1.0041905792
0.5723077796 0.75243269 1.0071083828
0.5724292781 0.7495819611 0.505420123
0.6024246675 1.001962583 0.2603025278
0.5924249771 0.7514954641 1.0134318247
0.5925280667 0.9989621584 0.5064721891
0.602336305 1.0003224377 0.7603634448
0.5923992047 1.0003810143 1.0080288256
0.6023289415 0.7509487489 0.2635590544
0.6022958055 0.5029737397 0.2590553278
0.5924986125 0.7503434572 0.5119653916
0.6023068508 0.750493153 0.7628155044
0.5823774237 1.0004851505 0.2541116297
0.5825615122 1.0034269985 0.7546935173
0.5824142414 0.751000817 0.2571693406
0.5824216049 0.7534024585 0.7593150605
0.6123544043 0.7512806831 1.0140761347
0.6123617678 0.7504020338 0.5146880614
0.612486948 1.0009082039 1.0121524093
0.6225087291 0.9999189098 0.2608446686
0.6225013655 0.7506818999 0.2648393903
0.6223725035 0.7506037977 0.7639034678
0.6425302005 1.0018063787 0.7540206736
0.652286894 0.9987018178 1.0021195829
0.6325047377 0.9986692753 1.008746771
0.6324900106 0.7521983835 1.0109006071
0.6323427398 0.5020579919 1.0069519075
0.6325268283 0.7514173619 0.5124320561
0.6525482998 0.7513002087 1.0046139829
0.6524930732 0.498305834 1.0000669955
0.6424860192 0.7510984447 0.2580989878
0.6424823375 0.4996537471 0.2523333342
0.6525004367 0.7498227761 0.5041407075
0.6423902932 0.7501937614 0.7572505073
0.6723820009 0.7489896864 0.9992201881
0.6723930462 0.4987998301 0.9986679225
0.6824737356 1.0000165375 0.2472018657
0.6724519545 0.9971007235 0.4982563168
0.682370646 0.9989556498 0.7471477273
0.6824369178 0.7481956478 0.2462344803
0.6725366353 0.7473951007 0.4995440162
0.6822749199 0.7466986897 0.7464389864
0.6623712652 0.7484494798 0.2516098662
0.6623749469 0.7502588465 0.7531499347
0.7023552997 0.9981485942 0.2414932795
0.7025172976 0.4979172757 0.7422979143
0.692473426 0.747818154 0.9910098385
0.6925728338 0.9985586305 0.4954093872
0.7024804799 0.9995869756 0.7421442004
0.6924366082 0.9983243241 0.9914792643
0.7024362987 0.7513197342 0.2410422626
0.7024252533 0.4991018252 0.2432089849
0.6924476536 0.7507534935 0.4913934954
0.7024841617 0.7508966808 0.739116864
0.7224982696 0.5003866057 0.7409006822
0.7322991443 0.7506818999 0.9899421249
0.7224872243 0.7512676661 0.2386914517
0.7224540883 0.5032386362 0.2377710089
0.732464824 0.750746985 0.4882382175
0.7225093149 0.7536107309 0.7400244206
0.7223804529 1.0011685444 0.7396525617
0.7124801703 0.7485601245 0.9876042002
0.7124543979 0.7497121314 0.4889221065
0.7423982426 0.5037677784 0.7377951082
0.7424203332 0.7520356707 0.2336814816
0.7424755598 0.5016557658 0.2366416256
0.742471878 0.7504215594 0.7348846681
0.752622521 0.5000559732 0.4844966176
0.7524200236 0.7520942473 -0.0135487138
0.7623792145 0.499242409 0.7349205654
0.7624749406 0.7502913891 0.2352140189
0.7623129426 0.5014344763 0.231873732
0.7523463882 0.7530705243 0.4840207487
0.7624013051 0.7484755139 0.7371830138
0.7825148209 0.7479873754 0.2377792929
0.7826215922 0.5028494271 0.2380011196
0.7723531325 0.7519185174 0.4880513676
0.782577411 0.750493153 0.7370467882
0.772474631 1.0011229848 0.4856941137
0.7725335393 0.5006007358 0.485495298
0.7724267679 0.7499073868 -0.0132012835
0.7824927302 0.5014500968 0.7372796602
0.7725593117 0.4992241852 -0.0139709669
0.7925292383 0.7487358544 0.4871511746
0.8125654369 0.5025682594 0.4889975828
0.8126132999 0.750746985 -0.0105226753
0.8027387897 0.5029496582 0.7385084514
0.8025326105 0.7512611576 0.2381327429
0.8026062459 0.5006449937 0.2422784172
0.7926654639 0.5018666416 0.4879344714
0.79247033 0.7513978364 -0.0117617478
0.8126722082 0.7518208897 0.4909341944
0.7925844649 0.4996778286 -0.0147195907
0.802525247 0.7505907807 0.7386336316
0.8326679073 0.5031533747 0.4929794183
0.8325390453 0.750480136 -0.0059543521
0.8226461262 0.5010634911 0.7437347255
0.832623726 0.5002225912 -0.0047528613
0.8225172642 0.749490842 0.2418586953
0.8225798544 0.5009489412 0.2421329873
0.8325464088 0.7504020338 0.4914054611
0.8224914919 0.7493606717 0.7454973734
0.8626375243 0.753421984 0.7453740341
0.8625049806 0.5000494647 0.7466534496
0.8525200172 0.7516842109 -0.004736459
0.8526120615 0.5018236854 -0.0056006075
0.8625381165 0.7495233845 0.2465354651
0.8625012988 0.4989794651 0.2439195667
0.8526451975 0.7515084811 0.495839234
0.8425865987 0.7511440043 0.2438542153
0.8425608263 0.5027413858 0.2415917669
0.8425681899 0.750467119 0.7440145401
0.8524242912 0.5006977126 0.49192275
0.8724752168 0.4984360042 0.4938639638
0.8824638619 0.7483518521 0.7476374029
0.8926881403 0.4991493373 0.4981421819
0.8725856699 0.7509943085 6.8107392207e-04
0.8925114153 0.7491198567 -0.0015369171
0.8826589958 0.5005402066 0.7480746132
0.8725083527 0.499675876 -0.0050922654
0.892596096 0.49939601 -0.0037207504
0.8824749072 0.7474081177 0.249079569
0.8824969978 0.5014605104 0.247848937
0.8724420809 0.7507144425 0.4968176647
0.8926439591 0.7504475934 0.4973340331
0.8824601801 0.9989947009 0.2454125249
0.8825448608 0.9998277906 0.7484842103
0.9124408425 0.7483974117 0.5009145555
0.9125991586 0.9971723172 0.0049973799
0.9126875211 0.4980832428 0.5042723308
0.9025442417 0.7464774003 0.7537785971
0.9125512956 0.7494062313 0.0017693871