POSCAR file written by Ovito 3.7.11
1
271.6248063058 0.0 0.0
0.0 15.3654193982 0.0
0.0 0.0 10.8649922522
Sr Ti O 
800 800 2400 
Direct
0.0224349322 0.4991747703 0.7630637899
0.0125314921 0.2480159897 0.5187377988
0.0224297413 0.2501011915 0.7663284034
0.0024078586 0.2492265001 0.7691355844
0.0124472951 0.2483016962 0.0188624309
0.0224380984 -0.0012380593 0.2651324638
0.0025905739 0.0025793438 0.2670349042
0.0024148904 0.4992997262 0.2652852481
0.0123546305 0.4975262634 0.5183254653
0.0124425091 -8.4164971811e-04 0.517471346
0.0225970677 -0.0023554841 0.7643596951
0.0026214621 -6.67101928e-04 0.7676298309
0.0224328706 0.2486134351 0.2664127224
0.0024203391 0.2501252715 0.2672447525
0.0324907885 0.4985961984 0.0146173289
0.0423750109 0.4984640836 0.2626510999
0.0324484507 0.4988337448 0.5171234396
0.0323906503 0.2472695083 0.5146586427
0.0424629999 0.2505990627 0.7642059904
0.0325581608 0.2499827437 0.0177632124
0.0523284464 0.4990777993 0.0130517502
0.0424795669 5.9931322773e-04 0.7612469455
0.0424324431 0.2511307761 0.2672631602
0.0525025837 0.2485268771 0.5160603924
0.052569956 0.2480621973 0.0157553877
0.0624770041 0.248648579 0.2622203586
0.0623290058 0.4997774223 0.7637375133
0.0722408398 0.4988383005 0.0067846496
0.0622527977 0.4973023841 0.2621669762
0.0723593857 0.4999681102 0.506825227
0.0724274944 0.2490175894 0.5118717102
0.0623555129 0.2507520035 0.7599519607
0.0724050369 0.2487149618 0.0114257021
0.0924495979 0.2478754143 0.5059140437
0.1024836594 0.2490019699 0.7562648895
0.0825182517 0.2502749583 0.7576905693
0.0923763351 0.2484572403 0.007691323
0.1024696695 -2.4140577025e-04 0.2513984457
0.0922861371 -8.4880865059e-04 0.5064837634
0.1024000882 0.2507617657 0.2568379342
0.0823466915 0.248174137 0.2589226112
0.1024034016 0.5005623016 0.7545851828
0.0823838751 0.4999557448 0.7592460237
0.102340079 0.4995646067 0.2556138192
0.08236694 0.5021021229 0.2580933424
0.1223875852 0.2509941056 0.2507403689
0.1123336434 0.5024210208 0.0011686308
0.1125214024 0.24790405 0.5012366359
0.1223489289 0.499089514 0.249984731
0.112484955 0.5012092088 0.5005730367
0.1223312575 0.249555811 0.7499860079
0.1124312044 0.2485047495 0.0015117512
0.12244649 -2.4394393722e-04 0.248368531
0.1524529541 0.248808028 0.4983834355
0.1325917342 0.2491737843 0.4977400848
0.1425127721 0.2477361405 0.7486974658
0.1525008142 0.2508079734 -0.0031066782
0.132417597 0.2507370348 -0.0030755139
0.1424067435 -2.0704289435e-04 0.2454895598
0.142574254 0.2514718016 0.2495180946
0.1425109314 0.5002954687 0.74908771
0.1525950619 0.5001698619 -0.0016840265
0.1324812878 0.4989769235 -0.0029236684
0.1526189919 0.4994162216 0.498011599
0.132417597 0.4999570464 0.500782885
0.1825002834 0.2513845928 0.2478291841
0.1725906583 0.5007100359 0.5028997756
0.1826033668 0.5027327598 0.7481884917
0.1725505294 0.2509680731 0.4974234716
0.1624774435 0.2521584084 0.7452441729
0.1725081916 0.2502606404 -0.0060137029
0.182580173 0.5030243236 0.245658911
0.1625013736 -0.0015488221 0.7480145385
0.1625348757 0.2501467483 0.246507508
0.1824885024 0.2502879745 0.7457430228
0.182506542 2.9896346959e-04 0.2478006521
0.1925910407 0.0012093194 -0.003284313
0.2024840988 0.2512010638 0.2431959548
0.2025503667 0.5023520347 0.7452957146
0.1925980356 0.5008083086 -0.002368721
0.2025389539 0.5005668573 0.2455236141
0.1925523844 0.4988317924 0.4976084694
0.1924169034 0.2527922993 0.4955578467
0.2024399202 0.2527773306 0.7439151338
0.192394446 0.2530103213 -0.0052439186
0.2024966161 -2.3554846186e-04 0.2478144579
0.2123068394 0.2523503979 0.4959333647
0.2225382319 0.2511756822 0.7485962232
0.2123826793 0.2514093237 -0.0055140707
0.222481536 4.4370406809e-04 0.7488741801
0.2224568696 0.2519384339 0.2487357655
0.2324327626 0.2528541264 0.496490199
0.2324982942 0.2513520522 0.9987206537
0.2325428409 0.0029414556 0.498746068
0.2227108965 0.502970957 0.7455276522
0.2124876034 0.5010393468 -0.0037064854
0.2124898124 0.5010862053 0.4965610688
0.2425036396 0.5025323097 0.7475699914
0.2624742014 0.251910449 0.7551613452
0.2625636631 6.5274489651e-04 0.256076774
0.2626100506 0.0023922353 0.7565713784
0.252511562 0.2499495523 0.5039425743
0.2425632807 0.2500250465 0.7516767592
0.2525527954 0.2528983816 1.0031016969
0.262534947 0.2505307274 0.2525829841
0.2426137179 0.0018232304 0.2510597432
0.2625835434 0.4998177726 0.2526501723
0.2524703287 6.4708283173e-04 0.5022582657
0.2425017988 -0.0021219142 0.7528695811
0.2524475031 0.0035923327 1.0018499703
0.2424646152 0.2530610847 0.2541955025
0.2726194457 0.2521831392 0.5038477744
0.2725089992 0.2508691497 1.0027427459
0.2725266706 0.0011526336 0.502133093
0.2723989209 0.001233074 1.0017855432
0.2823505157 0.2495466996 0.7533564659
0.2725863117 0.5012183201 0.5019444136
0.2824524946 0.2502072738 0.2544660963
0.3125646191 0.0028034184 0.4961109994
0.292415134 0.5020487563 0.5028141795
0.2924685164 0.2499912042 0.5043337388
0.3024444094 0.2515752808 0.7505584887
0.2925587144 0.2512231914 1.0021536981
0.292388995 0.0017042619 0.501631482
0.3025548559 -9.1558196626e-04 0.7507149546
0.3123772283 0.5009378202 0.4967727578
0.3024845383 0.2510123283 0.2531085252
0.3125362712 0.2519423388 0.4983226899
0.3124655855 0.2501838446 0.9980947904
0.3225055374 0.0011010893 0.2476156543
0.3325370218 3.3300093947e-04 0.493547721
0.3225416166 -0.0014403968 0.7438028466
0.3325845137 0.001552883 0.9911642747
0.3224797665 0.2532413596 0.2485645735
0.3225206317 0.4988500151 0.7421700796
0.3225287311 0.4998307889 0.2437426648
0.3325197185 0.2510149316 0.4957244368
0.3224282249 0.2504994885 0.7464434375
0.3325896679 0.2512746056 0.9957201914
0.3625324412 0.2517275708 0.244382334
0.3526949745 0.5043695521 0.495204418
0.3526622087 0.2531059907 0.4940493321
0.342530218 0.2508470221 0.7454218077
0.3624845811 0.5026683294 0.7435322527
0.3524420521 0.2511587611 0.9974229078
0.3624219948 0.5036523572 0.2453220493
0.3425714514 -5.657704928e-04 0.2424274315
0.3425703469 0.2520191346 0.2441108197
0.3624956257 0.2521095974 0.7455322541
0.3426730621 0.5022674292 0.7435635459
0.342494507 0.502680044 0.2415438598
0.3825747933 0.2511288237 0.2412318485
0.3924707967 0.2513123527 0.4905500199
0.3925922878 0.2511724281 0.9885595789
0.3924855229 0.0017671954 0.9860469217
0.3825416594 0.5025596438 0.7417991636
0.3926180586 0.5032124082 0.9852922042
0.3725536173 0.2514796114 0.4960152792
0.3826042457 0.2527122494 0.7394586189
0.3726198851 0.2514216891 0.9919373999
0.3924671151 0.5013614988 0.4852338633
0.3725352095 0.0028977861 0.4908252156
0.4124505624 0.503358841 0.985743194
0.4026171454 0.2522202355 0.735156729
0.4025214251 1.3001266306e-04 0.7370030258
0.4024698834 0.2513657193 0.2364439942
0.4125499642 0.2502970859 0.4803374033
0.4124247916 0.2531274675 0.983506653
0.4125389196 0.003598125 0.4847046406
0.4126199137 0.0027508328 0.9865163192
0.4424699119 3.065779705e-04 0.7341470642
0.4423152869 0.2510845685 0.2316506176
0.4224422861 0.5028108572 0.732019129
0.4325481377 0.5026305823 0.9825862658
0.4325186853 0.5026514083 0.480099023
0.4423741917 0.5050405393 0.731717242
0.4425435429 0.500387884 0.230541551
0.4323530156 0.2516188852 0.4823162358
0.4225085539 0.2536045127 0.7342924854
0.4324303282 0.2513930534 0.9853474275
0.4225416879 0.0024388335 0.2347504817
0.4325002776 0.0021548842 0.9837091382
0.4224054706 0.2514926276 0.2364393923
0.442396281 0.2519768318 0.7324839245
0.4724082674 0.2495623191 0.4778118607
0.462438633 0.2493586149 0.7388447206
0.4725223954 0.2519748794 0.9794201338
0.4722978209 0.0025436142 0.9842429628
0.4624239068 0.2527571554 0.2355272885
0.4525757636 0.5000221276 0.9806074333
0.4524653171 0.5021899825 0.4810341364
0.4625306718 0.4990966729 0.7321838783
0.4725003061 0.5012664802 0.9844270402
0.4625638057 0.5017988445 0.232124617
0.4524763618 0.2524831636 0.4834556752
0.4524653171 0.2501552089 0.9837827692
0.4524211385 0.0029785519 0.482069572
0.4824920298 0.2495948597 0.7344342251
0.4824552143 0.0023900226 0.7320154475
0.492413804 0.4990485128 0.9864518921
0.4924358933 0.5012404478 0.4832973686
0.4823042708 0.2497120059 0.2361927285
0.4924211671 0.2504916787 0.4825941927
0.4925205689 0.2473469549 0.97998157
0.4825325268 0.4991292135 0.2330624916
0.5024276169 0.2507044942 0.7321516648
0.5123972513 0.2473228749 0.4828141653
0.5123898882 0.2480778168 0.9817211018
0.5023797568 8.8944523679e-04 0.7334770224
0.502361349 0.2488308064 0.2322755605
0.5224662874 0.2503992634 0.2356395758
0.5223816118 0.2511516021 0.7347103412
0.512415659 0.4992600267 0.4845638214
0.5224441981 0.4990335441 0.7340697517
0.5423540145 0.4965598075 0.7319961193
0.5525224524 0.5006657807 0.9895167816
0.5425123211 0.4980130708 0.2344154608
0.5524156875 0.4985551973 0.4874455538
0.532262889 0.0014579296 0.4860392021
0.5324359218 0.2486518331 0.487153791
0.5324616926 0.2502469734 0.985522301
0.5324138325 0.501222225 0.9854578739
0.5524009613 -0.0028958663 0.9882742588
0.5424570978 0.2502502274 0.2364080991
0.5524377768 0.2485789421 0.4895946579
0.5424166008 0.2495076509 0.7365152206
0.5524635477 0.2485750372 0.9859824946
0.572487492 0.2485027971 0.4934593639
0.5724249057 0.2481904073 0.9926460981
0.562466316 0.4980586277 0.7406173864
0.5623742772 0.4989743202 0.2373864707
0.5723954533 0.498344985 0.9881822201
0.5723475931 0.4991981996 0.4915099837
0.5624074112 0.2453619782 0.2371039118
0.5625730809 0.2490084781 0.7399731153
0.6023595796 0.4986762483 0.7439970483
0.5923089511 0.4992580743 0.9946801539
0.5923678559 0.4999225534 0.4931160594
0.5823614061 0.2484585419 0.7440633161
0.6024847522 0.2494673006 0.2409842643
0.5923089511 0.2499046462 0.4945132072
0.6023669427 0.2478422229 0.7436712312
0.5924009899 0.2477088064 0.9938886208
0.58239454 0.5004692355 0.7442998557
0.5824055847 0.5015743143 0.2446299181
0.5823982216 0.2487409943 0.2412916737
0.6124543866 0.4989489385 0.9926276904
0.6124727943 0.4989606532 0.4945389781
0.6225271043 0.4990107657 0.7449008685
0.6123844372 -6.2343243987e-04 0.4909439456
0.622464518 0.4974058632 0.2449566556
0.6124875205 0.2494568876 0.496400001
0.612483839 0.2501688759 0.9935572814
0.622390887 -1.8413431041e-04 0.7426357956
0.6223945685 0.2478467786 0.2459571165
0.6223945685 0.2499007414 0.7459602342
0.642425876 -2.4726307864e-04 0.2450459331
0.6524175996 -1.2100554218e-04 0.4943429356
0.6325445988 0.4987322181 0.493678416
0.6423780158 0.2494289026 0.2447339219
0.6525170014 0.2491672762 0.4979195603
0.642425876 0.2482932356 0.7413131991
0.6324672863 -9.3373962228e-04 0.4926264134
0.652520683 0.2503127054 0.9988311002
0.6423816974 0.499037449 0.7451318857
0.6523439686 0.4995594002 0.498118364
0.6323016166 0.2488223458 0.4964773135
0.6322648011 0.2488210442 0.9961159579
0.6824001337 0.5017389698 0.7478718785
0.6625308144 -7.3010053383e-04 0.2468701406
0.6825437141 0.5003273585 0.2485820608
0.6625786745 -4.28579314e-04 0.7471705434
0.672482041 0.5004412506 0.496428533
0.6624056417 0.2491360372 0.2456810003
0.6624350941 0.2481643748 0.7483449575
0.6725299011 -7.1610807489e-04 0.9973768884
0.6624645465 0.4984198284 0.7481691635
0.6624645465 0.5001841798 0.2499571193
0.6825216248 0.2515349304 0.2500335115
0.6724746779 0.2505482994 0.5000824703
0.6824369491 0.250778036 0.7469606951
0.672482041 0.2503784374 1.0025586684
0.7025345244 0.2513689733 0.2452162048
0.6925796163 0.2503960093 0.4985711945
0.7026376078 0.2501708284 0.7433647422
0.6925759347 0.2510722031 0.9962264044
0.6926017056 0.5030145614 0.9901426449
0.6925832978 0.5010725382 0.495249517
0.7326716835 0.498985384 0.9881362007
0.7326090972 0.4984816555 0.4866300907
0.7126072422 0.2489518574 0.4907617089
0.712706644 0.2520705487 0.9919926232
0.7225989658 8.2195602786e-04 0.2390716997
0.7326753651 -0.001315571 0.4832458269
0.7324691983 -3.0212653392e-04 0.9853658352
0.7125225665 0.4993231555 0.9881638123
0.7225142902 0.2511158075 0.2392088374
0.7327894931 0.2481676289 0.4884708651
0.7225253348 0.2505072982 0.7400761987
0.7326606389 0.2484813203 0.9867832315
0.7125667451 0.4977911439 0.48952839
0.7124562987 -3.1188871458e-04 0.4921487325
0.7125961975 -6.4015830939e-04 0.9896456358
0.75262936 0.4987556474 -0.0113932373
0.7425161452 -0.0029186903 0.2382295454
0.7425603238 -0.0013146599 0.735765105
0.742689178 0.2516488225 0.2369916246
0.7425971393 0.2484969398 0.7388419595
0.7624443693 -0.0018746056 0.2385341936
0.7525262766 0.0013142953 0.4838339543
0.7624480508 -0.0020792925 0.7351604106
0.7525778183 4.3550383634e-04 -0.0135850198
0.7626210836 0.248614086 0.2380703184
0.7525446844 0.2490800674 0.4895532405
0.7625548158 0.2517549049 0.7399860008
0.7524489641 0.247353463 -0.0101134757
0.7824719952 -0.0024427515 0.2410735419
0.7824499059 -2.1719556223e-04 0.7425934578
0.7725428578 -0.0013458338 -0.0110871993
0.7825787601 0.2502294015 0.242778099
0.7725281317 0.2491451486 0.4920981112
0.7825750785 0.2498382634 0.7427830575
0.772517087 0.247924876 -0.0081060044
0.7924968528 -6.5556356059e-05 0.4963410962
0.7925704837 -0.0036038783 -0.0058175315
0.8125649757 0.5027314581 -0.0043466239
0.7925373498 0.2463577206 0.4936121481
0.7925226236 0.2474217983 -0.0066973297
0.8025695705 -1.5439220002e-04 0.2473146876
0.8124582107 4.7246996042e-04 0.4958827434
0.8026100675 -5.492398669e-04 0.7486744561
0.8124618923 -0.0011625001 -6.2850803668e-04
0.8024443978 0.2498538829 0.2445185513
0.8127085561 0.2504461219 0.4981257271
0.8025364365 0.2500608411 0.7443799293
0.8125355233 0.2496599409 -0.0041060255
0.8326146908 -3.3219405034e-04 0.5020254077
0.8224757052 -2.3990890255e-04 0.7500034953
0.8326920034 -7.2398290061e-04 -7.0807551173e-04
0.8225530178 0.2494445221 0.2505940273
0.8324674289 0.2488522832 0.4989982541
0.8224720237 0.2489935094 0.7456758346
0.8324674289 0.2507624165 -0.0013613111
0.8226597827 -3.6037421183e-04 0.2477886871
0.8425659174 4.0719351244e-04 0.751638103
0.8426358669 0.2479535117 0.2473432196
0.8425438282 0.2497627692 0.7515736758
0.8625272754 -1.934870096e-05 0.25849187
0.8425732805 0.498348239 0.7509965931
0.8526055012 -2.0235704763e-04 0.5035210369
0.8626303588 -1.3974892903e-04 0.7531972389
0.8525944566 -2.3802154763e-04 9.340241406e-04
0.8625751356 0.2498961857 0.255484965
0.8426395484 0.00129002 0.2504200741
0.8525613226 0.2494640465 0.5040585431
0.8626414035 0.2494217437 0.7552377374
0.852590775 0.2491907054 0.0044692314
0.8726073563 0.0017555459 0.5073774594
0.8927233393 -2.0131574836e-04 0.5060539426
0.8725558146 0.0016877313 0.0084031505
0.8825622644 0.2495043968 0.2550763131
0.8926828423 7.6930533353e-04 0.0066057263
0.8725742223 0.2510188365 0.5066439108
0.8924877202 0.2486752623 0.5000797091
0.882492315 0.2506875731 0.7574466667
0.8726515349 0.2507409397 0.0045446112
0.892587122 0.2481676289 0.0045705661
0.9025751641 -5.5509717529e-04 0.2541743336
0.9125337538 -0.0034047883 0.5039508578
0.902681929 -0.0026217443 0.7540219059
0.9025641195 0.2483088551 0.2544338828
0.9125963401 0.2475669294 0.5075753426
0.9024904885 0.2494132832 0.7559841714
0.9026340689 0.4989808283 0.7535258171
0.912507983 0.2498519305 0.0055510546
0.9226064715 -0.0021139873 0.2559902576
0.9226101531 -0.0023036209 0.7577549964
0.922415031 0.2492492785 0.2545065934
0.922415031 0.2487299305 0.7558672822
0.9424463384 -0.0011019745 0.2595641211
0.9324104362 -0.0019934894 0.5078063598
0.9424794724 -0.0016653174 0.7561038217
0.9325245642 -0.002837879 0.0080482492
0.9426120081 0.2502235441 0.2572695958
0.9325282457 0.248776789 0.5094161171
0.9424058414 0.2478650013 0.7581526037
0.9324656594 0.2476079305 0.0089540943
0.9526957705 -0.0012607727 0.5097327303
0.9524491067 -0.0022152081 0.0097001602
0.9624666012 0.2493495036 0.2624799078
0.9526000502 0.250303594 0.5135587799
0.9724362356 0.2493748852 0.5120484245
0.9625512768 0.25032442 0.7626864311
0.952511693 0.250788449 0.0111087208
0.9722521581 0.2523067935 0.0142247837
0.9624150595 -2.660064655e-04 0.2600381205
0.9825236795 0.5005388724 0.7643569339
0.9824390038 0.4980273887 0.2671214206
0.9824831824 -0.0019423161 0.2645664257
0.9925559002 6.3087761185e-04 0.5171400066
0.9824500485 0.2481689305 0.2724375772
0.9925448555 -4.6001353571e-04 0.0188900425
0.9924564983 0.249728927 0.5180999705
0.9824758193 0.2490716068 0.7703799479
0.9924012751 0.2487891544 0.0164905009
0.0123471938 0.7499118248 0.0155163631
0.0024792806 0.4984855604 0.766845661
0.0123854819 0.4996609269 0.0156452173
0.0225212646 0.7470938086 0.2669309004
0.0024441587 0.7504064419 0.2655806924
0.0123701667 0.7509205834 0.5113461691
0.0225035931 0.7485581357 0.768155372
0.0223586874 0.4990725928 0.2644587404
0.0025087699 0.7494432401 0.7682888281
0.0124398584 1.0005981159 0.01860371
0.0524252712 1.000500494 0.5129448817
0.0523310235 1.0004809697 0.0103116654
0.032511037 0.751115827 0.0141539139
0.0423624936 0.5001757193 0.7655810489
0.0423580758 0.7491894234 0.2662166799
0.0324915248 0.7499638897 0.5139158902
0.0424110901 0.7500159547 0.7657448779
0.0523542173 0.7479333561 0.0149392803
0.0523902965 0.7500484953 0.5156857948
0.0523483268 0.4975568516 0.5139030048
0.0423750109 0.9974677099 0.2632263419
0.0323928593 0.9980078839 0.5159416624
0.0324370379 1.0007933595 0.0152026952
0.0723277244 0.9978842296 0.5053977065
0.0624689047 0.9992183943 0.7607011559
0.0723538634 0.9997780927 0.0105542795
0.0723568086 0.7486948062 0.0089848352
0.0622542704 0.7507383561 0.2611140532
0.072443325 0.7506667667 0.5137069623
0.0622903495 0.7498467436 0.7621581289
0.0623853335 0.9988018746 0.2617472796
0.0824751775 1.0015678258 0.2574030519
0.1024416897 0.9985480579 0.7514466624
0.0823731986 0.9996479303 0.7547094351
0.0924021059 0.9967257842 0.0079169099
0.0923627134 0.7503934257 0.0039302527
0.0924698464 0.4993374733 0.0047917351
0.1023927251 0.7519358502 0.2557003356
0.0824416755 0.7502046902 0.2588443783
0.0923877479 0.748844493 0.5015440452
0.1025561859 0.7497035649 0.7551033608
0.0824070689 0.7495018132 0.7559602413
0.0924414985 0.5020357401 0.5068500775
0.1123498422 0.9984244036 0.0024685858
0.1124330452 0.7495864187 -0.0032915196
0.1223673367 0.4998281856 0.74870759
0.1224321319 0.7481090754 0.2458337846
0.112418319 0.7492349802 0.5018100371
0.1225050266 0.7523458618 0.7472561394
0.1122824699 1.0007347864 0.5024791586
0.1225742397 1.0002401692 0.7473629043
0.1526208327 0.999797617 0.4944690286
0.1323910898 1.0022056216 0.4997198377
0.1426055472 0.9993810973 0.7442335878
0.1524474318 1.0010146356 -0.004231824
0.1324684023 0.9990101345 -0.003170866
0.1523826365 0.7495213375 -0.0017166634
0.1324636163 0.748844493 -6.1468382066e-04
0.142438773 0.7517406066 0.2466961874
0.1524363871 0.7485451195 0.4970433517
0.1324617755 0.7513696437 0.4979536146
0.1424093206 0.4991214037 0.2502479617
0.1424903147 0.7483694002 0.7483256294
0.1723947999 0.7508229616 -0.0019136999
0.1624520408 0.5024021473 0.7509165194
0.1724279338 0.5008571195 0.0017838177
0.1624943786 0.7517991797 0.2463087044
0.182475617 0.9995763409 0.7455184483
0.1724404511 0.7496254675 0.4993231508
0.162431056 0.5005883341 0.2482810942
0.1625253037 0.7510897946 0.7473205665
0.1824229709 0.7505040637 0.2510220074
0.1824748807 0.7506927992 0.7474623061
0.1624494638 0.9994461785 0.2451563796
0.1724724806 1.0026351575 0.4922232838
0.1725516339 1.002173081 -0.0049703611
0.1924412017 1.0043142526 0.4954814546
0.2024159902 1.0007217701 0.7463237872
0.1926212294 0.751219957 2.2798590128e-04
0.2023950054 0.7529055602 0.2506023108
0.1925612202 0.7505821612 0.4994731739
0.2025522075 0.7505105718 0.7510370901
0.2326367204 0.750790421 0.998702246
0.2324751004 0.5013575939 1.0005154088
0.2325402638 0.7518447365 0.4981202047
0.2324784138 0.5004685847 0.499183252
0.2225006801 0.99909474 0.2492631474
0.212557921 1.0014376634 0.4995955854
0.2125763288 1.0020429186 -0.0023399589
0.2125119017 0.7512524976 -8.7172035922e-04
0.2323779075 1.0021535566 1.0006534669
0.2226107584 0.7502307227 0.2480436343
0.2126414922 0.7501656415 0.4992798926
0.2225006801 0.5032390915 0.2474858797
0.2225614256 0.7507708967 0.750699308
0.2525119302 0.7515323467 1.0016658928
0.2524894727 0.5010881577 1.0026783188
0.2425422958 0.7510897946 0.2500040591
0.2526039689 0.7513631356 0.5001616236
0.242552236 0.5003032784 0.2481706478
0.2424896497 0.7489356067 0.7488695782
0.252454498 0.5003377715 0.5014501657
0.262606369 0.5006911624 0.7531291302
0.2625191163 0.7491048178 0.2518503559
0.2625960607 0.7509986809 0.754138795
0.2825647818 0.4978217321 0.7530205246
0.2825511601 0.7505105718 0.2532033251
0.2826796461 0.5001464327 0.2525342036
0.2825025636 0.7496449918 0.75210658
0.2726098736 0.7509335997 0.9999539726
0.2724073885 0.5007607993 1.0010308257
0.2726669377 0.7511483676 0.5047561966
0.2825471104 1.0002531855 0.2560243119
0.2825916571 0.99909474 0.7544940645
0.3125885492 1.0009951112 1.0010676412
0.2925587144 0.7481806647 1.0021813097
0.3024797523 0.4995541938 0.7520136209
0.2923900994 0.5005701114 1.0045006855
0.3025206175 0.7498207111 0.252126472
0.2926073108 0.7485906763 0.5026319429
0.302462449 0.4978035094 0.2514766786
0.302619283 0.7477250963 0.7516657146
0.3024911651 0.9998757145 0.2511296927
0.3124501229 0.7508359779 1.0013253496
0.3123801735 0.4985903411 0.9997054681
0.3123853277 0.7505235881 0.4985187324
0.2924806655 0.9983463062 1.0045559087
0.3325664742 0.7506537505 0.9942015525
0.332409272 0.498995797 0.9945052803
0.3225228407 0.7519033096 0.2466740981
0.3324516098 0.7513110707 0.4949807639
0.3224411103 0.7511353514 0.7456279744
0.3325384944 0.5008454048 0.4945049237
0.3524851262 1.0025961088 0.492584996
0.3426005356 1.0019908536 0.7429045486
0.3624514471 0.7530682632 0.2430118774
0.3525550756 1.0015613177 0.9926184865
0.3626502508 0.749436732 0.7437043651
0.3625729383 1.0035007376 0.2434223701
0.3525016932 0.7503804094 0.9946525422
0.3625803014 1.0021340323 0.7466772158
0.3525473444 0.5000904629 0.990851343
0.3424875121 0.7509140753 0.2445295959
0.3525458717 0.7510507458 0.4944690286
0.3424713132 0.7514672655 0.7441838869
0.3924892044 1.0027067469 0.4859802973
0.3725425726 0.7531203281 0.994164737
0.372572025 0.5011890336 0.9918821767
0.3825637486 0.7533676367 0.2367541647
0.3725904327 0.750250247 0.493393096
0.3826189719 0.5022836995 0.2385139451
0.3826116088 0.7532504905 0.7414319291
0.382626335 1.0003312829 0.240733919
0.3825085254 1.0036113756 0.7441663995
0.3726677453 1.0041125009 0.993446835
0.3727266501 0.5006553677 0.4922702236
0.3925481092 0.753380653 0.990566023
0.3924339812 0.7517015579 0.4901330844
0.4123658868 0.7523718943 0.9847675835
0.4125278749 0.7532700149 0.4822812611
0.4124910595 0.5031284535 0.4857437578
0.4025103805 1.0014767121 0.2377546256
0.4023447108 0.5025440243 0.7366008166
0.4024514757 0.7545130659 0.2384237471
0.4024441126 0.5012873062 0.2364255865
0.4025066989 0.7518317203 0.7358267709
0.4325481377 0.7517015579 0.9827979549
0.4226410897 0.750250247 0.2295484532
0.4325407746 0.7507318479 0.4846181242
0.4224680569 0.5038690776 0.232932717
0.4226705421 0.7504454906 0.7365520361
0.4424478226 0.7496970568 0.2323252614
0.4424515042 0.7499573816 0.7323421849
0.4324045573 1.0005135103 0.4841413637
0.4224128337 0.9990231507 0.7331843392
0.4423557839 1.0000969906 0.2324136186
0.4523475076 1.0022772109 0.9838103808
0.4624533592 1.0032794615 0.2330146314
0.4724892615 1.0012684523 0.4827617032
0.4625196271 0.999686979 0.7284553897
0.4525021326 0.7505431124 0.9825126348
0.4525794451 0.7497035649 0.4831307785
0.4726659758 0.7518382284 0.9856971746
0.462545398 0.7523393537 0.2348802563
0.4724966246 0.748304319 0.4819232305
0.4624128622 0.7482587622 0.7333592128
0.4725187139 0.4994546195 0.4851510284
0.482473622 0.998717269 0.2321089704
0.4923217653 1.0007347864 0.4844101167
0.4922407712 1.0013335335 0.9843994286
0.4824699405 0.4989359223 0.7342096506
0.4924911165 0.7529446089 0.4843953905
0.4824404881 0.7507643885 0.235438011
0.492527932 0.7491113259 0.9831292943
0.482506756 0.7495408619 0.7378967218
0.5123714804 1.0017500532 0.4840649715
0.5123825251 0.9989971182 0.9823469651
0.5023871199 1.0004549372 0.2337509412
0.5224073827 0.7484605139 0.7372966293
0.5224221088 0.9995112597 0.234487251
0.5224589243 0.9995177679 0.7322961656
0.5024055276 0.7503543769 0.2372981135
0.5023723937 0.4983391277 0.2369953061
0.5026043313 0.7493781589 0.7369689715
0.5024423431 0.4995301137 0.7345897705
0.5124856084 0.7503543769 0.9847399719
0.51248929 0.4984055105 0.9851081268
0.5125702841 0.7509075672 0.4828970001
0.5224957398 0.4965272669 0.2345700858
0.5225288738 0.747653507 0.235131522
0.5322776152 0.7487533793 0.4839821367
0.5324543295 0.4998737425 0.489300134
0.5324027878 0.998932037 0.985881252
0.5424239639 0.9974807262 0.2364550388
0.5524451399 0.9988344152 0.4863189998
0.5524488215 0.7468139594 0.986820047
0.542431327 0.9975458074 0.7344360658
0.5423945115 0.7488770336 0.2330431634
0.552412006 0.7492545046 0.4901404475
0.5422177971 0.7491243422 0.7371567305
0.5324580111 0.7500680197 0.9891302189
0.5624994499 0.9992118862 0.243341376
0.5624184558 0.998066457 0.7414319291
0.5625031314 0.7469311056 0.2391720219
0.5624000481 0.7489486229 0.7393840675
0.5723991348 0.9970902389 0.4928804403
0.5724064979 0.9973570719 0.9920570503
0.5724654027 0.747653507 0.9914219831
0.5723991348 0.7481611404 0.4956268758
0.6025142046 1.0002922342 0.2454812763
0.5925335256 0.7490462447 0.9927381368
0.5924341238 0.99919887 0.4961524169
0.602470026 0.9983332899 0.7403513945
0.5924009899 0.9987107609 0.9976898201
0.602543657 0.7509791565 0.2416027646
0.6024552998 0.4984016056 0.2443841747
0.5924930286 0.7503413607 0.4927994462
0.6025547017 0.750139609 0.7448714161
0.5824424002 0.9997585683 0.2458208992
0.5824865787 0.997851689 0.7445603252
0.5824092662 0.7488119524 0.2432428946
0.58239454 0.7511418595 0.7443734866
0.6123439401 0.7512134488 0.9929498259
0.6126311009 0.7492675208 0.493278968
0.6123991633 0.999797617 0.9934008156
0.6225639198 1.000012385 0.2423878549
0.6225639198 0.7488379849 0.2428959086
0.622431384 0.7498272192 0.7442575178
0.6423853789 0.999797617 0.7407425591
0.6525170014 0.9996544384 0.9930786801
0.6325445988 0.9981380463 0.993373204
0.6325372357 0.7496905487 0.9990888086
0.6323789291 0.4974540233 0.9947169693
0.6325924589 0.7492089478 0.4942858716
0.6524728228 0.7490397366 0.9944224454
0.6524028734 0.499806058 0.9977726549
0.64250687 0.7491568828 0.2439460704
0.6423816974 0.4983944467 0.2453975211
0.6525574985 0.7476339826 0.494196594
0.6424516468 0.75041295 0.7452248448
0.672596169 0.7467423701 0.9968798793
0.67240841 0.50185937 0.9978278781
0.6826357528 0.9994331623 0.2460252251
0.6726145767 0.9997715846 0.4940585359
0.6824185414 1.0009690787 0.7467425633
0.6825105801 0.7494497482 0.2451260068
0.6725151749 0.7482587622 0.4971133011
0.6825731664 0.7509856646 0.7473343723
0.662541859 0.7503543769 0.2479157005
0.6625713114 0.7499443654 0.7447075872
0.7024351226 1.0017240207 0.2424863363
0.7024940274 0.5013582447 0.7426403975
0.6924286728 0.7507839129 0.9964933167
0.6925501639 0.9993485567 0.4974823764
0.7026596971 0.9996544384 0.7464149055
0.6925869794 1.0004223966 0.9977542472
0.702578703 0.750679783 0.2469759851
0.7025713399 0.5017454779 0.2413183649
0.6924949407 0.7498011867 0.4965840785
0.7023688547 0.7494432401 0.7456362579
0.7227425462 0.4974644363 0.7398350573
0.732480243 0.7518121959 0.9848872338
0.7225584688 0.7516039361 0.2356625855
0.7225326979 0.5017090324 0.23876337
0.7325354662 0.7488119524 0.4872642375
0.7225216533 0.7491438665 0.7367766105
0.7225768765 0.9960033828 0.7366928553
0.7124231647 0.7495929269 0.9921582929
0.7125152034 0.7528209546 0.4927055667
0.742722312 0.4993869351 0.7385400724
0.7425529607 0.7518642609 0.2375070414
0.7427075858 0.4996069095 0.2369686149
0.7426707703 0.7482913028 0.7362455471
0.7527103541 0.4973069398 0.488827055
0.7524563272 0.7481806647 -0.011776597
0.7625548158 0.4987348214 0.7374530951
0.7626542176 0.7481546322 0.2398991278
0.7625106372 0.499103181 0.2386851371
0.7524931427 0.7476665232 0.4879315182
0.762536408 0.7493911751 0.7367324319
0.7825051291 0.7499313491 0.2436119699
0.7825824416 0.4993133933 0.241582516
0.7724545007 0.7464820453 0.4883788264
0.7825861232 0.7489421148 0.7425851743
0.7724913162 0.9981705869 0.488679793
0.7726017626 0.4989495894 0.4910856852
0.7724545007 0.7488510011 -0.0110442817
0.7825603523 0.4992060093 0.7403385091
0.772664349 0.4999336172 -0.008873438
0.7924747635 0.7518902934 0.4946208925
0.8124140322 0.5000722401 0.4978901079
0.8126165174 0.750790421 -8.2827808249e-04
0.8024848948 0.4999707135 0.7458341412
0.8025143472 0.7489876717 0.247160983
0.8024664871 0.4998333921 0.2482267914
0.7926072992 0.4993849826 0.4947175332
0.7925483944 0.7497295974 -0.0058101408
0.8126165174 0.7501656415 0.5015366821
0.7924858081 0.4988441578 -0.0060410199
0.802459124 0.7484800383 0.74516594
0.8326146908 0.5004100116 0.4993249916
0.832662551 0.7504780312 -0.001091472
0.8225787886 0.5001138921 0.7479841657
0.8325447414 0.4993979989 -0.0012076249
0.8225898333 0.7494757807 0.2492962813
0.8226156041 0.5011193967 0.2510072812
0.8325705123 0.7513110707 0.4988638776
0.8225162023 0.7501786577 0.7474531023
0.8625751356 0.7518252122 0.7548290854
0.8626561297 0.5007777204 0.750511549
0.8526202274 0.7496905487 0.005823121
0.8527159477 0.4961556533 -7.0953892741e-04
0.862604588 0.7485646438 0.2517564764
0.8626156326 0.499255471 0.25371414
0.8526533614 0.7507839129 0.5036498911
0.8425953698 0.7506993073 0.250094257
0.8425180573 0.4975171521 0.252718281
0.8426726824 0.7493651426 0.7499685205
0.8526717691 0.4983215557 0.501496185
0.8725705408 0.498704884 0.5043677932
0.8825622644 0.7503088201 0.7578221847
0.8924766755 0.5004028527 0.5030875345
0.8727214843 0.7499964303 7.2829918948e-04
0.8927159762 0.749814203 7.7015840019e-04
0.8826506216 0.4983521439 0.7506698556
0.8727767075 0.5016641264 0.0026715311
0.8925318988 0.4992248829 0.0063345802
0.882606443 0.7511613839 0.2541678909
0.8826543031 0.4999485858 0.2522258738
0.8726736241 0.7497165811 0.5028279854
0.8926092113 0.7493065696 0.5024368208
0.8825917168 1.0016459232 0.2542010248
0.8825917168 1.0004874778 0.7556307427
0.9126000217 0.7485386113 0.5020852329
0.9125558431 0.9995307841 0.0051176442
0.9125558431 0.4986664861 0.5039747878
0.9027334707 0.7491308503 0.7520587199
0.9127141497 0.7503999338 0.0025493037
0.9126368372 0.4971318713 0.0035998337