POSCAR file written by Ovito 3.7.11
1
271.6040471599 0.0 0.0
0.0 15.3642450836 0.0
0.0 0.0 10.8641618864
Sr Ti O 
800 800 2400 
Direct
0.0225824859 0.5001972111 0.763719012
0.0126305355 0.2489144453 0.5176125909
0.0227207386 0.2516396036 0.767048307
0.0025895216 0.2513284916 0.7630314302
0.0125944167 0.2483481955 0.0178883548
0.0226453715 -0.0012291172 0.2683213866
0.0025922094 -9.1058546283e-04 0.2629247439
0.0025713702 0.4975813976 0.2657275372
0.0127275149 0.5006612756 0.5141663978
0.0123887129 5.891953513e-04 0.5167307926
0.0223853238 -3.9145810209e-04 0.7656317228
0.0024105479 -8.4686609396e-04 0.7640706268
0.0226488693 0.2498458285 0.2664362896
0.0024922477 0.2495405743 0.2644398171
0.0325688245 0.502199262 0.0144321287
0.0424747888 0.5006000946 0.2615716713
0.0324469559 0.4991174314 0.5131336444
0.0325102834 0.2493700485 0.5168044292
0.0426397348 0.2503561041 0.7612218106
0.032624052 0.2521231939 0.0141647357
0.0524072623 0.5005284998 0.0079491619
0.042436866 0.0030085137 0.7633839655
0.0424880434 0.2521570387 0.266469426
0.0525147718 0.2511280262 0.5124138466
0.0525033581 0.2501113801 0.0108746522
0.0626379641 0.2537575078 0.2559274255
0.0625072591 0.5004074395 0.7584346651
0.0724250053 0.5003618792 0.0054979834
0.0625934139 0.5029581668 0.2602765875
0.0722328138 0.5029627229 0.5079284569
0.072647756 0.251698832 0.5073034662
0.0625054182 0.2497879018 0.7561924305
0.0725807467 0.2515003191 0.0073114689
0.0925432622 0.250045643 0.5058703138
0.1024919358 0.2495275571 0.7527121804
0.0824123381 0.2531860512 0.7554358144
0.0925763987 0.2502819059 0.004402731
0.1024753675 -0.0012090056 0.248282105
0.0924423801 -1.3221985262e-04 0.5003162728
0.1024109355 0.2513258882 0.2534247014
0.0825183748 0.249914169 0.255375151
0.1023873718 0.500541517 0.751268903
0.0824134426 0.5017312924 0.7521893605
0.1025224949 0.4998574613 0.2506789765
0.0825010702 0.5018562578 0.2539953851
0.1224585013 0.2520060387 0.2492964492
0.1123938501 0.5003820559 0.0019145501
0.112472273 0.2506177506 0.4985241419
0.1224371467 0.4999186423 0.2467605886
0.1124877367 0.5004041852 0.4985784489
0.1224732286 0.2470406142 0.7530021246
0.1124538639 0.2490686995 -2.4458202217e-05
0.122260787 -6.4601014671e-04 0.2487819135
0.1525184363 0.2512738192 0.4994786564
0.1324712387 0.2481731137 0.4991749054
0.1424206486 0.2494689795 0.7502628429
0.152427495 0.2521316551 -0.0020700095
0.1324992206 0.2516109656 -1.7888336796e-04
0.1423687348 2.5256963544e-04 0.2472346243
0.1424736669 0.2484686049 0.2490764599
0.1424545214 0.5029178134 0.7478365167
0.1525324272 0.5008422152 -7.2375742838e-04
0.1324863342 0.5016206458 -8.1043691731e-04
0.1524956089 0.5022728094 0.5002104202
0.1324903842 0.5015008873 0.501147446
0.1823048113 0.2502207249 0.2414329802
0.1724846336 0.5006105084 0.4975033545
0.1825363984 0.4974648933 0.7450953941
0.1724224106 0.2493713502 0.4926184862
0.1623827959 0.2501953413 0.7453153834
0.1723344149 0.2497918069 -0.0100128955
0.1825043665 0.5000546724 0.2428514054
0.1624442825 -8.4029238992e-04 0.7436383098
0.1623831641 0.2519982284 0.247022919
0.1822510565 0.2486781824 0.7418470993
0.1824241026 -0.0011625991 0.2428836214
0.1923941307 3.0776271491e-04 -0.014313485
0.2023273406 0.2479004026 0.2435003279
0.202513273 0.5035784381 0.7403780491
0.1923186532 0.5001763835 -0.0094394228
0.2024436864 0.5007100902 0.2384534591
0.1923687261 0.5001334267 0.4905603431
0.192257903 0.2494767898 0.4910896062
0.2023236588 0.2493362037 0.7422272483
0.1923554715 0.250704966 -0.0075601145
0.2024646729 -2.1735257426e-04 0.2373120917
0.2124987649 0.2488161651 0.4929894306
0.222412461 0.2490023116 0.7452997357
0.2124453783 0.2503521989 -0.0054525253
0.222343979 6.8350522413e-04 0.7382131329
0.2223402972 0.2508865565 0.2428237916
0.2323198981 0.2503866946 0.4951617104
0.2324410303 0.2504608929 0.9939539833
0.2324388212 -0.0021045068 0.4872927187
0.2223907382 0.4995092502 0.7393811935
0.2124324919 0.4988850738 -0.0073327716
0.2123356598 0.5001308232 0.4933474886
0.2424364631 0.4987828885 0.7395919783
0.2624917607 0.2497885526 0.7455850775
0.2625598746 -3.5188570549e-04 0.24245837
0.2625329972 3.7200277322e-04 0.7437929466
0.2525511872 0.2488161651 0.4924316333
0.2423874947 0.2494130054 0.7469924571
0.2525357235 0.2500905525 0.995739671
0.2623640012 0.2500912034 0.2457674149
0.2424066403 -7.2535019846e-04 0.2415222646
0.2624726152 0.5003879136 0.2380180827
0.2525180507 -0.0018831552 0.4908447645
0.2424143721 -0.0016819869 0.7401424119
0.2524109094 5.7708932208e-04 0.9895081733
0.2423687174 0.2494494536 0.2466455314
0.2726580304 0.2507056169 0.4933042271
0.2725008163 0.2512542934 0.9941840977
0.2724039841 -0.0015443947 0.4974435247
0.272484248 -0.0019013468 0.9940736428
0.2824796808 0.2478964974 0.7447382566
0.2724172387 0.5006977238 0.4951838014
0.2825080309 0.2487009626 0.2482508094
0.3125116339 4.4541998271e-04 0.4981890954
0.2925575866 0.5009912625 0.5002757727
0.2924239362 0.2495067295 0.4965092603
0.3024885874 0.2484028679 0.749836671
0.2924393999 0.2484171869 0.9999921849
0.2925413866 4.1066396332e-04 0.4991123143
0.3024620782 -6.1366231593e-04 0.7512090732
0.3125734887 0.4991753581 0.4965847378
0.3025309284 0.2485616782 0.2471729536
0.3126555935 0.2493524752 0.4978476056
0.3125856387 0.2480377344 0.998666726
0.3224860803 -4.065166897e-06 0.2487211633
0.3326273135 2.3213257535e-04 0.4956937349
0.3225729715 0.0023860295 0.7499388418
0.3326387272 -0.0016976726 0.9988139992
0.3224890257 0.2469904978 0.2482931505
0.3226241489 0.4986305868 0.7497639549
0.3224378483 0.4988688022 0.2497042119
0.3325603042 0.2481086784 0.5013775604
0.322630408 0.247375808 0.7505325369
0.3326004362 0.2501946904 1.0018975321
0.3626728894 0.2491578676 0.2439716022
0.3525360743 0.5014000037 0.4975484569
0.3525647926 0.2488467556 0.5019408804
0.3425634689 0.2495034752 0.748794713
0.3624703887 0.5017247837 0.7464199325
0.3525651608 0.2490713029 0.9999553666
0.3624998434 0.4969800013 0.2436457602
0.3424316593 0.0013300713 0.2525511872
0.3425321733 0.2519474612 0.247207931
0.3624519796 0.2506184014 0.746040704
0.342682392 0.498657923 0.7481236995
0.3425240733 0.5002675042 0.2492844833
0.3826615459 0.2486918505 0.2441566142
0.3924809872 0.2490296478 0.4887111438
0.3926098512 0.2476511225 0.9896922648
0.3926172149 -0.0011705397 0.9903181759
0.382506909 0.4997936768 0.7375577671
0.3926503514 0.4966773506 0.9888178301
0.3724555124 0.2504654489 0.4934110001
0.3826210457 0.2490706521 0.7413150749
0.3725475582 0.2486554023 0.991358293
0.3925914421 0.49647298 0.4893527027
0.3722566936 6.6417462908e-04 0.4958999174
0.4125800986 0.4987815867 0.9872622568
0.402462429 0.2474200666 0.7376645402
0.4025802476 -0.0032218933 0.7381422576
0.4025102928 0.2475385234 0.2380677874
0.4126242805 0.2473139761 0.485822748
0.4125911441 0.2489476392 0.9844916795
0.4125727349 -0.0024060185 0.4838179914
0.4125359166 -0.0025958033 0.9857250927
0.4426201517 -0.0017132282 0.728253782
0.4424323783 0.2484191394 0.23026783
0.4225689041 0.4982303068 0.7322273973
0.4324178 0.4988967893 0.9816106473
0.4325208913 0.5004028834 0.48614859
0.4426422427 0.4997194786 0.7301002199
0.442506015 0.4973275615 0.2304666488
0.432506164 0.2499851129 0.483078864
0.4224289945 0.2470738081 0.734610462
0.4325466641 0.2486599583 0.9778183622
0.4224658128 -2.9656245365e-04 0.2318887558
0.4326534372 -0.0025677707 0.9823378088
0.4223921762 0.2482056568 0.2323305754
0.442506015 0.2518804224 0.7296280252
0.4725460681 0.2506847893 0.485400258
0.4625830354 0.2494494536 0.7301177086
0.4725607954 0.2486723247 0.9861116848
0.4724503405 0.0020060564 0.9826507644
0.4625793535 0.2516259355 0.2323480641
0.4524690476 0.4998288234 0.9854949783
0.4525242751 0.499336121 0.4840296966
0.4624799441 0.4996934441 0.7320884082
0.4725497499 0.5016297579 0.9836724723
0.4626014445 0.4986702894 0.2313484472
0.4526605028 0.2519897672 0.4805917876
0.4526200027 0.249716307 0.9805429166
0.4524690476 0.0029147245 0.4797873077
0.4824612369 0.2491350874 0.739901252
0.4825091007 2.9018944668e-04 0.7365332978
0.492634134 0.4976842338 0.9885324882
0.4926599068 0.5020222276 0.4901930805
0.4825753737 0.2500964103 0.2363603386
0.4924794971 0.2490752081 0.4906514684
0.4922880419 0.2504784661 0.9894069229
0.4824612369 0.4983155697 0.236481839
0.5024130751 0.2501530352 0.7420947024
0.5125712448 0.2493615873 0.4926304521
0.5123650623 0.2485297859 0.9952978513
0.5025640302 -2.1676679865e-04 0.7447658703
0.5025014391 0.2495483846 0.245288777
0.5223649133 0.2483299714 0.246469724
0.5225305957 0.2497228156 0.7418029174
0.5125786085 0.5003371464 0.4955381776
0.5225526867 0.4988896298 0.7453061789
0.5424051154 0.4993771253 0.7484430983
0.5524675575 0.5010107884 1.0022012831
0.5424087973 0.5000715948 0.2473073404
0.5524601939 0.5003169697 0.5018819711
0.5324126281 -5.583390641e-04 0.4967163633
0.5325856741 0.2493765571 0.5003337615
0.5325378103 0.2493336002 0.9975345632
0.5325378103 0.4994767071 0.9983905888
0.5524712394 8.5207842678e-04 1.0007193464
0.5424971612 0.2487191867 0.2510223072
0.5524638757 0.2479192776 0.5013039238
0.5425523886 0.2499909707 0.7523679293
0.5525596033 0.2491728374 1.0021736694
0.5724230776 0.2515901381 0.5045246048
0.5724856687 0.2486925014 1.0064077742
0.5624600449 0.5006397971 0.7550216085
0.5623348626 0.5013362192 0.2510425572
0.5725151233 0.4996966984 1.0052664068
0.5724746232 0.5007042325 0.5048016625
0.5625079087 0.2486352256 0.2511134325
0.5624747722 0.2486449885 0.7520199964
0.6023305848 0.5009046979 0.7621514728
0.5926252802 0.5003065559 1.0117832463
0.5924964161 0.4987854919 0.5138709309
0.5824450195 0.249080415 0.7574967189
0.6024152669 0.250497992 0.261351682
0.5925258708 0.2516643363 0.5104127718
0.6024226305 0.2509204013 0.7587043592
0.5925700528 0.2520489956 1.0126392719
0.582478156 0.4995938622 0.7601273866
0.5824413377 0.5023209731 0.2573670212
0.582478156 0.2493231865 0.2592742092
0.6123746177 0.5003195731 1.0128233634
0.6123157084 0.5028449169 0.5108822052
0.6224591508 0.5021888482 0.7612356175
0.6124003905 0.0010717443 0.5125583584
0.6223266049 0.5001802887 0.260418338
0.6125255728 0.2521127801 0.5090514151
0.6124961181 0.2506678669 1.0114150633
0.6222640138 8.5917282025e-04 0.7614270727
0.6224812418 0.2499773026 0.2581043077
0.6224665145 0.252809853 0.7575409008
0.6424183527 8.0931680742e-04 0.2532544168
0.6524623856 -9.5985570006e-04 0.504867015
0.6324405927 0.5012711331 0.5063922132
0.6424478073 0.2503404834 0.2543175452
0.652215703 0.2505038497 0.503002168
0.6425067166 0.2495164924 0.7565283975
0.6324921383 -0.0016470356 0.5108058072
0.6523629762 0.2490472211 1.005045497
0.6424220345 0.4998457458 0.7577949471
0.65241084 0.5011923788 0.5047712874
0.6323375014 0.2521986938 0.5056135061
0.6324074562 0.2518374655 1.0085432357
0.6824987569 0.4956691657 0.7463297277
0.6623002361 6.0540180978e-04 0.252760131
0.6823956656 0.5004640645 0.247380977
0.6623959637 0.0021342111 0.7543423108
0.6724436784 0.5001418879 0.4963932827
0.6623296907 0.2489372254 0.2489061752
0.6623812363 0.2482082602 0.7482240294
0.6724952241 -7.5906483899e-04 1.0005076412
0.6624033273 0.4981925568 0.7515708131
0.6623959637 0.4987588066 0.2528576996
0.682627621 0.250794785 0.243140429
0.6724620876 0.247903006 0.502308143
0.6825318934 0.2488435013 0.7438739469
0.6724031783 0.2488656306 1.0013820758
0.7024910952 0.2489027297 0.2418867658
0.6924176076 0.2490322512 0.497361604
0.7025205499 0.2481984973 0.7402565487
0.6925906536 0.2489359237 0.9943589846
0.692539108 0.5004100429 0.995261033
0.6924396986 0.4984066903 0.4945238333
0.732538512 0.4997826122 0.9871149836
0.7325127392 0.5016922406 0.488480109
0.7125756283 0.2475333165 0.4914467437
0.712516719 0.2505578713 0.9910085191
0.7225239337 6.2004619997e-04 0.2388363695
0.7326231941 0.0038347176 0.4865756823
0.7324869664 0.0027922974 0.9891768085
0.7124835825 0.5001894008 0.9912294289
0.7226343886 0.2512731684 0.2408135123
0.7325716484 0.2525963704 0.4840858446
0.7225828429 0.2502890654 0.7421444071
0.732538512 0.2514475993 0.9874463483
0.7125056735 0.4978248199 0.4902860467
0.7124909462 2.7632609063e-04 0.4925743042
0.7124762189 0.0011658589 0.9917080668
0.7524829865 0.5012450986 -0.0169908199
0.7424684082 6.5304489254e-04 0.2348471064
0.74247209 0.0011655985 0.7357932499
0.7425346811 0.2509998064 0.234192661
0.7425346811 0.2516714958 0.7367735372
0.7625196558 0.0017779293 0.2355116767
0.7525492594 0.0014496346 0.4849299041
0.7625527923 0.0013969799 0.7365830025
0.7527554419 0.0023592791 -0.0110221312
0.7626411562 0.2542358912 0.2344172527
0.7524793047 0.2521908835 0.4894870895
0.7625638378 0.2525599221 0.7336761975
0.75244985 0.2510499228 -0.0122815749
0.7824862213 -1.3508364448e-04 0.2370690909
0.7826040399 7.8230604329e-04 0.7383042582
0.7724790067 3.7733983987e-04 -0.0155097208
0.7826150854 0.2504960394 0.2384543796
0.7726741437 0.2515348148 0.4878413114
0.7826298127 0.2483566567 0.7376083922
0.7726005071 0.2492001736 -0.0118967316
0.7925523452 0.0023613618 0.4870138201
0.7925376179 -0.0015305313 -0.0119854729
0.8126993204 0.5031872702 -0.0092504529
0.7925597089 0.2493062641 0.4895717716
0.7926333455 0.2496095656 -0.0079468696
0.8025411507 7.1239541776e-05 0.2395101444
0.8125630927 0.002233858 0.490853969
0.8025190598 0.0011870119 0.7427169317
0.8124857743 -7.3263985046e-04 -0.0116799454
0.8026736966 0.2521355602 0.2397393383
0.8124820924 0.2517632673 0.4941805027
0.8027215604 0.2527356548 0.7417808264
0.8125115471 0.2510258409 -0.0090848856
0.8324928399 -5.5091923973e-04 0.499031314
0.8225187617 5.0712168005e-04 0.7422410552
0.8324817944 -0.0010873595 -0.0040794788
0.8225887165 0.2509535952 0.2435141348
0.8325222946 0.2512328149 0.4964052486
0.8224929889 0.2493166778 0.7424279081
0.8325848857 0.251962431 -0.007250317
0.8224966708 -0.0017454459 0.2442422167
0.842404327 0.0020950292 0.7423984534
0.8425957822 0.2500150525 0.2480068882
0.842555282 0.2518810733 0.7451579852
0.8624113926 0.001503526 0.2457361194
0.8425405547 0.4999036725 0.7435701959
0.8524778146 -5.8580543148e-04 0.4958796673
0.8624887111 -8.9633158971e-04 0.7452214968
0.8523857688 0.0024615945 -0.0060314103
0.8625071202 0.2524180343 0.2460380294
0.842577373 0.0018249866 0.2446131611
0.8525404057 0.2504576386 0.4953945862
0.8625844386 0.2491943158 0.7433465247
0.8526361333 0.2511319314 -0.0027656913
0.8724922439 0.0023163222 0.4967237269
0.8926171281 8.6404621397e-05 0.4975383319
0.872576926 -0.0013255749 -0.003323866
0.8825473223 0.2496102165 0.248672379
0.8925140368 -7.3244459193e-04 -2.065431178e-04
0.8724406983 0.24921254 0.494824823
0.8924624912 0.2494273243 0.4938325697
0.8825252313 0.2519025517 0.7460637154
0.8724517437 0.2496753027 -0.0051585956
0.8925729461 0.2502662852 -0.0054853028
0.9025654335 6.0410008621e-04 0.2530123364
0.9126168301 -0.0015059287 0.5020402898
0.9025764789 -0.0020204155 0.7540790599
0.902510206 0.2476752044 0.2472475107
0.9125395116 0.2489261608 0.5045779913
0.9025286152 0.2501146344 0.750226945
0.9026169791 0.4978736345 0.7482783363
0.9124953297 0.2488487082 0.0050221989
0.9225540899 -0.0021780347 0.2551303093
0.9225467263 2.1449422094e-04 0.7558095201
0.9226498175 0.2480741827 0.2545007163
0.9226314084 0.2478144888 0.750259161
0.942638474 -4.167115394e-04 0.2572777368
0.9326091684 -0.0011323992 0.5061317237
0.9425501101 0.0011217956 0.7579505044
0.9326312594 3.2917606768e-04 0.0071306911
0.9425611556 0.2493739537 0.2596948583
0.9325870774 0.2490023116 0.5099930432
0.9426016557 0.2479902215 0.756245817
0.9324582133 0.2507498755 0.0091148294
0.9524137334 2.2041706319e-04 0.5097288719
0.9524800063 9.1508184769e-04 0.0083143075
0.9625240393 0.2510089185 0.2575814878
0.9524689608 0.2505415997 0.5094582573
0.9726196178 0.2509230047 0.5096313034
0.9625792667 0.2490270443 0.7617280623
0.9525462793 0.2511937632 0.0082899153
0.9724981174 0.2523522972 0.0104655088
0.9625314029 0.0014032933 0.2616848876
0.9825679232 0.500814879 0.7632017149
0.982571605 0.5015985165 0.2645235787
0.9824537865 1.9756374481e-05 0.2625519586
0.9925567287 4.6182169973e-04 0.5151660147
0.982376468 0.2502630309 0.2617796947
0.9924168192 4.6247256151e-04 0.0138622734
0.9925272741 0.2489736737 0.5118238333
0.9825826505 0.2501855783 0.7627644975
0.9925272741 0.2503853929 0.0131209369
0.0125629739 0.7510308824 0.0176079834
0.0026451541 0.5011917279 0.7674155696
0.0126619047 0.5030336668 0.0168757594
0.0225130465 0.7498853656 0.2647693409
0.0025173946 0.7489090729 0.2643965556
0.0125697116 0.7510699341 0.512318119
0.0225381934 0.7523976921 0.7657191663
0.0225460357 0.5012841503 0.2630149488
0.0025162532 0.7507314859 0.7647315153
0.0124502731 0.999757714 0.0163674827
0.0524878944 1.0012677133 0.504822833
0.0525169809 1.0021659026 0.0077523681
0.0325124925 0.7511870892 0.012489595
0.0424873071 0.5015360338 0.7604937287
0.0425819301 0.7499504518 0.2596782901
0.0324035104 0.7503474775 0.5137485101
0.0425830347 0.7522675197 0.7605719676
0.0525077763 0.7519811406 0.0095544399
0.0525711038 0.7525083386 0.508673107
0.0525225036 0.500527198 0.5079928889
0.0424758934 1.0004996964 0.2631861539
0.032557779 1.0004150844 0.5150491166
0.03255962 1.0031942642 0.0149776839
0.0724879646 1.0019120665 0.5042990927
0.0623224312 1.0026410317 0.7578593791
0.0725800103 1.0001612483 0.0018877648
0.0722725775 0.751427908 0.0062301154
0.0624987909 0.7512391581 0.2502528046
0.072436419 0.7493451503 0.5067852486
0.0623688223 0.7499114001 0.7511621299
0.0623610905 1.0037540053 0.258281956
0.0824038699 1.001580127 0.2562900858
0.1024101991 1.0007860756 0.7514888923
0.082526843 1.0020031871 0.7551882113
0.0924578437 1.0000701276 0.0012441808
0.0924666801 0.7504255809 0.0010443495
0.0923573298 0.4998034397 0.0044702926
0.102339508 0.7517207958 0.2533464625
0.0823762561 0.7504841585 0.2517365822
0.0923624843 0.7474251081 0.5013554694
0.1023763263 0.7493060986 0.7542834015
0.082325815 0.7540638983 0.7516849498
0.0924438528 0.4999160388 0.5049388107
0.1124969413 0.9979548268 -0.0022004935
0.112470064 0.750184762 -0.0032880786
0.1224798559 0.4985980437 0.7461944204
0.1225895744 0.7511024771 0.2506706924
0.1124417139 0.7495273916 0.4961824979
0.1224839059 0.7515320459 0.7510627205
0.1124685912 0.9996535761 0.5002619658
0.1224448785 0.999178447 0.7484173254
0.1524801452 1.0012416789 0.4977951395
0.1323817702 1.0004411189 0.5002941818
0.1424062894 1.001085472 0.7494197037
0.1525464182 1.0009032307 6.7096589759e-04
0.1324579841 1.0010984893 -4.5481813692e-04
0.1525556227 0.7514409253 -4.5439472644e-04
0.1323467928 0.7501261845 0.0010920292
0.1425185853 0.7508942014 0.2486015038
0.1525121771 0.7493907107 0.4931624766
0.1323839793 0.7502693741 0.4979773901
0.1425605581 0.5014481675 0.2485159012
0.1424655669 0.7495599347 0.7474342768
0.1725781521 0.7494232537 -0.0073902358
0.1625470055 0.5011930297 0.7454460884
0.172392956 0.5001308232 -0.0046587319
0.1625042963 0.7522610111 0.2469419188
0.1823493614 0.9986447403 0.7395910578
0.1724949427 0.7483232973 0.4920873822
0.1624741053 0.5010752237 0.245061424
0.1624343415 0.7499699776 0.7448183364
0.1824358844 0.7484729955 0.2416051058
0.1823574614 0.7487333402 0.7390166923
0.1625363282 1.000284912 0.2468793277
0.172433088 0.9990027143 0.4929424872
0.1724732199 0.9991459039 -0.0085054318
0.1923392714 1.000506205 0.4860215668
0.2024374273 0.999126378 0.737245732
0.1925027447 0.7491759263 -0.0124918074
0.202491182 0.7504841585 0.2380088781
0.192501272 0.7506078222 0.4894300212
0.2025280003 0.7499244173 0.7371546067
0.2324226211 0.7484014007 0.9894437412
0.2323920619 0.5013225511 0.9932912538
0.232307748 0.7493711848 0.4914890848
0.2324388212 0.5002583921 0.4895450784
0.2223414017 1.0001482311 0.2394917352
0.2124755693 0.9997446967 0.4889937243
0.212482933 1.0009748255 -0.0104214682
0.2123478098 0.7513498046 -0.0125325929
0.232378071 1.0004411189 0.9907784047
0.2222931697 0.7507510118 0.2399252708
0.2124269692 0.749742176 0.4903044559
0.2223314608 0.5001815904 0.2409525014
0.2223410335 0.7499309259 0.7374353462
0.2523656229 0.7481996336 0.9904654491
0.2524488323 0.5006144135 0.9881919189
0.2424938996 0.7489155815 0.2398231
0.2525331462 0.750406055 0.4852870417
0.2424883769 0.4960154241 0.2432361566
0.2424232085 0.7504385981 0.7408622097
0.252399864 0.5012939132 0.4879710959
0.2625845428 0.4968817212 0.7397070355
0.2624814516 0.7493516589 0.2415038555
0.262464147 0.7488830385 0.7432130584
0.2824697399 0.4974056649 0.7419685997
0.2824027306 0.749742176 0.2465166674
0.282574672 0.5010667625 0.2413795937
0.2824167215 0.7500936414 0.7475447317
0.2726234212 0.748635711 0.9909440871
0.2723763704 0.501756676 0.9943129617
0.272685276 0.7484079094 0.4920938254
0.2824667944 0.9978376717 0.2482692186
0.2824995627 0.9999724984 0.7470476846
0.3125561841 0.999315128 1.000056617
0.2926662006 0.7496445467 0.9992190006
0.302540133 0.4986403497 0.7463113185
0.2924913137 0.5003208749 0.9968350155
0.3026030923 0.7517142872 0.2477086599
0.2926076595 0.7498202794 0.4991822691
0.3026288651 0.5002304051 0.2500558267
0.3025544921 0.7476659269 0.7483703821
0.3025747422 1.0011896099 0.2516887184
0.3126055206 0.7509202358 0.9983077476
0.3126728981 0.498460061 0.9982709293
0.3125329885 0.7514539425 0.4996940435
0.292544332 0.9995234037 0.9966969468
0.3324737812 0.7486031679 0.9984826345
0.3326659728 0.4989527634 0.9981144515
0.3225670805 0.7496770898 0.249267915
0.3325098632 0.7499439432 0.4982581297
0.3225788624 0.7513628219 0.7513802783
0.332638359 0.5016616501 0.5013011624
0.3526656747 0.9979678441 0.4965994652
0.3426234827 1.0002003 0.7505481847
0.3625440253 0.7497877363 0.2432554862
0.3525467516 1.0001287052 0.9992466143
0.3626176619 0.7492410124 0.7417412467
0.3625845255 0.9964513361 0.2493700858
0.3526167064 0.749963469 0.9972676305
0.3624998434 0.9999659898 0.7477730051
0.3525949836 0.5010530944 0.9959973991
0.3426139099 0.7503735119 0.247946138
0.3525025697 0.7481280388 0.4976018434
0.342585928 0.7496705812 0.7457277484
0.3925951239 0.9990482746 0.491906052
0.3724297396 0.7476724355 0.9896186282
0.3725770128 0.4979061776 0.9946719402
0.3825695001 0.7496445467 0.2397964067
0.3724371032 0.7473014443 0.4894769645
0.3824590452 0.4990601556 0.235745473
0.3825363637 0.7480499354 0.7415350642
0.3823669995 0.9975643098 0.2400661008
0.3824222269 0.9997316795 0.7402215713
0.3724960125 0.998156594 0.9924168192
0.3724444669 0.5003104611 0.4929949533
0.3924588962 0.7515255373 0.9890019216
0.3925472601 0.7474120908 0.4868168422
0.4126095532 0.7480889871 0.9888362392
0.4126021896 0.7490327367 0.4869079674
0.4125727349 0.497682932 0.4811146075
0.4025655203 0.9989831885 0.2376075586
0.4026281114 0.4976321648 0.7344604274
0.4025397475 0.7485966593 0.2356819614
0.4025581566 0.496972191 0.2334157949
0.4025176565 0.7490197194 0.7361430238
0.4325098458 0.7489676505 0.9807822355
0.4224694947 0.749384202 0.2370175453
0.4324251637 0.7488830385 0.4813474833
0.4225578586 0.499043884 0.2356258135
0.4224437219 0.7464227809 0.7366962188
0.4424139692 0.7477960993 0.2323655528
0.4424434238 0.7468914014 0.7317791345
0.4325650732 0.9981305595 0.4848654721
0.4226904045 0.9976424132 0.7357177724
0.4425759697 1.0009292652 0.2309462072
0.4524359112 1.0026540489 0.9797237093
0.4625646262 0.9987944385 0.2313696177
0.4724650678 1.0004476275 0.4822127134
0.4625646262 1.0014629719 0.729446695
0.4525537297 0.7495078658 0.9816934885
0.4525316388 0.7473535133 0.4782160867
0.4724319313 0.7496120037 0.9865995273
0.4624946714 0.750406055 0.229519498
0.4726160228 0.7487789006 0.4883429608
0.4625130806 0.7489481246 0.7291852851
0.4724761133 0.5011155771 0.4859801462
0.482417055 1.0002393517 0.2361072128
0.4924021787 0.9996926278 0.4914973689
0.4924610879 0.9996861192 0.9929967074
0.4825937828 0.4973041305 0.7390351015
0.4924021787 0.7508746755 0.491374948
0.4823765549 0.7502888999 0.2379996735
0.4923911332 0.7506143308 0.9875752124
0.4824317823 0.7494492882 0.7342542449
0.5124644718 0.9964383189 0.4959753949
0.5125307447 0.9975512925 0.9940828474
0.5026008485 0.9980329302 0.2399749755
0.5225305957 0.7483493318 0.7464549099
0.5224459136 1.0021984457 0.2458161992
0.5224054135 0.9976684476 0.7473956175
0.5024388479 0.7505362274 0.2449113894
0.5025566665 0.4972572684 0.2440341933
0.5023541659 0.7478611855 0.7450779054
0.502589803 0.5005616937 0.7431587514
0.5123761078 0.7495599347 0.9965128553
0.5125528357 0.500334543 0.9957672847
0.5124865627 0.750236831 0.4964457487
0.5224532773 0.4965732127 0.2457453239
0.5224385499 0.7483102801 0.246459599
0.5323905371 0.749520883 0.4941225138
0.5325967196 0.5006567195 0.4982774593
0.5325046739 0.9987033179 0.9979855874
0.5424677066 1.0006819377 0.2470643396
0.552544876 1.0022309888 0.5000815561
0.552327648 0.7507510118 0.9972124031
0.5424529792 0.9995884899 0.7448569956
0.5425744796 0.7457589019 0.2503310435
0.5524381029 0.7494492882 0.498717438
0.5425818433 0.749384202 0.7501441038
0.532372128 0.7494818313 0.9976726319
0.5624453176 0.9996991364 0.2505427488
0.5624305902 1.0005777998 0.7537725476
0.5624048174 0.7515580804 0.2546645578
0.5623679991 0.7501066586 0.7510894138
0.5725408961 1.000948791 0.5040671374
0.5725961236 1.0005517654 1.0049810649
0.5723788956 0.7501457103 1.0084788037
0.5724525322 0.7524627783 0.5049277652
0.602411585 1.0031942642 0.2588323896
0.5924117341 0.7536863984 1.0144525733
0.5925553254 1.0002328431 0.5082036737
0.6024079032 1.0011505582 0.7620612679
0.5924485524 1.0021333595 1.0109548345
0.6022569482 0.7501457103 0.2645097719
0.6023379484 0.5003690386 0.2622242757
0.5923565066 0.7509267445 0.5143725803
0.6023894941 0.7510764427 0.763534
0.5823897921 1.0007665497 0.260949442
0.5825333835 1.0027842213 0.7558932818
0.582522338 0.7523716576 0.2602535761
0.5825297016 0.7527426489 0.7569324784
0.6123635722 0.7516101493 1.013265183
0.6124003905 0.7510438996 0.5127820296
0.6124666635 1.0002784034 1.0132835922
0.6224517872 1.0004996964 0.2611501018
0.6225585602 0.7516817441 0.2650316713
0.6223965597 0.7518770027 0.7631741011
0.6424698983 1.000694955 0.753968605
0.6523997945 0.999263059 1.003287423
0.6325510476 0.9977205166 1.0074570958
0.6323816834 0.7525538989 1.0116635869
0.63245532 0.50087606 1.0073374363
0.6323853652 0.7520332095 0.5126393587
0.6525544314 0.7490132108 1.0054228846
0.6524439765 0.4999401207 1.0040145845
0.6424588528 0.7487919178 0.2573016687
0.6424809438 0.4996153407 0.2564336772
0.6524513401 0.7485576076 0.5066959642
0.6424846256 0.750816098 0.757949584
0.6723810873 0.748857004 1.0022749197
0.6724804967 0.5005441205 0.9979119508
0.6825871208 1.0020682733 0.248054752
0.6725173151 0.9999659898 0.4963951236
0.6824508931 0.999126378 0.7484256096
0.6824729841 0.7495013572 0.2450917991
0.6724620876 0.748004375 0.4991647804
0.6824324839 0.7486877799 0.7436751281
0.6623738727 0.7483363146 0.2491280055
0.6624548729 0.7490327367 0.7521286103
0.7024064131 0.9991589211 0.2415195033
0.7024542769 0.4989703367 0.7431900469
0.6924433804 0.7494948485 0.9934201179
0.6925059715 0.9991654298 0.4933474886
0.7024800497 0.9994322831 0.7416436782
0.6924470623 0.9998097829 0.9922603414
0.7024248223 0.750542736 0.2390259837
0.7024690042 0.4988720565 0.2439126929
0.6923955166 0.7482842456 0.4933456477
0.7024505951 0.75250183 0.7430556601
0.72251657 0.5003293361 0.7423736011
0.7323949206 0.7518639854 0.985522592
0.7224907972 0.752859804 0.2421076756
0.7224576607 0.5034463132 0.2401084418
0.7324170116 0.7492279952 0.4844982095
0.7224024333 0.7512651926 0.7405354473
0.7224576607 0.999842326 0.739456671
0.7125314463 0.7492410124 0.9907415864
0.7125535373 0.7513563132 0.4901304894
0.7424684082 0.5008682496 0.7345405072
0.7423984534 0.7519420889 0.2345737305
0.7426046359 0.5000572758 0.2336008068
0.7425825449 0.7513042443 0.7357260565
0.7525750323 0.4994012072 0.4813953471
0.7525603049 0.750816098 -0.0139714982
0.762515974 0.4989098065 0.7346251893
0.7624975648 0.7526254937 0.2365968962
0.7625233376 0.5008780125 0.2328570771
0.7525971232 0.7505882963 0.4859212369
0.7624128827 0.7504711412 0.7339891531
0.7825488124 0.7503279516 0.2371675799
0.7825856307 0.5022155335 0.2379232756
0.7725379159 0.7509397617 0.4878910161
0.7825340851 0.7521178215 0.7358880571
0.7724642793 1.0017037907 0.4834442856
0.7725784161 0.5008702022 0.4834424447
0.7725636888 0.7490327367 -0.0121760905
0.7825488124 0.5008435169 0.7351931116
0.7726041889 0.4988277979 -0.0179082399
0.7926480728 0.7515776063 0.4893315322
0.8125667745 0.5035100976 0.4906210933
0.8125410017 0.7517598476 -0.0115939931
0.802622151 0.5015139045 0.7367689349
0.8025669236 0.7509462703 0.239692395
0.8025816509 0.5015920079 0.2422770398
0.7926296637 0.5027160462 0.4882315854
0.7926223 0.7498398053 -0.0114670528
0.8125041834 0.7505817877 0.4916510853
0.7925633907 0.5021875465 -0.0104336919
0.8025485144 0.7509332531 0.7377777564
0.8325480674 0.5006528144 0.4886098935
0.8326069767 0.7502433396 -0.0056557071
0.8225482164 0.501144215 0.7442697436
0.8326364313 0.5006417497 -0.0067712833
0.822643944 0.7488960557 0.2434533846
0.8225334891 0.5006189696 0.2420855847
0.8324965217 0.7508421324 0.491300391
0.8226476258 0.7485055386 0.7419004859
0.8625218475 0.7525213558 0.7454562135
0.8625292112 0.5012529089 0.7474434813
0.8525146329 0.7526189851 -0.0053193719
0.8524925419 0.5001653189 -0.0056923966
0.8624408473 0.7495013572 0.2474951138
0.8623856198 0.5013622537 0.2445542519
0.8525588148 0.7515255373 0.4991334848
0.8424890091 0.751922563 0.2442716714
0.8425626457 0.5005258963 0.242078221
0.8424669181 0.7500350638 0.7461695681
0.8525219965 0.499293815 0.4930547831
0.8724701529 0.4997090648 0.4934772731
0.8826172771 0.7499244173 0.7451386556
0.8926208099 0.5004041852 0.5006872172
0.8725842896 0.7511089858 -1.8368815646e-04
0.8926060826 0.7484469611 -0.0012383392
0.8825988679 0.4985843756 0.7481218586
0.8725474713 0.499213759 -0.0036552031
0.8926797192 0.499976569 -0.0020657661
0.8825399587 0.7497161415 0.2492550286
0.8824736857 0.5014637882 0.2445330813
0.8725437895 0.7490392453 0.4963978849
0.8926907647 0.7487593747 0.4975972412
0.8825252313 0.9996665933 0.2461144274
0.8826430499 0.9998097829 0.7481522337
0.9124695569 0.7479327802 0.5007470469
0.9125284661 0.9982021543 0.0040933652
0.9126352392 0.4988772634 0.5032019073
0.902683252 0.7489285988 0.7516646997
0.9126352392 0.7483167887 0.0032880569