POSCAR file written by Ovito 3.7.11
1
271.6017206144 0.0 0.0
0.0 15.3641134743 0.0
0.0 0.0 10.8640688245
Sr Ti O 
800 800 2400 
Direct
0.0225895891 0.4997207779 0.7831651832
0.0125754773 0.2490587396 0.5314215645
0.0225573729 0.2490561361 0.7864853021
0.0027283748 0.2479132131 0.7860029782
0.012653496 0.2479568212 0.0318313016
0.0224904366 0.0011781179 0.2840704069
0.0026046274 -0.0015598858 0.2857171196
0.0026001723 0.4995561085 0.2862684784
0.0125739309 0.5005922893 0.5333186438
0.0124883645 -0.0011379285 0.5328777408
0.0224950389 -0.0012534575 0.7851506272
0.0026301059 -0.0037675043 0.7841915022
0.0225551269 0.2516218553 0.2883404461
0.0027116591 0.2498202544 0.2845002642
0.0325467794 0.4991467129 0.0370635033
0.0424778652 0.4994623836 0.2824190918
0.032482715 0.4975097815 0.5308950582
0.0326807992 0.2490138298 0.5320760154
0.0424590877 0.2495703214 0.7839641472
0.0325331565 0.2520637942 0.0334726756
0.0524509243 0.5015536204 0.0294831942
0.04242006 7.7926638309e-04 0.7814393105
0.042479338 0.2496275977 0.2800893938
0.0524476106 0.2491771975 0.5332606544
0.052539289 0.249891199 0.0297530747
0.0625469575 0.2486942539 0.2792490088
0.0624725839 0.5011507335 0.7801699886
0.0724750979 0.5004523528 0.0285685277
0.0624169878 0.5007738813 0.2815925139
0.0723675875 0.5012444584 0.5304799283
0.0724463793 0.2506045496 0.5262457872
0.0623982103 0.2522525458 0.7781854651
0.0724220791 0.249729133 0.0264020282
0.0924838076 0.2514578367 0.5229753735
0.102417839 0.2511005105 0.7718360944
0.0823642105 0.2498729747 0.7759441317
0.092383661 0.2509566688 0.0234259793
0.1024881625 7.5668128565e-04 0.2742306312
0.0924064885 0.0029291464 0.5274331877
0.1024417711 0.2510367255 0.2738937409
0.0823185554 0.2509540654 0.2775700799
0.1025455996 0.500309162 0.7746122182
0.0824312204 0.4998275201 0.7766759018
0.1024841125 0.5002297562 0.2742389154
0.0825236351 0.5022096947 0.2764112139
0.1225495229 0.2502719564 0.2678177484
0.1124752126 0.5009248825 0.0249526633
0.1124965674 0.250691115 0.5215486521
0.1224652083 0.4995268194 0.2735310775
0.1124947265 0.5007960108 0.5263829366
0.1224088758 0.2506488086 0.7698073886
0.1124770536 0.2502979911 0.0212139167
0.1224026166 0.0020078436 0.2747322849
0.1523773899 0.2483408329 0.514809004
0.1324596221 0.2487567372 0.5201292943
0.1425177322 0.2510777302 0.7633908239
0.152397272 0.2503084049 0.0136180517
0.1322865746 0.2514871257 0.0182157767
0.1424253175 7.7412453094e-04 0.2677551568
0.1425343006 0.2522727226 0.2655690513
0.1423516802 0.5014455764 0.7702952353
0.1523965356 0.5025930556 0.0139918527
0.1325115364 0.49858176 0.0191534548
0.1524318815 0.5011058236 0.5124001459
0.1325104318 0.4997520195 0.5209761225
0.182527788 0.2507737751 0.2526079773
0.1726364663 0.5022506993 0.5079515364
0.1826021616 0.502958843 0.7571427045
0.1724586323 0.2508193358 0.5084522696
0.162492937 0.2505283981 0.7578717131
0.1724873509 0.2506006444 0.0084146605
0.1825940615 0.4990549406 0.2594728086
0.162546324 5.2712036722e-04 0.7601664335
0.1624185634 0.2538842702 0.2565613764
0.1826356666 0.2489995107 0.7545249007
0.1825542974 8.163658227e-04 0.2595409231
0.1926127757 4.1360909936e-04 0.0077596573
0.2025788392 0.2500213724 0.2531814273
0.202669413 0.5007205102 0.7572163417
0.1927589456 0.4996244495 0.009558523
0.2025832574 0.5016024354 0.2576291163
0.1927909778 0.5003247828 0.5080233327
0.1925932618 0.250828448 0.5027610317
0.2025611662 0.2505296998 0.7538437563
0.1924603466 0.2516062345 0.0059500222
0.202621917 -0.0010908708 0.2526521597
0.2125699394 0.2510582041 0.4967586765
0.2225407893 0.2485399983 0.7490895522
0.2126516767 0.2496477746 -0.0018481702
0.2226151629 6.1036630276e-04 0.7510869623
0.222484825 0.2521230231 0.2506326585
0.2325381486 0.2517266449 0.4971627609
0.2324571477 0.2500330881 0.9964986992
0.2324236427 8.8893753352e-04 0.4994850952
0.2225934399 0.5007003333 0.7506193658
0.2126362129 0.4995567593 0.0056471891
0.2126328992 0.5016876991 0.5054607569
0.2425248306 0.4999218959 0.7439625597
0.2624948808 0.2472512809 0.7399640578
0.2625475314 3.3296663326e-04 0.2400482263
0.2624919353 -0.0013355969 0.7401177755
0.2524695393 0.2510992088 0.4950143945
0.2425388217 0.2504867426 0.745112221
0.2524548119 0.2489988598 0.9940042378
0.2624297119 0.2488543673 0.2388148025
0.2425108395 1.143815664e-05 0.2491497886
0.2625965002 0.5016968112 0.2414666635
0.2525770497 8.5964850225e-04 0.4938085848
0.2424927984 -2.3211641006e-04 0.7470498008
0.2524448708 0.0021389934 0.995118001
0.2424467751 0.2496516798 0.247366847
0.2724940811 0.249326897 0.4908851865
0.272507704 0.2501001274 0.9887299708
0.2724289121 5.5566963755e-05 0.4870744595
0.2724399577 0.002151425 0.9871283609
0.2825871688 0.2507086884 0.7366043589
0.272511754 0.4993283049 0.488155086
0.2825393046 0.246701298 0.2380038725
0.3124073039 -4.5838171179e-05 0.4822309704
0.2924129534 0.49794391 0.4884128163
0.2925569142 0.2474309203 0.4835113378
0.3025027275 0.2460940388 0.734417333
0.2925178865 0.2478774153 0.9856740255
0.2924689177 9.2200159549e-04 0.4867366487
0.3024058945 -0.0024993283 0.733523561
0.3123870537 0.5000657376 0.4836392825
0.3025351279 0.247825346 0.2335110806
0.312464741 0.2497799006 0.4816142585
0.3124662137 0.2499868765 0.9824339871
0.3224889779 -4.9157594723e-05 0.2259697072
0.3323559994 -2.2853663957e-04 0.4838491486
0.3223302897 5.6077020981e-04 0.7308247563
0.332440314 0.0014746531 0.9790466742
0.3223450171 0.2484618942 0.2308794699
0.322491187 0.4996231478 0.7327126309
0.3225994338 0.500098281 0.2294150094
0.3324966465 0.2484859763 0.480256572
0.322402086 0.2493692033 0.729594094
0.3324480459 0.250931285 0.9775094969
0.3624986655 0.2490066702 0.2263802348
0.3524611739 0.4988935255 0.4784948011
0.352645267 0.247781087 0.4770220564
0.3423592497 0.2494225745 0.7276951738
0.3625833484 0.4984776212 0.7235319085
0.3526371669 0.2477687205 0.9769664223
0.3625612572 0.4968094482 0.2261510389
0.3424564508 -1.9072124587e-04 0.2301964845
0.3424457734 0.2491003951 0.2289382083
0.3624986655 0.2479769981 0.7260180857
0.3426040935 0.498734063 0.7246769676
0.3426044617 0.4978046244 0.2289428106
0.3824985388 0.2529222883 0.2188038837
0.3926199769 0.2493776646 0.4670773476
0.3925978858 0.2510171995 0.9677525632
0.392538976 3.1500269408e-04 0.9686546193
0.3824985388 0.5018406529 0.7185172128
0.3925426578 0.4996498334 0.9691884893
0.372476511 0.2498443365 0.4711393617
0.3825059026 0.2479483599 0.7206131126
0.3726311492 0.2497180682 0.9720327275
0.3926015676 0.4988388526 0.4662452469
0.372583285 5.5653957196e-04 0.4729720084
0.4123805292 0.4997917224 0.9659576555
0.4025425945 0.2493887294 0.7162445836
0.4026015043 -9.5802877843e-04 0.7149338408
0.4025241852 0.2498000775 0.215385275
0.4125793497 0.2494336392 0.4617276025
0.4125425311 0.2480817877 0.9649635528
0.4126014409 -3.2427922846e-04 0.4649529134
0.4125572586 0.0021058642 0.9674027863
0.442516568 0.0012593461 0.7076870163
0.4425018406 0.2497792498 0.2090607569
0.4223326017 0.5002089284 0.7148436352
0.4325129495 0.4988180249 0.9589068902
0.4323730388 0.5010264178 0.4634065314
0.4424502945 0.5019239639 0.7095822547
0.4425349774 0.5006860142 0.2093783175
0.4326749514 0.2505843727 0.4590794234
0.4224688305 0.2494883121 0.7139636702
0.4326049961 0.2491394472 0.9599378115
0.4225645589 -0.0017953046 0.2112201688
0.432527677 -0.0012319789 0.9612080538
0.4225240585 0.2481078224 0.2132838524
0.4424613401 0.249257905 0.7103701731
0.472623152 0.2513510945 0.4570608426
0.462604806 0.2525942511 0.7081767039
0.4726157883 0.2487827718 0.955740489
0.4724832412 -1.4672261222e-04 0.9550685493
0.4625974423 0.2513751766 0.2074407377
0.452534914 0.5019597616 0.9610147561
0.4525017772 0.5005610477 0.4603579499
0.4625495781 0.5034717265 0.7145564499
0.4725126961 0.5005929402 0.9591554158
0.4625348506 0.5001848463 0.2102122592
0.4526564154 0.2480987103 0.459994366
0.452667461 0.2520214878 0.9603796349
0.4525570052 -9.496976762e-04 0.4583237212
0.4825678607 0.2512378435 0.7036627413
0.4823432671 0.0018977819 0.7066008671
0.4925972522 0.4978189435 0.9547095677
0.4924389322 0.5013518515 0.4547790088
0.4825973156 0.2533778954 0.2039669011
0.4924205229 0.2504001772 0.4514321964
0.4926156616 0.2529261935 0.9568818662
0.4825899519 0.5032276512 0.2082737589
0.5026340075 0.2515483073 0.7065511619
0.5125566251 0.2517676496 0.456610735
0.5125823981 0.2505479241 0.9579127875
0.5025161879 3.0237586727e-04 0.7089112353
0.5025898252 0.2508661983 0.2054433277
0.522574971 0.251024359 0.2097188897
0.5224387421 0.2499849239 0.7063974442
0.5125345339 0.5020678056 0.4560197962
0.5225160612 0.4996264021 0.7087354264
0.5424791159 0.5000501168 0.7090069637
0.5524275065 0.5029620974 0.9606649792
0.5426042992 0.5028078418 0.2108335733
0.5525784628 0.5024628821 0.4598148752
0.5324092239 1.4525648618e-04 0.4604325076
0.5326043626 0.2486128955 0.4586504865
0.5325454528 0.2520709538 0.9616038539
0.5323760871 0.5023730624 0.9598549696
0.5523465055 0.0016069093 0.9615578307
0.5424827978 0.2498964059 0.2083897376
0.5523465055 0.2518965213 0.4638501958
0.5424533429 0.2517617918 0.7087529153
0.5523501874 0.2520436173 0.9622297705
0.5723647881 0.2517390114 0.4685565356
0.5724531528 0.2511734077 0.9664547069
0.5623611696 0.5029106788 0.7133672086
0.5623501241 0.5041167361 0.2119657458
0.5723868793 0.5005773193 0.9682404098
0.5723390151 0.5023789202 0.4655226815
0.5623133054 0.2515736911 0.2157230858
0.5622323045 0.2526892778 0.7144791308
0.6024235079 0.5007022859 0.7192618693
0.5924677536 0.5008311576 0.9724285276
0.5924530261 0.4985440097 0.4758815997
0.5824604532 0.2510451868 0.7193539159
0.6024529628 0.2501131447 0.2256650331
0.5924346168 0.2510874932 0.4747374611
0.60236828 0.2507197531 0.7221410853
0.5923941163 0.2513055337 0.9735238815
0.5824273164 0.5012405532 0.7183800634
0.5823647248 0.5015581765 0.220485574
0.5824199527 0.2510966053 0.2223403119
0.6123829441 0.5001431908 0.9753924264
0.6124160808 0.5000878671 0.4725053324
0.6223534258 0.5014546886 0.7213145073
0.6125081274 -9.7566728393e-04 0.4725614808
0.6223055616 0.501256174 0.2209237156
0.6124676269 0.2503773969 0.4732739211
0.6124455357 0.2513979569 0.974895375
0.6223976082 2.7816207309e-06 0.7245821596
0.6225559282 0.2518522623 0.2248596259
0.6225448826 0.2522369249 0.727743038
0.6426662574 0.0037822382 0.2297086379
0.6525520563 0.0018489018 0.4803909599
0.6324748639 0.5025592105 0.4762764794
0.6424821643 0.2520390613 0.2312964408
0.6525667837 0.2510705706 0.4836751806
0.6425484378 0.2525747251 0.7335953573
0.6325595467 -4.4540564445e-04 0.4772742639
0.6525925568 0.2518607236 0.9834649084
0.6425594834 0.5021205259 0.7299733258
0.6525741475 0.5016330262 0.4838565123
0.632552183 0.2511655973 0.4771187052
0.6324822276 0.2504275137 0.9779973436
0.6824598197 0.5015972285 0.7350322039
0.6625924934 0.0037850369 0.2333592038
0.682504002 0.5004673228 0.238602175
0.662603539 0.0010234718 0.7323048648
0.6725813845 0.5001633677 0.4868673548
0.6625004469 0.2496009121 0.2340007682
0.662445219 0.2513803835 0.7326822556
0.6724672468 0.001698226 0.9815319309
0.6624746738 0.4999583445 0.7347974852
0.6624415371 0.5028599112 0.2314777724
0.6825997304 0.2500324372 0.2338047091
0.6725813845 0.2510432342 0.4824629276
0.6825555481 0.2497616764 0.7353921059
0.6724672468 0.2509039486 0.9837502527
0.7025996037 0.2487834227 0.2417584511
0.6925297117 0.2503468061 0.4890571421
0.7024191925 0.24971937 0.7423627907
0.6925039387 0.2489604586 0.991040339
0.6925333936 0.4986279716 0.9925222884
0.6926328039 0.5005909876 0.4915065007
0.7324779123 0.5005519355 0.9988827047
0.732485276 0.4970893212 0.4944124101
0.7124449022 0.2490561361 0.4947180046
0.7124596296 0.2487079221 0.9968208621
0.72246693 -0.0017656901 0.2482431302
0.732511049 -6.8440413962e-04 0.4989254522
0.7324889578 -2.0975037967e-05 0.9991956629
0.7124706752 0.4995268194 0.993065363
0.7224448388 0.2499393632 0.2454154603
0.7324005932 0.2507334213 0.4998854977
0.7224927031 0.2506234247 0.7473627591
0.732404275 0.2470319386 0.9977781461
0.7125222213 0.5007354801 0.4953402393
0.7126510865 -5.8020027504e-04 0.4961373624
0.7125001301 -0.002128041 0.9937004842
0.7523121018 0.4984587461 0.0024826289
0.7424299847 -0.0028691836 0.2535661819
0.7424447121 -9.1689396118e-04 0.7543352848
0.7425146675 0.2509000434 0.2530405961
0.7423931661 0.2486018307 0.7514984103
0.762455631 -0.0024161539 0.2534327144
0.7523305111 3.2554674534e-04 0.504727146
0.7623930394 -0.001627576 0.7528349262
0.7524225576 -0.0022918903 0.0021335884
0.7624004031 0.2473105099 0.256145326
0.7524225576 0.2473964244 0.5039585573
0.7624998134 0.247692569 0.7557270286
0.7524704218 0.2487983927 0.0030684131
0.7824039583 9.1659939639e-04 0.2567031281
0.7824960048 0.0013209182 0.757169398
0.7724150672 -4.1292736311e-04 0.0084573701
0.7822530019 0.2484710064 0.2570878827
0.7724113853 0.248202849 0.5063002214
0.7822898206 0.2474777828 0.7568140983
0.7723966579 0.2465939049 0.0051297034
0.7925033052 -8.3019842862e-04 0.5072326529
0.7925327601 -7.2208935986e-04 0.0093117462
0.8124442687 0.4984646039 0.0137990152
0.7923523489 0.2478754627 0.5098348087
0.7924407135 0.2484391139 0.0097786062
0.8025363786 -0.0017952395 0.2585403771
0.8124332231 -8.1295044354e-04 0.5096332268
0.802392786 -7.7324753448e-04 0.7591336712
0.8125620883 -8.6157023545e-04 0.0122014554
0.8023596492 0.2481260467 0.2604098425
0.8123632677 0.2492852415 0.5156852871
0.8023228306 0.2484840237 0.7610151026
0.8123522221 0.2498788325 0.0136296496
0.8324257327 -0.0015524009 0.5145853309
0.8223816137 -0.0018262468 0.7629904215
0.8323815503 -0.0018050025 0.0174014409
0.8224442053 0.247143237 0.2629282359
0.8323962778 0.2458382479 0.5187651645
0.8223963411 0.248364915 0.7651360264
0.8324772787 0.2493698542 0.0172341923
0.8223263858 -0.0030081438 0.2618540528
0.8424330331 -9.5308218648e-04 0.7695367717
0.8422968042 0.249282638 0.2677873731
0.8424661698 0.2503682847 0.7687967175
0.8624734068 -0.001534502 0.2708341137
0.8424330331 0.4999973965 0.7703265311
0.8524992432 -0.002344923 0.517593412
0.8624844524 -0.0019332233 0.7732002242
0.8525139707 -0.0030603889 0.0229385928
0.8623482235 0.2474855932 0.2713017101
0.8423593958 -0.0013257038 0.2669736816
0.8524955614 0.2473840579 0.5226173124
0.8624181789 0.2491700379 0.7727243436
0.8524624246 0.2478344581 0.0224569133
0.8724954347 -0.0014060208 0.5263534817
0.8924253526 -0.00228339 0.5258104071
0.872513844 -0.0022908034 0.0212587434
0.8824401434 0.2478956396 0.2756555117
0.8924584893 -0.0014495638 0.0224892216
0.8724880709 0.2495123942 0.5237430417
0.8924363982 0.2492110426 0.5260635351
0.8824327797 0.2458766491 0.7768581539
0.8725506626 0.2501320199 0.0248049286
0.8925394903 0.2489383291 0.0239824006
0.9024952446 -2.9967644219e-04 0.2731398796
0.9124436352 -0.0015158221 0.5242308884
0.9023958343 -7.3777526327e-04 0.7754203869
0.9024289711 0.2479639807 0.2779686414
0.9125319999 0.2482835566 0.5289123757
0.9025688818 0.2515385443 0.7743323967
0.9024694716 0.5002948429 0.7749859272
0.912609319 0.2489376783 0.0301731751
0.9225577096 0.0020022462 0.2767766386
0.9224840723 -7.6485134552e-04 0.7720947452
0.9224987998 0.2509801001 0.2749752878
0.9225761189 0.2502036153 0.7759183587
0.9425612647 7.0610889165e-04 0.278592717
0.9325208276 7.0448172325e-04 0.5252424799
0.9425244461 0.0013889338 0.7814420719
0.9323809168 -0.0020715001 0.0237603844
0.9425759922 0.2508844226 0.2806656052
0.9325981467 0.2509495093 0.5309235927
0.9426164926 0.2513647627 0.7779802013
0.9327306937 0.249076313 0.028223077
0.9525464739 0.0019745192 0.5331630851
0.9526385205 -9.1943387222e-06 0.0316820021
0.9626237297 0.2503012454 0.2805118874
0.9525685651 0.251701912 0.5320971861
0.9726015751 0.2495774809 0.5350242662
0.9626605483 0.249272875 0.7793130353
0.9526422023 0.2516836877 0.034857792
0.9726420756 0.2511011614 0.0323489714
0.9625500924 0.0016069744 0.278537489
0.9827414225 0.5020183397 0.787260334
0.9826898765 0.4991493164 0.2848389955
0.9825941481 -2.359565275e-04 0.2840317473
0.9925462205 -0.0014918702 0.5353850887
0.9826604216 0.2499914325 0.2807742201
0.9925683117 -0.0021831043 0.0323314825
0.992693495 0.248355152 0.5350592439
0.9825831025 0.2474953562 0.7819630553
0.9926272215 0.2455765992 0.0352653741
0.0125080993 0.7490609046 0.0358205988
0.0025608501 0.4996309582 0.7837312694
0.0126917137 0.4992449939 0.0376361249
0.0223982796 0.7490348699 0.2818796991
0.0025569841 0.7491975867 0.2873914462
0.0125811474 0.7477266265 0.5358867424
0.0224617549 0.7487159449 0.7812515355
0.0226002297 0.5017781696 0.2823113974
0.0025174409 0.747876326 0.7849333973
0.0124948446 0.9984081908 0.034493932
0.052501734 1.0002045847 0.5342805302
0.0524115284 0.9999832898 0.0330115224
0.0323321268 0.7497247893 0.0356755335
0.0424123281 0.5008578432 0.7834035837
0.0424841244 0.7499786276 0.2827523003
0.0324330099 0.7490283612 0.5338129337
0.0423110769 0.7520548944 0.7853871868
0.0525573301 0.7498354367 0.0345843217
0.0523758143 0.750707599 0.5365273863
0.0523817053 0.500991271 0.5286942253
0.0424031234 0.9976727107 0.2854639916
0.0323626863 1.0005625618 0.5367510594
0.0324646739 0.9994170352 0.0360386571
0.0723893105 1.0001460067 0.5291240827
0.0623588144 0.9978093928 0.7821775238
0.0723683239 1.0006536832 0.0325830457
0.0725119165 0.7489372398 0.0334290455
0.0624751612 0.7518986863 0.2800857119
0.0724762024 0.753857797 0.5320695721
0.062468902 0.7503105699 0.7817182115
0.062346296 0.9991566883 0.2839903264
0.082382988 1.0023068863 0.2786958091
0.102437721 1.0035174996 0.778574822
0.0823885108 0.998004653 0.7806062892
0.0923704063 1.0013045506 0.0279003618
0.0925313036 0.7551790578 0.0264044214
0.092356047 0.4992430413 0.0249059036
0.102406057 0.7523998541 0.2803149078
0.0824695117 0.7509223852 0.2773335202
0.092441098 0.7508898419 0.5269140452
0.1024638622 0.7530962822 0.7771214071
0.0824812937 0.7495946158 0.7779811218
0.0923873428 0.501064819 0.5265164041
0.112470058 1.0029642623 0.0241061112
0.1125160813 0.7506490209 0.0229748592
0.1226069599 0.5005532373 0.7720993476
0.1225152816 0.752582097 0.2736949203
0.1124755808 0.7497117719 0.5237163482
0.122355857 0.7523542934 0.7725871942
0.112418512 1.002072574 0.5253087534
0.1224773584 1.0017211057 0.7704241004
0.1524801138 0.9982715087 0.5176928223
0.1324618312 1.0020400307 0.5212292505
0.142458086 1.0005039837 0.767306484
0.1524200995 0.9998075556 0.017611399
0.1325056454 1.0023459383 0.022497966
0.1525717922 0.7496987546 0.0149123182
0.1324853952 0.7526536924 0.0199520506
0.142388867 0.7534086986 0.2712612097
0.1525596421 0.751026524 0.516515547
0.1324482084 0.7496401765 0.522428617
0.1424529314 0.5007979634 0.2684906087
0.1422960841 0.7536299935 0.7701240287
0.1725981749 0.7504993215 0.0113412804
0.1624892552 0.4990946435 0.7597577468
0.1725495743 0.5017456263 0.0096192737
0.1624866778 0.753818745 0.2659998292
0.1826680669 1.0008879955 0.7574952427
0.1727461858 0.7513714837 0.5100373111
0.1624204043 0.5029276014 0.2635964939
0.1623865312 0.7505709169 0.7651028897
0.1827597453 0.7511892409 0.2565033871
0.182682058 0.7525755883 0.7595589263
0.1625098736 1.0020790827 0.2616405048
0.1725414742 1.0020465394 0.509867025
0.1724081908 1.0008164 0.0094199009
0.1925277246 1.0003022148 0.5105803857
0.2025755255 1.000497475 0.7548737571
0.19266874 0.7519572643 0.0082769589
0.2026679402 0.751625322 0.2602865001
0.192742009 0.7523608021 0.5085130203
0.202641799 0.7509484199 0.7556920509
0.2325561898 0.7514365705 0.9987354302
0.2325745991 0.5010049392 0.9976032577
0.2325248939 0.751905195 0.5019197263
0.2325974266 0.5012477127 0.5015635062
0.2226383586 1.0006146312 0.2482873125
0.2125467436 1.0004454056 0.5055702923
0.2126774497 0.9983170694 0.0028829393
0.212680027 0.7504147087 0.001102391
0.2325083256 1.0001264806 0.9969129086
0.2226494042 0.7511306628 0.2547673893
0.21262664 0.7508377725 0.5007498147
0.2225466803 0.5025728787 0.2493237566
0.2226243676 0.7490934479 0.753864927
0.2526201275 0.750069749 0.9950719777
0.252403634 0.5007953599 0.9945289031
0.2425587037 0.7498549628 0.2480240594
0.2525626904 0.7515602353 0.4958768706
0.2425506036 0.4997233814 0.2443615274
0.2426761551 0.7508442812 0.7476287736
0.2525612177 0.5025819908 0.495147862
0.2625906092 0.5000579272 0.7435833279
0.2624190345 0.7499656102 0.2436730192
0.2626104913 0.7479088694 0.7415233262
0.2826077873 0.4983136027 0.738758248
0.2826081555 0.7486508581 0.2368514497
0.2825050633 0.4989182584 0.24201342
0.2824583037 0.7499395755 0.7383385158
0.272576923 0.7498159107 0.9887483801
0.2725312679 0.4998945595 0.9876806401
0.2725264815 0.7491064653 0.4872383024
0.2824295852 0.9973798204 0.2393265813
0.2825779642 0.9988117286 0.7370747167
0.3124437544 1.0008814868 0.982783764
0.2925484459 0.7478893433 0.9839619597
0.302499782 0.4999960948 0.7364193453
0.2924976362 0.4976015538 0.9846246949
0.3024799 0.7488200837 0.2359208592
0.2924486675 0.7491455173 0.4833226424
0.3024979411 0.4979758025 0.2344297051
0.3024541269 0.748533702 0.7336938471
0.3024559679 0.9992543184 0.2345272745
0.3124503817 0.7502519919 0.9836950247
0.3125299099 0.4997565756 0.9848087879
0.3124540636 0.74849465 0.4789734431
0.2925186229 0.9989744454 0.985048109
0.3323964998 0.7508507898 0.9758066358
0.3324001817 0.4987672572 0.9776751807
0.3223498035 0.74977035 0.227345803
0.3324377367 0.7485402107 0.4816483157
0.3224551048 0.7481887423 0.7289644956
0.3323987089 0.4986774375 0.478629189
0.3525462249 0.9985318556 0.4818618637
0.3424925331 1.0012199378 0.7274033862
0.3624765744 0.7487745229 0.2249148538
0.3524917334 0.9993910005 0.9821670521
0.3625612572 0.7494058643 0.7236193528
0.3625502116 0.9985904337 0.2249544338
0.3526084484 0.7490999566 0.9739933189
0.3624581651 1.0000809199 0.7258809364
0.352522661 0.498827137 0.9794240651
0.3424443007 0.7480195168 0.2295576815
0.3524714831 0.7482408117 0.4760905453
0.3424663919 0.7491064653 0.7272920099
0.3925352941 0.9991762143 0.4651508135
0.3725796031 0.7491455173 0.9715816994
0.3725906487 0.4996446264 0.9719498856
0.3825353575 0.7483840025 0.2186814618
0.3724470561 0.7493082342 0.4705548661
0.3825905854 0.5016642678 0.2204128573
0.3825095844 0.7496727199 0.7173905631
0.3825684942 0.9986359944 0.2204285052
0.3826053128 0.999260827 0.7205137023
0.3725796031 0.9998531163 0.9713423784
0.3724065556 0.49936215 0.4733061373
0.3923990652 0.7496271592 0.9677157445
0.3926383862 0.7501153097 0.4661173022
0.4124615302 0.7503821653 0.9644112736
0.4124836213 0.7504993215 0.463923833
0.4123400287 0.4984515865 0.4632307225
0.4025094577 1.0000809199 0.2154469462
0.402634641 0.4997259848 0.7179032623
0.4024542298 0.7506555296 0.2157120402
0.4024247749 0.5021036033 0.2192714801
0.402583095 0.7496206505 0.7185521905
0.4324245848 0.7475183489 0.9619996541
0.4225608771 0.7504667781 0.2102058159
0.4324687672 0.750967946 0.4592533913
0.422457785 0.4988219301 0.2105233765
0.4224909217 0.7486052974 0.7147506682
0.4425644322 0.7521329985 0.2101183717
0.442571796 0.7506164776 0.7100940334
0.4324871765 1.0044938006 0.4611541525
0.4224688305 1.0000874286 0.7122221496
0.4425312955 1.0015193368 0.2094344658
0.4525717326 1.0010181689 0.9584558621
0.4624685771 0.998883324 0.208204724
0.4725090143 1.0001915674 0.4574409949
0.462604806 1.0017601577 0.7103250703
0.4525643689 0.7526276577 0.9635000128
0.4525680508 0.7498354367 0.4607850458
0.4725311054 0.7527317965 0.9606005466
0.4624170311 0.7531288256 0.2071931325
0.4725973789 0.7535063287 0.4603082447
0.462579033 0.7514821312 0.7095785728
0.472542151 0.499916689 0.4570387514
0.4824610867 1.002013996 0.207273213
0.4924904783 1.0001525153 0.4546234501
0.4924536596 1.0023459383 0.9529790927
0.4824389955 0.4979530221 0.7039895066
0.4923616131 0.7489958178 0.4542911621
0.4824979053 0.7514821312 0.2087017754
0.4924205229 0.7515211832 0.955740489
0.4825384058 0.7509158766 0.7066892317
0.5124829878 1.0009205388 0.4560860697
0.5124719422 0.9978679709 0.9569094802
0.50246096 0.9987661679 0.2071001655
0.5225528799 0.7493472862 0.7080855778
0.5223908779 1.0005300184 0.2096774687
0.5223982417 0.9985448729 0.71018608
0.502486733 0.7509419113 0.2019906618
0.5024904149 0.4978514868 0.2062754284
0.5025235517 0.7509549286 0.7064793656
0.5025345972 0.4999453271 0.7067914034
0.5125271702 0.7483644765 0.9581336992
0.5125382158 0.5007511009 0.9592750764
0.5123578045 0.7485011587 0.4570313877
0.5225565617 0.4983812929 0.2089622671
0.5223761505 0.749412373 0.212707641
0.5323908146 0.7504407434 0.4588916484
0.5325086342 0.5000449098 0.4600928558
0.5324239513 1.0012654985 0.9613921469
0.5424901615 1.0014021807 0.2089180847
0.5523649149 1.0015258455 0.4625007934
0.5523759604 0.7535909414 0.9625243194
0.5423392052 0.9986685377 0.7121825695
0.5425453894 0.7480846035 0.2103273173
0.5524385521 0.7512282929 0.4616033396
0.5425748443 0.7495360378 0.7099062585
0.5324939067 0.7515992873 0.9600390627
0.5623906245 1.0022483082 0.2148182683
0.5621844403 1.0027299501 0.7141928661
0.562405352 0.7507401424 0.2167429615
0.5623280329 0.752881496 0.7132438662
0.572261696 1.0008294174 0.4685997975
0.5722543323 1.0023914991 0.9661417486
0.5723132421 0.7504212174 0.9691700799
0.5724347435 0.7508377725 0.4681966336
0.6025560549 1.0003673016 0.2254634512
0.5925487545 0.751286871 0.9697775871
0.5923646614 1.0011678684 0.4750467375
0.6024676902 1.0007057526 0.7260622681
0.5924787992 1.0006016138 0.9772517666
0.6025155544 0.750108801 0.2248016365
0.6024971451 0.4997982311 0.2191481377
0.592456708 0.7525560623 0.4697485384
0.6025339637 0.7499395755 0.7222570639
0.582386816 1.0019293832 0.2205877457
0.582386816 0.9997229429 0.7229943567
0.582412589 0.7495555638 0.2220356379
0.58249359 0.750427726 0.7190050595
0.6124234445 0.7507401424 0.9688847357
0.6124676269 0.7498549628 0.4700219166
0.6125854465 0.9999507464 0.9750702635
0.6224123356 1.0012980419 0.2294306573
0.6226222017 0.7505123388 0.2207028039
0.6225154277 0.7497247893 0.7185613951
0.6426073476 1.0014672674 0.731433184
0.6524710553 1.0014542501 0.9838515039
0.6325816379 1.0017080883 0.9775187016
0.6325337737 0.750427726 0.9728795557
0.6324822276 0.5003527701 0.9772977899
0.6326000472 0.7517554955 0.4766787228
0.6525667837 0.7515276919 0.9791479254
0.6525815112 0.5011494318 0.9833176339
0.6425079373 0.752842444 0.2269371164
0.6425778927 0.5004556072 0.2319380052
0.6525520563 0.7522306286 0.4787976342
0.6425815745 0.7529986521 0.7243446795
0.6725777026 0.7510655761 0.9852690207
0.6725298384 0.5007081437 0.9846338995
0.6825445025 1.0004454056 0.2367814944
0.6725187928 1.0021636955 0.4862349951
0.6826218216 1.0008098914 0.7366439389
0.6825260932 0.7496857372 0.2328547888
0.6725445659 0.7501803964 0.4839798547
0.6824487741 0.7517164434 0.734575653
0.6624084003 0.7534282246 0.2286675914
0.6624673101 0.7504407434 0.7312656593
0.7026474679 0.9997034169 0.2425546537
0.7024081469 0.5004419389 0.7426527373
0.6924339833 0.750746651 0.9873584772
0.692496575 1.0003022148 0.4865534761
0.70259224 0.9994300526 0.7448839456
0.6925554848 1.0005430357 0.9904052179
0.7024155107 0.7496206505 0.2439905798
0.7024781023 0.4997591791 0.241734519
0.6924450289 0.7514040271 0.4868415818
0.7024044651 0.7492561648 0.7428672058
0.7224374751 0.4984203449 0.7477272634
0.7324484574 0.7459302326 1.0019846732
0.72246693 0.7503366046 0.247435882
0.7225295217 0.4979751516 0.245501984
0.7324005932 0.7474988229 0.4996756316
0.7225037486 0.7504212174 0.7455623286
0.7224632482 0.9969827913 0.7471602567
0.7125074939 0.7491650434 0.9943540147
0.7124964483 0.7490023265 0.4934367167
0.7423894842 0.4977746845 0.7531009407
0.7425956685 0.7494644423 0.2522278251
0.7424189391 0.5002733643 0.2516865914
0.7425588499 0.7523152414 0.7510197683
0.7524004665 0.5009847623 0.4990902155
0.7524777856 0.7500567316 0.0059316129
0.7624335399 0.4991395533 0.7524602967
0.7624703585 0.7481171469 0.2563966131
0.7623157203 0.4980604153 0.2568347547
0.7523746934 0.7482277944 0.5053042778
0.7623819938 0.7481496903 0.7565370382
0.782385549 0.7515016572 0.26127508
0.7823745034 0.4994584784 0.2581031561
0.7724261128 0.7497378066 0.5077775685
0.7824334132 0.7501673791 0.7595414374
0.7725660235 0.9999963072 0.5078456829
0.772286202 0.4988792064 0.5089576052
0.7724408402 0.7465550652 0.0056990113
0.7823892308 0.4997598299 0.7590241358
0.7721941555 0.4980376349 0.0046834618
0.7924848959 0.750108801 0.5066877374
0.8126025888 0.4989429914 0.5146829003
0.8125326334 0.7483058984 0.0149144353
0.8024811507 0.4992111488 0.7615747456
0.802551106 0.7493342689 0.2616994146
0.8025216511 0.5004315251 0.2631574318
0.7923928493 0.5024010497 0.5112661325
0.7924885777 0.747915378 0.009349025
0.8123927226 0.7482863724 0.5123366338
0.7924223042 0.5011442248 0.0099226591
0.8026726075 0.7497052633 0.7609055672
0.832418369 0.4962145554 0.5177940735
0.8323741866 0.7481366729 0.0163816572
0.8225362519 0.4978840302 0.7677529097
0.8324257327 0.497605459 0.0169647721
0.8224736602 0.7493603036 0.2673068901
0.8225804342 0.4993894864 0.2678260326
0.8325177792 0.7501022924 0.5179441093
0.8224957514 0.7480195168 0.7634230402
0.8625175892 0.7470562331 0.776524025
0.8623445417 0.4984717634 0.7745229331
0.8524329697 0.7500762577 0.0222729122
0.8523851055 0.4989371336 0.0234815754
0.8624586794 0.7472319673 0.2779704823
0.8624476338 0.4993862321 0.2755229647
0.8523887874 0.7483058984 0.5221727276
0.8425213977 0.7451166484 0.2720436053
0.8423336228 0.4988512191 0.2725240883
0.8425361252 0.7462817009 0.7716906609
0.8524108785 0.5006209275 0.521269751
0.8725322533 0.5005454268 0.5264722217
0.8825285081 0.7499656102 0.7762819426
0.8924474438 0.5001763851 0.5280066376
0.8724365249 0.7499460842 0.0216189215
0.8924290344 0.7516383393 0.0234395101
0.8825137806 0.4953495527 0.7738353454
0.8724181156 0.4995613154 0.0266911464
0.8924879442 0.5000813584 0.0250060503
0.8824401434 0.7478307653 0.2756628754
0.8824990532 0.4976991839 0.2738596836
0.8725432989 0.750108801 0.5217336656
0.892495308 0.748514176 0.5220079643
0.882502735 0.9974644331 0.2738845362
0.8825763723 0.9970413693 0.7748883579
0.9125651366 0.7500176796 0.5238350882
0.9125504092 0.9995927694 0.0220725269
0.912502545 0.4987106318 0.528410722
0.9025762456 0.7475313663 0.7764890473
0.9124436352 0.7484360719 0.0252043185
0.9124252259 0.4984164397 0.0270842772
0.9025799274 0.7482603377 0.2744322131