POSCAR file written by Ovito 3.7.11
1
271.5672684925 0.0 0.0
0.0 15.362164568 0.0
0.0 0.0 10.8626907397
Sr Ti O 
800 800 2400 
Direct
0.0224307416 0.5001230295 0.8085769557
0.0124797264 0.2520121606 0.5569901191
0.0226013439 0.2483395011 0.8081396791
0.0025918632 0.2517778186 0.8116737943
0.0124049015 0.2499330265 0.0571415889
0.0224026086 9.1570975652e-04 0.3104075675
0.0025429251 -0.0010833575 0.3101700573
0.0026505227 0.5015102038 0.3101930718
0.0123937441 0.5002193701 0.5597868479
0.012601096 5.0652262848e-04 0.5631460524
0.022466497 -0.0014213958 0.8068646727
0.0024011186 1.3883719e-05 0.8092425366
0.0224434824 0.2483603315 0.3038760366
0.0024793681 0.2500378294 0.3151062192
0.0325725382 0.4970310174 0.0568849306
0.0423723201 0.4988400072 0.304765319
0.0324808482 0.4994766363 0.5552198395
0.0325349784 0.2478389206 0.5540065121
0.0424330785 0.2474594167 0.8022912203
0.0325309279 0.2493315488 0.0580170626
0.0524379661 0.4986447222 0.0530011783
0.0425063568 -0.0010119483 0.8009011411
0.0424039881 0.2481123195 0.3035529122
0.0525926239 0.2476592584 0.547590054
0.0524169768 0.2476612112 0.0511961007
0.0623828318 0.2478864399 0.3014475407
0.0622484267 0.4980901129 0.8016698273
0.0722949247 0.5002818613 0.0525116127
0.0623835682 0.4968747894 0.3005785111
0.0723873511 0.4991739445 0.5520732894
0.0725243338 0.2480179318 0.5493465249
0.0623994022 0.2485914187 0.8000127793
0.0725806734 0.2480452717 0.049746736
0.0924166427 0.2477764294 0.5466464572
0.102444729 0.2480478755 0.7934389016
0.0824169103 0.2488706762 0.7991225762
0.0924619353 0.2470389031 0.0456529989
0.1023972269 -9.7067805503e-04 0.2925390665
0.0926497341 -0.0013790189 0.5449341743
0.1025043827 0.2493582377 0.293064719
0.0824202244 0.2484814081 0.3021628331
0.1023858117 0.5000546798 0.7965403431
0.0823487873 0.498270426 0.7998433921
0.102384707 0.4997376672 0.2950688265
0.0824776688 0.4997454786 0.299866901
0.1223160486 0.2490464327 0.2829493615
0.1125019057 0.4995046271 0.0391510187
0.112393277 0.2503756724 0.5396491117
0.1223359332 0.4981649721 0.2868351391
0.1123350962 0.501248522 0.5418465415
0.1222880629 0.2509869144 0.7850036067
0.1123689736 0.2499681778 0.0406075639
0.1224173127 -6.2684630029e-04 0.2867918717
0.1524319755 0.2496186177 0.5199210347
0.1323555501 0.2499056866 0.5296331771
0.142457283 0.2461633754 0.7735552461
0.152443759 0.2481077629 0.0219116437
0.1322947917 0.2503672101 0.0312897989
0.1425732764 -0.0014525112 0.279999816
0.1423902646 0.2491753208 0.2757292351
0.1423689071 0.4990613302 0.7773139834
0.1524618024 0.4992149544 0.0244961783
0.1324943739 0.4991199157 0.0307551247
0.152491261 0.5010975016 0.5198777673
0.1324306696 0.499401777 0.5332657946
0.1825368554 0.2516417701 0.2592618603
0.1724443284 0.4995163442 0.5139593442
0.1825228625 0.5033315618 0.7628102104
0.1724671588 0.2495385508 0.5115713539
0.1626051455 0.2487144482 0.7666932262
0.172510242 0.2507096098 0.009881199
0.1824823569 0.5010343594 0.2643480771
0.162531499 2.4679360511e-04 0.7674379773
0.1624987262 0.2491512356 0.2624461542
0.1823520025 0.2518669987 0.7605557045
0.18245879 -4.766070557e-04 0.259017906
0.1924986598 -0.0016967476 0.0113944521
0.2024545724 0.2503841348 0.2570101162
0.2024542042 0.501924208 0.7610012663
0.192494241 0.5006353271 0.0124994269
0.2025337425 0.5016456014 0.2624341866
0.1925612594 0.501066256 0.5101904806
0.1924559447 0.250888621 0.5096841603
0.202517172 0.2495769569 0.7598293652
0.1925170714 0.2502943037 0.0112136497
0.202662624 -0.0022417229 0.2600922254
0.2124576188 0.2485334841 0.5054108177
0.2223991704 0.2501563023 0.7541079466
0.2123593007 0.2516834309 0.0061615865
0.2224282608 4.5086640919e-04 0.7538639924
0.2225015391 0.2503079737 0.2510060789
0.2324486142 0.2501947084 0.4999591297
0.2324180509 0.2502923509 0.9954477825
0.2324121591 -4.9476855884e-04 0.501020561
0.2224558783 0.5014555241 0.7555523402
0.2124918645 0.4997591485 0.0048959701
0.2126192731 0.4989871219 0.5064427903
0.2424932709 0.5000455665 0.7453983182
0.262382634 0.2485562674 0.7322864656
0.2624382372 3.4918802961e-04 0.2380921515
0.2623962586 -9.2179171505e-04 0.7361464669
0.2522488649 0.248327784 0.4879234377
0.242415942 0.2505006548 0.7427755795
0.252375537 0.2482581323 0.9895284388
0.2622935217 0.250160208 0.2339817518
0.2423496601 5.345785706e-04 0.2432998851
0.2623962586 0.5010903411 0.2364553563
0.2523655947 -5.1410177185e-04 0.4888412582
0.2424280937 0.0017590805 0.7430747687
0.2524871116 -3.8221191843e-06 0.9915721313
0.2423157827 0.2516020621 0.2445739709
0.2723304455 0.2490666121 0.4817923601
0.2722037734 0.24849638 0.9810866998
0.2724457024 -0.0019233303 0.4813596865
0.2723889946 -1.0071238543e-05 0.9819980762
0.2823055063 0.2514302113 0.7348834281
0.272378684 0.4976793635 0.4840965774
0.2823607412 0.2483323406 0.2337709385
0.31245752 6.7934983576e-04 0.4725276206
0.2923899322 0.4998886876 0.4819672707
0.2923059751 0.2517029594 0.478650413
0.3023646247 0.2476846454 0.7276771104
0.2922658377 0.2503802291 0.9806816436
0.2922952963 0.0030478312 0.481550247
0.3024228055 2.0083653983e-04 0.7277222189
0.3123812958 0.4989402535 0.4735991783
0.3024032892 0.2515486842 0.228833856
0.3123481548 0.2499069885 0.475437581
0.3124313754 0.2532073047 0.9746334184
0.3224532018 3.0414229423e-04 0.2175935471
0.3323432007 0.0028077608 0.4653194618
0.3224366313 0.002637277 0.7214337218
0.3324672952 0.0028130986 0.966007563
0.3224012809 0.2512329735 0.2189569293
0.3223718223 0.502418279 0.7203695287
0.3224068044 0.4995729768 0.2183023954
0.332348356 0.2523871077 0.4703200645
0.3223799234 0.253138304 0.7225052795
0.3325394688 0.2512225583 0.9660720037
0.3624922685 0.2492137268 0.2100346464
0.3524678646 0.4997643561 0.4600620167
0.3523872216 0.2522386912 0.4620486332
0.3423764423 0.2493348035 0.7127774871
0.362374434 0.4992116996 0.7101252897
0.3523257267 0.2496179667 0.9628867892
0.3625401388 0.49836221 0.211104363
0.3423661317 0.0023347806 0.2145353729
0.3423966951 0.2535562138 0.2127328729
0.3624885862 0.2480901872 0.7097322011
0.3424224714 0.5006620161 0.7110053663
0.3424228396 0.5017250173 0.2127678551
0.3826309253 0.2509517631 0.2043749069
0.3925437547 0.2503131813 0.4487618699
0.3925511193 0.2503379174 0.9488755278
0.392569531 -3.6008701765e-04 0.9474210079
0.382627243 0.4999303484 0.699838704
0.3926910478 0.4968617704 0.9475130661
0.3725008385 0.2498633749 0.4557721036
0.3826419723 0.2491173862 0.7043808567
0.372607626 0.2516879875 0.9586244935
0.3926247659 0.497269916 0.4476792652
0.3725302971 -3.8517750626e-05 0.4559525377
0.4124246484 0.4973239448 0.9422289241
0.4025081367 0.2487840999 0.6963920441
0.4024013491 -0.0014737322 0.6990230681
0.4025081367 0.2510721889 0.1989655658
0.4124393777 0.2498060913 0.4456963311
0.4124062367 0.2500514994 0.9480930329
0.4124504247 -5.8733363934e-04 0.445560085
0.4122736729 0.0010596348 0.9473749788
0.4424614052 6.9868304877e-04 0.6875305196
0.4423877586 0.2482399057 0.191270419
0.42245163 0.501728923 0.6945407533
0.4325743521 0.4998691591 0.939853822
0.4325227995 0.4992448981 0.4409387622
0.4425645104 0.5023089194 0.6900096476
0.4426123807 0.4995996658 0.1883309999
0.4324454706 0.2501029244 0.4439048781
0.422407442 0.2501126887 0.6940528447
0.4325559405 0.249523579 0.9414648409
0.4224479476 -0.0012318392 0.1972707739
0.4322282132 -2.8320983053e-04 0.9430390365
0.422418489 0.2478252506 0.1957380045
0.4424982285 0.2488915066 0.6878987525
0.4725828556 0.2472244238 0.4308611486
0.4623791222 0.2497898175 0.6865639083
0.4726307258 0.2497566191 0.932139343
0.4725902202 -2.5437274849e-04 0.9355454972
0.4624012162 0.2490399232 0.1864879943
0.4525951743 0.4995169951 0.9381323332
0.452569398 0.5008833391 0.438451349
0.46253378 0.500936717 0.6814298212
0.4724834327 0.499831404 0.9339713016
0.4625632386 0.498959782 0.1847259999
0.4524957514 0.2483818128 0.4385038222
0.4525436217 0.2508189694 0.9370828695
0.4523926462 -8.0175654736e-04 0.4385434072
0.4825214612 0.2476429846 0.6807541139
0.48270926 -9.9124807292e-04 0.6839890398
0.4925815838 0.4975348526 0.9321025197
0.4926073601 0.4998808762 0.4327105983
0.4826429781 0.2472244238 0.1801433416
0.4926662774 0.249548966 0.430406381
0.4925999954 0.250147189 0.927840224
0.4826282488 0.4996999121 0.1814984386
0.5025864714 0.249029508 0.6829745582
0.5125987237 0.249692826 0.4354088248
0.5126760526 0.248769128 0.9328205738
0.5025643774 -4.7992690036e-04 0.6846380503
0.5027632232 0.2491004615 0.1842970086
0.5227103988 0.2505319004 0.1882895737
0.5226883048 0.2514497398 0.6894628217
0.5126981465 0.4993815976 0.4354207923
0.5226293876 0.5015889688 0.6862324987
0.5425176459 0.5008462349 0.6906835137
0.5525078042 0.499310644 0.9424038348
0.5423998114 0.5026623852 0.1894421427
0.5523568288 0.4989142155 0.4401129999
0.5323949238 0.0014222139 0.4401093176
0.5324464764 0.2477438819 0.4397429259
0.5326895101 0.2503958519 0.935812466
0.5325937696 0.4996217981 0.9407559926
0.5524452047 1.4713317034e-04 0.9393935309
0.5425286929 0.2494929843 0.1880603487
0.5524636163 0.2505449194 0.4395753799
0.5426244335 0.2507024493 0.6910517466
0.5525814508 0.2487925622 0.9399090569
0.572624367 0.2511685295 0.4478817933
0.5725470381 0.2514972592 0.9438307372
0.5625016449 0.498127217 0.692024802
0.5625568798 0.5014470617 0.1899116396
0.5724512975 0.4985744196 0.9432415646
0.5725249441 0.5014346937 0.4447647019
0.5626673497 0.2491564432 0.1926291983
0.5625826561 0.2507538744 0.6900252975
0.602473325 0.5000318965 0.7030322037
0.5925457663 0.4972731707 0.9499249915
0.5925457663 0.4983719742 0.4496051232
0.5824414558 0.2498392897 0.699973109
0.6025764302 0.248483361 0.2002120341
0.59251999 0.2502454825 0.4554765967
0.6024512311 0.2485041914 0.7057064951
0.592542084 0.2507083079 0.9552275451
0.5825924313 0.5007420829 0.6982000676
0.5825335141 0.500350862 0.196768136
0.582588749 0.247741929 0.1957416868
0.6125408122 0.4978447048 0.953110206
0.6123898368 0.498375229 0.4515889779
0.6225125589 0.4998633005 0.7098067683
0.612470848 -0.001048792 0.4542973308
0.6223689481 0.5009178394 0.2103283122
0.6124524363 0.2508925267 0.4590079501
0.6124119307 0.2507376006 0.9582102315
0.62243523 -0.0011018445 0.711085457
0.6224978296 0.2487665242 0.2129077836
0.6224831003 0.2493055108 0.7110293015
0.6425849337 3.2712082688e-04 0.2186135522
0.6524977631 8.4592792367e-04 0.4700494133
0.6324695762 0.4991863126 0.4626654233
0.6425296988 0.2498503559 0.2165588127
0.6526671502 0.2504550883 0.4728304922
0.6425223341 0.2489956586 0.7193127003
0.6324253883 -0.0014370186 0.4630769235
0.6525088101 0.2518351022 0.9743388321
0.6424376405 0.4984455316 0.7146969011
0.6525235394 0.5003371921 0.4744194171
0.6324474823 0.2517368088 0.4638723066
0.6324290706 0.2525830437 0.9667532346
0.6826597191 0.4999674525 0.7313170925
0.6626757202 0.0015246083 0.2270801469
0.6825271552 0.5004751935 0.2316876609
0.6627272728 -3.2984676194e-05 0.7276329225
0.6725664556 0.5003808057 0.47695378
0.662561568 0.2486050886 0.227500853
0.6625799796 0.2505039096 0.7270750496
0.6726216905 -4.1899798661e-04 0.9800832652
0.6625210623 0.5011118225 0.7248831434
0.6626094382 0.5011111715 0.2238185241
0.6825013789 0.2485940225 0.233318012
0.6725075383 0.249405757 0.4799852572
0.682479285 0.2489435826 0.7324125854
0.6725811849 0.248534786 0.9812431988
0.7027099999 0.2510461509 0.2371577605
0.6927971705 0.2490659612 0.4839474431
0.7025479774 0.2518604892 0.7369335647
0.6926314657 0.2493217845 0.9823386916
0.6924989019 0.5011619456 0.9861314904
0.6925136312 0.5001327938 0.4823796916
0.732503723 0.500012368 0.9935790006
0.7324632174 0.4987729594 0.491296451
0.712619147 0.2525771851 0.4852436229
0.7125712767 0.2509387441 0.9861314904
0.7225761643 -1.899287051e-04 0.2432906793
0.7326841571 -3.2194135156e-04 0.4960908432
0.7327651684 4.6785620244e-04 0.9944443479
0.7124644892 0.5016944227 0.9892890874
0.7226166699 0.2502422277 0.23993976
0.7326289222 0.2518285927 0.4926294541
0.7227565984 0.2521071993 0.7406619227
0.7327246627 0.2515486842 0.9912499276
0.7125123594 0.5014997886 0.4875855841
0.7127701225 0.004024907 0.4899634479
0.7127406638 0.0021564854 0.9899611124
0.752432487 0.4983342191 0.0012488995
0.7426264451 -0.0016349725 0.2467833682
0.7425601632 -4.0044591351e-04 0.7487345082
0.7427111387 0.2521872661 0.2452598047
0.7426779978 0.2498314783 0.7502286132
0.7625846678 -5.9182519388e-04 0.2554359206
0.7526607914 -0.0014337638 0.5026638003
0.7624705156 -0.0027503361 0.7579624244
0.7526239681 2.8474398622e-04 0.0018275775
0.7625073389 0.2491955002 0.2557885035
0.7524693103 0.2481266404 0.5027310028
0.7624410569 0.2503112284 0.756138751
0.7525171806 0.248561475 0.0031673928
0.7825392081 -0.0016324989 0.2600581639
0.7825318434 8.52502518e-04 0.7583858922
0.7725748261 2.0252900965e-04 0.0094652799
0.7824324205 0.248691014 0.2593216981
0.7725269558 0.2479007608 0.5089909619
0.7825649844 0.248079772 0.7610914834
0.7724901325 0.2489045256 0.0100433135
0.7924446728 -2.4975100396e-04 0.5104887492
0.7924925431 -0.0014517301 0.0110540207
0.8125354592 0.5016586204 0.0170642259
0.7926030129 0.249146028 0.5123105814
0.7924704491 0.2498542616 0.0102996036
0.8023685492 7.6345996408e-06 0.2634578741
0.8124839066 -7.5566929208e-04 0.5185180674
0.8024974307 -2.4066662108e-05 0.7643061565
0.8124581303 0.0022993689 0.0195603846
0.8024827014 0.2505475232 0.2612696501
0.8124802243 0.2510650284 0.5204743046
0.8025416186 0.2505677027 0.7652451504
0.8125244123 0.2523819001 0.0212013224
0.8325452345 0.0013228789 0.5323930827
0.8225256175 -0.0013309788 0.7738940204
0.8325047288 -0.0010801678 0.0294012245
0.8225624408 0.2487971189 0.2766037882
0.8325305051 0.249471503 0.5306909261
0.8225440292 0.2491616508 0.7722130372
0.8324642232 0.2503092756 0.0317205393
0.822385689 -0.0013229722 0.2728128306
0.8425317104 -1.3199416104e-04 0.778066099
0.8424249229 0.2509315837 0.2844480693
0.8424322875 0.2503821819 0.7866855104
0.8624346981 4.1669153769e-04 0.2897147202
0.8424580639 0.5013865234 0.7848231726
0.8524371752 0.0031036176 0.5364804677
0.8626077676 1.9713352216e-06 0.7904479299
0.8524813631 -9.5492506665e-04 0.0340701413
0.8624457451 0.2480700078 0.2865957877
0.8425132988 -4.4766869985e-05 0.2821226786
0.8525034571 0.2498171574 0.5359658623
0.8623941925 0.2519718017 0.788147395
0.8525292334 0.2491238957 0.0364936661
0.8725426909 0.0010048248 0.5385536189
0.8925635131 4.273020216e-04 0.5456522284
0.8725390086 9.099813971e-04 0.0393519818
0.8824223794 0.2530380577 0.2948616955
0.8925635131 0.0030063006 0.0457302358
0.8725758319 0.2515167877 0.5434953043
0.8925156429 0.2540991061 0.5485170803
0.882484979 0.2514549474 0.7941900967
0.8725316439 0.2523942682 0.0445230763
0.8926334774 0.2529488775 0.0470483254
0.9025831301 0.0037444778 0.298013769
0.9125106888 0.0031491841 0.5500507703
0.9025573538 0.0030680757 0.7968275648
0.9025978594 0.2527047713 0.2996763405
0.9123891719 0.2537462912 0.5532313819
0.9025352598 0.2541414178 0.7984790893
0.9024505662 0.5045533948 0.7987055525
0.9125953823 0.2539077268 0.0484047113
0.9225082117 4.3368133095e-04 0.3022705412
0.9224750708 0.003060069 0.8009241557
0.9224382475 0.252228276 0.3035538328
0.9224603414 0.2529150281 0.8046037228
0.9425400809 5.3412290565e-04 0.3053544917
0.9325572873 1.0306385985e-04 0.554363698
0.9425769042 1.9250438068e-04 0.806683318
0.9326419808 0.0019390031 0.0543026054
0.9425805865 0.2514152395 0.304580282
0.9324468174 0.2518572345 0.5549188091
0.9423964701 0.2534898169 0.806934637
0.9324357704 0.2510591699 0.0544770557
0.9525891565 0.0013735228 0.5596045726
0.9525817918 -6.3257465971e-04 0.0625736684
0.9625940441 0.2502995113 0.3164898542
0.9526186151 0.2500098386 0.5587364636
0.9725326498 0.2491186881 0.5646033341
0.9624430686 0.2497169111 0.8145091875
0.9526333444 0.2530699542 0.055862532
0.9724405916 0.2500514994 0.0666297537
0.9625498561 0.0016794042 0.3125295095
0.9825264904 0.4989754048 0.8188442092
0.9825596314 0.4987566856 0.3173450751
0.9825007141 0.001530532 0.3159734076
0.9924798254 0.0011658047 0.5656960652
0.9826590542 0.2514816364 0.3186734753
0.9926308009 -0.0011044483 0.0662504738
0.9925792483 0.250056707 0.5647543096
0.9825228081 0.2491095748 0.8184649293
0.9926197539 0.2483779071 0.063915417
0.0122903811 0.7505115723 0.0597184827
0.0024906728 0.5014255804 0.8149216084
0.0125976346 0.4997624033 0.0623077122
0.0224231192 0.7493138244 0.3115122661
0.0026470613 0.7496783564 0.3165193129
0.0123896198 0.7501079834 0.5608851025
0.022416896 0.7495807139 0.8128107133
0.022404192 0.5005910625 0.3069075139
0.0024580842 0.7489492925 0.8180202881
0.0125505376 1.0006976697 0.0591981696
0.0524162404 0.997468958 0.5515503987
0.0524434896 0.9978204709 0.0503422607
0.0324079381 0.7487800455 0.0589494283
0.0423829988 0.5004537121 0.8047767923
0.0425174038 0.7472242751 0.303824484
0.032442552 0.7492292009 0.5585836469
0.0424724794 0.748786555 0.8033480486
0.052376103 0.7486758935 0.054208706
0.052482154 0.7480770196 0.5493916334
0.0524865728 0.4976214289 0.5517446416
0.0425424437 0.9977228285 0.3046189465
0.0324701694 0.9989661428 0.5555825489
0.0325099386 0.9983086834 0.0549972767
0.072433012 0.9984974589 0.5497920867
0.0624925652 0.9982761359 0.7991345438
0.0724245427 0.9998384157 0.0479782976
0.0725151279 0.7479858866 0.0485665496
0.0624726806 0.7478361681 0.2978057174
0.0723542102 0.7481616431 0.5466621071
0.0625551647 0.7476408831 0.8000818229
0.0626413312 0.9986927439 0.2963493563
0.0825417413 0.9992916178 0.2955779084
0.1025934951 0.9996170928 0.7939120809
0.0824872428 0.9959652636 0.7957136603
0.0925841887 0.9986406679 0.0441341303
0.0924954445 0.7487670265 0.0458374836
0.0924262167 0.4981552079 0.0486852127
0.1024185844 0.7497043944 0.2939420338
0.0825443189 0.748617308 0.2990595504
0.0923330538 0.7476278641 0.547008246
0.1025062239 0.7484806085 0.7943705308
0.0825306943 0.7495221284 0.7996316582
0.0924159062 0.4998613477 0.5489930213
0.1124367284 0.9974624485 0.0391218363
0.1124606636 0.7505636483 0.0403307449
0.1223738612 0.4996673646 0.7877690357
0.1224681288 0.7463585117 0.2858445926
0.1124179486 0.7497109039 0.5446193352
0.1224029516 0.7480119246 0.7857317872
0.1125273137 0.9973582965 0.5377748063
0.1224935369 0.9978985849 0.788158442
0.1524713764 0.9996886973 0.522908324
0.1323216727 0.9987903863 0.5328275975
0.1424631747 0.997429901 0.7785807045
0.1524386037 0.9991418993 0.0241783012
0.1323710159 0.9984584019 0.0348614738
0.1525991532 0.7489492925 0.0225533815
0.1325573418 0.7509281803 0.0331024253
0.1425114132 0.7476734306 0.2816402936
0.1525888427 0.7498801509 0.5239504231
0.1325849592 0.748786555 0.5331829422
0.1424252467 0.4986251937 0.280447219
0.1425080991 0.748929764 0.7783183386
0.1726645316 0.7502446828 0.0144220629
0.1624158738 0.4996523927 0.7683990651
0.1724656859 0.5005285713 0.0146731977
0.1626699545 0.7497369419 0.2673666662
0.1825331731 0.9991679373 0.7588452628
0.1726155567 0.7500363789 0.5122802022
0.1626147196 0.5015102038 0.2669450395
0.1626198749 0.7505636483 0.7689357645
0.1826038738 0.748526175 0.2612853
0.1826027691 0.7496262804 0.7631443818
0.1625178744 1.0013551291 0.2633032162
0.1724527977 0.9996366213 0.5148900528
0.1725470653 0.9998514347 0.0143306491
0.1925170714 1.0003852137 0.5150161726
0.2025849268 1.0001313432 0.758875642
0.1926422706 0.7517483772 0.0116817658
0.2027388482 0.7507068573 0.25848673
0.1926709928 0.7515075257 0.5098167242
0.202635743 0.7488972165 0.7581677143
0.2326500376 0.7505245913 0.9975927391
0.2324592929 0.4999069142 0.9986422028
0.2325078997 0.7510193133 0.4975333956
0.2325137914 0.4991498594 0.5001312786
0.2224385713 1.0011728631 0.2517407035
0.2125209549 0.9996236023 0.5056032194
0.2125423124 1.0006911602 0.0055153378
0.2125912874 0.7503423253 0.0062085362
0.2323131045 1.0007888026 1.000704307
0.2225663481 0.7502707208 0.2541443437
0.2125169043 0.7492682579 0.5084551831
0.2224772358 0.4998672062 0.25300006
0.2226186372 0.748747498 0.7506566839
0.2524495518 0.7502902493 0.9905779025
0.2524315084 0.5005884587 0.9903017279
0.2423253568 0.7511690317 0.2472132801
0.2525077326 0.7496848659 0.4877982386
0.2424354584 0.5014483636 0.2438853754
0.2424505559 0.7497564704 0.7436446091
0.2523405549 0.5006737332 0.488447249
0.2624209302 0.4990906229 0.7362265575
0.2625026779 0.7481290956 0.235030295
0.2624312408 0.74846108 0.7354560302
0.2824119256 0.5005643736 0.7339122138
0.282429969 0.748734479 0.2297010445
0.2823946186 0.498868649 0.2321571579
0.282322445 0.7501991163 0.7331665422
0.2724265543 0.7480444721 0.9819152238
0.2723646912 0.4987963936 0.9838392407
0.2724707423 0.7493919384 0.4839170639
0.282407875 0.9991809563 0.2321074464
0.2823283367 0.9993632223 0.7348825075
0.3123562559 1.0032559029 0.973206516
0.2924216002 0.7492682579 0.9758209695
0.302437903 0.5 0.7300586566
0.2923965604 0.4969164502 0.9822466334
0.302358733 0.7522040421 0.2271436671
0.2923637877 0.7501730783 0.4755821124
0.3023281696 0.5020941059 0.2287408772
0.3024139679 0.7515791302 0.7270299411
0.3023918739 1.0038938338 0.2265986824
0.312440213 0.753688208 0.9721386406
0.3123790864 0.5010311047 0.9747807116
0.3123919745 0.7517679057 0.4706993443
0.292318495 0.9990051998 0.9792363295
0.3325541982 0.7521389471 0.9653999787
0.3325615628 0.4991400951 0.968594399
0.3224439959 0.7518395102 0.2164741191
0.3324220026 0.7529461251 0.4672600491
0.3224064362 0.7522561181 0.7161311682
0.3323814969 0.5016065444 0.4656904564
0.352351503 1.0004893657 0.4613140086
0.3423856481 1.0014267336 0.7152069036
0.3625106802 0.7495156189 0.2056499133
0.3523349325 1.0010036161 0.9604472463
0.3624628099 0.7498020369 0.7069078549
0.3625033155 0.9994283173 0.2046197818
0.3523268314 0.7498345844 0.9594254001
0.3624259866 0.9994803933 0.7105469164
0.3525120525 0.4984650601 0.9614875043
0.3424766016 0.7512796932 0.2106440719
0.3524623411 0.7497694894 0.4607110272
0.3423547165 0.7510974272 0.7090113852
0.3924995667 0.9993827508 0.4492801577
0.3725155678 0.7496588279 0.9536993786
0.3726481316 0.499336682 0.9535336738
0.3825020438 0.7479989056 0.1980716804
0.3725855321 0.7496458089 0.4564413668
0.3824983614 0.4985945991 0.2000997231
0.3826309253 0.7504399678 0.697225171
0.3826309253 0.9981068889 0.2021949682
0.382560961 0.997794433 0.7011634218
0.3724934738 0.9990963328 0.9560836866
0.3725413441 0.4986883359 0.4561191631
0.3924701081 0.7496653374 0.9500630789
0.3924664258 0.7517679057 0.4491439116
0.4123915074 0.7496458089 0.9481850911
0.4124688363 0.7495546759 0.4473386498
0.4126308588 0.4993881071 0.4432218061
0.4023534788 0.9994934123 0.1995169945
0.4024713134 0.500715394 0.6981107711
0.402533913 0.7513382787 0.1992583109
0.4023497965 0.501352023 0.1995031858
0.402500772 0.748786555 0.6982138763
0.4325117525 0.7487019315 0.9435453567
0.422440583 0.7491575964 0.1916929662
0.4325080702 0.7498931699 0.444938692
0.4224369006 0.5010857845 0.1956118847
0.4223743011 0.7511104462 0.6937895582
0.4424393112 0.7500884549 0.1914140298
0.4424466759 0.7499452459 0.6890200217
0.4323755063 1.0025333485 0.4425092755
0.4223706187 1.0010947491 0.6967114861
0.4425497811 0.9998774727 0.18760374
0.4524662928 0.9997407733 0.9393475018
0.4624859097 1.0010361636 0.1848843401
0.4725718086 0.9982370789 0.4333697351
0.462555874 1.0017912655 0.6833170148
0.4524478812 0.7504920438 0.9374418966
0.4525178454 0.7484936275 0.4371220283
0.4726123142 0.74898184 0.9318631683
0.46253378 0.7509086518 0.1878974057
0.4727485604 0.7487149505 0.4356417321
0.4625153684 0.7480119246 0.6855162857
0.4725460323 0.4984937019 0.4353379399
0.4825803785 0.9967919701 0.1840364838
0.4926294541 0.9993176558 0.4355938618
0.4925963131 0.9995194503 0.9358953184
0.4826061548 0.5006815446 0.6823771003
0.4925337135 0.7491055205 0.4307028084
0.4825435552 0.7498866604 0.1839683608
0.4926294541 0.7494440144 0.9303534134
0.4826024725 0.7491706154 0.6842606116
0.512569265 0.9990117093 0.4346585503
0.5126650056 0.9981003794 0.9354166157
0.5026858943 0.9981264174 0.1837731973
0.5225631057 0.7489883495 0.6864202975
0.5225410117 1.0001638907 0.1867439162
0.5225373294 1.0007822931 0.6879144024
0.5026122477 0.7502642113 0.1848594843
0.5026085654 0.4999765658 0.1824733352
0.5025570128 0.7471721992 0.6845634831
0.5025533304 0.4967172595 0.6834615462
0.5124440659 0.7498020369 0.9338792434
0.5126502763 0.497439163 0.9341185947
0.5126834172 0.7496588279 0.4333117385
0.5225226 0.4999934905 0.1902191141
0.5226919872 0.7478817346 0.1849837629
0.5325017114 0.7482983425 0.4415417435
0.5325274877 0.498960433 0.4414266708
0.5324722527 0.9975796195 0.9384177137
0.5424771403 1.0003070997 0.1895682624
0.5523457818 0.9997342638 0.4395661741
0.5524967573 0.7506157243 0.937469514
0.5425471046 0.9996040738 0.6877689504
0.5424182231 0.7485587225 0.1862302313
0.552448887 0.7495025999 0.4384274139
0.5424219054 0.7493659004 0.6900501532
0.5325017114 0.748682403 0.9374879257
0.5624979625 1.0008018216 0.1929900666
0.5625421505 0.9993502033 0.6917256128
0.5624758686 0.7493138244 0.1908487923
0.5624648216 0.7486889125 0.6919732494
0.5724807562 0.9984388734 0.4463260094
0.5725028502 0.9986862344 0.942495893
0.5723371454 0.7503358158 0.9414832525
0.5722855927 0.7514489402 0.4440567742
0.6024107254 0.99757311 0.2078850869
0.5924205671 0.7493984479 0.9491609083
0.5924316141 0.9977033 0.4572514792
0.602506466 0.9995389788 0.7054956817
0.5924868491 0.9988294433 0.9519963015
0.6024917367 0.7498931699 0.1997167609
0.602517513 0.4982808412 0.2052301278
0.5923690145 0.7501079834 0.450094873
0.6025653833 0.7487019315 0.7018400497
0.5825961137 1.0006846507 0.1994442685
0.5824819615 0.9994218078 0.6992550548
0.5822647041 0.7482202285 0.1977835382
0.5823162567 0.7494244859 0.6974461108
0.612224132 0.7497174134 0.9545186968
0.6123972014 0.7480900386 0.4544519887
0.6123898368 0.9981980219 0.9579340569
0.6224831003 0.9975535815 0.2096047345
0.6222989838 0.7509607278 0.2073787667
0.6224536416 0.7496848659 0.7038570454
0.6424229112 0.9994934123 0.7157463648
0.6524756691 1.0009124831 0.9724976677
0.6324290706 1.0000662482 0.9636416667
0.6324143413 0.7490664635 0.9609351549
0.6323591064 0.4998899895 0.9632366105
0.6323959296 0.74859127 0.4596054079
0.6524609398 0.748617308 0.9673239956
0.6525088101 0.5003697396 0.9711167943
0.6423860879 0.7512406362 0.2141652989
0.6424965578 0.4994551549 0.2138679508
0.6524756691 0.7507459143 0.4679992767
0.6423971349 0.7504529868 0.7156570683
0.6726474668 0.7487800455 0.9757749404
0.672503856 0.4994948629 0.9782236891
0.6826818131 0.9998709632 0.2311794995
0.6726216905 1.0003461567 0.4783180828
0.6826965424 0.9999946437 0.7308374692
0.6824903319 0.7496392994 0.2291947243
0.6726106435 0.7491836344 0.4750270014
0.6825308376 0.7497304324 0.7302823581
0.6624731921 0.7497564704 0.223688722
0.6624658274 0.7491055205 0.7232675216
0.7027063176 1.0006000272 0.2353856397
0.7025332481 0.5011014073 0.7350850356
0.6924878549 0.7508761043 0.981335257
0.6925872778 1.0006586127 0.4843230407
0.7027983758 1.001901927 0.7352175994
0.6926756537 1.0008148406 0.984133827
0.7026032124 0.7496588279 0.2367517837
0.7025442951 0.5006581104 0.2334671464
0.6926204187 0.7495091094 0.482552761
0.70259953 0.7509997848 0.7358997508
0.722594576 0.5009386698 0.7401123351
0.7325884166 0.7496523184 0.9917102187
0.7225430234 0.7503162873 0.2395383861
0.7226571755 0.5008612068 0.2406900345
0.7325773696 0.7492682579 0.4921664012
0.7226240346 0.7517744152 0.7412860774
0.7227271398 0.9992135038 0.7412170338
0.7126522879 0.7505896863 0.9888748254
0.7124865831 0.7513968642 0.487204463
0.7425454339 0.4995007214 0.7469909255
0.7425675279 0.7484806085 0.2502309487
0.7424091877 0.4982346238 0.2458637066
0.7425417516 0.7493398624 0.7478443052
0.752465628 0.4983947575 0.5005924903
0.7525576862 0.7507654428 0.0022418395
0.7623784573 0.4962661512 0.7539008156
0.762396869 0.7479338106 0.2539841624
0.7624447393 0.4993802957 0.2553208478
0.7525613685 0.7498996794 0.5002656836
0.7625773031 0.7474651266 0.7535951824
0.782583396 0.7500168504 0.2586423084
0.7824876554 0.4998880366 0.257495263
0.772619014 0.7492747674 0.5054550056
0.7824950201 0.7494179764 0.7598348887
0.7725674614 1.0006455937 0.5071921443
0.7724128036 0.499220162 0.5067649941
0.7724790855 0.7488191025 0.0082741386
0.7825649844 0.5004901653 0.7567896027
0.7724643562 0.4994239093 0.0067688026
0.7924446728 0.7501144929 0.5100671226
0.812421307 0.4999309993 0.5205838539
0.8123587075 0.7503553443 0.0168957594
0.8024569251 0.5005031843 0.7631646346
0.8024606074 0.7517158297 0.2639025153
0.8023575022 0.5006724313 0.2636686874
0.792514637 0.5008397254 0.5098093595
0.7924483551 0.74911203 0.0098411537
0.8122813785 0.748773536 0.5176140556
0.7924925431 0.5002786066 0.0094140035
0.8025084777 0.7513057312 0.7648354913
0.8324642232 0.5008546973 0.5307700962
0.832394259 0.7502056258 0.026809049
0.8224225123 0.5006900069 0.7738645618
0.8325047288 0.5008833391 0.0299425268
0.8225256175 0.7519111147 0.2763957366
0.8222825838 0.5024625436 0.274585872
0.8323648003 0.7510258228 0.5275904052
0.822440924 0.7495611854 0.7753715549
0.862534121 0.7525620646 0.789535633
0.8625930383 0.5013103622 0.7909662177
0.8525660567 0.7511560127 0.0394548109
0.8523414346 0.4999602921 0.0382605396
0.862512027 0.7518004532 0.2921174399
0.862556215 0.5026064035 0.2946241852
0.8525881506 0.7510974272 0.5355377915
0.8424396522 0.7513903547 0.2858952246
0.8425206634 0.501937878 0.2848015729
0.8425317104 0.7509346898 0.7866367195
0.8524408575 0.5034038172 0.5388104613
0.8725647849 0.5002493138 0.5428195969
0.8825365316 0.7550291648 0.7959640586
0.8926592537 0.5028114528 0.5458326625
0.8724690444 0.7514554497 0.0421999871
0.8925045959 0.7549054844 0.0453681708
0.8825033906 0.5036674519 0.7974323873
0.8724690444 0.5008527444 0.0460414846
0.8925377368 0.5019281137 0.048711081
0.8826433191 0.7539290595 0.2934265078
0.8823855561 0.5045950556 0.2993108694
0.8724138094 0.7513122407 0.5456614342
0.8925340545 0.7539941545 0.5455647731
0.8827059187 1.0044145938 0.2939981893
0.8826175428 1.0043820463 0.7968275648
0.9124922771 0.7514424307 0.5494238538
0.9124628185 1.0027807094 0.0504635013
0.9124407245 0.5022548906 0.5519517726
0.9024726602 0.7529591441 0.7992579018
0.9124223129 0.7528615016 0.0490662416
0.912602747 0.5019183495 0.051825963
0.9024800249 0.753128391 0.2999064861
0.9024247899 0.5037136694 0.2969928433