POSCAR file written by Ovito 3.7.11
1
271.5837921231 0.0 0.0
0.0 15.3630992856 0.0
0.0 0.0 10.8633516849
Sr Ti O 
800 800 2400 
Direct
0.0225579626 0.499259264 0.8087726639
0.0124569917 0.2497536188 0.5613131249
0.022467346 0.2497048005 0.8086502339
0.0024809913 0.2507026461 0.8124188683
0.0124896151 0.2492335415 0.061252908
0.0225325561 -0.0012032961 0.3163666225
0.0025863364 6.28300491e-04 0.3142181143
0.0025714975 0.4995782101 0.3124635913
0.0125656138 0.5004979464 0.5614097802
0.0124666388 -6.2366043449e-04 0.5631339258
0.022439583 0.0029655893 0.8108539737
0.0025378799 0.0020424032 0.8127539398
0.022463443 0.2484661182 0.3129855297
0.0025472692 0.2488970208 0.3092997427
0.0324894095 0.5009444709 0.059935635
0.0427286067 0.5002082913 0.3069459572
0.0325763072 0.4998177451 0.5597592767
0.0323829967 0.2490486829 0.5592428615
0.042424833 0.2504116892 0.8078723893
0.0323833649 0.2500484812 0.0594239145
0.0524615145 0.5005942811 0.0541734171
0.0425345598 -8.8317838239e-04 0.8088002797
0.0424483985 0.2489445373 0.3096467811
0.0524964944 0.2480182919 0.5592124841
0.0524810296 0.2489868464 0.058236988
0.0626815647 0.2511433124 0.3017541894
0.0626020312 0.4988192487 0.8012031769
0.0727480712 0.4994656026 0.0488297624
0.0626197053 0.5004849282 0.3020975456
0.0726254571 0.4992345295 0.5513456671
0.0724490842 0.2485312092 0.5497577594
0.0625880392 0.2509330683 0.8050279633
0.0724516617 0.2514349202 0.0528790651
0.0925338616 0.2470432282 0.5384730285
0.1023669226 0.2479844445 0.7848214924
0.0825778183 0.2482942779 0.7965821353
0.092511769 0.2478477534 0.0422171623
0.1026342434 0.0011528691 0.2844805149
0.0924491732 -9.6115743972e-04 0.5375727539
0.1024100033 0.2487199732 0.2837026703
0.0825509389 0.2477963315 0.2942712318
0.1025572874 0.4974783734 0.7823738132
0.0826960139 0.4985894773 0.7926183494
0.1025819576 0.4976879665 0.283305003
0.0826963821 0.4981208219 0.2934409171
0.1224550139 0.2489653664 0.2793854024
0.1124916064 0.4987632704 0.0301331385
0.1124326927 0.2493090471 0.5314052282
0.1225754187 0.4991427511 0.2773179005
0.1123925577 0.4997298722 0.5278556791
0.1223681162 0.2503531072 0.7772547669
0.1126083291 0.2491508759 0.0294034374
0.1224119333 -5.3858645457e-04 0.2802571407
0.1524082005 0.2516848698 0.5225193887
0.1324044294 0.2506095659 0.523301836
0.1422919856 0.2497438552 0.7757285344
0.1524122508 0.2491990432 0.0226303896
0.1323506707 0.2507273807 0.0290072429
0.1422938266 0.0021209681 0.2776907136
0.1423427986 0.2495668076 0.2787318287
0.1425618839 0.5007023322 0.7751430797
0.1523864761 0.4993139405 0.0255750609
0.1324703391 0.5005213792 0.0245935038
0.1523897899 0.4995821156 0.5269066166
0.1324003791 0.4990952346 0.5258756273
0.1823098376 0.2476641967 0.2639656677
0.1723438526 0.4987788922 0.5195672611
0.1823532864 0.4989006125 0.7628604985
0.1723618949 0.2498668772 0.5208679647
0.1622408933 0.2504448856 0.7696484588
0.1724046073 0.2491749595 0.0178326991
0.1823878982 0.4993497406 0.2639877604
0.1622431025 0.0012784948 0.7747960414
0.1623152718 0.2514173456 0.2707029991
0.182303578 0.249542073 0.7629709616
0.1824501258 -3.8249815784e-04 0.2640135351
0.1925401977 9.1131630175e-04 0.0061935656
0.2022222924 0.2509213519 0.2558052029
0.2023117676 0.5011124058 0.7550525951
0.1923049112 0.5005851684 0.0129216917
0.2024321724 0.4991264783 0.2550936361
0.1923792897 0.4986103064 0.5109032684
0.1922898146 0.2506095659 0.5108949836
0.2021479139 0.2500243975 0.7544275578
0.1922312691 0.2485383692 0.0073595041
0.2024189168 0.0012122972 0.2549270208
0.2123270928 0.2487909224 0.5038538786
0.2222536793 0.2503355326 0.7509341608
0.2123097869 0.2493487526 6.2910431273e-04
0.2224591407 -6.135713244e-04 0.7494760473
0.2222905003 0.2521294415 0.249980113
0.2322767369 0.2497536188 0.4989364276
0.2321865254 0.2512409489 0.9998085486
0.2323540611 -5.9287237596e-04 0.4957836253
0.2224392574 0.4986923212 0.7488482484
0.2122932174 0.5013506389 0.0044790855
0.2122516097 0.4989585435 0.5003862564
0.2423730684 0.4977524066 0.7451725873
0.262332286 0.2503993219 0.7393309279
0.2625359064 -0.0013321112 0.2383952906
0.2625314879 -4.1380694464e-04 0.7391164453
0.2523861844 0.2488488535 0.4937704345
0.2423782234 0.2469468935 0.7496850068
0.2524417842 0.2488859553 0.9950954544
0.2623735256 0.2481380594 0.2421639249
0.2423038449 -9.4657704836e-04 0.2458230166
0.2625233873 0.499455839 0.2385683495
0.2524462027 8.6816094699e-04 0.4964381195
0.2424165173 -0.002739477 0.7483198664
0.2525349414 0.0015005203 0.992343081
0.2423388249 0.2496039094 0.2464241202
0.2723991607 0.2510346103 0.490381057
0.2724621247 0.2501526268 0.9874919079
0.2725681693 0.0028504433 0.489380445
0.2723991607 -1.1503910394e-04 0.9898760708
0.2824317918 0.2495726657 0.7325641397
0.2725066782 0.4995983883 0.485484778
0.2823301657 0.2508549591 0.2345953583
0.3124494152 -7.1478788045e-04 0.4742497556
0.2925189181 0.5010609838 0.4808269154
0.2924647911 0.2504292637 0.4805084133
0.3024160477 0.2502424525 0.7293781985
0.2924386482 0.2501767105 0.9815176928
0.2925465338 0.0018811727 0.4800647197
0.3025007361 -0.0011229737 0.7275988213
0.3124004432 0.4985803646 0.4752853476
0.3025228287 0.2501031577 0.2279721722
0.3124777674 0.2499065827 0.4743270798
0.3124954415 0.2477403532 0.9736011673
0.3224923562 -0.003413039 0.2198660184
0.3323821217 -7.1374642393e-04 0.4645971177
0.3224905152 -0.0033293254 0.7175512777
0.3324380897 -0.0030839127 0.9670378154
0.322406195 0.2479694736 0.2183793686
0.3223896255 0.498040109 0.7186209291
0.3224293922 0.4991818057 0.2202636857
0.3323872766 0.2502567725 0.4651862545
0.3224614265 0.2501161759 0.7227909129
0.3323975865 0.2483255216 0.9650126577
0.3624711779 0.2524972059 0.2103726315
0.3523575405 0.4997682759 0.4638551736
0.3523719007 0.2517167644 0.461676288
0.342381982 0.2509565011 0.7147169775
0.3624306748 0.5011742422 0.7079437456
0.3524057761 0.2510521849 0.9600878425
0.3623754432 0.5003208988 0.2109203446
0.3424523102 8.9315590359e-04 0.2097678458
0.3423249094 0.2500243975 0.2138384127
0.3624822242 0.2512682872 0.7081665129
0.3423440564 0.4993256569 0.7148799106
0.3424644612 0.4996218211 0.2114303162
0.3824944641 0.253918794 0.2027000456
0.3924803325 0.2493780436 0.4522013117
0.3926239346 0.2513932619 0.952521117
0.3926092062 0.0031182929 0.9473017334
0.3825349673 0.5024441683 0.7023966546
0.3923882799 0.5032604098 0.9518215171
0.3724901852 0.2541615836 0.4542227873
0.3825460136 0.2507228243 0.7065270557
0.3724054968 0.2514739748 0.9600142004
0.3924508757 0.501292057 0.4527867664
0.372622741 0.0027240365 0.4537864578
0.412584625 0.5003827353 0.9484063648
0.4024588367 0.2491938359 0.7008989585
0.4025103861 0.0021561172 0.6975730973
0.4024072872 0.2489523482 0.2002928695
0.4125293934 0.248982941 0.4456941119
0.4123968377 0.248351558 0.9466389545
0.4125588503 4.5242452029e-04 0.4461203155
0.4125698966 -2.2660513421e-04 0.9472280913
0.442361807 0.0013889543 0.6884635698
0.442501727 0.2501897287 0.1832290751
0.4225815397 0.4987066412 0.6899677097
0.4326520965 0.4997012322 0.9409224867
0.4325931828 0.4995515228 0.4392338589
0.4425127733 0.5012217587 0.6855316938
0.4424207207 0.4998431306 0.1871744504
0.4323833028 0.2494001745 0.4376643617
0.4225115797 0.2491385086 0.6916918553
0.4324311702 0.252082576 0.9397626237
0.4223863881 3.8772403365e-04 0.1899295854
0.4323648923 5.9881425313e-04 0.9387408396
0.4224747587 0.2511224832 0.1939403181
0.4424722701 0.2531403053 0.6870174232
0.4725071995 0.2439136514 0.430807362
0.4625029206 0.2504865438 0.6849849013
0.4725108816 0.250993603 0.9340645664
0.4724041005 0.0017580205 0.9343775453
0.4625066027 0.2491241885 0.1821980857
0.4525354627 0.4994031152 0.9342578769
0.4525612375 0.4979450761 0.4351596099
0.4625213311 0.4991336384 0.6874767657
0.4724740605 0.500377528 0.9292962406
0.4624697816 0.4998001705 0.1868513457
0.4523992248 0.2496885278 0.436183235
0.4524176354 0.248053441 0.9361081346
0.452579648 4.8783404215e-04 0.4348319026
0.4826550804 0.2500374157 0.6800131392
0.4824378363 9.2368359799e-04 0.6835378341
0.4925304857 0.4990672455 0.9256509568
0.4926409488 0.5004439208 0.4273323755
0.4825630278 0.2496859241 0.1796279765
0.492578353 0.2516061096 0.4323234686
0.4924899825 0.2484186017 0.9300234563
0.4825225247 0.4967532593 0.1793389313
0.5025347646 0.2495733167 0.6798971529
0.5125611361 0.2492654361 0.4322111644
0.5124838119 0.2494665674 0.9348746295
0.5025531751 -3.1219984239e-04 0.6799045171
0.5024574404 0.2494366255 0.1804122649
0.5224107666 0.2480814302 0.1848574859
0.5223813097 0.2491697523 0.6851570397
0.5123880772 0.4995131191 0.4310687914
0.5225249118 0.4975310971 0.6867541527
0.5425040128 0.4979880362 0.6905448796
0.5526555759 0.4990639909 0.9420363234
0.5425445159 0.4979606979 0.190336458
0.5525856159 0.4994031152 0.4418684049
0.5324997339 -5.2226257256e-05 0.4351678946
0.5324445023 0.2475047236 0.4376312228
0.5326249255 0.2472762541 0.9374981292
0.532540237 0.5003716698 0.9370562766
0.5524935633 8.0559449721e-05 0.9416957287
0.5426218401 0.2484583073 0.1870741131
0.5525303843 0.2475014691 0.4402685304
0.5424524633 0.2488631735 0.6872862168
0.5526298011 0.2480221973 0.9416957287
0.5725573526 0.2493552617 0.4488478347
0.5726089021 0.2480182919 0.9473109386
0.5626193516 0.498279644 0.6962272879
0.5626524906 0.4974985516 0.1967258304
0.5726125842 0.5005435101 0.9488390122
0.5726273126 0.5003443316 0.4491028205
0.5624242001 0.2509604066 0.1951738232
0.5625567558 0.2499365246 0.6957633427
0.6026880167 0.4990724528 0.7057446085
0.5926800557 0.4996797521 0.9551354115
0.5926690094 0.5009405654 0.4562415013
0.5827089157 0.2504240565 0.7029314803
0.602452362 0.2487818097 0.2089458159
0.5925732746 0.2490818794 0.4567827707
0.6025554609 0.249585033 0.7048185591
0.5925327715 0.2494307673 0.9532667432
0.5826647305 0.4987313758 0.7035058887
0.5827273262 0.4971171182 0.204068868
0.5826684126 0.2496885278 0.2024717551
0.6125597398 0.5025183721 0.9570961323
0.6125597398 0.5003384734 0.4581626395
0.6226413429 0.5005981866 0.7110486805
0.612637064 -4.6477322334e-04 0.4598011761
0.6225897934 0.5001262766 0.2095100985
0.612530283 0.2499742774 0.4570110612
0.6125008261 0.2509734248 0.9600786372
0.6225308797 6.4912962151e-04 0.7138295902
0.6223946419 0.2503492018 0.2150433816
0.6225677008 0.250420151 0.713118944
0.6425283912 4.5932416977e-04 0.2176217755
0.6524958491 4.5131797273e-04 0.4735796125
0.6325646155 0.4996237738 0.4625581521
0.6424989344 0.2498167571 0.2186168643
0.6524774385 0.2486496749 0.4730622768
0.6424216102 0.2491625922 0.7213226736
0.6325793439 3.4404795062e-04 0.4658103713
0.6525510806 0.2490981521 0.9722387885
0.6425320733 0.4998242542 0.7176884361
0.6525768554 0.5001946222 0.4670079759
0.6325940723 0.2488416934 0.4669288106
0.6326235292 0.2487030495 0.9705634308
0.6824313616 0.4985738555 0.727218644
0.6624927638 5.3476467682e-04 0.2240019427
0.6824092689 0.5019820219 0.2275846307
0.6623381154 7.3361778212e-04 0.722213743
0.6725117711 0.4997871523 0.4742110935
0.6625185385 0.2506844206 0.2276941733
0.662397029 0.2512949745 0.7256334978
0.6724896784 0.0015234975 0.9747426198
0.6623565259 0.5011846568 0.7223481398
0.6623896648 0.4994187371 0.221800044
0.6823319447 0.250209907 0.2302688851
0.6723387121 0.249941081 0.478496143
0.6825234142 0.2508041881 0.7303604
0.6722908448 0.2503212126 0.9775870458
0.7025282899 0.2488911626 0.236163935
0.6924282762 0.2495596475 0.4866639721
0.7025503825 0.2487050023 0.7356129225
0.6924319583 0.2516158733 0.9875103184
0.692384091 0.4984690589 0.9823369611
0.6924982362 0.497488788 0.4859247896
0.7326479076 0.5000501201 0.9959699543
0.7325116697 0.4992364822 0.4946891196
0.7125878003 0.2515859314 0.4937474213
0.7125730719 0.2489998647 0.9936134072
0.722477934 2.1054624229e-04 0.2398202651
0.7324932592 5.499959785e-04 0.4901141044
0.7322907434 -2.9150089395e-04 0.9894802445
0.7125472972 0.4972700821 0.995325586
0.7224374308 0.2486652967 0.2404047993
0.7324269813 0.2489751301 0.4925903199
0.7225110729 0.2492159669 0.7424377039
0.7325521729 0.2506544787 0.9926192389
0.7124994298 0.4993347696 0.4914663574
0.7124994298 -6.8718928253e-04 0.4890932408
0.7124920656 -0.0020119155 0.9901430234
0.7524870886 0.5018394726 0.001140429
0.7423981213 0.0017743583 0.245326853
0.7424459886 -2.1013710291e-04 0.7421486587
0.7424423065 0.2491658468 0.2470206212
0.7424754455 0.2495114802 0.7440937305
0.7623845864 8.6451584915e-04 0.2509448244
0.7523287581 4.9250662929e-05 0.4968017273
0.7623588117 -0.0010590544 0.7538393416
0.7522735265 0.0023235964 -0.0047085117
0.7625171422 0.2494053818 0.2564992796
0.7524465854 0.2529626067 0.4993313333
0.7624140433 0.2486548822 0.754522372
0.7524060823 0.253556237 -0.0015047951
0.7824631042 0.0013328458 0.2633756104
0.7824336474 -0.0021911176 0.7621636601
0.7724293685 -6.7039579606e-04 0.0094629065
0.7824962431 0.2484615618 0.2606379655
0.772447779 0.2505353621 0.5103758069
0.7825993421 0.2495752694 0.7608362613
0.7724846 0.2509005228 0.0065601191
0.7925410252 -6.3617188001e-05 0.514086448
0.7923863768 -7.1237951224e-04 0.0123520701
0.8123544314 0.4991206201 0.0170880854
0.7925594357 0.2504507438 0.5129910218
0.7926183494 0.249062352 0.0109491881
0.8024863904 6.2120556842e-04 0.2638993899
0.8124722588 0.0021671176 0.5173386671
0.8024201125 0.0013885638 0.7668472975
0.8124685767 0.0016074649 0.023936064
0.8025526683 0.2501291941 0.2676928784
0.8126453177 0.2482708451 0.5184985302
0.8026299925 0.2492179196 0.7671842101
0.8125569472 0.2505640022 0.0188901996
0.8324771345 -4.4081972326e-04 0.5235779938
0.8225759545 0.0016280337 0.7727359037
0.8325176376 6.9924971679e-04 0.0232077437
0.8223881672 0.2476563857 0.2724694889
0.8325360481 0.2504357728 0.5228655065
0.8226459145 0.2516152224 0.7752526224
0.8325507766 0.249273247 0.0247322271
0.8225612261 0.0011525437 0.2755164307
0.8425808302 0.0018442661 0.7806404623
0.842573466 0.2520636996 0.2773464368
0.8425366449 0.2511452651 0.7785858478
0.8625967522 3.8388366272e-04 0.2789232982
0.842503506 0.5006580703 0.7784468483
0.8525961554 0.0024313221 0.530342941
0.8625488848 0.0011013821 0.7814468433
0.8525740628 -6.0257093985e-04 0.0306043559
0.8624752427 0.2515774696 0.2850659696
0.8425550555 0.0014141445 0.2790549334
0.8524157323 0.2521509216 0.5305997678
0.8625930701 0.250964312 0.7853158149
0.8524230965 0.2514974076 0.0283243045
0.8726415342 0.0025501783 0.5377642233
0.8926611384 5.8558680624e-05 0.5449075067
0.8726525806 0.0018854687 0.0407427555
0.8825500784 0.2517896663 0.2954660748
0.8926390457 9.0695520255e-04 0.0461696257
0.8725237069 0.2506792133 0.5353229878
0.892473351 0.249824568 0.5461713892
0.8825169395 0.2515774696 0.7946932155
0.8725016143 0.2492608797 0.0357046235
0.8923628879 0.2511068614 0.0465157436
0.9025181331 0.0011929001 0.3009293979
0.9124855909 6.7080493544e-04 0.5562014429
0.9024297625 -0.0018589385 0.8012722163
0.9024260804 0.2511452651 0.3027142982
0.9124561341 0.2497360442 0.5573935243
0.9024997225 0.2513626691 0.805244287
0.9023966236 0.4983226041 0.8048567454
0.9124340414 0.2504051801 0.058480283
0.9225487835 -8.1613461857e-04 0.3095326359
0.9225193266 8.1732485034e-04 0.8092715891
0.9224861877 0.2504533474 0.3114712641
0.922460413 0.2508360827 0.8117689768
0.9425978444 0.0028713375 0.3113598804
0.9325641087 -0.0013317207 0.563545401
0.9426346655 -2.7296391681e-05 0.8129509324
0.9325862013 7.2912650086e-04 0.0605235751
0.9424616065 0.2526501698 0.3142954385
0.9324646919 0.2509942539 0.5635960299
0.9424542423 0.2503817473 0.8116999373
0.9325125592 0.2518091936 0.063735199
0.9525284812 4.8243148642e-04 0.5596175156
0.9526205338 1.5079267415e-04 0.0596047979
0.9626137664 0.2506466678 0.3096845227
0.9524290644 0.2521157724 0.5628577679
0.9724891716 0.2500504339 0.5648764819
0.9623928401 0.2529294103 0.8118775989
0.9524806139 0.2515618477 0.0631994527
0.9724228938 0.2497724952 0.0647946326
0.9627352759 -7.5593938042e-05 0.3107228763
0.9823535306 0.4985855719 0.8129776277
0.9824676758 0.5007804415 0.3126633455
0.9825192253 0.0023172826 0.3136621165
0.9925455968 3.7014945479e-04 0.5649179056
0.9824934505 0.2490363156 0.3166786809
0.9923651737 -0.0010990853 0.0641035015
0.9925897821 0.2505021657 0.5634248121
0.9824713579 0.2497152151 0.8148987659
0.9925014115 0.2511055596 0.0635229257
0.0126978013 0.7483027629 0.0646842615
0.0025395 0.4996543666 0.8162390521
0.0125786852 0.5006528631 0.0639094546
0.0225484996 0.7497803294 0.3145402985
0.002652467 0.7496045836 0.3118901035
0.0125938555 0.7489666915 0.5668436464
0.0224557474 0.7500016389 0.8147487201
0.0224940045 0.4977738867 0.3102193484
0.0025047777 0.7487844366 0.8162252442
0.01260527 0.9979529103 0.0609976461
0.0526161629 1.0000488415 0.5564251307
0.0525874424 1.0017281902 0.0573871582
0.0325151842 0.747736471 0.0593413433
0.042620721 0.5026986742 0.8075722977
0.0425062075 0.7516028783 0.3099588395
0.0326094461 0.748367854 0.5610084307
0.0425400829 0.7483483267 0.8066563742
0.0526747083 0.7508217859 0.052096802
0.0526360462 0.7490317825 0.5517534602
0.0525682955 0.5017529015 0.5547589783
0.0425743265 0.9985973115 0.3109143457
0.0325192345 0.9992677491 0.564792714
0.0324805724 0.9983694929 0.0635331435
0.0726884211 1.0016110263 0.5493637741
0.0625909849 0.9999837505 0.803279884
0.0726129379 1.0007257883 0.0473637323
0.0726552821 0.7526768803 0.046371221
0.0627132308 0.7493246922 0.2998661901
0.0726711152 0.7512318594 0.5459081187
0.0625681559 0.749441856 0.8009859327
0.0624300769 0.9992872764 0.3035105534
0.0825862871 1.0009210614 0.2926768804
0.1025609696 0.9976600006 0.7825671237
0.0826028566 0.9991701126 0.7939337814
0.0925419622 0.9985582569 0.0376816376
0.0926424837 0.7496892019 0.0371227861
0.0924896763 0.4980368544 0.0387685029
0.1025388769 0.7502685121 0.2848505665
0.0825800275 0.7487193456 0.2912519058
0.0926181818 0.751270914 0.5389277684
0.1024413011 0.7480749443 0.7837315893
0.0826010155 0.7472938519 0.7932010425
0.0924701612 0.497873476 0.5401345783
0.1124967613 1.0004654241 0.0331168402
0.1125623028 0.749311674 0.0312932777
0.1225713684 0.5012718788 0.7763333201
0.1225437526 0.7499495661 0.2811334816
0.1124879242 0.7491489464 0.532326675
0.12266158 0.7500276753 0.7802013713
0.1124146504 0.9987470209 0.5309348393
0.1224277663 0.9993328402 0.7810850765
0.1522627573 1.0037199758 0.5264896182
0.1325078966 0.9997949865 0.5318038161
0.1422404361 1.0009405887 0.7786705362
0.1523868443 1.0001920418 0.0272768378
0.1323952242 1.0011684073 0.028605065
0.1524398666 0.7501057846 0.0266786798
0.1325204157 0.7503140759 0.0298100338
0.1424278553 0.7519088062 0.280287518
0.1523853714 0.7509649862 0.5286003849
0.1324975867 0.7486542545 0.5308114888
0.1425681435 0.503048864 0.2742387403
0.1424451612 0.7502229484 0.7775659047
0.1723950338 0.7495394926 0.0219712929
0.1623528293 0.500667834 0.7735827878
0.1724594707 0.4976326391 0.0205776162
0.1623907549 0.7510430954 0.2768171342
0.1823816386 0.9991115307 0.7642698241
0.1723972431 0.7509324407 0.5208366668
0.1624080608 0.5008670126 0.2697631418
0.1622880242 0.7511212047 0.7754588202
0.1823547593 0.7499886207 0.2657395218
0.1824350292 0.7477104345 0.7629295379
0.1624404634 0.9999186595 0.2730687515
0.1722801522 1.0023075004 0.5183346765
0.1723151322 0.9980765832 0.0166978743
0.192402487 1.0008885158 0.505834851
0.2023209729 0.9999056413 0.7532686153
0.1923767123 0.7495394926 0.0109877582
0.2024469008 0.7473263975 0.2542946193
0.1924407809 0.7476713799 0.508784217
0.2024126573 0.7521366248 0.7550351051
0.2324424316 0.7470269787 0.9989524593
0.2323319685 0.4981292837 0.9986578909
0.2325274883 0.7484069086 0.5010508763
0.2323978782 0.4993783806 0.4968910183
0.2223166433 1.0013701895 0.2508039839
0.2124007349 0.9991115307 0.4974037515
0.2123952117 1.0013506622 -4.8697549312e-05
0.2125877858 0.7515963692 -0.0019483967
0.2323032481 1.0005109879 0.9962553174
0.2224915433 0.7493442195 0.2509816455
0.212516353 0.7496501473 0.5001947869
0.2223821847 0.4995749556 0.2511215655
0.2224190058 0.7502164393 0.7508982603
0.2524745549 0.7517460786 0.9948561176
0.2525286818 0.4998834871 0.9932820178
0.2424743263 0.7494483651 0.2462584255
0.2523935486 0.7488885822 0.4942555518
0.2423679135 0.500617063 0.2461672934
0.2426068821 0.7493702559 0.7474913928
0.2523582004 0.4979190397 0.4966802178
0.2625208098 0.5003540952 0.7400645873
0.2625186005 0.7508933861 0.2430016037
0.2626382689 0.7514792053 0.7405064399
0.2826376215 0.5015055556 0.7370793208
0.2826464585 0.7516158965 0.2344913389
0.2827178914 0.5018095307 0.2334041974
0.2825735528 0.7506655674 0.7351084742
0.2726554352 0.7496176018 0.9891764709
0.2725302436 0.4990731037 0.9877496552
0.2727021979 0.7513490233 0.4862000269
0.2825120617 0.999951205 0.2344609615
0.2823997575 0.9998145138 0.7344935627
0.3125315262 0.9994239676 0.9728923621
0.2925907191 0.7493377104 0.9798239245
0.3025338751 0.5004855791 0.7228627139
0.2926072886 0.4994590935 0.9806616034
0.3025648047 0.7492205465 0.224978621
0.2925189181 0.7505158581 0.4830039599
0.3024477138 0.5009835255 0.2256754593
0.3025905795 0.7494548742 0.7237666707
0.3024038968 0.9986493843 0.2262710398
0.3124505199 0.7484459632 0.969164231
0.3124328458 0.4993165442 0.9739785831
0.312560983 0.750385676 0.4729113105
0.2924699461 1.0018909178 0.9808641191
0.3325614402 0.7503010577 0.9617632002
0.3322904373 0.4990913292 0.9671482786
0.3224805735 0.7492661102 0.2193477621
0.3323136345 0.7483873813 0.4628656079
0.3225019297 0.7473719612 0.7188685507
0.3322366785 0.4997337777 0.4634096389
0.3522805845 1.0014873533 0.4622746301
0.3422836698 0.9974517093 0.7127765082
0.3625006348 0.7481921082 0.2071093661
0.3525339133 1.0001594963 0.9614962476
0.3624454032 0.7499170206 0.7079741229
0.3623165295 0.9988121119 0.2066417388
0.3524801546 0.7502815303 0.9578877848
0.3624454032 0.9998991321 0.7073757809
0.3524591666 0.5005246337 0.9612385003
0.3423948694 0.7509975317 0.2123517629
0.3524017258 0.7511212047 0.4594550583
0.3422902976 0.7482311628 0.7135377834
0.3925429283 0.998942294 0.4490853305
0.3724644105 0.7508673496 0.9544910431
0.3723834042 0.5013473844 0.9559086535
0.3824944641 0.7516940058 0.2037807433
0.3725969663 0.7540568102 0.4535848626
0.3824686894 0.5033775737 0.2032403944
0.3825091926 0.7508868769 0.7023331383
0.382593881 1.0016370627 0.2006491131
0.3825865168 0.9998405502 0.7000962596
0.372446 1.0009210614 0.9551998483
0.37237604 0.5023673609 0.4570156638
0.3926975767 0.7493051648 0.9518675434
0.392638663 0.7483613449 0.4492777204
0.4125919892 0.7475737434 0.9438037338
0.412584625 0.7482897447 0.4456499266
0.4124704798 0.5021545132 0.4481427116
0.4026171672 0.9986038206 0.1988246302
0.4027055377 0.5001353893 0.6974074025
0.402469883 0.7497347657 0.2007393247
0.4027791798 0.5021330331 0.1964192952
0.4025251146 0.7511342229 0.702481343
0.4323796207 0.7506134946 0.937525745
0.4225520829 0.7523644434 0.1943913759
0.4325269049 0.7494093105 0.4374084554
0.4225078976 0.5005077101 0.1908390653
0.4225484008 0.7505353854 0.6919735363
0.4425937796 0.7497022201 0.1848740554
0.4425238196 0.751270914 0.687925062
0.4326999639 0.9990399305 0.4369058481
0.4225999502 1.0001204417 0.6921272642
0.4424464954 0.9975102912 0.1880342219
0.4525612375 0.9987405118 0.9323800034
0.4624255964 1.0017672448 0.1875214888
0.4724703784 0.9966445805 0.4322203697
0.4624808279 0.9990464396 0.6870790984
0.4524839132 0.749064328 0.9341290033
0.4525207343 0.7527094259 0.4339794953
0.4725329742 0.7508087677 0.934506419
0.4625691985 0.7520650246 0.1833883261
0.472562431 0.748745382 0.4330350354
0.4626649332 0.7501578574 0.6846452271
0.4723709616 0.5001614258 0.4312713072
0.4824231078 1.00114888 0.1815095321
0.492541532 1.0005044788 0.427296475
0.4925599425 0.9993328402 0.9293146512
0.4824820215 0.5001438512 0.6808609438
0.4925268036 0.7522863342 0.4328297581
0.4825888026 0.7494223287 0.177291681
0.4926740878 0.7474826159 0.9331348349
0.4826293057 0.7498584386 0.6796458492
0.5124690835 0.998564766 0.4291946
0.5124248982 0.9996062225 0.9334386086
0.5026268172 1.00020506 0.1809783885
0.5223776276 0.7490578189 0.6840284745
0.5224880908 0.9987209845 0.1842968855
0.5223960382 0.9996778226 0.6840901498
0.5025310825 0.7500276753 0.1789817671
0.5025642214 0.5007889033 0.1765948426
0.5025200361 0.7508022586 0.6794608235
0.5024574404 0.4990301436 0.6776400226
0.5125206329 0.7487063273 0.9325088771
0.5124322624 0.4994766681 0.9322695403
0.5125685003 0.7468056692 0.4326401297
0.5225875076 0.5003150406 0.1864159368
0.5224512697 0.7493181831 0.1851953191
0.5324592307 0.7502750212 0.4351596099
0.5325070981 0.5004959937 0.4379754996
0.5325439192 0.9968984355 0.9376270029
0.5424708738 0.999573677 0.1883030156
0.5525487948 0.9991180398 0.4433504522
0.5525929801 0.7486607636 0.9434539338
0.5426144759 0.9997233864 0.687118681
0.5424561454 0.7493181831 0.1884475382
0.5524935633 0.7495134562 0.4398975583
0.5425997475 0.747677889 0.6887259198
0.5325328728 0.7483613449 0.9369550187
0.5625898948 0.999892623 0.1969099357
0.5625088885 1.0001334599 0.6944212155
0.5625678022 0.7511342229 0.1967405588
0.5626377621 0.7501773847 0.6961361558
0.5727304116 1.0015459353 0.4518091675
0.5726383589 1.0009861524 0.9513060224
0.5727009547 0.7494288378 0.9510574803
0.5727046368 0.7502685121 0.4524655027
0.6025039114 0.9997233864 0.2087874854
0.5927426515 0.7491359282 0.9563965324
0.5925843209 0.999638768 0.4574160927
0.6025628251 1.0003092057 0.7118522999
0.5926505988 1.000960116 0.9568475902
0.6026916988 0.7521886976 0.2100651758
0.6026438314 0.4998105851 0.2072548093
0.5927794725 0.7487128365 0.4585667505
0.6025959641 0.7508348041 0.7075258267
0.5825689957 0.9981677107 0.2062468331
0.582580042 1.0002115691 0.7050919554
0.5827310083 0.750320585 0.2026356087
0.5827383726 0.7502229484 0.6998431149
0.612743845 0.7505549127 0.959931353
0.6126996598 0.7509259316 0.4579831369
0.6125413293 1.001337644 0.95894639
0.6225566545 1.0008429521 0.213583427
0.6226008397 0.751329496 0.2137399164
0.6227186671 0.7516940058 0.7106123511
0.6425725765 0.9981091287 0.7195939254
0.6526063122 0.9994044403 0.972220378
0.6326603502 1.0002180782 0.9671574838
0.6325719797 0.7492986557 0.9675993364
0.6325646155 0.5013031225 0.9634477632
0.6327303102 0.7507046221 0.4666397654
0.6525694912 0.7501122937 0.9704621729
0.6524295712 0.4992846495 0.9673692048
0.6427235428 0.7514987327 0.2174533192
0.6425173449 0.5011716386 0.2191866701
0.652528988 0.7511537502 0.4713105154
0.6426425365 0.7512253503 0.7153972463
0.6723828974 0.7525532074 0.9762798986
0.67240499 0.501771127 0.9751384461
0.6823208984 1.0001464781 0.228209668
0.6725117711 0.9991115307 0.4749254218
0.682412951 0.9982328017 0.7297850711
0.6824608184 0.7524230253 0.2263152251
0.6724602216 0.7513750597 0.4746069198
0.6824534542 0.7508022586 0.7274855966
0.6624522606 0.7514271325 0.2196386484
0.662500128 0.7520194609 0.7230228855
0.7024767404 1.0001074235 0.2363259476
0.7024399193 0.4982894077 0.7399955478
0.6925534678 0.7512253503 0.9831286136
0.6924061836 0.9999186595 0.4821984994
0.7024877867 1.0008689885 0.7364929456
0.692490872 0.9994304767 0.9816465664
0.7023662772 0.7490578189 0.2358610819
0.702498833 0.4995541264 0.239657332
0.6925350573 0.7529177172 0.4843378024
0.7023625951 0.7500016389 0.7390243927
0.7224926624 0.499462999 0.7454634735
0.7323864781 0.7495590199 0.9929322178
0.7224632056 0.7479057076 0.2415296823
0.722514755 0.4992455949 0.2439819642
0.7323496571 0.7497803294 0.49106869
0.7224374308 0.7484199268 0.7425877497
0.7224742519 0.9993068037 0.7421403739
0.7125325688 0.7501838938 0.993079502
0.7124662909 0.747990326 0.4887149045
0.742460717 0.5024031609 0.7484358527
0.7423981213 0.7515312782 0.2457604208
0.7423944391 0.5001718403 0.248804601
0.742423896 0.7494353469 0.7447279731
0.7524907707 0.5007771869 0.5052319064
0.7523692612 0.7518567333 -4.352633277e-04
0.7624729569 0.501648105 0.7579007032
0.7624508643 0.7515247691 0.2566226301
0.762509778 0.502424641 0.2559764207
0.7522587981 0.7504833125 0.4997897554
0.7624655927 0.7498258931 0.7523085065
0.7824704684 0.7498519295 0.2615934717
0.7824410116 0.4989676562 0.2616072796
0.7724330506 0.7497347657 0.5089268986
0.7824262832 0.7497347657 0.7613094118
0.7723815011 0.9999967687 0.5073307061
0.7725840169 0.4999329562 0.5100683511
0.7723815011 0.7479447623 0.0067722084
0.7825441105 0.4997806432 0.7633410132
0.7724846 0.4994180862 0.0090721431
0.7924857936 0.7494028014 0.5154626347
0.812479623 0.5004224408 0.5198305316
0.8125679935 0.7492010192 0.0200311918
0.8026410388 0.5003319643 0.7643683204
0.8024090662 0.7518502242 0.2654900592
0.8024790262 0.500646354 0.2644866856
0.7925999389 0.4983772806 0.5149241269
0.7925447073 0.7500406935 0.0149833022
0.8125900861 0.7520324791 0.5189735217
0.7925078862 0.4974243478 0.0139466056
0.802541622 0.7492856375 0.7686846678
0.8326060081 0.5010915766 0.5277774344
0.8326060081 0.7499365479 0.0270508486
0.8225649082 0.5021447495 0.7706785276
0.8325029092 0.5017945598 0.0258798472
0.8223623924 0.7486933091 0.2713528906
0.8224949482 0.4988986597 0.27173675
0.832532366 0.7482637083 0.5251327626
0.8225317693 0.7499756025 0.7702468008
0.8625046996 0.7496501473 0.7826122294
0.8624568322 0.5007218596 0.7830181815
0.8526587512 0.7510040408 0.0309058283
0.8525924733 0.5001210693 0.0313383835
0.862626209 0.7516744784 0.2835102803
0.8624641964 0.499339326 0.2826891709
0.8526771617 0.7538094643 0.5291195616
0.8425255986 0.7507046221 0.2785698161
0.8425771481 0.5001432003 0.2791736813
0.8424630028 0.7509975317 0.7750583913
0.8526256122 0.5004634482 0.5320827355
0.8726268058 0.5026797978 0.5413331034
0.8826016279 0.7514857144 0.7908601443
0.892333431 0.5013870899 0.5475788738
0.872527389 0.7512644049 0.0385269568
0.8924402121 0.7516614602 0.0428724849
0.8824617079 0.4997214104 0.7968997168
0.8726415342 0.4994076716 0.0400423271
0.8923739342 0.5019494764 0.0489721678
0.8824506616 0.750763204 0.2904897101
0.882572171 0.4981553201 0.2922608025
0.8726709911 0.7523449161 0.5369615245
0.89243653 0.750828295 0.5477813896
0.8825463963 1.0003677876 0.2913881437
0.8825832174 0.9998796048 0.7918202532
0.9124745446 0.7497217475 0.5551603277
0.9125555509 0.9986428752 0.0571763577
0.9123714457 0.4998268579 0.557646669
0.9024481731 0.7524555708 0.7978607462
0.9124229951 0.7504833125 0.05407713
0.912279393 0.5010128165 0.0542548836