POSCAR file written by Ovito 3.7.11
1
271.6106311295 0.0 0.0
0.0 15.3646175291 0.0
0.0 0.0 10.8644252451
Sr Ti O 
800 800 2400 
Direct
0.0223826899 0.4985212779 0.7653601984
0.0124307967 0.2520276705 0.5158541326
0.0224048908 0.2493943476 0.7675545161
0.0024134421 0.2492980224 0.771123964
0.012487201 0.249244653 0.0182871765
0.0224714567 0.0021939215 0.2674461461
0.0026391697 0.0022108435 0.2655555721
0.0024297891 0.4983852511 0.2638748573
0.012384959 0.499450686 0.5183153765
0.0123759388 1.4433458086e-05 0.5165251299
0.0223634712 -0.0014174928 0.7648291073
0.0025013621 -1.991091175e-04 0.7699605338
0.0224477095 0.2508587511 0.2675400305
0.0024193329 0.2499690446 0.269679122
0.0324266267 0.4997077701 0.0151418651
0.0424052493 0.5007959847 0.2623358896
0.0322727299 0.5009912385 0.5155457868
0.0322885614 0.2510416388 0.5130919065
0.0423750591 0.2505203112 0.7651356122
0.03239975 0.2509661407 0.013399113
0.0524225303 0.5030394509 0.0145063046
0.0423518641 0.0029752621 0.7627047427
0.0423489187 0.2505665212 0.2657442613
0.0523706177 0.2510728794 0.5123546378
0.0523886583 0.2499840141 0.0109014199
0.0623941577 0.2540732795 0.2612819912
0.0623466632 0.5031409828 0.7629256472
0.0723554761 0.5007263441 0.013126296
0.0623934213 0.5054462794 0.2615240657
0.0723083498 0.5016114947 0.5152438841
0.0723926617 0.2507650293 0.5073483905
0.062394894 0.2506849752 0.7606052299
0.0723289676 0.2498226043 0.0100222201
0.0922902628 0.2501753628 0.5082384514
0.1024584952 0.2491001652 0.7497983996
0.0822902861 0.2510110491 0.7596976808
0.0923841472 0.2509856661 0.0034977149
0.1023815468 0.0018807995 0.2534251559
0.0923480662 0.0019051411 0.5049212027
0.1024437682 0.2489400571 0.2519036764
0.0824563326 0.248678417 0.2588768939
0.1022029823 0.501855562 0.7548884066
0.0822516278 0.5014604984 0.7556726174
0.1024257277 0.4993556625 0.2550736554
0.082336676 0.5024452285 0.2589100296
0.1224131633 0.2519703961 0.2470667892
0.1123763691 0.5004920396 -0.0022838335
0.1124422723 0.2513696652 0.500275766
0.1224897435 0.4994877842 0.2495731344
0.112445954 0.4995144689 0.4964246649
0.1224985797 0.2488678132 0.7489782918
0.1124573674 0.2511314556 -2.0418795308e-05
0.1224080088 0.001291133 0.2489334319
0.1525161823 0.2536840736 0.495498707
0.1326156358 0.2504233351 0.4929196474
0.1425022149 0.2501206917 0.743146414
0.1525268594 0.2525509507 -0.0061802568
0.1325195424 0.2537803988 2.5626404177e-04
0.142449566 -6.8496566328e-04 0.2394170518
0.1424631885 0.2498623059 0.2428199009
0.142512892 0.5037775102 0.744909968
0.1525305411 0.4984464306 -0.0085991892
0.1324039357 0.5017468707 -0.0048312853
0.1524848875 0.5024972961 0.493544623
0.1325059199 0.5029646036 0.4943656512
0.1825621344 0.2492322869 0.2376415322
0.172539699 0.5011253127 0.492222878
0.1825370985 0.4987393113 0.7421615483
0.1726313743 0.251112581 0.4891596694
0.1625680716 0.2496748622 0.7397380423
0.1724369784 0.252849689 -0.010915887
0.1824833451 0.5000494643 0.2396342745
0.1624487832 0.0019070286 0.7429080213
0.1625010639 0.2496032692 0.240771012
0.1824888677 0.2503549963 0.7398006319
0.1826192014 -8.796987892e-04 0.2398597811
0.1925827289 -6.5730470789e-04 -0.0125749532
0.2025598789 0.2461837242 0.240358657
0.2025160661 0.5011324721 0.7391627703
0.1924546043 0.5015346949 -0.0140341007
0.2026191549 0.4978326828 0.2378127331
0.1923923829 0.5003716331 0.4877606079
0.1924509226 0.2479481678 0.4877274722
0.2023901506 0.248686878 0.7389934102
0.1926405322 0.2488469861 -0.0110798994
0.2026382999 -0.001299885 0.2357224247
0.2126191317 0.2492147141 0.4882401546
0.2224674207 0.2493240562 0.7395962953
0.2124884298 0.2488567488 -0.0134008781
0.2224869339 2.6676645581e-04 0.7406032514
0.2224843567 0.2500002852 0.2360786331
0.2324651884 0.2516605934 0.4891615103
0.2324633475 0.2508691646 0.9906560558
0.2325200463 -0.0018296931 0.489378733
0.2225274331 0.5006183037 0.7413009414
0.2124873253 0.4989723142 -0.0147379024
0.2124085361 0.5003885551 0.4891477038
0.2424868874 0.5037605882 0.7429024987
0.2624680641 0.2499436616 0.746409357
0.262622329 1.0137874426e-05 0.2451532043
0.2624386102 -9.0488652975e-04 0.7463504492
0.252632293 0.2488020777 0.4943315951
0.2424570653 0.2502775456 0.7423502375
0.2525682307 0.2494438119 0.9937303095
0.2625181358 0.2499566785 0.2481031993
0.242475474 1.6764260863e-04 0.2437200866
0.2626039203 0.4989143889 0.2486729487
0.2525229453 -0.003011213 0.4923738293
0.2424673742 -4.9765218186e-04 0.7408849046
0.2523462217 -6.5938741512e-04 0.9937211052
0.2424762104 0.249586998 0.2423072185
0.2726101561 0.249405412 0.497566925
0.2726038971 0.2486803695 0.9997959778
0.2723524342 -0.0020892245 0.498285785
0.2726031607 -0.0039229962 0.9991056514
0.2825162484 0.2480295235 0.7472009313
0.2723940379 0.499780014 0.4993829438
0.2825832561 0.2499221837 0.2506472823
0.312605645 -0.001765305 0.502756339
0.292555988 0.499691499 0.5037034669
0.2924643126 0.2480379845 0.5009817398
0.3026612625 0.2489387554 0.7530659448
0.2925084935 0.2488567488 1.0040852061
0.2926266774 -0.0014158006 0.5032763849
0.3026439584 -2.4798765278e-04 0.7536642277
0.3125482099 0.4975808054 0.4999720224
0.3024112723 0.247566772 0.2479688157
0.312668971 0.2470142037 0.4984726333
0.3127492329 0.2495902522 0.9977618159
0.3226155625 -6.5619826968e-04 0.247438645
0.3325595768 -0.0010504808 0.4958411089
0.3225783769 0.0014000195 0.7471144104
0.332619221 -8.295836465e-04 0.995727654
0.3225945766 0.2489413588 0.2471947297
0.3225238871 0.49983078 0.750816401
0.3225592318 0.4973341347 0.2489233071
0.332642416 0.2482976721 0.4967311698
0.3225526047 0.2493871883 0.7501573694
0.3325809309 0.2494106187 0.9956264061
0.3626320374 0.2508659104 0.2435175908
0.3526298516 0.5007953338 0.4963031674
0.3526795551 0.2509746017 0.4929896005
0.3424634601 0.2478485883 0.7456803723
0.3628013975 0.5001158506 0.7437769122
0.3525904569 0.2504337487 0.9919262564
0.362665173 0.4979888858 0.2444426283
0.3427197093 7.6661619079e-04 0.2458978364
0.3426052071 0.2504291927 0.2448190863
0.3624516321 0.2496306047 0.7404025965
0.3427598403 0.496851207 0.7435744164
0.3427421679 0.4980468111 0.2461261043
0.3827159346 0.250854846 0.2397069889
0.3926308631 0.2498727194 0.4907731924
0.3926382266 0.2478778764 0.9908033254
0.3926676805 2.7828643017e-04 0.9914016083
0.3826275728 0.4985245321 0.7420455735
0.3926308631 0.5000709422 0.9859158142
0.3727126443 0.2505404874 0.4926260286
0.3824950301 0.2492830529 0.7398457332
0.3726537364 0.2497034994 0.9913739953
0.3926382266 0.4992261441 0.489670511
0.3725985103 6.166612703e-04 0.4926379943
0.4126190351 0.5018744365 0.9928006699
0.4026231082 0.2506914837 0.7387126774
0.402740924 -0.0010921349 0.7365883129
0.4026378352 0.2495114999 0.2403641797
0.4126079899 0.2481518826 0.4924980881
0.4127110786 0.249798523 0.9877474804
0.4125233098 9.7384556008e-04 0.4896603862
0.4125601272 -2.5540729728e-04 0.9882537198
0.4424521825 -8.1897485655e-04 0.7362652401
0.4425000452 0.2477542156 0.240686332
0.4224198297 0.49876144 0.7386427243
0.4325446175 0.4997656954 0.9884101937
0.4325924801 0.5007074696 0.4902531465
0.4426362696 0.5013771902 0.7367650364
0.4425847252 0.4987399621 0.2395090953
0.4326734784 0.2490533043 0.488312869
0.4226039167 0.2493761239 0.7391857811
0.4325409357 0.2492570191 0.9904443557
0.4223167409 5.2280927578e-04 0.2385417179
0.4326035253 1.755751893e-05 0.9898460727
0.4226333706 0.2486536848 0.2391455234
0.442444819 0.2513345195 0.7361363792
0.4723663282 0.2518044304 0.4903010091
0.4623630379 0.2452653805 0.7381226784
0.4724362813 0.250271688 0.9914660388
0.4726387771 -5.6865948146e-04 0.992542948
0.4623483109 0.2477223242 0.2378642775
0.4524922903 0.4996622109 0.9905179905
0.4525585616 0.4979810757 0.4935529069
0.4624587632 0.5009775707 0.7401936577
0.4724436448 0.5002720536 0.9908401428
0.4624293092 0.5005942224 0.2389531524
0.4524517911 0.2509837135 0.4920608814
0.4523892015 0.2495453439 0.9878303195
0.4525769703 6.882543313e-04 0.4916973094
0.4823622551 0.2479950287 0.7433295807
0.4825500239 -3.9657579665e-04 0.742300534
0.4924575889 0.499188395 0.9924785176
0.4924612707 0.5005968258 0.4906839102
0.4824322082 0.2483477872 0.2427849244
0.4923618637 0.24875001 0.493572236
0.4924023628 0.2501057223 0.9966480893
0.4823953908 0.4985069593 0.2433040499
0.5023025644 0.2502196203 0.7417878516
0.5124457609 0.2488437319 0.4924741568
0.5122543104 0.2485456444 0.9931228222
0.5025013784 1.8951103453e-04 0.7446780183
0.5023909262 0.2502899117 0.2466802064
0.5223422807 0.2506068737 0.2445429557
0.5224711417 0.2494249373 0.7418983038
0.5124531244 0.4984848305 0.4929132044
0.5224600965 0.5004445278 0.7401816921
0.542411451 0.4994116352 0.7443972855
0.5524147413 0.5043125057 0.9942549576
0.5424409049 0.5023241711 0.2437826762
0.5522048821 0.5026411331 0.4930521901
0.5323529346 6.9645499101e-04 0.4918629878
0.5324302511 0.2516462748 0.4942837325
0.5324486598 0.2513338687 0.9930307787
0.5324707503 0.4992632423 0.9926441959
0.5524589222 0.0014613292 0.9953962973
0.5423525431 0.2521545855 0.2423329907
0.5523263795 0.2504376537 0.4944107526
0.5424666771 0.2512199706 0.7430543705
0.5524441953 0.2522867072 0.9981207857
0.5724949568 0.2520777857 0.5004313195
0.5725244107 0.2478108392 1.0005507347
0.5623628055 0.5007816661 0.7473666097
0.562384896 0.5007322018 0.2458959955
0.5723550507 0.5010276858 0.9983877119
0.5724728664 0.501103184 0.5000603841
0.5624622126 0.251171808 0.249145132
0.562384896 0.252461134 0.7484306328
0.6023649216 0.4988330331 0.7484969042
0.5925825358 0.5006911985 0.9989951992
0.5925678088 0.4994279064 0.500290493
0.5824135671 0.2502567185 0.7522983018
0.6023575582 0.2497705366 0.2521991361
0.5923432226 0.2493221037 0.4981348336
0.6023722851 0.2487174677 0.7513741848
0.5924610383 0.2496507809 1.0027045532
0.5824614297 0.4980871636 0.748513472
0.5823804314 0.5006326223 0.2437900397
0.5823730679 0.2497314858 0.2514259705
0.6125375721 0.4979446283 1.0028518229
0.6125412538 0.5002388605 0.5005914753
0.6225445441 0.4973172128 0.7507050283
0.6124418468 3.2970326489e-04 0.500531647
0.6223715023 0.4970178236 0.2491221211
0.6123718937 0.248712261 0.5025207076
0.6124418468 0.2484200311 1.0032107926
0.6224451371 -2.1700738275e-04 0.7494007716
0.6224414554 0.2500191598 0.2528084643
0.6225334989 0.2502105085 0.7519512977
0.6425290343 0.0011379889 0.2494571595
0.6525212795 4.5076062258e-04 0.5011593838
0.6324852449 0.4993061982 0.4988767044
0.6424664448 0.2537621752 0.25201689
0.6524402812 0.2518128914 0.4995697921
0.6426026692 0.2515284716 0.7532988149
0.6324962901 7.3641693597e-04 0.5022381339
0.6525728238 0.2504767045 1.0023731965
0.6424738082 0.4975085615 0.7505522361
0.6525470516 0.5047596369 0.5023264957
0.6324926083 0.2486888305 0.5021608174
0.6325551979 0.2495674726 1.0032660187
0.6825569226 0.5011148992 0.7472653618
0.6625024793 3.4961915277e-04 0.2475730286
0.6824317434 0.5036030835 0.2474496902
0.6625172063 0.0027092614 0.747269964
0.6725057697 0.5012658955 0.5018846868
0.6624767072 0.2506426702 0.2499928528
0.6625540237 0.2486634475 0.750126995
0.6725499506 -9.9105854135e-04 1.0001825606
0.6625135246 0.5016381794 0.749579336
0.6625577055 0.5029867323 0.2504493887
0.6826121487 0.2511262488 0.2500379542
0.6725094514 0.2515089463 0.4986742086
0.6824648791 0.2508737206 0.7511275081
0.6724284531 0.2523875884 0.9988019078
0.7024125519 0.2506010161 0.2432046429
0.6923834894 0.2509824118 0.496750499
0.7024420058 0.2525119 0.7403455296
0.6925344408 0.2514054618 0.9969978547
0.6925491677 0.5026704212 0.9962523021
0.6925197138 0.5001431861 0.4955290814
0.7325107847 0.49734585 0.9872044236
0.7324666038 0.4999166917 0.4891743964
0.7124857953 0.2513566483 0.4902384196
0.7125115675 0.250444813 0.9889624549
0.7224964491 -0.0017874337 0.2375108304
0.7325181482 2.2511231123e-04 0.4879750693
0.7324850125 -0.0021840202 0.9869374973
0.7125557484 0.5006820866 0.9909321863
0.7225185396 0.2493670121 0.24013223
0.7325107847 0.2502456542 0.4857227642
0.7224264961 0.2497152147 0.7418283508
0.7325623291 0.2495837438 0.9874069193
0.7123974335 0.5003006909 0.4888089836
0.7124489779 8.6437326135e-04 0.4912444553
0.7124489779 2.2530756503e-04 0.9901774294
0.7524842297 0.5000774507 -0.0156264445
0.7424588489 -0.0010286124 0.2349538612
0.7424220315 2.2478688822e-04 0.7360719487
0.7423852141 0.2477477072 0.2309867853
0.7424220315 0.2502964202 0.7331633733
0.7625427461 -0.0013380245 0.2281021412
0.7525725915 -0.0034718622 0.4820226145
0.7625979722 5.097923556e-04 0.729208263
0.7526572715 -0.001087579 -0.0142121405
0.7624617478 0.2497523129 0.2323076099
0.7525836367 0.2484792581 0.4813230837
0.7624838383 0.2502996744 0.7313022532
0.7526167724 0.247685226 -0.0185300496
0.7825235546 3.9726108063e-04 0.2292388788
0.7825309181 0.0012522775 0.7296666398
0.7725975808 -1.3617230842e-04 -0.018604881
0.782475692 0.2498746719 0.2345681989
0.7725313095 0.2493891408 0.4810727253
0.7825014642 0.2486543357 0.7333732325
0.7725129008 0.2499247871 -0.0191258473
0.7925231632 0.0025166109 0.4814491833
0.7924642553 2.7099695487e-04 -0.0180604435
0.8125039717 0.4994122861 -0.0130332655
0.7924716188 0.2487005457 0.479883523
0.7925047545 0.2510292728 -0.019332393
0.8024969996 4.5434027563e-04 0.2299052739
0.8125407891 2.9077493291e-05 0.4838864959
0.8024638639 1.397786588e-05 0.7345200948
0.8124745177 -0.0012293333 -0.0162916155
0.8025559074 0.2502059526 0.230472262
0.8125665613 0.2479820117 0.4850167904
0.8025522257 0.2491105787 0.7349407338
0.812570243 0.2491567888 -0.0162056652
0.8326062776 -0.0019163598 0.4926085403
0.822521989 -5.0650368759e-04 0.7388544245
0.832558415 -0.00147301 -0.0070485863
0.8225882603 0.2501486781 0.2369760575
0.8325878689 0.2493748222 0.4926637664
0.822507262 0.2487103084 0.7370586553
0.8324516445 0.2505782365 -0.0082435416
0.8224520359 -0.0031806282 0.2404829158
0.8424181174 -0.0015943277 0.7441478476
0.8425212061 0.2486647492 0.2434319904
0.8425985227 0.2507799987 0.740936449
0.8625461955 -4.9075321417e-04 0.2440615681
0.8425212061 0.4979530893 0.7434786912
0.8526680844 -0.0024816196 0.4947080531
0.8625020146 -0.0033988503 0.7451170659
0.8525723591 -0.0018653855 -0.005800025
0.8626051034 0.2512173673 0.2472784893
0.8425764322 -0.0021984495 0.2411060505
0.8525760408 0.2501590916 0.4922201167
0.8624983329 0.2492049514 0.7438772396
0.8524987243 0.2494698457 -0.0047192408
0.8725789398 0.0016925748 0.4988104331
0.8925965656 -7.6892479845e-04 0.5015873862
0.8725715763 -0.0011226596 -0.0021863686
0.8825859118 0.2490891008 0.2513228818
0.8925192491 -2.0320944735e-04 0.0035179644
0.8725936667 0.2492199209 0.4968931664
0.8926407465 0.2473350708 0.5003245491
0.8824349604 0.2513351704 0.7501500059
0.8725347589 0.2489771553 -0.0022939399
0.8926849274 0.2491327075 0.0020284241
0.902500449 -3.3292305696e-04 0.2545149512
0.912536875 -0.0010556876 0.5076143963
0.9024930855 -0.0010194354 0.7546656612
0.9024967672 0.2497555671 0.2490678154
0.9125000576 0.2500048411 0.5067565506
0.902485722 0.2510292728 0.7515610331
0.9025409481 0.499040653 0.7538759278
0.912606828 0.2484799089 0.0064914305
0.9225180748 -0.0023315019 0.2553948873
0.9225880279 -0.0013136178 0.7595844672
0.9225843462 0.2489823621 0.259486222
0.9225475288 0.2488632572 0.7560279054
0.9426829704 0.001153414 0.2637331103
0.9326649531 7.1383257945e-04 0.5132511417
0.942716106 -3.1626139913e-04 0.7656639421
0.9326612713 -0.0011246121 0.0158703896
0.9423921128 0.2500451936 0.2663517486
0.9324992747 0.2511483776 0.5107162631
0.942616699 0.2479781067 0.7655341607
0.9324330034 0.2504122707 0.0111641121
0.9525942172 -1.2771905094e-05 0.5201967462
0.9526973059 -6.8028731265e-05 0.0161791956
0.9627410954 0.2509869678 0.2684982036
0.9525794902 0.2507799987 0.5186550171
0.9726891596 0.2490897517 0.5180374051
0.9626600971 0.2489179283 0.7700415321
0.9525647633 0.2504142233 0.0155473168
0.9725234813 0.2508834833 0.017751299
0.9627005963 -1.066238996e-04 0.2707008052
0.9823758202 0.500566236 0.7682871825
0.9825562255 0.5009691097 0.269579715
0.982563589 -0.0010161161 0.2698208691
0.9924748358 -1.6812884746e-04 0.5187056411
0.9825967247 0.2496650995 0.2693993097
0.9923459749 0.0010794779 0.0183123964
0.9925042898 0.2523361715 0.5171473442
0.9826666778 0.250495579 0.7687520023
0.9925779246 0.2519840639 0.0183331062
0.0126576288 0.7478616856 0.0189705076
0.0024960604 0.5005642835 0.7679466215
0.0124108785 0.4999986983 0.0188429353
0.0224742548 0.7496645291 0.2634763089
0.0025745183 0.7487598531 0.2663535895
0.0125752314 0.7508425604 0.5171961272
0.0224533057 0.7481610748 0.765061057
0.0224244777 0.5022844695 0.2650465714
0.0024946981 0.7492610046 0.7671154685
0.0124124985 0.9986717037 0.0173743808
0.0523091327 1.0019324422 0.5134720462
0.0524512479 1.0028956943 0.0163558272
0.0324741211 0.750907645 0.015822527
0.0422925881 0.5037417137 0.762806911
0.0424733616 0.7504064935 0.2653678033
0.032378764 0.7524371331 0.5155034468
0.0424682071 0.7522158454 0.7653289036
0.0524597159 0.752293947 0.0122730525
0.0524586114 0.7536411982 0.5119763389
0.0523566271 0.5033694298 0.5141255552
0.042347446 0.9994266851 0.2620882925
0.0324943707 1.0014963754 0.514512138
0.0323434193 1.0025507459 0.0171387494
0.072334122 1.0018348153 0.5141283165
0.0623477677 1.0008390209 0.7550163471
0.0724125431 1.0025442375 0.0110215367
0.07230025 0.7516561179 0.0072140642
0.0623993121 0.7522353708 0.2614200565
0.0724316882 0.7497361221 0.5083691532
0.0623786943 0.7514673725 0.7629155224
0.062371699 1.0026353559 0.2567985511
0.0823215809 1.0013011216 0.2569688316
0.1023447294 1.0030258635 0.7554655195
0.0824150971 1.0014638331 0.7571057351
0.0922806903 1.0011644439 0.0059028122
0.0924971767 0.7524566585 0.0028309516
0.0924334826 0.498271353 0.0035306664
0.1023948011 0.7536542151 0.2516183415
0.0823996338 0.7508035096 0.2579196412
0.0923491707 0.7497165968 0.5062935717
0.1024562861 0.7521833031 0.7514294109
0.0823517712 0.7538234351 0.7590635009
0.0924695636 0.5012476718 0.5043523737
0.112344338 0.9998171927 0.001524946
0.1125254796 0.7507514419 1.7010209773e-04
0.1225074159 0.5003475518 0.7464388109
0.1225000524 0.7519489986 0.2473990663
0.1124312271 0.751304661 0.5023614723
0.1224879026 0.754331095 0.7474071088
0.1123008934 1.0009366478 0.5006595875
0.1225515967 1.0025702713 0.7493409433
0.1523825351 1.002947762 0.4927097882
0.1324551119 1.0025051867 0.4946574292
0.1425077376 1.0034098626 0.7434114994
0.1525331183 1.0003508864 -0.0065208639
0.1324348623 1.0034944726 -0.0043029831
0.1525036644 0.7510703565 -0.0040884389
0.1324790432 0.7528406576 -0.00306821
0.1423490545 0.7517342194 0.241204537
0.1524326068 0.7518969309 0.4915960616
0.1324293397 0.7522483877 0.4931129388
0.1425290917 0.5008818963 0.2445291492
0.1423976535 0.7520856762 0.7424625306
0.1724697459 0.7517862871 -0.004861761
0.1625076911 0.4992105238 0.7450710442
0.1724251968 0.501403224 -0.0100206073
0.1623688894 0.7526258784 0.2452986331
0.1824785589 1.0010863424 0.7381134741
0.1724936772 0.7503934766 0.4924778385
0.1625305179 0.4985063084 0.2453787109
0.162249601 0.7519489986 0.745286426
0.18237952 0.7502177482 0.2421930845
0.1824126557 0.7522548962 0.739485843
0.1625227862 1.0015159008 0.2472453536
0.1726166474 0.9990231605 0.4918942826
0.1725975023 1.0004029541 -0.008855698
0.192464545 0.9999148196 0.4885843974
0.2025363157 0.9980143492 0.733970595
0.1924317775 0.7487142939 -0.0088460177
0.2025186434 0.7501917144 0.2403439301
0.1924479772 0.7496254783 0.4933485703
0.202441695 0.7493260892 0.7397859049
0.2324025988 0.7505757135 0.990610034
0.2325115783 0.5027426651 0.9927178307
0.2325090011 0.7509857465 0.4920829718
0.2325067921 0.501851006 0.4924134081
0.2225012927 1.000005938 0.237935151
0.2123974908 0.9998367181 0.4878213566
0.2123621461 0.9986261445 -0.013187917
0.2124394627 0.7493586315 -0.0113828514
0.232462243 0.9984048568 0.991548878
0.2224210307 0.7514218133 0.2408400447
0.2125418151 0.7502242567 0.4925109742
0.2224902475 0.5014611493 0.2395716849
0.2223948904 0.7494432414 0.7383601507
0.2524054977 0.7485385655 0.995074145
0.2525347268 0.5001542505 0.9937119008
0.2425638358 0.7494432414 0.2422455493
0.2525792759 0.7496710375 0.4926711299
0.2424537518 0.4981164516 0.2428861723
0.2424515427 0.7506342896 0.7454990465
0.2525608672 0.5006248122 0.4944420474
0.2625284446 0.4986039353 0.7506304731
0.2625479579 0.7481285325 0.2473199089
0.2625678393 0.7483368032 0.7509259328
0.2823476247 0.4983885053 0.7528754147
0.2824418773 0.747965821 0.2512667352
0.2824208913 0.4999401222 0.2488874101
0.2824996806 0.7494497499 0.7552262063
0.2725468301 0.7460458253 1.0006703913
0.2724731953 0.4993458998 0.9993725776
0.2725008083 0.7483172778 0.5025989446
0.2825320799 0.9978190954 0.2506150671
0.2824635995 0.9997260742 0.7516144184
0.312504029 0.9991728551 1.0015632135
0.2925217478 0.7488184293 1.0042600888
0.3025655373 0.4981860922 0.7542302954
0.2924783033 0.4991949035 1.0001733563
0.3024904298 0.7506277812 0.251042149
0.2925095981 0.7489355816 0.5046662421
0.3025625919 0.4981249126 0.2545112695
0.3026185543 0.7474386357 0.7542735558
0.3025294562 0.9999864126 0.2515134119
0.3125975452 0.7506342896 0.99812999
0.3125014517 0.4991220087 1.0009281132
0.3125139697 0.7474386357 0.5009200707
0.2924411177 0.9981315015 1.0010845872
0.3325952897 0.7482001256 0.995074145
0.3325908716 0.4981131974 0.9994462124
0.3226612161 0.7490852761 0.2505294666
0.3325569996 0.7483368032 0.4984266116
0.3226299213 0.7525282515 0.7514450583
0.3326210619 0.5009905876 0.499821071
0.3527399356 0.9981119761 0.4966731824
0.3424884959 1.0004224795 0.7446807796
0.3625915382 0.7493391061 0.2464951989
0.3525433306 1.000246751 0.9985533902
0.3625878565 0.7497231052 0.7424137476
0.3627535348 1.0008064786 0.2421921641
0.3526674053 0.7507904927 0.9938131487
0.3626835817 1.0033968457 0.7404964809
0.3524240422 0.4991324223 0.9988203165
0.3426998279 0.7482977525 0.2470879592
0.3527911118 0.7491568692 0.4954802983
0.3425256815 0.7487728701 0.7472984975
0.3927597241 0.9991793636 0.4935952469
0.372616919 0.7487793785 0.9925981742
0.3725985103 0.4989195956 0.9918342129
0.3826754354 0.7506212727 0.2409366904
0.3726426912 0.7490397169 0.4932114254
0.3825944371 0.4995248824 0.2429432392
0.3826165276 0.7462345706 0.7428537156
0.3825833919 1.0003248526 0.2394354605
0.3826827989 0.998535026 0.7412383518
0.3725837833 0.9985936022 0.9917513737
0.3725543294 0.5023241711 0.490601071
0.3925682735 0.7515975417 0.9890729071
0.392704498 0.7485060232 0.4898113376
0.4125785359 0.748135041 0.9896343726
0.4126448073 0.7504455443 0.4889534919
0.4124791289 0.5013121056 0.488625817
0.4025936543 1.0008780717 0.2401690474
0.4024684751 0.499091419 0.7410680712
0.4027041065 0.7501656805 0.2421958458
0.4025163378 0.4978476522 0.2413140688
0.4026341535 0.7509987634 0.7418292712
0.4324562557 0.7515975417 0.9896527813
0.422585508 0.751473881 0.2381799868
0.4324010296 0.7506212727 0.4894937874
0.4225560541 0.4983377393 0.2406936955
0.4224676923 0.7511289326 0.7372740371
0.4426657235 0.7509271703 0.236336355
0.4425294991 0.7509336788 0.7402074643
0.4325188453 1.0006242417 0.4909315073
0.4224824193 1.0005135979 0.7399617081
0.4424926817 1.000246751 0.2410655513
0.4525070172 1.0000319719 0.9913003604
0.4624808536 0.9976238416 0.2377639501
0.4725872327 0.9985805853 0.4900902295
0.4625765789 0.9995503458 0.7407118628
0.4524444276 0.7517277109 0.990425947
0.4524628363 0.7496254783 0.4915316311
0.4723810552 0.7499639183 0.9909045733
0.4625029441 0.7494237161 0.2392946339
0.4724473265 0.7501852059 0.4919145321
0.4625250345 0.7487793785 0.7404835949
0.4724252361 0.501027035 0.4939045132
0.4824211629 0.9991663467 0.2412100597
0.4923802724 0.9997781419 0.4910898222
0.4923765906 1.0016070192 0.9933989528
0.4824727073 0.498469861 0.7427892852
0.4924060446 0.7487403278 0.4942745281
0.4825242517 0.7485711078 0.2475583016
0.4924944064 0.750569205 0.9924785176
0.4825132065 0.7481024987 0.7457880632
0.5124641696 0.9984959753 0.495001672
0.5124788966 0.999921328 0.9919906869
0.502578695 0.9973439778 0.2405114493
0.5224600965 0.7487468362 0.7418716112
0.5223864616 1.0042104032 0.2408225564
0.5224159156 0.9987302798 0.7433820455
0.502464561 0.7503999851 0.2437375749
0.5024351071 0.4981978074 0.2431825524
0.502379881 0.747809618 0.7438680353
0.5024571975 0.5007107238 0.7440153049
0.5124604879 0.7479983633 0.994420636
0.5123794896 0.4998737359 0.9946323361
0.5124089435 0.7481936171 0.4935897243
0.5223201903 0.5011949533 0.2406301854
0.5223827799 0.7494172076 0.2389062102
0.5324523416 0.7484930063 0.4921639701
0.5324523416 0.5015002001 0.4926738912
0.5324928407 0.9988148898 0.9949268753
0.5424998128 1.0021472214 0.244332176
0.5524441953 1.0009887155 0.4961273643
0.5523816057 0.7517081856 0.9958473106
0.5424924493 1.0001035649 0.7426880373
0.5423083623 0.746423316 0.2411309022
0.5525436023 0.7478747026 0.4954075839
0.5424519502 0.7499639183 0.742279364
0.5325038859 0.7487338193 0.9967861546
0.5624732578 1.0005331233 0.2481160854
0.5624474856 1.001802273 0.7491577767
0.5623333516 0.7504260189 0.2517030215
0.5622744438 0.7499639183 0.7452247568
0.5724691846 0.9999864126 0.5011731904
0.5724507759 0.9990817367 1.0023179704
0.5723881863 0.7486427009 1.0004126694
0.5724323672 0.7511940172 0.4983980781
0.6023686034 1.0006307502 0.2489868171
0.5924536748 0.7489876492 1.0029622751
0.5924463114 0.997897197 0.4959662881
0.6023281042 0.9973635032 0.750382876
0.592394767 1.0000840395 1.0009189088
0.602416466 0.7471392466 0.2531149692
0.6023943756 0.4977402627 0.2498851619
0.592494174 0.7485515824 0.5002030516
0.6024496017 0.74911131 0.7502107546
0.5823988401 0.9984243822 0.2502054734
0.5823877949 0.999765125 0.7470591843
0.5824761567 0.7509597126 0.2501760195
0.5823951584 0.7510508311 0.7481618657
0.6125375721 0.7490136831 1.0022995617
0.6124897094 0.7489290731 0.5021847487
0.6125081181 0.9987953644 1.0005875521
0.622404638 0.9998692604 0.2496651779
0.622618179 0.7510313057 0.2503113234
0.622588725 0.750569205 0.7489101796
0.6425989874 1.0006958348 0.7468060646
0.6524513264 1.0007153602 1.0004586912
0.632525744 1.0002142087 0.9985533902
0.6324521092 0.7523069639 0.9994462124
0.6324484275 0.4998021428 1.0001825606
0.6324557909 0.7503218836 0.5001966086
0.6524881438 0.7506668319 0.996510024
0.6524329177 0.5023183135 1.0008728871
0.6423339021 0.7507774758 0.2470345739
0.6425179891 0.4999889356 0.2511572034
0.6525175977 0.7511224241 0.4972742266
0.6424333091 0.7500615452 0.7477752829
0.6726235854 0.7521442524 0.9964640022
0.6725609958 0.5024419742 1.0007256174
0.6826305575 1.0024010513 0.2473079432
0.6725794045 1.0004810556 0.4985959717
0.6825900583 1.0019780014 0.7453039143
0.6825900583 0.7504715781 0.2498971276
0.672557314 0.7509141534 0.4963795636
0.6824722426 0.750979238 0.7462206678
0.6623773001 0.7499248675 0.2476577086
0.6624840706 0.7510443226 0.7478323499
0.7024898685 0.9988799744 0.2436584174
0.7024383241 0.502294883 0.7418090216
0.6925823034 0.7511549664 0.9950189189
0.6926264843 0.9990557028 0.4946647927
0.7025450946 1.0012815962 0.7419903474
0.6925859852 1.0002532595 0.9960129889
0.7025635033 0.7496189699 0.239491607
0.7024898685 0.4996023331 0.2423302294
0.692530759 0.7503479174 0.4948617658
0.7024935502 0.7535175375 0.7440751332
0.72254063 0.5006567036 0.7413184296
0.7325660108 0.7505952389 0.9895699422
0.7225479935 0.7481285325 0.2401736496
0.7224633135 0.5032848198 0.2397364428
0.7324408316 0.7479723295 0.4892544743
0.722555357 0.7480243971 0.7389078097
0.7225074944 0.9983918399 0.7430249166
0.7125704754 0.7492219538 0.9926349916
0.7125999293 0.7526779461 0.4905458449
0.742528802 0.5008194151 0.7353659748
0.742514075 0.7486882601 0.2347789785
0.7425693011 0.4995977772 0.235270491
0.742642936 0.7474321273 0.7341068194
0.752550501 0.4973360873 0.4830194459
0.7525320923 0.752690963 -0.0164877786
0.7623697043 0.4980181739 0.7314587272
0.7625464279 0.747965821 0.2329141767
0.7624433391 0.4975931715 0.230379298
0.7525468193 0.7507579504 0.4834400848
0.7625390644 0.7483693455 0.7316777908
0.7826119164 0.750413002 0.232597547
0.7823983754 0.5029476816 0.2312454276
0.7723582677 0.750979238 0.4802434131
0.7825530085 0.7510703565 0.7315157942
0.7724981738 0.9992769905 0.4815577947
0.7725938991 0.49893066 0.483791691
0.7724024486 0.7509271703 -0.0212540777
0.7824977824 0.5021282664 0.7319207857
0.7725460365 0.5000195254 -0.0191934073
0.792497391 0.7495799191 0.4826742826
0.8124781995 0.4974942429 0.4865336677
0.812470836 0.7505171374 -0.0140605172
0.8025669527 0.4983240715 0.7310325657
0.80243441 0.7491894115 0.2338953607
0.8025117266 0.4991057376 0.2351176987
0.792497391 0.4973588669 0.479748219
0.7925894345 0.7506147643 -0.0180349475
0.812485563 0.748375854 0.4861590505
0.7923758935 0.5002310503 -0.0172437045
0.8025043631 0.7488314462 0.7343985974
0.8324810984 0.5009560928 0.4919513496
0.832429554 0.7495669022 -0.005704401
0.8224409907 0.5001288675 0.7404946401
0.8325657784 0.5006222088 -0.006226205
0.8224189002 0.7484344301 0.2416445051
0.8224262637 0.4987022131 0.2392467713
0.8325805054 0.7482326679 0.4908026464
0.8224520359 0.7494172076 0.7417123759
0.8625830129 0.7513111695 0.7464829918
0.8626419208 0.5005297887 0.7498333762
0.8525208147 0.7473475173 -0.0044967716
0.8525723591 0.4987757587 -0.0038948069
0.8625609225 0.7488639885 0.2463525314
0.8625903764 0.5025845095 0.2460064478
0.8525355417 0.7483433117 0.4983575789
0.8425396148 0.7499053421 0.2434467173
0.8425101609 0.4988453992 0.2433178564
0.8425617053 0.7484149047 0.7469643795
0.8525981313 0.498562932 0.4966520124
0.8725163502 0.4994467809 0.495215213
0.8825785483 0.7505106289 0.7497910361
0.8924934769 0.4986924504 0.5024525954
0.8725347589 0.7501396467 6.4914757004e-05
0.8924713864 0.7505171374 8.4985273647e-04
0.882427597 0.4996960549 0.7534221532
0.8725200319 0.4982316514 -0.0025565309
0.8925818387 0.5002447181 7.0361398346e-04
0.8825785483 0.7499118506 0.2521807274
0.8826374562 0.5015548711 0.2510614782
0.8726047119 0.7499834436 0.4971324796
0.8926112926 0.7493911738 0.5018349833
0.882626411 1.0012750877 0.2504466274
0.8824828231 1.0002532595 0.7500459967
0.9122828348 0.7487989039 0.5047831374
0.9126031463 0.999608922 0.0081149863
0.9123785601 0.5010036045 0.5049046349
0.9024525863 0.7506082558 0.7584965128
0.9125147845 0.750497612 0.0064961247