POSCAR file written by Ovito 3.7.11
1
271.5661854866 0.0 0.0
0.0 15.3621033039 0.0
0.0 0.0 10.8626474194
Sr Ti O 
800 800 2400 
Direct
0.0224872758 0.5024697139 0.8052806476
0.0125191349 0.2510542714 0.5592549877
0.0223836547 0.2528639194 0.8050946893
0.0025079106 0.2502138917 0.8112230296
0.0124884978 0.2500941164 0.0593999532
0.0223961378 -2.9653153392e-04 0.3040161041
0.0024260521 8.5487329978e-04 0.3147639444
0.0024354053 0.5002493148 0.3138811026
0.0124351407 0.5008540497 0.5617258402
0.0124401855 5.0244760046e-04 0.5616623198
0.0223880367 -4.8107657596e-04 0.807149437
0.0024394927 -2.2798623259e-04 0.8163368842
0.0224610944 0.2508843728 0.3051686776
0.0025490792 0.2508980428 0.3095322548
0.0323644628 0.5013754627 0.0513478646
0.0423344081 0.4991544127 0.2972286243
0.0323611487 0.5006808963 0.5533393027
0.0325253812 0.2502633641 0.5513388696
0.0424504019 0.2511069985 0.7982841948
0.0324454744 0.251334181 0.0504079464
0.0524866293 0.5011730165 0.0437316734
0.0423981126 0.0011486482 0.7983799357
0.042425362 0.2509572795 0.2945313076
0.0524741094 0.2499509069 0.5448855624
0.0524302895 0.2514682772 0.0440089538
0.0623394761 0.2503108836 0.2910947605
0.0624385311 0.5013292451 0.7921217928
0.0724460362 0.5016716461 0.0399333359
0.0624168053 0.5003189667 0.292836509
0.072440881 0.5017224204 0.540395865
0.0724861738 0.251813933 0.5441776319
0.0623512596 0.2507964942 0.7900891392
0.0724611339 0.2493520305 0.0412549291
0.0924886641 0.2511538671 0.5389818451
0.1023971142 0.2513953705 0.7880482002
0.082457592 0.2514526543 0.789653702
0.092468043 0.2501032297 0.0359081662
0.1024888046 -4.819879095e-04 0.2831095984
0.0924912418 4.2524463049e-04 0.5390978389
0.1024781258 0.251265831 0.2870036768
0.0823603781 0.2524635836 0.291893829
0.1023035827 0.5023017681 0.789358194
0.0823287099 0.5004498082 0.7913715153
0.1023661825 0.5028446626 0.2859551294
0.0823625875 0.5014880775 0.2908250288
0.1223079142 0.2528762875 0.2768790731
0.1123457019 0.5048606625 0.0342995344
0.1124182441 0.2515542029 0.5294500987
0.1224968184 0.5023570991 0.279798251
0.112407197 0.5024391191 0.5351835077
0.1224099151 0.2510054499 0.7790706466
0.112449544 0.2516010715 0.0318169904
0.1225391654 0.0016567817 0.2795800721
0.1524729364 0.2498584716 0.5157729541
0.1325672917 0.2489562514 0.5235951724
0.1424444418 0.2523236288 0.7685897762
0.1525528432 0.2495212782 0.0149758841
0.1325440929 0.2491079233 0.0223112046
0.1426602272 -0.0014698735 0.2706798477
0.1423752138 0.2518848868 0.2685855147
0.14246985 0.5001542757 0.7727038745
0.1525068139 0.4986245373 0.0177727161
0.132429572 0.4987683978 0.0282506406
0.1524409 0.5003300329 0.5177862754
0.1324962224 0.5011808279 0.5250257629
0.1824748307 0.2499678316 0.262029102
0.1725487053 0.4996790804 0.5159764036
0.1825039212 0.5002206729 0.7643780957
0.1724025163 0.2489425814 0.5136933505
0.1625423049 0.2490649605 0.765935727
0.1724551738 0.2465366608 0.0143388387
0.1825897198 0.499848979 0.2641703848
0.1624959074 -0.0020925161 0.7648816562
0.1625500378 0.2488189004 0.2649243446
0.1825112859 0.2477943011 0.7624347389
0.182567994 -0.00216388 0.2609262401
0.1925478816 -7.9887160073e-04 0.0096838961
0.2025277691 0.2496443082 0.2600093365
0.2026131995 0.5011801769 0.760078039
0.1926060626 0.5004400439 0.0111509418
0.202525928 0.5007993697 0.2602238331
0.1925132675 0.5003378444 0.5119469991
0.1924326242 0.2476113835 0.5093352969
0.2024077247 0.2523717993 0.7605769965
0.192471657 0.2513576153 0.0117176544
0.2026676982 -0.0024628365 0.2547721234
0.2123610994 0.2515177496 0.5030292835
0.2223748646 0.2485585194 0.7520937975
0.2124387969 0.2509781099 0.0062660368
0.2224470385 0.0015529548 0.7498217915
0.2223350952 0.2492309534 0.2547454264
0.2324011497 0.2491268009 0.4993147194
0.2324744283 0.2489250057 1.0015716545
0.2324217708 2.0763119997e-04 0.5036654084
0.2225033784 0.4995501918 0.7511465146
0.2124759885 0.50021872 0.0064275076
0.2126203364 0.5001321434 0.5071728406
0.2425029228 0.4988855693 0.7506770158
0.2624081993 0.2480911355 0.741108446
0.2625606483 -3.1801296739e-04 0.2358494803
0.2625867929 -3.561587856e-04 0.7377354193
0.2524769186 0.2490265543 0.4934137639
0.2423942937 0.2493214358 0.7468087139
0.2524581387 0.2490695171 0.9919331202
0.2624192463 0.2494607396 0.2357749129
0.2425857755 -6.835879078e-04 0.2475933946
0.2624306616 0.4982951553 0.2377293167
0.2524761822 -0.0017134599 0.4934137639
0.2426023461 -6.812444787e-04 0.7434688283
0.2525321538 -0.0015093863 0.9949066127
0.2423652032 0.248522066 0.2484974099
0.2724470043 0.2493832762 0.4822056306
0.2723262235 0.2496150153 0.9821104687
0.2724326432 -7.8527531882e-05 0.4836279358
0.272565944 2.016424367e-04 0.9819171457
0.2824287331 0.2513270205 0.7328406641
0.2725699946 0.5002480129 0.4830240314
0.2825303658 0.2501527021 0.2308755547
0.3124203169 0.0014426834 0.4761389695
0.2924682746 0.4984611482 0.4788933625
0.2923905772 0.2485845575 0.480768596
0.3024687833 0.2503629598 0.724924546
0.2924741664 0.2490259033 0.9773326279
0.2924936828 1.7391185895e-04 0.4771598993
0.3025457443 9.4203584345e-04 0.7270998904
0.3125145849 0.5021644172 0.4768183619
0.3023848259 0.2488905052 0.2267237123
0.3124033781 0.2500199078 0.4763700366
0.3125160578 0.248345007 0.9766513944
0.3223519657 0.0012807264 0.2257156708
0.3323867202 -1.6861936193e-04 0.4754144684
0.3224952089 -4.1220579837e-04 0.7231874004
0.3324647859 0.001603013 0.9733188734
0.3224425514 0.2519219911 0.2299623335
0.3224948407 0.4993490475 0.7232426355
0.3224197208 0.5003039948 0.2234096031
0.3324655224 0.2496072039 0.4692465429
0.3224488114 0.2483319879 0.7229204305
0.3325461657 0.2514520034 0.972499552
0.3624328027 0.2477663102 0.2137185954
0.3524267705 0.5003951282 0.4689399878
0.352501522 0.2507867299 0.465962813
0.342462717 0.2517735739 0.7213710844
0.3624733085 0.4990652322 0.7121937636
0.3524050446 0.2499893131 0.9671969772
0.3625359083 0.5015310403 0.2096716998
0.3424513017 -0.001680717 0.2204526812
0.3425650861 0.2514799943 0.2201903142
0.3624070263 0.2483144122 0.7133196402
0.3423802325 0.5009523436 0.7183690538
0.3422531916 0.5027034059 0.2193709928
0.382542081 0.2500101435 0.2039346085
0.3925727849 0.2499528597 0.4537042913
0.3925948789 0.2500433421 0.9487852593
0.3926611611 -3.9808012848e-04 0.9508841952
0.382553128 0.498889475 0.7053887927
0.3927605844 0.4994883513 0.9519244572
0.3724598242 0.2487264651 0.4578901953
0.3825678574 0.2512007357 0.701726702
0.3724487772 0.2492823786 0.9535446884
0.3926869375 0.4985301492 0.4533636745
0.372478236 -8.2954009081e-05 0.4580328861
0.412626828 0.5026493768 0.9480672023
0.4026329475 0.251703922 0.7018574252
0.4027029121 -0.0036798052 0.6996434161
0.4026476769 0.2506767189 0.201170089
0.4126194633 0.2492446234 0.4477020712
0.4127078396 0.2513328791 0.9439337716
0.4126120987 -0.0014541855 0.4486714482
0.4125237224 0.0015376574 0.9476897621
0.4425348226 -3.1990072972e-04 0.689433198
0.4426011048 0.2493338039 0.1926270519
0.4226096615 0.5026676035 0.6924131345
0.4325483068 0.5023336648 0.9433445967
0.4326587771 0.5027873787 0.4436708256
0.4424979992 0.5018428466 0.6907441123
0.4425900577 0.5024788272 0.1911780497
0.4325630362 0.2509136656 0.4409827148
0.4225249676 0.2522403069 0.6956867379
0.4324930716 0.250511377 0.9418164241
0.4226575319 6.1655957883e-04 0.1963609483
0.4325814479 8.8006516267e-04 0.9446150052
0.4225433793 0.2508973918 0.1988833537
0.4425826931 0.2475195992 0.6912320228
0.4725606522 0.253061809 0.4389887257
0.4626293715 0.2497627816 0.6857674249
0.4724428172 0.2474883534 0.9368912895
0.4726158873 -8.5524408976e-04 0.9370109657
0.4625999128 0.250154004 0.1869792575
0.4525434324 0.5019990752 0.9411075729
0.4526391734 0.502001679 0.4393514366
0.4624931248 0.5012947446 0.6895832535
0.4725901109 0.5000481705 0.9378947282
0.4624452543 0.5001165205 0.1872103245
0.4524771503 0.2494307958 0.4413049198
0.4524513739 0.2512450005 0.9408866323
0.452635491 9.5406983929e-05 0.4378425963
0.4824477447 0.2493383605 0.6806130645
0.4825545326 -6.7519062018e-04 0.6874438118
0.492504225 0.5003808072 0.9322883601
0.4923606136 0.5005552625 0.4348424069
0.4824219683 0.2505946989 0.1819132733
0.4923274725 0.2482258826 0.4314316361
0.4924379428 0.2505536889 0.9331997401
0.4824109212 0.5016807594 0.1882110014
0.5022918942 0.2509676947 0.6842061112
0.512385198 0.250635058 0.4362702356
0.5123115511 0.2487323237 0.9352710584
0.5025054702 -5.0366462872e-04 0.6862801913
0.5023471294 0.2513706343 0.1855965375
0.5225337369 0.2508192775 0.1927586957
0.522449043 0.2492062172 0.688008131
0.5124956683 0.5013702551 0.4368446812
0.5224306313 0.5006073387 0.6916996804
0.5425104508 0.4995977113 0.6936596078
0.5523644022 0.5002551734 0.9452317978
0.5425399096 0.5007199535 0.1939269192
0.5524270021 0.5022060781 0.4489282916
0.5323250885 0.0013167241 0.443240912
0.5325791702 0.2523151664 0.4420312621
0.5324613352 0.2511525652 0.9436852135
0.5325055233 0.4998893381 0.9435747431
0.5524896019 -0.0013952743 0.9471282047
0.5424773097 0.2499092459 0.1976976391
0.5523901787 0.2508876275 0.4492495761
0.542447851 0.2498682359 0.6961783308
0.5523754493 0.2492960486 0.9453054446
0.5724110807 0.2514930134 0.4523418241
0.5724589512 0.250470367 0.9521269861
0.5625166235 0.5017172128 0.6981041965
0.5623803768 0.5010883926 0.198629272
0.5724479041 0.5011144307 0.9505804018
0.5724258101 0.5021858986 0.4530598811
0.5625608116 0.2491977548 0.1995986489
0.5625497646 0.2517885458 0.6999195919
0.6025363335 0.5006418392 0.7086310962
0.5925166767 0.5004328834 0.9556252125
0.5925498177 0.498163012 0.4583247119
0.5824859727 0.2496579782 0.7064198489
0.6024184985 0.2510204219 0.2100067931
0.5925056296 0.2494438148 0.455105423
0.6024995101 0.2502737793 0.7123226457
0.5924945826 0.2495219291 0.9555607715
0.5825264785 0.498916164 0.7041634929
0.5824123259 0.4999368576 0.2040570464
0.5823239496 0.250784777 0.2060215767
0.6125449434 0.499725949 0.9612960216
0.6125633551 0.5007967659 0.4600535722
0.6224983181 0.5007336235 0.7146020163
0.6123055911 4.9828150427e-04 0.4626726391
0.6224725417 0.4998737152 0.2146327372
0.6124160614 0.2508824199 0.4616185682
0.6123939673 0.2514064367 0.962446754
0.6224357183 -0.0012306484 0.7155078729
0.62245413 0.2508231832 0.2163339799
0.6224394006 0.2499248687 0.7178949521
0.6424013852 -5.5632668834e-04 0.2260544464
0.6525315123 -0.0014125246 0.473121289
0.6324332811 0.5008944088 0.4714734402
0.6423682441 0.2489588552 0.225401751
0.6523473952 0.2499932188 0.4754227537
0.6424934437 0.2497224225 0.7252412275
0.6323927753 -6.1732094033e-04 0.4728497161
0.6522884777 0.2501201545 0.9773050103
0.6424234792 0.5003046458 0.7223671584
0.652303207 0.4993718308 0.4735972319
0.6323043991 0.2506949456 0.4726278549
0.6323854106 0.2495076082 0.9709805852
0.682483695 0.4999466219 0.7278805473
0.662451746 -0.0010175266 0.2258933439
0.6824910597 0.4984461763 0.2317906171
0.6624333342 -0.0012555799 0.7243767974
0.6723756619 0.4987762092 0.4758305733
0.6623302286 0.2496000434 0.2236001644
0.6624296519 0.248756409 0.7256232707
0.6725413674 3.1152322363e-04 0.9779033912
0.6624480636 0.4996244004 0.7227943102
0.6623854638 0.501481568 0.2224669232
0.6825389302 0.2503694693 0.2277335951
0.6725119086 0.2499157554 0.475693406
0.6825315655 0.2483905736 0.7283914725
0.6725082263 0.2507938904 0.9767066295
0.7025414205 0.2499710864 0.2384234385
0.6924812579 0.2497406492 0.4818189845
0.7025561499 0.2496482139 0.7396207792
0.6925401754 0.2485786989 0.9812911473
0.6925328107 0.5000924353 0.979219829
0.6924517991 0.5017842609 0.4816173762
0.7325046502 0.4986024049 0.9977420172
0.7325377913 0.4978407905 0.4960843835
0.7125058422 0.2463791303 0.4910119553
0.7125316187 0.2503024212 0.9932495581
0.7226580635 1.9734615001e-04 0.2459538311
0.7326040735 -0.0021180074 0.4954860027
0.7327881907 9.4039983617e-05 0.9967017552
0.712546348 0.4984461763 0.9875511314
0.7226433341 0.2496560254 0.2434728521
0.7326003912 0.2504859898 0.4967619348
0.7226727929 0.2486939175 0.7439521358
0.7325746148 0.2493377096 0.9974014004
0.7124947952 0.4966801421 0.4923716606
0.7127010065 -4.2867489736e-04 0.4927260862
0.7126605007 0.0014258238 0.9927708534
0.7525034582 0.5011196384 0.0010092152
0.7426531891 -4.4839875899e-04 0.2482902781
0.7426237304 3.6235399021e-05 0.7493320398
0.7426421421 0.2519265478 0.2483059281
0.7425574482 0.2509006466 0.7479060523
0.7625378445 -4.2060308599e-04 0.2599108339
0.752650752 0.002116224 0.5036967083
0.7624641976 8.6685082632e-04 0.7547110232
0.7527059871 5.713834733e-04 0.0028532408
0.7625267975 0.2533371619 0.2551900694
0.7526249756 0.2492172834 0.5022670384
0.7626299031 0.253829933 0.757505922
0.7526028815 0.2506187841 0.0041343281
0.7825108761 8.8832363383e-05 0.2606832054
0.7825292878 -2.7566574798e-06 0.7613677798
0.7724985839 0.0026152442 0.0079798916
0.7824519586 0.2507222856 0.2618477466
0.772531725 0.2496130625 0.5078899771
0.7824261822 0.2495993925 0.7633958305
0.7724470311 0.2502991665 0.0094531052
0.7923979686 6.4689396669e-04 0.514030285
0.7924863448 8.9848711924e-04 0.0139363585
0.8124372824 0.5001770591 0.0202005773
0.7925489447 0.2493266434 0.5138774677
0.7925452623 0.2505999065 0.0163460841
0.8025686016 1.0022403264e-04 0.2676584848
0.812422553 -5.5893049846e-04 0.5200987872
0.8025428252 -3.271263028e-04 0.7671039505
0.812551435 -0.0010088038 0.0190667837
0.8024728606 0.2504742727 0.2675977261
0.8124814705 0.2533397657 0.5211988873
0.8025170487 0.2517241015 0.7689598517
0.8124630588 0.2515717786 0.0198884987
0.8324508197 -7.0897505644e-04 0.5261083719
0.8224900803 -6.4505151807e-04 0.7762444479
0.8325465607 -6.0885855745e-04 0.0297685947
0.8225858213 0.2498382921 0.2693431569
0.8323882199 0.2498727925 0.5288480356
0.822486398 0.2494665982 0.7704944684
0.8325060549 0.2522884774 0.0264194112
0.822475351 -0.0027160244 0.2729141096
0.8424667943 -0.0013008862 0.7805555516
0.8425036177 0.2476849411 0.2793738609
0.8424704766 0.2502106369 0.779316443
0.862623943 7.9231676173e-04 0.2854488072
0.8425809469 0.5028720026 0.7784216335
0.8525085452 -1.3424906838e-04 0.5290643732
0.8625134727 -0.0034361081 0.7842378952
0.8524643571 0.0011397952 0.0334525033
0.8623956377 0.2475404296 0.2843726423
0.8424778413 -0.0011124354 0.2770512226
0.8525674627 0.2499456992 0.530529946
0.8624913787 0.246972799 0.7863506398
0.8524901335 0.2503909508 0.0313186773
0.8725883648 -4.6317538141e-04 0.5400027748
0.8925429846 0.0010259436 0.5405302706
0.8725773177 -9.8647611966e-04 0.037958403
0.8825380571 0.2473907106 0.2899596781
0.8925650787 0.0013136646 0.038549143
0.8724337063 0.2492667557 0.5370707088
0.8925135259 0.2491222443 0.539446741
0.8825601512 0.2485344341 0.7916955616
0.8725036709 0.2488006737 0.0374093656
0.8925871727 0.2484869146 0.0381289876
0.9026510178 -0.0044803597 0.2880743182
0.9125602043 -0.0024735056 0.5401850509
0.9026841588 -0.0013206101 0.7896398932
0.9025331828 0.2476907997 0.2926395036
0.9125196986 0.2489992143 0.5452528762
0.9025331828 0.24901679 0.7906138731
0.902492677 0.4999296971 0.7915040797
0.9125012868 0.2499788978 0.0474550751
0.9225909082 5.2471017696e-04 0.2989445964
0.922502532 -0.0020934534 0.7961263415
0.9225651318 0.2498571697 0.299910291
0.9226498257 0.250730748 0.7980890306
0.942630222 -0.0022313512 0.3009349031
0.932695259 -7.2596491746e-04 0.5450374591
0.9426670454 -6.7811990656e-04 0.8003251337
0.9325406006 -0.0012216653 0.0490533042
0.9425197517 0.2490174409 0.3020782708
0.932695259 0.2507320499 0.5520799412
0.942608128 0.2489653647 0.8013819663
0.9326878943 0.2505256979 0.0510050384
0.9525872791 -0.0029382922 0.5564407566
0.9524915381 -0.0011738203 0.0518710335
0.9624191364 0.2510744509 0.3116947111
0.9526609259 0.2480624936 0.5557319055
0.9726008164 0.248289025 0.5614386174
0.9624449128 0.2487798433 0.8080930375
0.9525320439 0.2490343657 0.0549712907
0.9726707809 0.2517371206 0.0624086121
0.9625885242 1.6120965868e-05 0.3094300698
0.9825762852 0.4999017062 0.8192744738
0.9826793908 0.4982534944 0.3150189467
0.9827493553 -0.0024261227 0.3150566907
0.9924817894 0.0019435914 0.565796671
0.9825873322 0.2503518936 0.3160104177
0.9925591186 0.0019473018 0.0637349002
0.9925296599 0.2513237657 0.5654845924
0.9825320971 0.2506051141 0.8169472327
0.9924633777 0.248796768 0.0656355418
0.0122932231 0.7506688 0.0614643671
0.0022923094 0.5014281898 0.8142867394
0.0123779539 0.4999257914 0.0602865695
0.0223325806 0.7489893424 0.3104169378
0.0023780343 0.7510789001 0.3155823453
0.0123755972 0.7503172856 0.5610980006
0.0223979053 0.7516712669 0.8111097975
0.0225188335 0.501741298 0.3047801904
0.0024646062 0.7514304144 0.8151778666
0.0123919468 1.0007907998 0.0623812707
0.0524240295 1.0005694759 0.5409988488
0.0523448591 1.0003611711 0.0435516067
0.032437005 0.7508380476 0.0516633494
0.0424014267 0.4985724611 0.7937567534
0.0424371455 0.7488982091 0.3002159255
0.0324020227 0.7500308665 0.550357525
0.0423808056 0.751697305 0.8011352493
0.0523964119 0.7496923712 0.0475731862
0.0524306577 0.7512676763 0.5463796733
0.0523441226 0.4999700562 0.5445007575
0.0422828553 1.0009209903 0.298543221
0.032383611 1.0016956238 0.5519529004
0.0324108604 1.0028933765 0.0525120375
0.0723455083 0.9998013519 0.5368644975
0.0624061265 1.0010186332 0.7945051897
0.0723193636 1.0012790142 0.0419879916
0.0723598694 0.7476679088 0.0416795953
0.0623921336 0.7515215478 0.2920549316
0.0724062669 0.7511179572 0.5422867485
0.0625235932 0.7499852998 0.7908725578
0.0624716722 1.0020992144 0.2940516824
0.0823780534 1.0000356949 0.2908084583
0.102354399 1.0007842903 0.7860284348
0.082457592 1.0009535379 0.7896684314
0.0924485266 1.0003872092 0.0398446835
0.0922791388 0.7504670047 0.0397520726
0.0923520492 0.501946999 0.0410638154
0.1023536626 0.7500113379 0.2880200036
0.082368111 0.7511439953 0.292734324
0.092290554 0.7485597138 0.5385123463
0.1023698649 0.7513067334 0.7892072179
0.0823876274 0.7499202045 0.790645173
0.0923653056 0.5024768744 0.5401353392
0.1125592778 1.0002179616 0.030848534
0.1124193488 0.7517168335 0.0377463921
0.1224404786 0.5015271346 0.7813288438
0.1223454741 0.7493864235 0.2820251482
0.11238363 0.7512090906 0.5342675247
0.1223244848 0.7503107761 0.7818075485
0.1123906265 1.0011292951 0.5336525733
0.1225583136 1.0018909096 0.7770610076
0.1525443738 0.9981284039 0.5182751065
0.1323607122 0.9998664472 0.5241512063
0.1426639095 1.0005694759 0.7686938024
0.1525826702 0.9993912519 0.0153887669
0.1324748648 0.9986817136 0.0246385378
0.1525414279 0.7474270564 0.0215769453
0.13253636 0.7494124616 0.0288817023
0.1424982041 0.7493017996 0.2725596841
0.1525075504 0.7505776666 0.5202433192
0.1324373049 0.7502652094 0.5273088159
0.1425048323 0.4989376455 0.2715295484
0.1425442334 0.7504019094 0.7758449136
0.1724831596 0.7473554516 0.0159007047
0.1625209473 0.4987169726 0.7666998133
0.1724938384 0.4973486703 0.0153959474
0.1626314176 0.7492887806 0.2650292914
0.1824634154 0.9991894566 0.7608927575
0.1724665891 0.747967347 0.516088715
0.1625596119 0.5004849596 0.268164807
0.1626026953 0.747459604 0.7679131455
0.1827023995 0.7473098849 0.2621220812
0.1825400082 0.7503758713 0.7636987033
0.1625820742 0.99982739 0.2659765743
0.1727070461 0.9990202089 0.512122831
0.1727236166 0.9990592661 0.0124660908
0.1925464086 0.9987663374 0.5088722422
0.2025638561 1.0008038188 0.7572849814
0.1926708718 0.7519121193 0.0092275616
0.2026305065 0.7515606049 0.2609603018
0.1925939108 0.7508901238 0.5105642791
0.2026025207 0.7503563427 0.7566930446
0.2325779022 0.7535264816 0.9984692801
0.232599628 0.4990802041 1.0001999816
0.2325237717 0.7496793521 0.4988424589
0.2325679598 0.4972809713 0.501014121
0.2225840217 0.99955399 0.249264258
0.2124520533 1.0010511808 0.5073026433
0.212476725 1.0008233474 0.0049769404
0.2126232823 0.7502912475 0.0065589672
0.2325086741 1.000061733 1.0048213228
0.2225976463 0.7500894522 0.2515832138
0.2126372752 0.7496012378 0.5037694346
0.2225368877 0.5001965877 0.2524356764
0.2224783384 0.7493538758 0.7521425886
0.2525873889 0.7487289614 0.9944463197
0.2524537199 0.5001275867 0.9920712081
0.2425298039 0.7490804758 0.2473669304
0.252622003 0.7512611668 0.4930538148
0.2424462147 0.4973922842 0.2518059956
0.2424031313 0.7488591519 0.7503124638
0.2524673445 0.5013064617 0.4906197857
0.2624277157 0.4983654582 0.7408681731
0.2624939979 0.7498160521 0.2383958209
0.262561753 0.7487745281 0.7378274779
0.2823193675 0.4965968202 0.7303873027
0.2825922291 0.7493799139 0.2312115686
0.2824210002 0.4977809028 0.2308516195
0.2824637154 0.7496077473 0.7305106612
0.2724429538 0.7499202045 0.9852036373
0.2725593158 0.5004270249 0.9818895281
0.2724930336 0.7499332236 0.4846341362
0.2825870739 1.0009144808 0.2292350707
0.2825322069 1.0003611711 0.7310482834
0.3122568208 0.9973147133 0.9770748639
0.2925562826 0.751573624 0.978244008
0.302482408 0.498546423 0.7303431146
0.2924266641 0.4990841098 0.97537178
0.3024260681 0.7507469143 0.2290481917
0.2925257192 0.7519967431 0.4788620626
0.3025140762 0.4969750236 0.2280861795
0.3024419022 0.7507534238 0.7288609713
0.3025195997 1.000458814 0.2285427901
0.3125897047 0.7501805856 0.9787779478
0.3124759202 0.4985425173 0.9765317182
0.3124560356 0.7518600431 0.4751502603
0.2924601735 0.9987923755 0.976347601
0.3324375366 0.7497314283 0.9719011711
0.332444533 0.5002987872 0.9752152804
0.3223317128 0.7508055 0.2256585944
0.3324356954 0.7515150382 0.4716787309
0.3223865798 0.7501936046 0.7269406291
0.332508974 0.5008800878 0.4757283882
0.3523844235 0.9996060662 0.4692226077
0.3425812884 0.99982739 0.7191727253
0.3622928736 0.7523808051 0.2124573927
0.3522382345 0.9995019138 0.9689645021
0.3623665205 0.7504604951 0.7116579826
0.3625580024 0.9996581424 0.2115892802
0.3523855282 0.750174076 0.9651993058
0.362425438 0.9986101088 0.7110761724
0.3524171964 0.4983029668 0.9671601538
0.3423791278 0.7506688 0.2184365981
0.3524838468 0.7508315381 0.4654518879
0.3424262618 0.7513327715 0.7223754436
0.392605926 1.0017542095 0.4507897163
0.3725040124 0.7486964138 0.9590129686
0.3725076947 0.4975699942 0.9586447343
0.3824426577 0.7503042665 0.2031567134
0.372489283 0.7481235756 0.4570533827
0.382553128 0.4978635738 0.204100314
0.3824942105 0.7499397331 0.7025948145
0.3825752221 0.9994628566 0.2029569463
0.3826967394 0.9999901282 0.7027154113
0.3725297888 1.0001333377 0.9561407406
0.3724119538 0.4986336506 0.4561373998
0.3925543732 0.7502652094 0.9501937557
0.392605926 0.7493473663 0.4533277716
0.4126673338 0.7508315381 0.947956732
0.4125973693 0.749269252 0.4486631629
0.4127078396 0.4981714743 0.4483989547
0.4026476769 0.9990527565 0.1979563237
0.4026992297 0.4986909345 0.6989851972
0.4025850771 0.749790014 0.2007070343
0.4026439946 0.4970811289 0.1983889991
0.4025666654 0.7487094328 0.7005879373
0.4327287416 0.7510789001 0.9445413583
0.4224623677 0.7497118997 0.2024948122
0.4325483068 0.7515801335 0.4412570494
0.4226943554 0.5008885502 0.194203095
0.4225396969 0.7505320999 0.6984816367
0.4426452929 0.7514239049 0.1915812664
0.4427078927 0.750421438 0.6908877237
0.4324194248 1.0017216619 0.4417127394
0.4225581087 1.0007777807 0.6913572225
0.4424611757 1.0029519622 0.1910169472
0.452635491 1.0022424239 0.9393308422
0.4624378896 0.9983432183 0.1891039697
0.4726158873 1.0029063955 0.435760231
0.4625152189 1.0013441094 0.6910009557
0.4526170793 0.7516777764 0.9403526925
0.4525434324 0.7479933851 0.4410609646
0.4725643345 0.7480324422 0.9371582595
0.4626514656 0.7500113379 0.1880968487
0.4725348757 0.7497835045 0.4393164543
0.4626551479 0.7508315381 0.6887998349
0.4726711225 0.5009276074 0.4364865733
0.4825729444 0.9986296374 0.1849429215
0.4924894956 1.0006410807 0.4381997836
0.4924232134 1.0011813713 0.935620881
0.4825287562 0.4976565709 0.684798048
0.4925226367 0.7472708278 0.432116552
0.4825508503 0.7502391713 0.1857373871
0.4923900723 0.7502326618 0.9306497172
0.4825324386 0.7502131332 0.6850079416
0.5125214447 1.0013115618 0.440133014
0.5124146567 0.9987793565 0.9360443505
0.5024318233 0.9992610613 0.1844899932
0.5226257955 0.7488396233 0.6887887878
0.5224748194 0.9993847423 0.1936074759
0.5225963367 0.9973472609 0.6920669942
0.502450235 0.7508771048 0.1842267056
0.5023729058 0.5004908182 0.1870878866
0.5023986822 0.7507013476 0.6845715838
0.5024760114 0.5030796564 0.683801974
0.5124662095 0.7492887806 0.9375449055
0.5125324917 0.5013071127 0.9362284677
0.5123483745 0.751462962 0.4369385809
0.5224785017 0.498957825 0.1913603257
0.5224232666 0.7498941664 0.1909561885
0.5324281941 0.7506948381 0.4425799313
0.5323876883 0.5006489997 0.4420100886
0.5324355588 1.0023726144 0.9434366553
0.5424994038 0.9991243613 0.1913106141
0.5523607199 1.0016565667 0.4463736658
0.5524527785 0.749145571 0.945802561
0.5423226513 0.9992675709 0.6953903093
0.542458898 0.7488005662 0.196501798
0.5524932843 0.7503498332 0.4478631738
0.5423926158 0.7508380476 0.69605129
0.5325902172 0.7511960715 0.9437956838
0.5624503413 0.9986686945 0.1977740477
0.5625166235 1.000211452 0.7010362626
0.5624503413 0.7493017996 0.1998766659
0.5623914238 0.7513392811 0.6976236507
0.5724110807 0.9998859758 0.4540034817
0.5723779396 0.9994107804 0.9526885435
0.5724920923 0.7484295233 0.9533513654
0.5725767862 0.7488005662 0.4505383964
0.6024700514 1.0001593758 0.2058070802
0.5924798532 0.7494970854 0.9542719512
0.592402524 1.0002635282 0.4571325531
0.6024000868 0.9991438899 0.7074011935
0.5923178301 0.9991959661 0.9590774096
0.602477416 0.7506362523 0.2070240948
0.6025326512 0.5004361382 0.2063493053
0.5924283004 0.749653314 0.45280672
0.6026541685 0.7515215478 0.7088529574
0.582338679 0.9999575806 0.2024036741
0.5825522549 0.9986947326 0.7074140817
0.5824491493 0.7500438855 0.2044970865
0.5825927607 0.7513848477 0.7067558627
0.6125228493 0.7513197525 0.9593443795
0.6125964962 0.749900676 0.4615366361
0.6124933906 1.0015393952 0.9662027445
0.6222847422 1.0002895663 0.2162244302
0.6227597645 0.7521139146 0.2149264041
0.6225572356 0.7513978668 0.7166935875
0.6423535147 0.99941729 0.72494664
0.6523768539 0.9991243613 0.974718164
0.6323191284 1.0003676806 0.9721589352
0.6325437514 0.7494450092 0.9699127056
0.6324885162 0.497325887 0.9703269693
0.6324848339 0.7483058423 0.4697648328
0.6524799595 0.7487029233 0.9736871078
0.6524063127 0.4997890914 0.9754086034
0.642475032 0.7490349091 0.2242436539
0.6424713497 0.4967895021 0.2224245762
0.6524946889 0.74682818 0.471916242
0.6425008084 0.7495035949 0.7235224937
0.6726518377 0.7494384997 0.9757952495
0.6723867089 0.5000898314 0.9736963136
0.6826309888 1.001734681 0.2295001994
0.6725082263 1.0011488237 0.4784118961
0.6826125771 1.0019885524 0.7286998687
0.6825683889 0.7494319902 0.2278201301
0.6725966025 0.7492432139 0.4760358639
0.6826273064 0.7501545475 0.7282644316
0.6626211338 0.7510789001 0.2262045019
0.6625879927 0.74888519 0.7246161497
0.7025635146 1.0023465763 0.2374153969
0.7025524675 0.4996257023 0.7364484402
0.6925585871 0.7501285094 0.9821288804
0.6926690574 1.0006345712 0.4808054194
0.7026482085 1.000335133 0.7408672525
0.6927353396 1.0017086429 0.9852772842
0.7027144907 0.7503953999 0.2391829218
0.7025045971 0.4989461079 0.2378867369
0.6926027752 0.7493473663 0.4831658017
0.702718173 0.7476744183 0.736177788
0.7225807343 0.4984045154 0.7455263377
0.7326077559 0.7508055 0.9965084321
0.7225181344 0.7503433237 0.2457835227
0.722481311 0.4987163216 0.2439276215
0.7325856618 0.7495426521 0.4960816218
0.7225733696 0.7484815995 0.7436547866
0.7226838399 0.99969069 0.7446932075
0.7124506071 0.7495361426 0.9906074765
0.712546348 0.7520358003 0.4932084732
0.7425058954 0.4990385431 0.7479714139
0.7425132601 0.7500569046 0.2463570477
0.742586907 0.5029182202 0.247683612
0.7424948484 0.7507338952 0.7473785566
0.7525660581 0.5013324998 0.5000134441
0.7524813642 0.7503042665 1.5318076728e-04
0.7624605153 0.5002981363 0.7541310541
0.7625194328 0.7505190809 0.2519505276
0.7624641976 0.4996406742 0.2563334371
0.7525771051 0.7493408568 0.5003835197
0.7623795037 0.7506753095 0.7550553223
0.7823893587 0.7514304144 0.2606979348
0.7824556409 0.5006197068 0.2571177762
0.7724433487 0.7488591519 0.5081937704
0.7825440172 0.7492171758 0.7596969164
0.7725943248 1.0000356949 0.5111138689
0.7724985839 0.5000735576 0.5077841097
0.7724175723 0.7497639759 0.0075552253
0.7824335469 0.4993470946 0.7585010753
0.7724323017 0.500781794 0.0058451449
0.7924642508 0.7526737337 0.5120362959
0.8125772114 0.5010753736 0.5194083478
0.812293671 0.7508771048 0.0174449875
0.8024065784 0.5022731262 0.7641516316
0.802358708 0.7501024713 0.2659020069
0.802380802 0.50219371 0.2633676339
0.7923685098 0.5016553723 0.512176225
0.7923574628 0.7512090906 0.0102900098
0.8123930942 0.750681819 0.5185632499
0.792412698 0.5012172812 0.0108922571
0.802358708 0.7514890001 0.7644591073
0.8324581844 0.4995072289 0.5261424336
0.8324029493 0.747967347 0.0255202749
0.8224679863 0.5005819516 0.7716765007
0.8325060549 0.4981825405 0.0240014003
0.8224385275 0.7513978668 0.2740896978
0.822357516 0.5004380911 0.2713297813
0.8324950078 0.7520748574 0.5272839601
0.8224237981 0.7516126811 0.7729782091
0.8626349901 0.7508705952 0.7842102776
0.8624766493 0.4982821363 0.7837223671
0.8524643571 0.7497509569 0.0308260717
0.8524569924 0.5005513568 0.0295327406
0.8626423547 0.7508380476 0.2863344108
0.8625134727 0.4994017746 0.2840541195
0.852442263 0.7489828329 0.5319347601
0.8425625352 0.7505906857 0.2793416403
0.8425220294 0.5007765864 0.2803110173
0.842389465 0.7510007857 0.7778987407
0.8525122276 0.5022119367 0.5304342051
0.8725036709 0.4984689597 0.5395130231
0.8825859276 0.7492041568 0.79092319
0.8926460902 0.4995781828 0.542892494
0.8725552237 0.7481561232 0.037042328
0.892557714 0.7477915898 0.0399400562
0.8825380571 0.4983582977 0.7879239211
0.8724484357 0.4993594627 0.0402353802
0.8926239962 0.4989500136 0.0395005685
0.8826043393 0.7497249188 0.2910910781
0.8824459985 0.4998704604 0.290875661
0.8725257649 0.7502391713 0.536547816
0.892675549 0.7485076376 0.5385565344
0.8825785629 0.9973798085 0.2872780114
0.8826632568 0.9970087656 0.786454666
0.9125491573 0.7486964138 0.5428179265
0.9125970278 1.0010121236 0.0390780196
0.9125712514 0.5011469784 0.5450089209
0.9025626415 0.7495491616 0.7894355232
0.9125638867 0.7475767754 0.0439300596
0.9125417926 0.4994701246 0.0458999293