POSCAR file written by Ovito 3.7.11
1
271.5853600398 0.0 0.0
0.0 15.3631879804 0.0
0.0 0.0 10.8634144016
Sr Ti O 
800 800 2400 
Direct
0.0224827325 0.5003313114 0.769777616
0.0124963694 0.2502894578 0.5222219304
0.022458578 0.249361916 0.76874203
0.0024021582 0.2506637291 0.7737063992
0.012373977 0.2505823658 0.0182938101
0.022505856 0.0018587933 0.2710090153
0.0024150455 -8.7254089517e-04 0.271107511
0.0024653059 0.5004282965 0.2733775156
0.0124444889 0.501226308 0.5221528914
0.0122762913 0.0032614318 0.5184855361
0.0223222673 0.003578163 0.7709135388
0.0022944572 4.86552024e-04 0.774336956
0.0223159709 0.2502152545 0.269804974
0.0025217523 0.2530987706 0.2731289749
0.032558386 0.5014879724 0.0203977526
0.0424974343 0.5018700546 0.2654306586
0.0325083097 0.5003052752 0.5204674176
0.0325197242 0.2533643405 0.519033246
0.0424179013 0.2513426247 0.7679430179
0.0324633883 0.2525168601 0.0178517759
0.0524685167 0.499338028 0.0140558239
0.0424024365 5.7422913904e-04 0.7698797938
0.0425154765 0.250399461 0.2688890557
0.0524589433 0.2524250823 0.5089507806
0.0524659392 0.2516179581 0.0115961
0.0624657419 0.2505732531 0.2629213187
0.0624009372 0.4997786918 0.7586273463
0.0723838022 0.4988179537 0.0110644071
0.0623784765 0.4995515254 0.2594684448
0.0723723878 0.4987235722 0.5112852216
0.072416941 0.248365378 0.5079437307
0.0625195003 0.2519414587 0.7639764933
0.0723683375 0.2497921652 0.0072213244
0.0923694156 0.2494152903 0.5054389934
0.1023743732 0.251967495 0.750373956
0.0823611442 0.2498487941 0.7580906827
0.0924452665 0.2495155299 0.0065816544
0.1025198155 8.2111800123e-04 0.2561545695
0.0923911399 -0.0033361702 0.507028733
0.1024634796 0.2513712646 0.2504924455
0.0823280054 0.2511896616 0.2580195449
0.1024944091 0.4994955474 0.7519093848
0.0823950193 0.4988895534 0.7571784465
0.1023305564 0.4987990774 0.2554365632
0.0823099632 0.4981110691 0.2581042328
0.1225912214 0.2481167317 0.2484461275
0.1125188817 0.4992254212 -6.756678884e-04
0.1125479701 0.2498416341 0.5010637575
0.1223662461 0.5011371338 0.2490591944
0.1124923707 0.5011156539 0.4980757467
0.1224814953 0.2495233408 0.7438640322
0.1125188817 0.2479540051 0.0025811627
0.1225713381 -3.2558410399e-04 0.2461724409
0.1525180922 0.2493085416 0.4900902279
0.1324400586 0.2514383079 0.4944157556
0.1424284468 0.2494745228 0.7448195329
0.1525556495 0.2497928161 -0.0084534776
0.1325737182 0.2496639366 -0.0053126723
0.1424840462 8.1545511406e-04 0.2444455437
0.1424236601 0.2487585256 0.2439447803
0.1426096053 0.5010284324 0.743460844
0.1525821605 0.5004309001 -0.0097006113
0.1326109073 0.5015485067 -0.0057059924
0.1524967362 0.498976124 0.4917931916
0.132511491 0.5015615249 0.4933801696
0.1825977696 0.2499269029 0.2364020321
0.1724422148 0.5000839669 0.4857591771
0.1824862024 0.5011592646 0.7325766049
0.1725199068 0.2496737002 0.4885842557
0.1625757036 0.2510393022 0.7413059046
0.1726020172 0.2478589727 -0.0112861073
0.1826658881 0.4995769107 0.238073698
0.162495066 0.0014178041 0.7419981363
0.1625690758 0.2494602029 0.2380221489
0.1825399609 0.2494289593 0.7332449031
0.1826069748 0.0012922442 0.2416895041
0.1924510253 2.2592903318e-04 -0.0097094391
0.2027431854 0.2503200504 0.2419610578
0.2024460412 0.5003534423 0.7379211492
0.1925570693 0.5019637851 -0.0098157776
0.2026452419 0.5013311039 0.2388570613
0.1925592785 0.501072694 0.4910678211
0.1926226104 0.2497863071 0.4923409015
0.202507532 0.2514083662 0.7390312974
0.1925242988 0.2508258048 -0.0075287877
0.2025373569 -2.8112718523e-04 0.2448201957
0.212601596 0.2498540013 0.4878165413
0.2224883587 0.2511792471 0.7424473505
0.2125610931 0.2500147753 -0.0127752523
0.222536594 0.0010702199 0.7411438929
0.2225115558 0.2521243635 0.24177051
0.232492948 0.2490807243 0.4951494108
0.2324826382 0.2511642763 0.9914657438
0.2325003122 0.0025842286 0.4934666986
0.2225638414 0.4989702658 0.7409800402
0.2125375277 0.5008051714 -0.0092654019
0.2125124896 0.5007791352 0.4882123653
0.2425063744 0.4994883874 0.746300651
0.262432338 0.2501599274 0.7494644813
0.2625221808 3.4511002623e-04 0.2528029529
0.2624827825 9.6314581491e-04 0.7508434216
0.252331278 0.252831248 0.4993175294
0.2423889159 0.2522792792 0.7452484956
0.2523927688 0.2528527279 0.9987562693
0.2624617946 0.2511597199 0.2508993157
0.2425612374 1.575130157e-05 0.2465572186
0.2624249738 0.4998457351 0.247365436
0.2524634648 0.0035454875 0.4996240628
0.2425373039 0.0016605922 0.7453654017
0.2524244347 2.9342804454e-04 0.9957093451
0.2423918616 0.2505856203 0.2465581392
0.2724181487 0.2503128905 0.5014917998
0.2725113054 0.2502731852 1.0030366915
0.272530084 0.0018876284 0.5046022399
0.2724284585 0.0017845899 1.0017755779
0.2824610317 0.2492519128 0.7565037046
0.2724612291 0.498739194 0.5032674846
0.2823398912 0.2486595878 0.2495617989
0.3124736951 -0.002023539 0.5037608838
0.2925234298 0.4968886666 0.5024795187
0.2924295366 0.2500766114 0.5062858726
0.3023925184 0.2484792867 0.7573588685
0.2924151765 0.248065961 1.0046291927
0.2924258546 -3.8904749461e-04 0.5066862992
0.3024223433 -0.0010128764 0.7580151999
0.3124711177 0.4994083259 0.505666362
0.3024849387 0.2469262236 0.2591324546
0.3125907854 0.2487507147 0.5077881627
0.3124512344 0.2496066568 1.0084217388
0.3225405117 9.5390294161e-04 0.2532429619
0.332500916 6.6607205614e-04 0.5033328416
0.3226123123 0.0022904745 0.7552600809
0.3325230085 0.0021239726 1.0013613435
0.3223858642 0.2485268028 0.2543733616
0.3225979522 0.5022560422 0.7565211945
0.3224878579 0.5001028432 0.2587881798
0.3326820745 0.2500505751 0.5008906996
0.3225206284 0.2514812678 0.7564061294
0.3326290525 0.2491672949 1.002972255
0.3627076253 0.2521946614 0.2423421534
0.3525480202 0.4994857838 0.499850511
0.3528120256 0.2496392022 0.4952359397
0.3424981412 0.2509891824 0.7516985855
0.3625161569 0.5000286399 0.7436578355
0.3526916214 0.2479904558 0.9977436963
0.3626376657 0.5006580665 0.2451699936
0.3426557344 0.0015226 0.2473939721
0.3425449037 0.249083328 0.2518410086
0.3626450298 0.2514259407 0.7463393129
0.3425412216 0.5000331962 0.7503362146
0.342674513 0.4985003113 0.2510171424
0.3825466917 0.2489466376 0.2406953415
0.3926761037 0.25019052 0.4851313818
0.3925840516 0.2511506072 0.9879125331
0.3925840516 -0.0015124471 0.9880137904
0.3825835125 0.4995378563 0.7400217779
0.3924662249 0.5012770787 0.9917050792
0.3727965343 0.2498969612 0.4897984228
0.3826387438 0.248637457 0.7417753702
0.3727081643 0.2493846977 0.9901125781
0.3924846353 0.5010772504 0.4891798327
0.3724982855 -0.0014978017 0.4929512068
0.4124893955 0.5011670755 0.9839174724
0.402558816 0.2493736323 0.7387790747
0.4025698623 3.5435289953e-04 0.7350086211
0.402558816 0.2517631103 0.2380663339
0.4125372626 0.2495448207 0.4811565726
0.4125630372 0.249215462 0.9825458963
0.4125372626 2.6752196303e-04 0.4829479062
0.4124967597 0.0023277063 0.9842580651
0.4424136889 7.709981953e-04 0.7317131563
0.4426125214 0.2486120716 0.227569634
0.4225598942 0.500208941 0.7319460481
0.4325125661 0.4989110333 0.9773633636
0.4325751615 0.4997936626 0.4785883192
0.4425204693 0.5007478916 0.7294339465
0.4425388798 0.5008923929 0.226883846
0.432420514 0.2509553353 0.4781860516
0.42255253 0.2498247105 0.7305606641
0.4324720632 0.2494686646 0.9807784961
0.4224972987 -0.0022242525 0.230847609
0.4324094678 3.6099214655e-04 0.9789466596
0.4224273391 0.2500609896 0.2288325887
0.4425167873 0.2472399606 0.7293980462
0.4725589074 0.2496919256 0.4783554275
0.4624699983 0.2512404323 0.730689537
0.4723158898 0.2512111415 0.981432066
0.4723932136 0.0018012531 0.9844974006
0.46245527 0.2497687326 0.2320774249
0.4526241067 0.4982464577 0.978127396
0.4524768234 0.4998138407 0.4769967386
0.4623632179 0.4997279211 0.7284756843
0.4723416644 0.5000247344 0.9815977597
0.4625252295 0.4993835915 0.2331516728
0.4524363205 0.2491048079 0.4758175513
0.4524952338 0.2516368344 0.9780905751
0.4524105459 -5.1226984533e-05 0.4805637571
0.4824858047 0.2514955877 0.7346836772
0.4824342556 -0.0031879588 0.7333222268
0.4925489392 0.5010394978 0.9832639026
0.4924384767 0.4999446729 0.4858677985
0.4824710764 0.2496040532 0.2320037832
0.4923979738 0.2497361872 0.4857297204
0.4924752975 0.2517006233 0.9834756224
0.4823716601 0.4993627625 0.2346705323
0.5026231199 0.2492805526 0.7345152219
0.5125131965 0.2524882202 0.4889892849
0.5126973007 0.2502504034 0.9892104676
0.5024132412 0.0011746254 0.7337511896
0.5024279695 0.2484252614 0.2334692525
0.5225395101 0.2507555069 0.2383701058
0.5224658685 0.2495025118 0.7407370227
0.5123916877 0.50048102 0.4866889032
0.522443776 0.5015289795 0.7418066679
0.5424043511 0.5004725582 0.7452411314
0.552485896 0.4991115125 0.9965654296
0.5425074495 0.5002401845 0.245628413
0.5525116706 0.5035376772 0.497694651
0.5324774538 -0.0013907927 0.4916606365
0.5325474134 0.2510451604 0.4926465144
0.532532685 0.2536989064 0.9932883752
0.5325142746 0.5022983511 0.9943561794
0.5524196185 0.0016764743 0.9967311233
0.5425847732 0.2512632141 0.2449242146
0.5526442256 0.2525461509 0.4979174171
0.5425148137 0.2508720192 0.7447928377
0.5525779481 0.2512951085 0.9960683483
0.5726084829 0.2486211843 0.5049916202
0.5725863904 0.2505908276 1.0053379937
0.5625379843 0.5018661491 0.7498428154
0.5624348859 0.4990893817 0.2468250902
0.5725495696 0.4998613569 1.0046660135
0.5725164308 0.4987463539 0.5012055178
0.5623833368 0.2525891107 0.2519781662
0.5624753888 0.2524595803 0.7536390436
0.6024480884 0.4972655415 0.755398159
0.5925432835 0.497554544 1.0046291927
0.5924880523 0.4997266192 0.5040895097
0.5825427445 0.2491770585 0.7549167266
0.6024922734 0.2464471563 0.2551097783
0.5923775898 0.24831656 0.5048213239
0.6025953717 0.2477684967 0.7532275707
0.5924622777 0.2479227615 1.0042149583
0.5825316982 0.5014033546 0.7523273013
0.5824654207 0.4979965096 0.253907578
0.5825795653 0.2496079587 0.2536369449
0.6124486275 0.4986584816 1.0025948415
0.6123639395 0.4980485821 0.50538008
0.6225007157 0.5000364508 0.7548486081
0.6125222691 -0.0011510638 0.5056488721
0.6224086636 0.4999453238 0.256263191
0.6123639395 0.2470577067 0.4989125002
0.6123528933 0.2474293744 1.0048593229
0.6224638948 -0.0015470103 0.7540422317
0.6224454844 0.2479494487 0.2532457235
0.6225817215 0.2488932632 0.7525086439
0.6424797013 0.001988584 0.2508532897
0.6524507837 0.0010046086 0.5031183602
0.632556486 0.4992312793 0.504014027
0.6424944296 0.2502406398 0.2562714757
0.6524029166 0.2519290915 0.5021140719
0.6425202042 0.2492460546 0.7537476651
0.6325491218 0.0019586423 0.5027510723
0.6524912866 0.2523586898 1.0014626008
0.6425312505 0.5019292871 0.7537614729
0.6524176449 0.4997038375 0.5007222443
0.6324791622 0.2497837034 0.5023202686
0.632423931 0.2500733569 1.0034785415
0.6825223604 0.4996791031 0.7423681857
0.6624586869 0.0010663796 0.2457628091
0.6824892217 0.4977563251 0.2411822971
0.6624918257 -0.001275387 0.7457998876
0.6725402318 0.499331519 0.4930589078
0.6625544211 0.251723405 0.2461282559
0.6624586869 0.2524179223 0.7498234845
0.6724850005 0.0024197445 0.9952398795
0.662418184 0.4991225779 0.7449014592
0.6624881436 0.5003111333 0.2456956111
0.6824965858 0.2488190599 0.2440018526
0.6725549601 0.24995359 0.4925388135
0.6825113142 0.2511135056 0.7434645261
0.6724739543 0.2500941859 0.9942549221
0.7024313865 0.2489251577 0.2378914349
0.6925228995 0.250538755 0.4919966267
0.7025676235 0.2494914464 0.7374433989
0.6925155353 0.2485990535 0.9884464352
0.6925339457 0.4958810632 0.9901217833
0.6924603041 0.4986988378 0.4896934834
0.7326060615 0.4989071279 0.9786797085
0.732318859 0.4984000716 0.4819362538
0.7125055672 0.2495812715 0.4854075381
0.7125902551 0.250156022 0.9849760714
0.7224545571 9.2955903587e-04 0.2333118434
0.7324330036 -0.001161218 0.4825520822
0.7324330036 -0.0019967151 0.9846170683
0.7123619659 0.4971900363 0.984561837
0.7224214183 0.2474886069 0.2320203526
0.732451414 0.2494341666 0.4828761056
0.7224619212 0.2492564691 0.7340706103
0.7324992811 0.2463098151 0.9841015766
0.7125644805 0.4997096957 0.4857140715
0.7123840584 -7.5831252897e-05 0.4854443589
0.7125460701 -0.0016181544 0.9862371851
0.7525261338 0.4974972642 -0.0207675738
0.742492456 -0.0028892057 0.2316935677
0.7424629993 -0.0019428136 0.7302191509
0.7426360573 0.2464940216 0.2330881568
0.7424188143 0.2488483507 0.7330479116
0.762401482 -0.0029620486 0.2320719018
0.752400943 -0.0023028365 0.482850331
0.7624198925 -0.0010437944 0.7323197796
0.7523935788 -0.0011835441 -0.0193844911
0.7626224071 0.2477964857 0.2313419287
0.752489313 0.2482241313 0.4813066175
0.7625966325 0.2471787753 0.7298776376
0.7525040413 0.2498618122 -0.0182538153
0.7824946122 0.0013443167 0.228645723
0.7825498435 -2.1043873167e-04 0.7292535244
0.7725014373 -0.0013728928 -0.0207214557
0.7826013927 0.2528794151 0.229904075
0.7725088015 0.2491048079 0.4793440669
0.7825572077 0.2513230975 0.7284904126
0.7725419403 0.250609053 -0.0226302478
0.7925945675 -0.0013359213 0.4788801244
0.7925945675 -3.3899277934e-04 -0.0177711862
0.8126177382 0.5006072958 -0.0160189195
0.7925982496 0.2520332365 0.4807506228
0.7925467005 0.2503395776 -0.0205580632
0.8024920083 -8.1636765813e-04 0.2323821173
0.8126361486 -0.0026128372 0.4852639368
0.8026356095 -7.7119474214e-04 0.7301906147
0.8125072757 9.4185543313e-05 -0.0173836561
0.8025288291 0.2501892182 0.23192738
0.8126582411 0.2491685967 0.4876618938
0.8025030545 0.2487819582 0.7301491913
0.8125698711 0.2495454716 -0.0152324264
0.8326335446 -0.0015492885 0.4911552706
0.8226440518 -0.0024642092 0.7338294338
0.8325414925 -8.077756914e-04 -0.0101046187
0.8227066472 0.2475458866 0.2371982826
0.8325230821 0.2488034381 0.4895876235
0.8226256414 0.2488542088 0.7376615623
0.8326188163 0.2470661685 -0.0126406538
0.8225814564 -0.0025203109 0.233714111
0.8425898987 -0.0011392173 0.7378594743
0.8426414478 0.2478771981 0.2428199038
0.8425125749 0.2468429075 0.7410527613
0.8624473755 9.2415651133e-04 0.2494835546
0.8425751703 0.4988238118 0.7444918274
0.8525204781 -0.001400361 0.4973540583
0.8624805143 0.0023720982 0.7491956892
0.8525057498 -0.0016637829 -0.0034570126
0.8625541559 0.2492271783 0.2495838914
0.8425309853 -0.0019590016 0.2451948477
0.852472611 0.2487572238 0.4965835823
0.8625652022 0.2499965499 0.7487207004
0.8525720273 0.2488991214 -0.0054701366
0.8724700071 -3.9744418937e-04 0.5045276777
0.8923606227 -4.8245258748e-04 0.5026755896
0.8724810533 -2.1486489635e-04 0.0011597863
0.8824263611 0.2509358081 0.2542417271
0.8924563568 4.971618011e-04 0.0025262076
0.8725252383 0.2512736286 0.5025347499
0.8925741835 0.2510978838 0.5066909018
0.8823600836 0.2478505109 0.7474356532
0.8724037296 0.2492206692 0.0024060796
0.8924710852 0.250023888 0.0062466769
0.9024937167 -0.0011765143 0.2557237658
0.9125126662 9.2285469819e-04 0.5082806414
0.9023906184 3.8266733535e-04 0.7568792772
0.9025415838 0.2509650989 0.2561444438
0.9125200304 0.2491074115 0.5098087061
0.9024789884 0.2496841147 0.7551827571
0.9024274392 0.5013460748 0.7544665919
0.9124832095 0.2495669515 0.0095945194
0.9224285173 -0.0020094599 0.2627712738
0.9224763844 -2.7696138318e-04 0.7653986981
0.9224174711 0.247271855 0.2614291543
0.9225389798 0.2473714437 0.7605365067
0.9424590521 6.0560283574e-04 0.267979581
0.9324032818 -0.0012822215 0.5166196402
0.9424148671 -0.0017525666 0.7698558603
0.9325837039 -9.2910467614e-04 0.0194822946
0.9425363759 0.2492675345 0.2630529532
0.9323590968 0.2498754813 0.5140587511
0.9424885088 0.2495318026 0.7670804898
0.9325137443 0.2487331402 0.0153359923
0.9526768341 0.0037272206 0.5230080553
0.9524301345 0.0029566774 0.0202739426
0.9625448182 0.2502406398 0.2737659754
0.9525332328 0.2512169997 0.5230255452
0.9725527214 0.2514675987 0.5263697976
0.9624343556 0.2494745228 0.7723246973
0.9524780016 0.2500688005 0.0207693669
0.9726521376 0.2482391021 0.0270951865
0.9626037315 0.0021009956 0.2765045251
0.98253485 0.5009223346 0.7751166372
0.9824575263 0.5002330246 0.271941503
0.9825422142 0.0014078452 0.2771424461
0.9924322907 3.7186228628e-04 0.5279917554
0.9824759367 0.2519030552 0.2772657959
0.9926458516 8.9037446033e-04 0.0261559791
0.9925206607 0.2503376249 0.5217248491
0.9823728383 0.2544162055 0.7792470145
0.9925243428 0.2502373853 0.0238335048
0.0123978369 0.7501238678 0.0191007387
0.0023724806 0.4983636209 0.7729672209
0.0124432738 0.4980297058 0.0227936844
0.0223641694 0.751230409 0.2702017185
0.0025094909 0.7504818665 0.2728896395
0.0124825248 0.7509179739 0.5195938433
0.0224078757 0.7513345541 0.7681363272
0.0224617814 0.5008683094 0.2709427378
0.0024094119 0.7472794061 0.7709586443
0.0124007457 0.9994731569 0.021045155
0.0525046011 1.0014323856 0.5160921817
0.0525204341 0.9995317385 0.0140479995
0.0322763384 0.751126264 0.014906017
0.0425250499 0.4980459785 0.7674901216
0.0425556112 0.7521481873 0.2614429621
0.0323389339 0.7514517172 0.5171075163
0.0424455169 0.7510676824 0.7668568032
0.0524872953 0.7499025596 0.0103707026
0.0523845652 0.7507487381 0.5096798332
0.0524729352 0.500376224 0.5150814498
0.042424529 1.0026886353 0.2674162222
0.0324453461 1.0011329686 0.516368338
0.0324482917 0.9989068681 0.0193400741
0.0724412427 0.9992518486 0.5099467842
0.0624874662 1.0020051834 0.7588620792
0.0724423474 0.9981192712 0.0086819149
0.0724574439 0.7504558302 0.0024216364
0.062446595 0.751926879 0.2575896616
0.0722895409 0.751035137 0.5033659803
0.0624197158 0.7513931357 0.7581017289
0.0624620598 1.0012891862 0.2593644259
0.0824826529 1.0009116604 0.2539692529
0.1024030934 1.0008140244 0.752533498
0.0824616651 1.0011524958 0.7561511451
0.0924169145 1.0009507148 0.0045191353
0.0923734659 0.7484184926 0.003239059
0.0924132324 0.5005910232 4.2081058142e-04
0.1024664252 0.747962858 0.2500064104
0.0823261644 0.7500717953 0.2541975421
0.0924220694 0.7499611412 0.5020284634
0.1023508078 0.7506901566 0.7495279973
0.0824009107 0.7485682011 0.7549084419
0.0923572647 0.4970709204 0.5051435062
0.1125380285 0.9996684288 -2.4454192497e-04
0.1122839647 0.7496617242 -3.9540609524e-04
0.1224483565 0.5012367225 0.7471042657
0.1224476201 0.7497853964 0.2463556246
0.1124441354 0.7481971844 0.5005795635
0.1223540952 0.7494339069 0.7450735966
0.1124334573 0.9989589407 0.5020836947
0.1224398877 0.997403274 0.746544589
0.1524551286 0.9994926841 0.4916753649
0.1324098655 0.998392652 0.4949947632
0.1425289676 0.9993690118 0.7462233272
0.1523770684 0.9997725739 -0.0074248627
0.1323325417 0.9999418096 -0.0015197303
0.1524286176 0.7505079027 -0.0051167486
0.1324500002 0.7499285959 -0.0062617201
0.142474841 0.7488415819 0.2452997871
0.1525306113 0.7507161928 0.4953482433
0.1324518412 0.7514517172 0.4955802145
0.1425462734 0.5017541932 0.2418708467
0.1424947243 0.7495575791 0.7428560618
0.1726137999 0.75143219 -0.0118456183
0.1626935303 0.5022384677 0.7403909068
0.1725084923 0.5005682414 -0.0132778291
0.1624921203 0.7482102025 0.2429009096
0.1825624216 0.9990175223 0.7414706778
0.1725799247 0.7525322221 0.4897358273
0.1625131082 0.5017958512 0.2379558713
0.1625915365 0.7512564453 0.7399380105
0.1825708904 0.7520570604 0.2396395041
0.1824166111 0.750833356 0.7384651771
0.1624078006 1.0007684609 0.2405857996
0.1723906656 1.0017838752 0.4931721319
0.1724389009 1.0004950802 -0.0133280988
0.1925228259 0.9984512335 0.49161369
0.2024799164 0.9990435585 0.7461285136
0.1926104595 0.7517381161 -0.0078935496
0.2025005361 0.7485291467 0.2436124723
0.192727918 0.7501238678 0.491921144
0.202602898 0.749843978 0.7401902332
0.2325978874 0.7517966977 0.9935645314
0.2323349866 0.4994278531 0.9960407327
0.2326232938 0.7525582584 0.494916519
0.2325341874 0.5004588891 0.4921641615
0.2225259159 1.0010808961 0.2437054449
0.2125879723 1.0006057343 0.4902098956
0.2125934954 0.9978849448 -0.008831426
0.2127186863 0.7492060896 -0.0079856293
0.232438085 1.0030596521 0.9941076388
0.2225885113 0.7504297939 0.2436179954
0.2126803926 0.7517446252 0.4949634655
0.2226216501 0.5000813633 0.2418699262
0.2224508014 0.7506966656 0.7426176469
0.2526700297 0.7517185889 0.9993730183
0.2525816597 0.5023738563 0.9994190444
0.2424603483 0.7501889585 0.2425906941
0.2525249556 0.7521807326 0.4953519254
0.2425929033 0.5019872178 0.24641822
0.2426006357 0.7511848455 0.7445396945
0.252417807 0.5020627229 0.5001671702
0.2624260784 0.5029961229 0.7477615176
0.2624938288 0.7517576433 0.2480153237
0.2624198189 0.7528967298 0.7499891782
0.2824753918 0.4988042846 0.7487207004
0.2824514583 0.750234522 0.2561380002
0.2824058005 0.4979672188 0.2506839138
0.2825232589 0.7483338748 0.753987921
0.2725021002 0.751328045 1.0026132519
0.2723794868 0.4994649548 1.0023186852
0.2725473898 0.7507617563 0.4991039685
0.2824746554 1.0012240955 0.2546200612
0.2825527156 0.9994406115 0.756608644
0.3125351859 0.9996293744 1.0043622416
0.2923514765 0.7494924885 1.0054208406
0.3024830977 0.4971099748 0.7539741132
0.2924825586 0.4978233684 1.0044819093
0.3025195503 0.748353402 0.2593248435
0.2924394783 0.7504297939 0.5056636005
0.3024488543 0.4979210044 0.2546688488
0.3023490699 0.7501759404 0.7558851146
0.3023704259 0.9972470564 0.261306725
0.3124696448 0.7511848455 1.0079522731
0.312399317 0.5014534744 1.0089924617
0.3125963085 0.7491214717 0.5081177092
0.2924427921 0.9999418096 1.0083296867
0.3325605658 0.7522328051 1.001471806
0.3324471576 0.5009594363 1.0046291927
0.3224112706 0.7493883434 0.2545565453
0.3325984912 0.7489261997 0.4994132636
0.3225224695 0.7493818343 0.7552517962
0.3325163808 0.4974315227 0.5056976597
0.3526676879 1.0005862071 0.4956897565
0.3426369558 0.9993559937 0.7509363942
0.362564024 0.7499611412 0.2484672995
0.3526422815 1.0014519128 0.995525241
0.3626229373 0.7505469571 0.7489683205
0.3627260357 1.0022199826 0.2442890551
0.352627185 0.7507943016 0.9971821786
0.3627039432 1.0003648989 0.7448416254
0.3524268796 0.4987749938 1.0005144642
0.3426575754 0.7504688483 0.2495756067
0.3526187162 0.7520570604 0.4967299451
0.3425500586 0.7512499362 0.752247216
0.3926429649 0.9995642838 0.4902356702
0.372605066 0.7510416461 0.9930950658
0.3725351064 0.5003566968 0.9954239837
0.3826092871 0.7485682011 0.2423578023
0.3726529331 0.7501043406 0.4956124328
0.3825724663 0.5015309323 0.237895117
0.3825061888 0.7512238999 0.742559654
0.3827013392 0.9995512656 0.2404412778
0.382605605 0.9994926841 0.7411926805
0.3725535168 0.9980802168 0.9927728835
0.3725829735 0.5000650907 0.4944498149
0.3925067278 0.746081738 0.9913828969
0.3924146757 0.7497137967 0.4893538112
0.412467303 0.752519204 0.9840923714
0.4124452105 0.7488350728 0.4824443813
0.4123862972 0.4992182612 0.4834799673
0.402555134 0.9986399964 0.237410923
0.402422579 0.4991180216 0.7380500222
0.402510949 0.7518552793 0.2346226652
0.4024925385 0.5016109938 0.2373161093
0.4024336252 0.7505860115 0.734432375
0.4324978378 0.7496812514 0.9791583794
0.4225598942 0.7495055066 0.2327991133
0.4325420228 0.7511197549 0.4806199089
0.4225341196 0.498035564 0.229790851
0.4225451658 0.7504037577 0.7312464522
0.4424468277 0.7488546 0.2303993153
0.4424468277 0.7511197549 0.7281792765
0.4324536528 1.0000394456 0.4796754544
0.4224531137 0.9997790829 0.729410013
0.4425167873 0.9996033382 0.2300053323
0.4524473667 1.0000785 0.9793056627
0.4624920908 0.9997660648 0.2312388303
0.4724337165 1.0009442057 0.4811473673
0.4624405416 0.9997139923 0.730887449
0.4523663609 0.7501954676 0.9763876114
0.4524289563 0.7520440422 0.47846589
0.4724705373 0.7496031426 0.9835492641
0.4624000387 0.7477806042 0.2296398855
0.4725184044 0.7500913225 0.4813508025
0.4624037208 0.7502149948 0.7306582393
0.4723784853 0.4993360753 0.4791461549
0.4823274751 1.0017187845 0.2319660419
0.4923758813 1.0014258766 0.4832756117
0.4923721992 0.999583811 0.9846630943
0.4824342556 0.4991792068 0.7335403903
0.4923869275 0.7505860115 0.4862424505
0.4824011168 0.7502280129 0.2297825663
0.4923243321 0.7503516851 0.9829601307
0.4824011168 0.7496682332 0.7330423885
0.5124874219 0.9997725739 0.4863869723
0.5125610636 1.0000069002 0.9879401487
0.5024169233 0.9999287915 0.2368770209
0.5226352443 0.7493818343 0.7424050065
0.5225836951 0.9986399964 0.2430785702
0.5225247818 0.999785592 0.7440693083
0.5024426978 0.7484835833 0.2348205772
0.5024242874 0.5005786559 0.2341246634
0.5025310679 0.7515428442 0.7354688816
0.5023653741 0.5019768033 0.7354440275
0.5125463352 0.7495185247 0.9870196278
0.5125426532 0.5003469332 0.9834388015
0.5124432369 0.7504558302 0.4876149472
0.5224621864 0.5048707339 0.2402498094
0.5225210997 0.7518097159 0.2457517628
0.5324921821 0.7523304411 0.4959843232
0.5324885 0.4988205573 0.4923574709
0.5325952804 1.0023306367 0.9942088961
0.5425221778 0.9992974121 0.2465213183
0.5525448094 1.000475553 0.4973982433
0.5525043065 0.752415059 0.9975319765
0.5426694612 1.0000459546 0.748041356
0.5425626807 0.7524541134 0.2492672322
0.552526399 0.7530724746 0.5003172151
0.5425958195 0.7495705973 0.7466348001
0.5325584596 0.7517706615 0.9934816846
0.5626558109 1.0005601708 0.2500984625
0.5626042618 0.9999483187 0.7515752357
0.5624790709 0.7515949167 0.2531472278
0.562615308 0.7507227019 0.7534052313
0.5723360087 1.0002282085 0.5015525541
0.5725090667 0.9998506827 1.0001462559
0.5724722458 0.7513866266 1.0040860853
0.5724832921 0.748652819 0.500907269
0.6023302617 0.9962772056 0.2526234514
0.5924512314 0.7478326767 1.0046291927
0.5924917343 0.9979695627 0.5046482659
0.6024628167 0.9961860787 0.7539428155
0.5925396014 0.9975529825 1.0033312582
0.6025806434 0.7499481231 0.2573190285
0.6024149496 0.4989520404 0.2560349018
0.5923923181 0.7491344899 0.5051720423
0.6025475047 0.7476048594 0.7565902336
0.5825464265 1.0004495167 0.2524503934
0.5825537907 0.99959032 0.7526844634
0.5826421607 0.7503647033 0.2560063657
0.5824911953 0.7486332918 0.7565561743
0.6125406795 0.747559296 1.0051538896
0.6125112229 0.7465894452 0.5068593571
0.6125296333 1.001367295 1.0036258249
0.6224933515 0.998991486 0.2526786826
0.6225191261 0.7501824494 0.2560661995
0.622559629 0.7486723462 0.7536878312
0.6426269846 1.0004690439 0.7544141222
0.6524728762 1.0004104623 1.0003579757
0.6325933068 1.0020312197 1.0039664176
0.6324312951 0.7471101704 1.0009286986
0.6326117172 0.4993093881 1.001250881
0.632468116 0.7498569961 0.5011714585
0.6525060149 0.7499936865 1.0022082227
0.6524802403 0.4982458068 1.0007077736
0.6424907475 0.7514452082 0.255778997
0.6424576088 0.5010805049 0.2494099129
0.6525060149 0.7522848777 0.4986050462
0.64251284 0.7506771384 0.7526273911
0.6724997289 0.7511132458 0.9913644865
0.6725623243 0.4993920533 0.993546121
0.6826659617 0.999388539 0.2437708019
0.6724444976 1.0004364986 0.4930165638
0.6825186783 1.0014779491 0.7416363716
0.6826401871 0.7500262319 0.243511215
0.6725255035 0.7494794703 0.4959613102
0.68259232 0.7508724104 0.7449833856
0.6624439586 0.7504297939 0.2500229798
0.6624955077 0.7492646712 0.7495813875
0.702412976 1.0000980272 0.2340933657
0.7024902998 0.5006639247 0.7369131788
0.6924050728 0.749245144 0.9904439656
0.6925670845 0.9994796659 0.4918594691
0.7024497969 1.0014584219 0.734893556
0.6925486741 1.0002216994 0.9885568977
0.7025970802 0.7476308957 0.2338356198
0.7026044444 0.4974510499 0.234396217
0.692412437 0.7504558302 0.4876545296
0.7025123923 0.7480735121 0.7350841038
0.7225281987 0.5003671113 0.7347297033
0.7324182753 0.7465503908 0.981257167
0.7223698691 0.7492256168 0.2337536934
0.7224692854 0.497164651 0.234021565
0.7324661424 0.7496031426 0.4830887459
0.7224361466 0.7490563811 0.7323004486
0.7223919616 0.9997400286 0.7339067576
0.7123730122 0.7501629222 0.9820304046
0.7123730122 0.7481776572 0.4830859844
0.7425071843 0.4988290191 0.7293971257
0.7423856756 0.7476178775 0.2339451618
0.7424850918 0.4996406996 0.2322339134
0.7423672652 0.7497528511 0.7325002016
0.7525519084 0.498070062 0.4798595586
0.7524414459 0.7488220547 -0.016373946
0.7626334533 0.5010297342 0.7306232595
0.7625193087 0.7488350728 0.2315886283
0.7624640775 0.5011403883 0.2273708015
0.7523052088 0.7482362388 0.481109626
0.7625008983 0.7498895415 0.7327772784
0.7824651556 0.7493753253 0.2330053099
0.7825793002 0.5013987982 0.227988471
0.7726045357 0.7500848134 0.4816030252
0.7825424793 0.7495510701 0.7329079924
0.7725971715 0.9987311234 0.4797583013
0.7724314778 0.4979834914 0.4773575828
0.7726008536 0.7502931035 -0.0189107911
0.7824909302 0.5004562855 0.7255438252
0.7725235298 0.4990561855 -0.0186174211
0.7925945675 0.7485356558 0.4797334472
0.8126324665 0.4996556704 0.4835315165
0.8124962294 0.7504232849 -0.0134338206
0.8025877424 0.5009971889 0.7319874715
0.8026687483 0.7487895094 0.2362510666
0.8026724304 0.5003905439 0.2315803436
0.7925761571 0.501609041 0.4825235461
0.7925651109 0.7500327409 -0.017984655
0.8124851832 0.7498830324 0.4846039233
0.7926056138 0.5014430599 -0.0233606812
0.8026540199 0.7501238678 0.7342850917
0.8326666834 0.4973631775 0.4883817411
0.8326261804 0.7494339069 -0.0126852254
0.8225851385 0.4981149746 0.736104041
0.8325451746 0.4993334717 -0.0110062045
0.8225409535 0.748952236 0.2372231367
0.8225593639 0.4986604343 0.2384870119
0.8323905271 0.7482948204 0.4894974124
0.8226808726 0.7493167437 0.7378033226
0.8626130693 0.7498049236 0.7478360798
0.8624915605 0.4986916778 0.7486986079
0.8525315244 0.7502084857 -0.0059721518
0.852557299 0.4992833519 -0.0029545462
0.8625431097 0.7518422612 0.247828458
0.8625799305 0.4990529309 0.2493721715
0.8527193106 0.7505013936 0.4962439101
0.8427150895 0.748750455 0.2450779415
0.8425236212 0.5008949965 0.237939302
0.8426819507 0.7492581621 0.7442414457
0.8526198944 0.4999746146 0.4919607264
0.8725178742 0.500264919 0.4988701562
0.8824594999 0.750533939 0.7517869555
0.8924379464 0.4986675943 0.501504687
0.8725583771 0.7501303769 -0.002556421
0.8924084898 0.7493623072 0.0039670989
0.8825147311 0.4993334717 0.7494985406
0.8724626429 0.5002206573 3.1448121228e-04
0.8924379464 0.5001262759 0.0017570203
0.8825699624 0.7505079027 0.2526648748
0.882507367 0.4985764673 0.2466768864
0.872466325 0.7498049236 0.4997906771
0.8924526748 0.7498765233 0.5050422489
0.8825220953 0.9970517844 0.2513724635
0.8825257774 1.0001696269 0.7555666144
0.9124500708 0.751126264 0.5086709423
0.9124795275 0.9977677816 0.0096733159
0.9124905737 0.4985556383 0.5111729181
0.9024679422 0.750136886 0.7574150203
0.9124795275 0.7521416782 0.0089723393
0.912505302 0.501957927 0.0095701256
0.9026410001 0.7511978637 0.2568265498