POSCAR file written by Ovito 3.7.11
1
271.5955533256 0.0 0.0
0.0 15.3637645997 0.0
0.0 0.0 10.863822133
Sr Ti O 
800 800 2400 
Direct
0.0225911933 0.499696038 0.7824812484
0.0125580393 0.2500384769 0.5321761563
0.0225813625 0.2506665782 0.7821148949
0.0026135466 0.250397113 0.7845136823
0.0124866096 0.2509067537 0.030814487
0.0226284177 7.7313732523e-04 0.2807278201
0.0026005862 5.4155345938e-04 0.282659921
0.0026115952 0.4997272804 0.2837506973
0.0126568627 0.497928893 0.5353923356
0.0124494587 -2.0027652072e-05 0.5322995015
0.0225279743 8.6717019089e-05 0.7818166573
0.0025352316 -3.6805433299e-04 0.7843682455
0.0225956116 0.248872747 0.2831836777
0.0025327279 0.249104461 0.2837506973
0.0325391102 0.5013369119 0.0298263449
0.0426372137 0.5017352518 0.2804571971
0.0325877119 0.5015809927 0.5320049458
0.0326473594 0.2492352883 0.5308985212
0.0425370647 0.2500397787 0.7810121522
0.0326727648 0.2487308547 0.0283193246
0.052530601 0.4994786434 0.024300205
0.0426593053 -0.0016458662 0.7771194154
0.042598185 0.251959881 0.2805418819
0.052621545 0.2516539664 0.5271208453
0.0526554189 0.2498822652 0.0294697484
0.0626294408 0.2498041593 0.2765773471
0.0626452732 0.5013395154 0.7727820838
0.0724727537 0.50085591 0.0216431291
0.0624000556 0.4987014901 0.2745697664
0.0726041991 0.5013961422 0.5232179831
0.0724981591 0.2519247333 0.5231553901
0.0626460096 0.2504556923 0.7762946597
0.0726240816 0.2511885856 0.0222243242
0.0926523919 0.2510590601 0.5221060356
0.1025063824 0.2502942736 0.7743874119
0.0825657024 0.2504042727 0.7725547236
0.0924638763 0.2503788883 0.0232020648
0.1025214783 -0.0011291308 0.2675335687
0.0923850826 5.2410981799e-04 0.5192672557
0.1024029197 0.2492801992 0.2722667096
0.0825196781 0.2502474101 0.2727435215
0.1024309025 0.5003417131 0.7711997677
0.0824935363 0.5006053204 0.7706465554
0.1024982821 0.4980753415 0.2696976322
0.0823451539 0.5003247902 0.2736087787
0.1224349119 0.2508872272 0.2693110279
0.1124597854 0.5005988116 0.01884752
0.1124273843 0.2478873114 0.5196170405
0.1223940423 0.4999362136 0.2668027026
0.1124240705 0.5005727763 0.5182160603
0.1225229104 0.2504654556 0.7694876631
0.1125323197 0.2485590218 0.0203381556
0.1224165021 -1.7077195598e-04 0.267310811
0.1524836365 0.2508475234 0.5162259688
0.1324118793 0.2485271286 0.5185345486
0.1423917924 0.2503079421 0.7629273569
0.1524740635 0.2516754455 0.0185850894
0.132437653 0.2489749355 0.0203980793
0.1424654313 1.2277588971e-04 0.2636675261
0.1425508524 0.2532596926 0.2658638065
0.1424845774 0.4993640881 0.7656989413
0.1524228844 0.503197784 0.0139834861
0.1324380212 0.5002226017 0.0129645997
0.1525804717 0.5012959063 0.513007028
0.1325514251 0.5017033586 0.5147154507
0.1825423024 0.2525684558 0.2632597506
0.1723948609 0.5025983215 0.5154407939
0.1824889142 0.5002714179 0.7613459613
0.1725844811 0.2494019142 0.5146537781
0.1625957314 0.2530559665 0.7654320002
0.1725756444 0.2501549848 0.0142505192
0.1825400933 0.5031593819 0.2599745348
0.1625456569 0.0028109191 0.7620409285
0.1625865265 0.250695217 0.2672408541
0.1825978998 0.2514111873 0.7597397126
0.1825176334 0.0019844941 0.2610478219
0.192445631 0.0015957873 0.0075120988
0.2025820267 0.2498698984 0.2538533006
0.2025441027 0.5009613529 0.7501141869
0.1924971782 0.5020548349 0.0043741608
0.2024498449 0.5005363269 0.249340156
0.1924736138 0.5002134893 0.5051534385
0.192489078 0.2501445707 0.5085647609
0.2024748821 0.251611659 0.7532631707
0.1924596224 0.2524727761 0.0084705092
0.2025739264 -2.0012674055e-04 0.2502357892
0.2125497893 0.2517730778 0.5036235902
0.222525284 0.24950215 0.7538532024
0.212479096 0.2502688892 0.0024730804
0.2226018685 -1.9973621127e-04 0.7481379027
0.2225698355 0.2472592102 0.249340156
0.2325206612 0.248900084 0.4985572333
0.2325931955 0.2476529938 0.9976145571
0.2326329605 -3.6564606906e-04 0.4952480848
0.2225274932 0.5028215741 0.745753843
0.2125446346 0.4978553433 0.0017432268
0.2124577407 0.5016024718 0.4985443465
0.2424663321 0.50173395 0.7442175513
0.2625263071 0.2527409395 0.7448066626
0.2625244661 -2.7400186358e-04 0.2430569162
0.262492065 0.00258285 0.7472312236
0.2526620071 0.2486618612 0.495167082
0.2425451258 0.2511020183 0.7434931285
0.2525257752 0.2506327323 0.9971174945
0.2625075292 0.2516526646 0.2474071347
0.2425182476 3.9113459654e-04 0.2462169458
0.262599946 0.5006502313 0.2450000629
0.2525692221 -0.0013012241 0.4942079353
0.2425130928 -2.9320288675e-04 0.7459793622
0.2526119327 5.182973632e-05 0.9940890944
0.2425480713 0.2505285911 0.2452301844
0.2726604936 0.2499434481 0.4939750522
0.2726336154 0.2482290245 0.993168608
0.2725227889 5.9193173711e-04 0.4945015704
0.2725264708 -0.0016374047 0.9920824341
0.282444159 0.2500339207 0.7419025281
0.2723780884 0.5005337234 0.4943616565
0.2826021144 0.2523920667 0.2430992585
0.3126239609 0.0014009132 0.4806408869
0.2925308484 0.5002642581 0.4903658252
0.292460155 0.249739722 0.4901025661
0.3025733545 0.2520848503 0.7362489009
0.2924469 0.2491330998 0.9894222286
0.2925724544 -1.1342923934e-04 0.4898825699
0.3026337384 -2.5909666255e-04 0.7349445718
0.312450173 0.5005200548 0.4843117865
0.3025921324 0.2497241008 0.236120131
0.3126110741 0.2501100739 0.4851006433
0.3125687317 0.2474395045 0.9830708727
0.3225243439 -8.8370276901e-05 0.2313032259
0.3325495448 0.0010500226 0.4790797421
0.3225906189 -0.0014149332 0.7308612943
0.3324770105 2.7007051827e-04 0.978937889
0.3225688954 0.2522488726 0.2330724007
0.322539808 0.4976809069 0.7299997191
0.3224808969 0.4981911985 0.2319512483
0.3325362898 0.2478437023 0.4841507014
0.3225383353 0.2468101015 0.7344502706
0.3325130936 0.2500169978 0.9779897881
0.3623850848 0.2472390328 0.22934259
0.3524121675 0.4994858031 0.4773713194
0.3525034798 0.2515231391 0.4736497931
0.3423188506 0.2492561166 0.7308530099
0.3624071765 0.4983330908 0.7282379082
0.3524029627 0.2496030367 0.9773638573
0.3624255862 0.5001588152 0.2258640721
0.342522094 -0.0015869613 0.2268894939
0.3424042717 0.2484815668 0.2288142308
0.3623372196 0.2487315056 0.7276460355
0.3425084708 0.4976125643 0.728286694
0.3424771742 0.5003527781 0.2283530672
0.3824001401 0.2464742463 0.229881995
0.3924849885 0.2511404204 0.4745711999
0.3924665788 0.2496043385 0.9737831654
0.3925033983 -0.001743173 0.9747036518
0.3825363721 0.499972663 0.7264383574
0.3924039857 0.4999941421 0.9769404336
0.3724404778 0.2494793691 0.4782264512
0.3822565442 0.2484978389 0.7260333434
0.372289518 0.2504537397 0.974418301
0.3923524385 0.4995827845 0.4789333847
0.3723152916 -0.0016691026 0.4784372426
0.4124889979 0.4999694085 0.9713530815
0.4025146078 0.2500137434 0.7238195737
0.4025587912 -6.5144841728e-04 0.7221636188
0.4024998801 0.2496186579 0.2229663811
0.4125589549 0.2486215065 0.4700552939
0.4125773646 0.2497976505 0.9687665148
0.4124779521 9.2596445199e-04 0.4690197467
0.4125589549 0.0014031261 0.9676619312
0.4425520822 -9.7437142406e-06 0.7121036235
0.4425594461 0.2497338641 0.2154727017
0.4225664825 0.5018602212 0.7181429344
0.4324414601 0.5010973873 0.9652778716
0.4325997838 0.5004823037 0.4664902502
0.4425042169 0.5000052071 0.709973618
0.4426146753 0.5015347801 0.2149010796
0.4325408726 0.2500280628 0.4645627518
0.4226364395 0.2519078104 0.717089898
0.4326402851 0.2507088855 0.9640168052
0.4224486603 0.0016505265 0.2171406229
0.4326071476 0.0017038988 0.9642745414
0.4225922561 0.2510623145 0.2174195303
0.442563128 0.2484353542 0.7136739732
0.4728103095 0.2512237333 0.4585473735
0.4626960055 0.2490986031 0.7091470213
0.4725415275 0.2503190071 0.9629122216
0.4726114845 4.6019319173e-04 0.9633356453
0.4626113208 0.2511130833 0.2096552279
0.4525669737 0.5008721821 0.9609792003
0.4525338362 0.5004074522 0.4594365633
0.4626812777 0.5022898034 0.7101089295
0.4726372581 0.4982530323 0.9574537376
0.4626334124 0.500635261 0.2077783563
0.4525927473 0.2500007257 0.4584037776
0.4526774321 0.2488707943 0.9613658046
0.4525080626 7.3987724781e-04 0.4628764208
0.4825416912 0.2504543906 0.7119793578
0.4826042843 -3.5210772053e-04 0.7139179021
0.4924792619 0.4997220733 0.9631791627
0.4925676286 0.5006059713 0.4619172741
0.482560101 0.2504179412 0.2115661576
0.4925565827 0.2502910192 0.4645793206
0.4926707231 0.250540307 0.9588252622
0.4824422787 0.5034210365 0.2134098918
0.5024646978 0.251075983 0.7146901901
0.5126010935 0.2484731053 0.4604527803
0.5123949046 0.2501972921 0.9607766933
0.5025567465 -8.4404444287e-04 0.7145861751
0.5025714743 0.2505012541 0.2147823369
0.5224355697 0.2511417221 0.2105250875
0.5224944809 0.2513200638 0.7137503735
0.5124574977 0.5017053112 0.461481884
0.5224061142 0.5021850113 0.7100389726
0.5425758111 0.5041278945 0.7176026089
0.552494972 0.4998639656 0.9694844942
0.5425684472 0.5021303372 0.2158298504
0.5523513762 0.5002766249 0.4691412509
0.5326382404 -9.2859403301e-04 0.465763066
0.5325535557 0.2507199505 0.4643077771
0.5326750599 0.2501471742 0.9649833159
0.5325719654 0.498868116 0.9619549158
0.5526054304 -9.3646970692e-04 0.9713070572
0.5424911264 0.2505559282 0.2181586808
0.5525317915 0.2521291103 0.4698205699
0.5426715417 0.2514521929 0.7156023921
0.5524728804 0.2507980564 0.9719606025
0.5724952995 0.2523028959 0.4709951105
0.5725173911 0.2533176211 0.972328797
0.5623883593 0.5009327141 0.7212569397
0.5623589038 0.5022598628 0.2207001437
0.5723664314 0.5016460809 0.972393231
0.5725100273 0.5002551458 0.4728756641
0.5625577288 0.2490009708 0.2242228449
0.5625614108 0.2503964621 0.7211372765
0.6024847448 0.5039202631 0.7250622303
0.5924735352 0.5001399397 0.9759186938
0.5924109422 0.5013317049 0.4785550649
0.5826096035 0.2513942644 0.7215063915
0.6023890142 0.2522970379 0.2271555144
0.592491945 0.2549487318 0.4700580553
0.6025473379 0.2513233182 0.7259725913
0.5925250825 0.2520685783 0.9710217064
0.5824733715 0.5010030094 0.7247824025
0.5823997326 0.5043283662 0.2217752717
0.5824586437 0.2512484668 0.224423511
0.6125622294 0.5023373178 0.9815612751
0.612451771 0.5009633056 0.4787005017
0.6223782958 0.5012698711 0.7312874795
0.6124370432 0.0010430581 0.4758202999
0.6224298431 0.5017001042 0.2278329924
0.6125070002 0.2543980855 0.4743926256
0.6123376307 0.2535128858 0.9764525759
0.622433525 0.0010152004 0.7294428249
0.6225476653 0.2534848978 0.232645295
0.6224261611 0.2534829452 0.7242558843
0.6424853997 0.0014795397 0.2323498189
0.6523566953 0.001389718 0.4838220878
0.6324005512 0.5013108766 0.481311001
0.6424780358 0.2518635504 0.2315913382
0.6525260648 0.2502480609 0.485896864
0.6424596261 0.2511020183 0.7310039697
0.6324373707 4.5322875281e-04 0.4819783536
0.6525739301 0.2513988206 0.9826014247
0.6424448983 0.4998008301 0.73094782
0.6523971967 0.5017150744 0.484344924
0.6325110096 0.2516207714 0.4799118617
0.6324042332 0.2511488818 0.9792416495
0.6824750088 0.5004757948 0.7433532146
0.662430498 -0.0019143485 0.2389110456
0.6825376018 0.499839883 0.2409729351
0.6625115008 0.0016602246 0.7369935744
0.6724527534 0.4993686443 0.4888212491
0.6624047244 0.250109423 0.2375321571
0.6624120882 0.2489788408 0.7385132974
0.6724564353 7.052503179e-04 0.9901217982
0.6623899966 0.5014000475 0.7364725791
0.6624673174 0.5020990949 0.2380098895
0.6824639629 0.2495385994 0.2412039771
0.6723496589 0.2511684083 0.4870529949
0.6825817852 0.249170851 0.7431727993
0.6725116645 0.2513480518 0.990738524
0.702486382 0.2503873497 0.2441522949
0.692372078 0.2502005465 0.4937955574
0.7023206945 0.249237241 0.74271992
0.692442035 0.2497403729 0.99235858
0.6925488114 0.5007940762 0.9936288512
0.6923868058 0.4990360435 0.4927121449
0.7324574177 0.4982165829 0.9958380184
0.7324868732 0.4994207149 0.4993460901
0.7124349985 0.2478365426 0.4938839241
0.7123503138 0.2496010841 0.9958748379
0.7225088012 -0.0032946092 0.2454087588
0.7324021885 -7.3547730171e-04 0.4937541355
0.7324795093 5.0419282447e-04 0.995598692
0.7125749125 0.5008663241 0.9960497303
0.7223946609 0.2495112624 0.2463016306
0.7324795093 0.2481678416 0.4975842792
0.7225014373 0.2493016783 0.7457547635
0.7324537357 0.2475950653 0.9985350434
0.7125086374 0.4975272987 0.4954146929
0.7124644541 8.753258214e-04 0.4953106779
0.712265629 1.191105732e-06 0.9923309654
0.7524687909 0.4987372886 -0.0011997154
0.7423913064 -0.0020157885 0.2473325753
0.7424796731 -0.0033438289 0.7466034519
0.7423397591 0.2493303171 0.2454308505
0.7424759911 0.2474603327 0.7464018654
0.7624174074 -0.0024735084 0.2486746444
0.7525387479 1.8994692669e-04 0.4983648516
0.7623953158 -8.7867137278e-04 0.7503130119
0.7524025159 -3.7287086083e-04 -8.3768810292e-04
0.7625389116 0.2481854154 0.2538164811
0.7525240201 0.2483207989 0.4978861987
0.7624247713 0.2484939336 0.7515455431
0.7524503812 0.248148966 0.0015490962
0.7822557293 -0.0024898064 0.2567215361
0.7823330501 -0.0015441333 0.7579180701
0.7724175712 5.9310332496e-04 0.0054555482
0.7825686946 0.2473646531 0.260298546
0.7724875281 0.2490641063 0.5045716911
0.7824987377 0.2474473151 0.7623907133
0.7725206656 0.2474401554 0.0041803064
0.7924694458 -8.1475474651e-04 0.5122586726
0.7924068528 -0.0014970094 0.0096843546
0.8124108622 0.499580181 0.0131635168
0.7924473542 0.2454810001 0.5137250074
0.7926351334 0.2481027534 0.0146595833
0.8023922887 -0.0016210675 0.2605489183
0.8124660913 -0.0019783107 0.513277651
0.8023444234 -9.6074761079e-04 0.7632716188
0.8124255899 -0.0010157472 0.0117608797
0.8025579763 0.2480682567 0.2623990959
0.8124992288 0.2502812559 0.5131635107
0.8024585637 0.2481177237 0.7626871099
0.8124992288 0.2484242892 0.0147418748
0.8326321063 -7.3027024458e-04 0.519716453
0.8223631606 -0.0032490344 0.7641157048
0.832521648 -0.0028404432 0.0132968953
0.8225656676 0.2494741621 0.2624202671
0.8324701007 0.2503548056 0.5152079109
0.8225472579 0.2470112241 0.7638542866
0.8325106021 0.2495971788 0.0155853164
0.8224625731 -0.0023649087 0.2676357427
0.8425844048 -0.0014496252 0.7670152368
0.8426175423 0.2466805759 0.2685120457
0.8424923561 0.2471778499 0.7649634727
0.862533185 -0.0016424165 0.2684963975
0.8425070839 0.4984619655 0.7632688573
0.8524741101 -0.0022968524 0.5147890896
0.8624116808 -5.0669222907e-04 0.7664813547
0.8524777921 -0.0022296163 0.0158546507
0.8625147753 0.2467267886 0.269199649
0.8425328575 -0.0018643998 0.2655305904
0.8525808865 0.2496453441 0.5165288088
0.8625884142 0.2473770198 0.765077613
0.8524998837 0.2484373068 0.0155322964
0.8725333487 -0.0029849976 0.5160897368
0.8925778595 -6.2001080986e-04 0.5196391322
0.8724744376 -0.003138033 0.015745389
0.8825040569 0.2478424005 0.2666489814
0.89254104 0.0013686294 0.0216255479
0.8725002112 0.2482407404 0.5159691531
0.8926735901 0.2492775957 0.5167083036
0.8825482402 0.2489807934 0.7640706009
0.8725407126 0.2485108565 0.0174220549
0.892544722 0.248751032 0.0163970933
0.9024454732 -2.4425654973e-04 0.2691168053
0.9124935022 -0.0010093034 0.5237730364
0.9024859746 -0.0019369797 0.7710294777
0.9024381093 0.249822384 0.2674755781
0.9124898203 0.2495301379 0.5206332574
0.9024086537 0.2481919243 0.7705314946
0.9025007024 0.4994369869 0.7708582673
0.9124640466 0.2494116774 0.0220314823
0.9226114882 -0.0014651813 0.2790691037
0.9226004423 6.2603796131e-04 0.7788287586
0.9225304854 0.2501829727 0.2749425634
0.9225967604 0.2497742187 0.7684373882
0.9424682198 -8.764583735e-04 0.2780943087
0.9326153338 -0.0010175696 0.5255339268
0.9424387642 -4.9172193982e-04 0.7779009084
0.9324422824 -0.001825054 0.0268832738
0.9423688072 0.2494709077 0.2738296954
0.9326300616 0.2515348549 0.5266062934
0.9425124031 0.2511293554 0.7750538441
0.9325932422 0.2486091397 0.0233718025
0.952501521 -0.0032066685 0.5291054138
0.9523763348 -0.0010944388 0.0287310582
0.9626305528 0.2501361092 0.2808106639
0.9524867932 0.2474915751 0.5262684749
0.9725938971 0.2477265435 0.5313652078
0.9624943208 0.2483826327 0.7809237855
0.952295332 0.2499362884 0.0279437662
0.9726123068 0.2495503153 0.0300046431
0.9625532319 -0.0010306524 0.2815746676
0.9825461955 0.5003189322 0.7831025767
0.982785522 0.4979959339 0.279050694
0.9826419261 -0.0027101626 0.2810499903
0.9923696258 1.3883307486e-05 0.5310034567
0.9825388316 0.24756903 0.2773698859
0.9925095398 8.08935843e-04 0.0325040397
0.9925316314 0.2501751621 0.5325259411
0.9826382441 0.2492170636 0.7806292299
0.9925684509 0.2503684741 0.032690162
0.0126181655 0.7505896244 0.0359752857
0.0025793782 0.5002915952 0.7809919015
0.0126061992 0.5008975665 0.0316443975
0.0225924819 0.7494961424 0.2831081978
0.0025043401 0.7500103393 0.281003966
0.0126732842 0.7499257246 0.5323013424
0.0226643903 0.7505115185 0.7845689115
0.0226374017 0.4999824262 0.2805501662
0.00259429 0.7502576745 0.7823091175
0.0126386739 1.0013029164 0.0350065659
0.0525151368 1.0020384132 0.5257391952
0.0526373774 1.0018691838 0.027121956
0.032661719 0.7504854832 0.0328781253
0.0428319886 0.4989045654 0.7780859261
0.0426298498 0.7500949539 0.2785619157
0.0326867562 0.7498931805 0.5323528897
0.0427200574 0.7511884359 0.7795817164
0.0526996023 0.7505635891 0.0264938161
0.0526502642 0.7513576653 0.5270748209
0.0525942986 0.4994220167 0.5224355697
0.0425013499 0.9995455346 0.2758188664
0.0327003794 0.9994348846 0.5304833819
0.0326955929 0.9994804464 0.0306610419
0.0724981591 1.0027999453 0.5211450479
0.0624648579 1.0026762777 0.7711067986
0.0725533883 1.0045117653 0.0216043767
0.0723567724 0.752971853 0.0199085647
0.0625893076 0.7518718622 0.2730537254
0.0724738583 0.7529848707 0.5220250328
0.062453812 0.7530174148 0.7734503568
0.0625263464 1.0005283666 0.2748707655
0.0825303558 1.0004828049 0.2721617741
0.1024953365 0.9986212819 0.7657974333
0.0825285148 1.0018040956 0.7705627912
0.0924219021 1.0002419785 0.0213569499
0.0925117416 0.7501144804 0.0199233845
0.0923434766 0.5000481653 0.0210199599
0.1023926102 0.7505896244 0.2673890524
0.08241732 0.7512014536 0.2713848836
0.092491859 0.7504529391 0.519417295
0.1023539498 0.7490925954 0.7710865479
0.0824360979 0.7518588445 0.7698899156
0.0925319923 0.5013688051 0.5213512368
0.112443953 0.9980029439 0.0201814889
0.1124829816 0.7484742574 0.0165105893
0.1223852056 0.499552844 0.7677203293
0.1224492715 0.7489428926 0.2664464744
0.1124520533 0.7513511565 0.5176103803
0.1225994948 0.7503032362 0.76709716
0.1124671493 1.0004372431 0.5196244044
0.1224684176 0.9997342904 0.7663000189
0.152414416 1.0012703722 0.515639619
0.1324917776 1.0013289516 0.5156515853
0.1424532809 1.0010295459 0.766996827
0.1524725907 1.0023443278 0.0158716797
0.1324398621 0.9992591464 0.0153257393
0.152530029 0.7531671177 0.0154398796
0.1324424395 0.750895539 0.0155361624
0.1424146204 0.7505115185 0.2617409481
0.1524968915 0.7541824938 0.5094364615
0.1324855182 0.7522949356 0.5130990767
0.1424322938 0.4993009526 0.2682957314
0.1425173467 0.7505831156 0.763930687
0.1725601802 0.7535576469 0.009808252
0.1626428603 0.5030148861 0.7645860733
0.172510474 0.5017131218 0.0132227961
0.1624657587 0.7515008594 0.2629173297
0.1825238927 1.0028650335 0.7588201468
0.1723503094 0.7528742207 0.5098304296
0.1625478661 0.5007407039 0.2628151557
0.1624786455 0.7526724472 0.7637852502
0.182371092 0.7505831156 0.2610855619
0.1823854516 0.7517091417 0.757959492
0.1625228289 1.0020774661 0.2648972958
0.1724810184 1.0023963983 0.5116760048
0.1725270427 1.0033857392 0.0128765092
0.1924088115 1.0018301309 0.5049454086
0.2025194336 1.0017650427 0.7515317358
0.1924143345 0.7523014444 8.925132728e-04
0.2024513176 0.7522168297 0.2503471681
0.192432376 0.7510192066 0.5036677735
0.2022963077 0.7506547126 0.75216411
0.2323280954 0.7514357712 0.9919351563
0.2325383345 0.4997754457 0.9982312829
0.232452177 0.748526328 0.4927416005
0.2324562271 0.498674804 0.4972096413
0.2224218213 0.9995715699 0.2487096229
0.212621219 0.9993307435 0.499618554
0.2124279169 0.9989141789 9.7379221765e-04
0.2124919828 0.7482269222 -0.0040812519
0.2327036539 0.9994739375 0.9963166713
0.2223916294 0.7490405249 0.2480413498
0.2125398481 0.7500493922 0.498274644
0.2225289659 0.4995652107 0.2457870787
0.2224796279 0.7486695221 0.7470977531
0.2524528727 0.7490209984 0.9949451467
0.2524469815 0.5007263845 0.9929200767
0.242445345 0.7505896244 0.2443778141
0.2525033153 0.7498085658 0.4930867829
0.2425226659 0.498525752 0.2449650844
0.2425197203 0.7496067923 0.7436376449
0.2525810044 0.5010479202 0.4949793028
0.262545085 0.5009014718 0.7471465389
0.2624736553 0.7495677394 0.2446392322
0.2624272628 0.7505440626 0.7476482039
0.2824459999 0.5006665033 0.7434112052
0.2825281073 0.7487671544 0.2421115767
0.2824949698 0.5031802101 0.243777657
0.2824205945 0.7476671636 0.7409120848
0.27247566 0.7511038213 0.99404307
0.2723961299 0.5012301672 0.9926439308
0.2725110066 0.7516635799 0.4954570352
0.2826260471 1.0024484689 0.2428498067
0.2825711861 0.999311217 0.7431866066
0.312713064 0.9987189143 0.9836323694
0.2924874014 0.7522168297 0.9887134541
0.3024952973 0.501651288 0.7357518383
0.2924631006 0.5002688143 0.9902782809
0.302441909 0.7481748516 0.2369826267
0.2925175934 0.7480837281 0.4912356848
0.3025258574 0.4989546833 0.2382206809
0.3025634132 0.7503422892 0.7385519578
0.3025151798 1.0005609107 0.2356387167
0.3125621042 0.7485783986 0.9841662515
0.3123437648 0.4981397788 0.9835679354
0.3126548892 0.7485393456 0.4821762582
0.2926022781 0.9998514492 0.987231471
0.332525244 0.7478754458 0.9790299376
0.3323054318 0.4973867082 0.9787077674
0.3224216176 0.7513771918 0.2304057518
0.3325900462 0.7499322334 0.4809805464
0.3225563768 0.7499908128 0.7339476851
0.3323639748 0.4983024994 0.4828040299
0.3524423595 1.0009319135 0.4771807787
0.3424664966 1.0005413842 0.7267062189
0.3625581363 0.7495872659 0.228435911
0.3525141574 0.9994348846 0.9802725942
0.3626060016 0.7461310817 0.7271848718
0.3625397266 0.9996431669 0.2244907065
0.3524530371 0.7495677394 0.9783119583
0.3623887668 0.9998644668 0.7269179308
0.3521875688 0.4992033203 0.9784500312
0.342414213 0.7495286865 0.2307546161
0.3526452347 0.7510192066 0.4726262123
0.3424753333 0.7499322334 0.7282673638
0.3924334413 0.999857958 0.4761664028
0.3725472542 0.7501535333 0.9805855596
0.3723668388 0.497768776 0.9785236702
0.3824627331 0.7500233569 0.227455593
0.3724846611 0.7474588813 0.4804890067
0.3824627331 0.4991720779 0.2287856958
0.3824885068 0.7477387606 0.7276138185
0.3822528623 0.9991159524 0.2281321505
0.3823670026 0.999382814 0.7271443704
0.37242575 0.9999360639 0.9779161492
0.3723889305 0.498834921 0.4769175196
0.3925033983 0.7513186124 0.9742710232
0.3924334413 0.7484026604 0.4783120565
0.412485316 0.7507718714 0.9720342414
0.4123601299 0.7506742391 0.4706462461
0.4124926799 0.4981215541 0.4697064296
0.402573519 1.0003461196 0.2229562557
0.4025256537 0.5022383837 0.7241546308
0.4023489203 0.7499647775 0.2222410378
0.4023894217 0.4997741439 0.2259321881
0.4023489203 0.7501860774 0.7252555324
0.4325887379 0.7518588445 0.9673489658
0.4225443908 0.7512339977 0.2194409183
0.4326991963 0.7503683244 0.4640030961
0.4226180298 0.5011169138 0.2180482225
0.4225664825 0.7516635799 0.719482242
0.4425852197 0.7514618064 0.2120162754
0.4425226266 0.7510842948 0.7157818869
0.4324672337 1.0011597223 0.4640399156
0.4225517547 1.0004697872 0.7148917766
0.4425594461 1.0010100194 0.214742756
0.4526001112 1.0003981902 0.9641272636
0.4625487277 0.9998644668 0.2092032691
0.4726851234 1.0017064633 0.460336799
0.4625045443 1.0006390166 0.7097296892
0.4526074751 0.7499192158 0.9613289851
0.4525264723 0.7491121219 0.4604463369
0.4725857109 0.7505896244 0.9604729328
0.4626739138 0.7513251212 0.2067879129
0.4725157539 0.7507718714 0.4585556579
0.4625008624 0.7512795594 0.7079945724
0.4726335762 0.4993159229 0.4600588121
0.4825711468 0.9998189051 0.2150161404
0.49247558 0.9998839933 0.4619688213
0.4924166688 0.9987840025 0.9590369741
0.4825416912 0.5016083298 0.7139887795
0.4925934022 0.7525487796 0.4633974161
0.4824496426 0.7519369504 0.2090569118
0.4925160814 0.7511298566 0.9629490411
0.4825048718 0.749073069 0.7068329186
0.5126121394 1.0006064725 0.4589238524
0.5124206782 1.0001768902 0.9599022313
0.5025088812 0.9996496757 0.2134439497
0.5225754836 0.7509996801 0.7127995111
0.5225349822 1.0015307251 0.2111528592
0.522553392 0.9996626934 0.7122426169
0.5025383367 0.7502902186 0.2117944382
0.5025309729 0.4990777 0.2115090874
0.5025530645 0.7491772101 0.7113304149
0.5024831076 0.5001301764 0.7143514511
0.512501681 0.7482008869 0.9590369741
0.5123249476 0.5004790493 0.9614670581
0.5125200907 0.7506807479 0.461483725
0.5224576614 0.4980772942 0.2077940045
0.5225754836 0.7513251212 0.212244556
0.532468871 0.7504008686 0.4620967689
0.5325130543 0.5014482128 0.4634701345
0.5327192432 1.0008863518 0.9653515105
0.5426384042 1.0019928514 0.2157065052
0.5525870207 1.0021750984 0.4712473237
0.5524434248 0.7493659659 0.9701564492
0.5425905389 1.0019863426 0.7158343546
0.5426347222 0.750166551 0.2176146734
0.5524839262 0.7517221593 0.4684785008
0.5426163125 0.7528872383 0.7170687268
0.5325866932 0.7500624098 0.9605833912
0.5625245913 1.0016674104 0.2211640688
0.5626166399 1.0003851725 0.722152573
0.5623662677 0.7489819455 0.2237221004
0.5624435885 0.7500689187 0.7198007303
0.5725063453 1.0017845691 0.4751824029
0.5723848411 1.0030342628 0.97246687
0.572462162 0.7499322334 0.971656842
0.5725173911 0.7491316484 0.4729631103
0.6025142004 1.0020123779 0.2256505193
0.5924735352 0.7498996893 0.9741145405
0.5925766297 1.0030863334 0.4758580398
0.6025436559 1.0008342812 0.724208019
0.59255822 0.9993047082 0.9743998913
0.6024810629 0.7496263188 0.2269971908
0.6024663351 0.5021680884 0.2258226502
0.5925250825 0.7526919737 0.4733892955
0.6024331976 0.751696124 0.7282241009
0.5826059216 1.0027088218 0.2265599598
0.5825911938 1.0008733341 0.7226293849
0.5825286007 0.7499192158 0.2231799339
0.5825506924 0.7514292623 0.7224020248
0.6123302668 0.7540002468 0.97988599
0.6122382182 0.7520801445 0.4773022829
0.6125990488 1.0005674195 0.9785512847
0.6224003875 1.0020774661 0.2296242588
0.6224777084 0.7514618064 0.2332316449
0.622437207 0.7516505623 0.7302887518
0.6425001275 1.0015111986 0.7334644297
0.6524229704 0.9991550053 0.9856758491
0.6325036457 1.0001703814 0.9803738477
0.6323453221 0.753700841 0.9861268874
0.6324226429 0.5005128951 0.9798215559
0.6322606373 0.7518002652 0.4815171899
0.652378787 0.7513641741 0.9848382065
0.6523272398 0.5006300539 0.9853812935
0.6423859872 0.749073069 0.2314633906
0.6424080789 0.499530714 0.230285168
0.6523235578 0.7497044247 0.4855664094
0.6423123483 0.7504138862 0.7337912024
0.6724637992 0.7483050281 0.9906280657
0.6725632117 0.4998581077 0.9899745204
0.6825412838 1.0006325077 0.2444394867
0.6725263923 1.0009319135 0.4908141021
0.6824308254 1.0005739284 0.7429794971
0.6824676449 0.7510712772 0.2409131035
0.6725190284 0.7501925863 0.4898236588
0.6824860546 0.7500884451 0.7432510406
0.6624157702 0.751513877 0.2394559736
0.6623899966 0.7511689095 0.7374722273
0.7024090612 1.0005348754 0.2452826522
0.7025084737 0.4987984716 0.7433587375
0.6925414475 0.7502706921 0.9926347259
0.6924236253 1.0004893137 0.4926339036
0.7024090612 0.9987774936 0.7438042529
0.692372078 1.0008472989 0.9920824341
0.7024385168 0.7513706829 0.2461948541
0.7024421987 0.5008031886 0.23999814
0.6925009461 0.7489103484 0.4910442237
0.7024421987 0.7490275072 0.745619452
0.7223578414 0.4964221009 0.745013772
0.7323138218 0.748708575 0.9940614798
0.7224020248 0.7494635983 0.2457014735
0.7224867095 0.4980115551 0.2481444442
0.7323837787 0.7463588905 0.496482457
0.7224462081 0.7508564861 0.7467617756
0.7225088012 0.9982112262 0.7456065652
0.7125086374 0.7498801628 0.9917786736
0.7124534083 0.7495807571 0.4925022741
0.7424944008 0.4976958772 0.7476242713
0.7423434411 0.7487150838 0.2447671798
0.7424649453 0.4984242143 0.248662678
0.7423287133 0.7462938022 0.7454556054
0.7525203382 0.4980148095 0.4981531398
0.7523583326 0.7484417133 -0.0013499388
0.7624321352 0.4985374678 0.7523058649
0.7624247713 0.7478103576 0.2518208667
0.7624652727 0.4982732097 0.2520850463
0.7523693784 0.7470162814 0.498471628
0.7624137255 0.7497304599 0.7483532965
0.7824214168 0.7498085658 0.257431231
0.7825871044 0.4983910193 0.2596413188
0.7723071128 0.7481357987 0.5027086267
0.7823588238 0.7495156688 0.7565244538
0.772424935 0.998471579 0.5046213974
0.772561167 0.498906518 0.5042670101
0.7723439322 0.7490991043 0.0020947605
0.7824692821 0.4979419107 0.7600729287
0.7725133017 0.4993569284 0.0068209056
0.7922448472 0.747979587 0.5106017972
0.8124660913 0.4988147436 0.5097429834
0.812285676 0.7486760309 0.0120557115
0.8024143804 0.4993120176 0.7614453738
0.8023996526 0.7484026604 0.2601448248
0.8025874318 0.4990646824 0.2613083195
0.7923994889 0.498624686 0.5079489555
0.7924804917 0.7487346103 0.0087117687
0.8123703608 0.7457991318 0.5123111403
0.7925209931 0.4988479386 0.0074578822
0.8024180623 0.7508760125 0.7622342306
0.8323412326 0.4979412598 0.5105318402
0.8325547855 0.7481813605 0.01494475
0.8225325301 0.4998210074 0.7622618452
0.8324332813 0.4966375429 0.0161711139
0.8224331176 0.7499452511 0.263129962
0.8225877593 0.5011422982 0.2642741266
0.8325253299 0.7493985101 0.5144126107
0.8224809828 0.7496653717 0.7645133549
0.8624963655 0.7504659568 0.7669204267
0.8623932711 0.49995574 0.765077613
0.8524299268 0.7493789836 0.0144417962
0.8525808865 0.4973938679 0.0154791843
0.8625442308 0.7473677578 0.2636159788
0.8625221391 0.4991623147 0.2628501342
0.8524115171 0.7475239695 0.5170203485
0.8424702645 0.7496263188 0.2661463958
0.8424702645 0.5013134802 0.2609336816
0.842503402 0.7484482221 0.765416352
0.8524962018 0.4986220825 0.5137544629
0.8725333487 0.497790906 0.5138686033
0.8825114208 0.7488973308 0.7668578336
0.89240849 0.4988030277 0.5165601053
0.8724044806 0.7480251487 0.0155383716
0.892338533 0.7479730782 0.0175403374
0.8824377818 0.5007374495 0.7673199177
0.872577532 0.5007927744 0.0144899377
0.8924158539 0.4998405339 0.0169540796
0.8824525096 0.7501860774 0.2672436155
0.8825077388 0.5013434207 0.2646552079
0.8724228903 0.7493594571 0.514055462
0.8923900803 0.7489884543 0.518033804
0.8825261485 0.9982437703 0.2637494494
0.8825519222 1.0000662403 0.7667768308
0.9123241327 0.7501795686 0.5196326888
0.9124603647 0.9982828232 0.0225197083
0.912438273 0.5011058488 0.5179748929
0.9024896565 0.7490991043 0.7694655714
0.9125155939 0.7501730598 0.0202278814
0.9124124994 0.4968568901 0.0191255069
0.9023828801 0.750238148 0.2691591476