POSCAR file written by Ovito 3.7.11
1
271.6009122992 0.0 0.0
0.0 15.3640677491 0.0
0.0 0.0 10.8640364919
Sr Ti O 
800 800 2400 
Direct
0.0126017144 0.2480556541 0.5285231037
0.022503338 0.249499933 0.7798560223
0.0025435007 0.2497199269 0.7844583633
0.0126859188 0.2512006545 1.031275465
0.0225828296 0.0019231804 0.2737016106
0.0025204154 1.0009936252 0.2821487471
0.012402746 -0.0010261036 0.5302848798
0.022606504 -2.3002537651e-04 0.781355465
0.0024478457 2.3176639088e-04 0.7820531799
0.0125429149 1.000108443 1.0319750208
0.0224445016 0.2512598836 0.2792750454
0.0024923227 0.2521977863 0.2854569098
0.0325328698 0.2510808946 0.5244095313
0.0424650898 0.250177488 0.7729313401
0.0326245485 0.2491588775 1.0246388893
0.0425309953 1.0026989028 0.273195353
0.0324931056 -0.0019319119 0.5252793738
0.0424650898 1.001677038 0.7773311781
0.0324850055 3.8276806816e-04 1.0241510412
0.0426116283 0.2503597314 0.278837823
0.0725835453 0.2507945121 0.527442474
0.0524761018 0.249813652 0.5271543675
0.0625158324 0.2506135704 0.7758068828
0.0725577722 0.2505217978 1.0268111943
0.052562994 0.249365854 1.0270965394
0.0625541239 0.9993273998 0.2744812471
0.0725146943 1.0014622511 0.5201716958
0.0526473089 7.6040243523e-04 0.5222059305
0.0626561118 0.9987220914 0.7746130355
0.0724638844 0.0016867847 1.0225678359
0.0525828761 0.9996137823 1.0245008191
0.0624952139 0.2498579111 0.274296233
0.0925602823 0.2538308173 0.5223421598
0.1025797627 0.2518736534 0.7688840415
0.082568416 0.2511147398 0.7713913968
0.0925370865 0.2520532933 1.0218314614
0.1026062721 1.0009155209 0.2673411754
0.0826067075 1.0013320773 0.2757036289
0.0925805326 0.0025658488 0.5223559668
0.1024902932 3.4898795156e-04 0.7693010136
0.0826895497 1.0026533419 0.7738536493
0.0925448185 1.003076407 1.0216565724
0.1025768172 0.2530836194 0.2662448977
0.082564366 0.2518717008 0.272778381
0.1125554287 0.2501696775 0.5134504371
0.1226618012 0.2495194591 0.7599186813
0.112489155 0.2529078847 1.0103348137
0.1225344084 6.4799730735e-04 0.2608905343
0.1125550605 1.0027509723 0.513611519
0.1225576042 1.0010001339 0.7608952981
0.1125524832 0.0030055761 1.0151212483
0.1226224052 0.2507769386 0.2593036471
0.1525037481 0.2487872312 0.513668588
0.1326017531 0.2511303606 0.5103650277
0.1425626917 0.2519843011 0.7622244541
0.15256634 0.2472850248 1.0124426858
0.1325568343 0.2520005729 1.0079508011
0.1425391277 -0.0018868392 0.263952932
0.1525946904 1.0002386169 0.5140947648
0.1326127987 -8.9566940822e-04 0.5091306798
0.142598774 -8.4438090749e-04 0.760173651
0.1524805523 1.0005380167 1.0108226618
0.1326856998 0.0027733459 1.0110159601
0.1425251366 0.2498969633 0.2626044461
0.1724477165 0.2496574434 0.511991495
0.1625445833 0.247801815 0.7647226048
0.1724745942 0.2491452093 1.0142007801
0.1624050404 8.4625209572e-04 0.2630444299
0.1723921202 -5.1243756518e-04 0.5107120442
0.1624875143 0.9983120437 0.7644298959
0.1724274662 0.0010036323 1.0160233071
0.1624392818 0.2508081803 0.2631871024
0.1925242323 0.2501742336 0.5116177849
0.202556231 0.2486791868 0.7593820484
0.1824270644 0.2478760141 0.7639484911
0.1924513312 0.2496470295 1.012323025
0.202573904 -5.0684008921e-04 0.2566849151
0.1824833971 -6.1957065174e-04 0.2623660448
0.1925743057 -0.0016093476 0.5098302357
0.2024892209 0.9977392787 0.7610711075
0.1825640301 0.9999522344 0.7609486852
0.1925014047 7.5994682672e-04 1.0097917375
0.2024645523 0.2493918887 0.261143663
0.1824624104 0.2494049061 0.261637034
0.2125274788 0.2504443444 0.5078944911
0.2225123495 0.2482613288 0.7509634463
0.2123842539 0.2494322426 1.0064320286
0.2224486531 0.9969972877 0.2481871528
0.212573134 0.998136309 0.5079027753
0.2223654428 0.9972120746 0.7468471126
0.2124954465 0.9984031654 1.0039927879
0.2225307589 0.2472550848 0.2543496873
0.2523546646 0.2488262833 0.4970071933
0.2324854382 0.251945249 0.4963011942
0.2425060231 0.2475733599 0.7472143794
0.2525479629 0.25163153 0.9923212512
0.2323550999 0.2481994962 0.999243172
0.2425152278 1.0003297386 0.2444113923
0.2524978894 5.4131982931e-04 0.4937008716
0.2326098855 -2.2514385677e-04 0.4940893092
0.2424688362 0.9980451873 0.7459404514
0.2526289641 0.0019466117 0.9925145495
0.2324412558 -0.0029301827 0.9999795466
0.2424334902 0.2491126658 0.2472252635
0.27265062 0.2479651832 0.4962478071
0.2625692842 0.2499151876 0.7428716105
0.2726185877 0.2494576265 0.9978992884
0.2624783419 0.9972836702 0.2450704475
0.2723906798 -9.2957969868e-04 0.4934900844
0.2625858526 0.9973813006 0.7444511339
0.272505186 -0.0012967351 0.995598118
0.2625644977 0.2486863464 0.2431945333
0.2925673425 0.248180621 0.4961032936
0.3025743044 0.249171244 0.7397917239
0.282610454 0.247762112 0.7454535237
0.2926100522 0.2484207917 0.9965646096
0.3025142899 -0.0019653601 0.2444804274
0.2826362271 0.9968085356 0.2435286633
0.2925614515 -0.001477091 0.4916528299
0.3026262188 -0.0030502876 0.7417523211
0.2825765807 0.9972706528 0.7430317719
0.2925949565 -0.0023902411 0.9905263382
0.3025816682 0.2491523688 0.2431015661
0.2826756231 0.2486173543 0.2435930961
0.332419565 0.2482235783 0.4855795807
0.3124744921 0.2497772034 0.4915138392
0.3225366822 0.2496125334 0.7394032863
0.3322722901 0.2503363001 0.9862461612
0.3123927545 0.2500466632 0.9890904079
0.3225086999 -0.0019163236 0.2369924187
0.3324468109 -0.0018789832 0.4857112077
0.3125264065 -0.0010749188 0.4905160516
0.3225488323 -0.0010527893 0.7358456768
0.3324954116 -3.4776763263e-04 0.9864026408
0.3124593964 1.0007918558 0.9913363503
0.3224081848 0.2481396162 0.2382258461
0.3523046234 0.2495344291 0.4847750915
0.3423712989 0.2484604948 0.7367965204
0.3522917368 0.2485958756 0.9847550027
0.3424033312 -0.003313024 0.2352849502
0.3523985112 -0.0022724272 0.4820081642
0.3424040676 0.9972836702 0.7349206062
0.3523388648 -0.0023917641 0.9809994925
0.3422855113 0.2481252971 0.2378723863
0.3724098578 0.2501091467 0.4804498115
0.3824135061 0.2530074677 0.7233181047
0.362277344 0.2479254802 0.7305990081
0.3724172215 0.2512585819 0.979305831
0.3824760979 0.9977783309 0.2269740429
0.3624577557 0.9974073354 0.2335563109
0.3723988122 -0.0028238567 0.4757811969
0.3826196909 -2.921183076e-04 0.7261273736
0.3623730726 0.9962032272 0.7336457578
0.3725055865 -6.1807365235e-04 0.9767377248
0.382387733 0.2486219104 0.225352178
0.3623878001 0.2496398699 0.2332341471
0.3924650187 0.2521157767 0.4752712575
0.402439212 0.2490352124 0.7224289324
0.3924061087 0.246078964 0.9733596065
0.4024318483 1.0004208603 0.2191242902
0.3924650187 0.9998155518 0.4723229979
0.4024428939 -0.002505152 0.7200651701
0.3924355637 0.9963334011 0.9708743424
0.4024281664 0.2506747521 0.2193718961
0.4325127487 0.2515508222 0.4672097971
0.4124244509 0.2470891132 0.469730039
0.4225716922 0.2518482695 0.7168812707
0.4324133381 0.2498780881 0.9661431359
0.4123692228 0.2498299238 0.9687940843
0.4225827379 0.9985333393 0.217061521
0.4326084774 1.0006226297 0.464085728
0.4124759971 1.8275593269e-04 0.4693517266
0.4225091004 0.9996137823 0.7116336815
0.4325827043 0.9998480953 0.9701655819
0.4124980884 -2.8150913803e-04 0.9675054288
0.422490691 0.2496392191 0.2187947626
0.452383816 0.2526963522 0.4612276743
0.4424501233 0.2499939428 0.7198847584
0.4525053178 0.2516276248 0.963363322
0.4424722145 1.0026923941 0.2135674237
0.4525089996 -9.6609346633e-04 0.4635168787
0.4426121257 4.6887807637e-04 0.7150569027
0.4524942721 1.0026207985 0.958530864
0.4425863525 0.2511192958 0.2178337938
0.4724831593 0.2505074787 0.4534110585
0.4827187656 0.2513789927 0.7064891848
0.4625641941 0.2515085157 0.7116198745
0.4726120249 0.249116571 0.9547017163
0.4826377644 1.6069146346e-04 0.2005869813
0.4624647836 0.001884649 0.2104369114
0.4725015687 1.0011758686 0.456490945
0.4825088989 0.999854604 0.7032353298
0.4625494666 -3.607850186e-04 0.7079720591
0.4725862518 9.0274755084e-04 0.9602705489
0.482678265 0.250018025 0.208466189
0.4624463742 0.2510158076 0.2093387929
0.512597163 -0.0010109384 0.4579959105
0.5125861174 -0.0011834187 0.9566807229
0.4925604115 0.2476540677 0.455912891
0.5025161954 0.2485268834 0.7081570732
0.4926414127 0.2499542398 0.9549962661
0.5125382531 0.2504651722 0.4570837265
0.5126450274 0.2493144353 0.9582363142
0.5026413791 0.0010346788 0.2033852046
0.4925199109 -3.1476855919e-04 0.4574997782
0.5025198773 7.1751014845e-04 0.7055539891
0.4925199109 -5.0996426185e-04 0.9596262211
0.502674516 0.2495643691 0.2065875135
0.5224977189 0.9994836085 0.2101764189
0.532593414 -0.0032799468 0.461976015
0.522582402 1.0005705602 0.7078238637
0.5326375965 0.9998415866 0.9627650177
0.5226707669 0.248593923 0.2123257121
0.5325970959 0.2501781388 0.4630538832
0.5225492651 0.2487345107 0.7117220465
0.5325492315 0.2494947261 0.9585216593
0.5425565617 -0.0012799426 0.2109155549
0.5624754933 -8.5337131419e-05 0.2181946173
0.5525491643 -1.814054399e-04 0.4664163535
0.5425418342 1.0006421558 0.7111817316
0.5625491307 1.0014036729 0.7219622551
0.5525233912 -0.0014951851 0.9645139072
0.5424350599 0.2506233334 0.2150521389
0.5624865389 0.2492330766 0.220114714
0.5526228018 0.2487390668 0.4661494177
0.5424571511 0.2481558879 0.7118380255
0.5625638582 0.2478011642 0.7194687067
0.552530755 0.248474163 0.9641181059
0.5825895642 4.3425182968e-04 0.2219114679
0.5725969615 7.1262862871e-04 0.470567665
0.582622701 0.9993078738 0.7223700225
0.5725454153 0.0023883567 0.9712885531
0.582508563 0.2498527042 0.2216638619
0.5725454153 0.2502048245 0.4735334135
0.5824570167 0.2469381115 0.7258447899
0.5724018222 0.250431327 0.9723747055
0.6025084958 1.0013255686 0.2245311203
0.5925674393 0.9994640824 0.4778393637
0.6126152365 -0.0013020722 0.4805271308
0.6025710876 -0.0016690323 0.7226019805
0.5926889411 -6.016066591e-04 0.9792506029
0.6125342353 1.1506552563e-04 0.9834755519
0.602762545 0.2492955601 0.2281126621
0.592633713 0.2478974928 0.4759735747
0.6125342353 0.2484754648 0.4816721933
0.6025637239 0.2479560711 0.7304756654
0.5926263493 0.2501319271 0.9756975957
0.6126336459 0.2495168556 0.9799869775
0.6226152029 6.0432397741e-04 0.2312045147
0.6324936675 0.0016973288 0.4866556081
0.622497383 -0.0011625258 0.733958717
0.6326372606 1.0010782382 0.9850035291
0.6225342017 0.2514590496 0.2364088419
0.6326593518 0.2501032889 0.4851294718
0.6226593854 0.250346714 0.734263392
0.6326703974 0.2492773357 0.98193837
0.6424752246 0.9999652517 0.234667316
0.6623057912 5.7119473011e-04 0.2368976105
0.6525193735 1.9310475454e-04 0.4880777314
0.6425635895 1.0002125821 0.7328431095
0.6622616088 1.0016640206 0.7357748007
0.6524494179 1.0000628821 0.9895230279
0.6426224995 0.2511505376 0.2395457974
0.6625046124 0.2507274725 0.2379865243
0.6525819653 0.2522804467 0.4869234643
0.6427366375 0.252313641 0.7377538073
0.6626224323 0.2504052922 0.7409018085
0.6524788729 0.2497095129 0.9877649337
0.6823535884 1.0019894553 0.2411602986
0.6724751238 1.0018918249 0.488611603
0.6822983603 0.0019464165 0.7422576582
0.6724935332 0.0014763587 0.9918518124
0.6824934996 0.2515638396 0.2382322893
0.6724861694 0.2517656091 0.4901791603
0.682423544 0.2512774571 0.739296512
0.6724530326 0.2528180647 0.9912995315
0.7023240662 0.001067092 0.2457589577
0.6924456016 1.0019634205 0.493167
0.7124676257 1.0007267688 0.4962818644
0.7022136101 1.001761651 0.7475301
0.6924566473 1.0020610509 0.9979913353
0.7124381707 -0.0011301125 0.9980189493
0.7024234768 0.2517883895 0.2422289622
0.6923793279 0.2516100513 0.4897842794
0.7123350783 0.2515325979 0.4945329748
0.7023645668 0.2479586745 0.7426396525
0.6923719642 0.2520591511 0.9936651348
0.7123645333 0.2491113641 0.994180597
0.7223129535 -0.0018224682 0.2492696234
0.742493298 0.9984617437 0.251915049
0.7324344217 3.5465051446e-04 0.5012634382
0.7224086821 0.9990670521 0.751798311
0.7423717962 -0.0024216585 0.7496775523
0.7324307398 1.0003492646 1.0002833011
0.7225412296 0.2508771725 0.2460755988
0.742522753 0.2492792883 0.2521783029
0.7324086486 0.251233198 0.4982811213
0.7223608178 0.2509904237 0.7468241009
0.7424675249 0.2508661077 0.75393932
0.7324012848 0.2486974112 0.9981017914
0.7624821852 -2.2494859598e-04 0.2521755415
0.7524343545 1.8516414909e-04 0.5010636966
0.7625447771 0.0013588768 0.7509183434
0.752478537 1.000511982 1.0013970676
0.7625079583 0.2504449953 0.2525105919
0.7523496714 0.25045606 0.5031816939
0.7626000052 0.2505185435 0.7514227599
0.752419627 0.2494667387 1.0042505189
0.7824747543 0.0027184776 0.257136865
0.7724858335 1.0013906555 0.5023035673
0.7924121289 1.0027314463 0.5043322792
0.7825447099 0.0017825927 0.7538325457
0.7726220628 1.0004534037 1.0028974307
0.7925483582 9.497403142e-04 1.0062479349
0.7824305718 0.2517519408 0.2559448587
0.7723827411 0.2486043369 0.5018414922
0.7923679464 0.2517226517 0.5058455289
0.7824416175 0.252119682 0.754822049
0.7723974686 0.2495780374 1.0029158401
0.7924526295 0.2498110486 1.0038455129
0.8025299152 0.9996853779 0.2580315601
0.8123568336 -1.3714632759e-04 0.5047492513
0.8024084134 3.2855065558e-04 0.7533971642
0.8123973342 1.0004729298 1.0059165664
0.8024820509 0.2502562432 0.2555812738
0.812489381 0.2490410702 0.506783486
0.8023237304 0.2513184619 0.7548726747
0.8125372454 0.2507977664 1.0064688473
0.8224856656 1.0008374166 0.2554864655
0.8423677785 0.9996788693 0.2597500742
0.8323678121 -3.0578656287e-04 0.5056421054
0.8223678456 -0.0011856968 0.7575033728
0.8423309597 7.0664063116e-04 0.7580206759
0.8324782682 4.6933368488e-04 1.0090369535
0.8223788913 0.2512253875 0.2547077495
0.8424708709 0.2509006038 0.2565247537
0.832397267 0.2494966787 0.5073403692
0.8225114387 0.2508179434 0.7528043827
0.8424598253 0.251507214 0.7586134574
0.8324745864 0.250202221 1.0061927068
0.8622498914 0.0018444903 0.2626541513
0.8523088349 0.9978889787 0.511932585
0.8622167545 1.0017225989 0.762141612
0.8522793799 8.841326889e-04 1.0102243575
0.862290392 0.2530263429 0.2614980433
0.8523566993 0.2497472634 0.508690696
0.86240453 0.2509819624 0.7632185598
0.8524045636 0.2501332289 1.00812569
0.8822866429 0.9996983953 0.2693993422
0.872360314 0.0013516521 0.5158307678
0.8923344737 -7.8503003784e-05 0.5266066889
0.8821761867 1.0010326774 0.7704451555
0.8722829946 5.1521997043e-04 1.0174408281
0.8824412816 0.2501813932 0.2695972429
0.892382338 0.001318653 1.0246665034
0.8722645853 0.2486440399 0.5139566946
0.8925038398 0.2497381512 0.5219113806
0.8824891459 0.2504840474 0.771285543
0.872213039 0.2496574434 1.0145597627
0.8924927942 0.2491777527 1.0229544326
0.9025038062 -0.0013717152 0.2777903302
0.9225000572 0.0012106087 0.2802258891
0.9124190896 -0.0011931818 0.529265001
0.9023970319 1.0008178905 0.7779037093
0.9224669203 1.0006421558 0.7783547387
0.9125037726 1.0002125821 1.0290203179
0.9025222156 0.2493378666 0.2752130193
0.9224521928 0.252268731 0.2755471493
0.9124411808 0.248036128 0.5299166925
0.9024927606 0.2510782911 0.7783216018
0.9224669203 0.2497134182 0.7772510973
0.9124816814 0.2483120966 1.0271977909
0.9424889444 0.9986049349 0.2808969104
0.9325110692 1.0018527727 0.5303990178
0.942673038 1.0011433252 0.7784072054
0.9325626154 0.9998676214 1.0277408671
0.9425552181 0.2498195099 0.2844471562
0.9325368423 0.2519621716 0.5252351913
0.9426619924 0.2506500191 0.7830518879
0.9325994341 0.2510678772 1.029278049
0.9624704678 -0.0011977378 0.2860119521
0.9525551845 0.9988001957 0.5367364413
0.9724667524 1.000616121 0.5424663558
0.9625293778 1.0002581429 0.784524637
0.9525441389 0.9987481262 1.0387588714
0.9625477872 0.2481487284 0.2890651451
0.9724262518 -0.0014789785 1.038132953
0.9526877319 0.2484949908 0.5327287228
0.9727355291 0.251293078 0.5368054764
0.9626987439 0.2492272188 0.7893396061
0.9526067307 0.2494758509 1.0306863654
0.9726839829 0.2502406223 1.0396241115
0.9825072194 -6.7840923633e-04 0.2884649998
0.9924924583 1.0002971951 0.5374488837
0.9825587656 1.0020870857 0.7903742123
0.9825293106 0.2478903333 0.2901218426
0.9924850945 -0.0010921018 1.0386576199
0.9925955507 0.2497186251 0.5373559164
0.9826066299 0.2500473141 0.7910673249
0.9926507788 0.2510327302 1.0352887063
0.012423659 0.7500704932 1.0290939554
0.0225782273 0.5016128541 0.7759624419
0.0025461517 0.4980740777 0.7833887792
0.0125054702 0.5006105154 1.0333281091
0.0225929179 0.7500249324 0.2757082312
0.0025349588 0.7489444893 0.2844075761
0.0125353302 0.7507148538 0.5284135679
0.0225937279 0.7502201932 0.7762395028
0.0225666294 0.5017684119 0.2792529542
0.0025987657 0.5003814094 0.2832634341
0.0025164022 0.7480788332 0.7844289083
0.0124987324 0.5006157224 0.5330610118
0.0326705719 0.7517887882 1.0239761523
0.042526577 0.4992059395 0.7742292003
0.0325284516 0.5014859346 1.0238749007
0.0426609654 0.7505651539 0.2738829428
0.0326109255 0.750096528 0.5231024665
0.0427213481 0.7520491359 0.7709468107
0.0426064737 0.5002024204 0.2760534068
0.0324319865 0.4990223943 0.5277370238
0.0725400992 0.7507799408 1.0255777669
0.0626377024 0.4998301231 0.7755850499
0.05253943 0.7503959279 1.0239853569
0.0725478311 0.5006996845 1.0223377189
0.0526491498 0.5020704152 1.022190444
0.0625846835 0.7511899884 0.2734926643
0.0726406143 0.7514698622 0.5242328014
0.052631845 0.7528236704 0.5243404962
0.0625316645 0.4997839114 0.2766664386
0.0725198489 0.4994845115 0.5256650499
0.0626774667 0.7523875879 0.770534441
0.0525309617 0.5012490182 0.5238949896
0.0925496049 0.7508450277 1.021380432
0.1025418394 0.5030851205 0.7693838557
0.0825025105 0.5003820603 0.7753300802
0.0924188984 0.5020300613 1.0248413923
0.1025326347 0.7528366877 0.2678345463
0.0825091379 0.7520231011 0.2730977834
0.0925680143 0.7524852183 0.5204367906
0.1026441954 0.7526349183 0.767756468
0.1025613533 0.5031319831 0.2682699278
0.0825109788 0.5017833819 0.2740467861
0.0825293882 0.7505716626 0.7718810859
0.0925492367 0.5006860162 0.5226265844
0.1126382709 0.751411284 1.0109515274
0.1225645998 0.5008012201 0.758769937
0.1124803185 0.5010140544 1.0158115994
0.1225270447 0.7514828796 0.2593901711
0.1125546923 0.7503048062 0.5101744908
0.1224975897 0.5024036603 0.2578143296
0.1225594452 0.7509426581 0.7580740631
0.11251861 0.4996107802 0.5137956126
0.1524639839 0.7500249324 1.0095984391
0.1425129864 0.5004686259 0.756571859
0.1324986607 0.7498817411 1.0090921816
0.1524496246 0.4999244992 1.0119640424
0.1324787786 0.5016174102 1.0115866504
0.1425037817 0.7508189929 0.2592567033
0.1523936601 0.7488078068 0.5086207405
0.1324695739 0.7501485975 0.5089171312
0.1424975225 0.5012320956 0.2584466912
0.1424570219 0.7503894192 0.7590249067
0.1525416714 0.5021276917 0.5105896219
0.1325929166 0.5001815925 0.5092899208
0.1722198086 0.7493935892 1.0117339253
0.1624635821 0.4996550393 0.7624683782
0.1724609712 0.5002844299 1.0122493875
0.1623192527 0.7523029749 0.2607929647
0.1723343148 0.7482675853 0.5087385604
0.1624691049 0.5017274071 0.2645429521
0.1622249968 0.7497841107 0.7638628875
0.1723961703 0.4982205233 0.5122519875
0.1923673845 0.7493805718 1.0079876198
0.2025415035 0.4991974782 0.7569722627
0.1824863426 0.497514981 0.7606071915
0.1924572222 0.4999960948 1.0096260532
0.2023633008 0.7514438274 0.252825392
0.182333913 0.7507278712 0.2600427831
0.1925496372 0.7489119459 0.5057157429
0.2024509294 0.5012874195 0.2570061585
0.202556231 0.7496279021 0.7549987789
0.1823372267 0.4995001324 0.2621681441
0.1823567406 0.7510728319 0.7601524803
0.1924693724 0.4972084216 0.510328209
0.2123603217 0.7496604456 0.999270786
0.222470008 0.4984977937 0.7490028491
0.2124302773 0.4978163335 1.0041216534
0.2223731747 0.7492503979 0.2484632933
0.2124932374 0.7509556755 0.5012385856
0.222358079 0.5014325633 0.2495218317
0.2224865764 0.7500639845 0.7463371732
0.2125723976 0.4999199431 0.5071176159
0.2525078305 0.7486841416 0.9931128539
0.2425340054 0.498998963 0.7457858128
0.2323963369 0.7466924816 0.9967118845
0.2525770497 0.4978156826 0.994585603
0.2324136417 0.4967794987 1.0005410321
0.2426142702 0.7488794024 0.2455316021
0.2524500251 0.7480527984 0.4951680979
0.2322851444 0.7490421197 0.4946213398
0.2424986594 0.4994103124 0.2423845213
0.2423587482 0.7471025292 0.7458143473
0.2525115124 0.4983201063 0.4945762368
0.2325506074 0.4989208587 0.4955841495
0.2725280136 0.7466729555 0.9951286792
0.2626403443 0.4995801893 0.7425604922
0.2726237423 0.4986780845 0.9929011462
0.2625254699 0.7483196548 0.2441840367
0.2726789704 0.7469658467 0.4920928137
0.2625899027 0.4993393677 0.2440781828
0.2624731873 0.7480723245 0.7411291642
0.2725710915 0.4973106081 0.4927592326
0.2925828063 0.7476036986 0.9923672746
0.3026310053 0.4990132821 0.7401709568
0.2825139889 0.5004347807 0.7421241903
0.292558506 0.4984209911 0.9903514493
0.3025492677 0.7480202549 0.2390312557
0.2825765807 0.7483717244 0.243087759
0.2926034248 0.7492503979 0.4937321675
0.3024642164 0.498292119 0.2404598224
0.3027388841 0.7480332723 0.7371831171
0.2826119267 0.4994031529 0.2421037785
0.2824690701 0.7462108383 0.7421582476
0.2925883291 0.498227032 0.4934532656
0.332618018 0.7498491977 0.9829600897
0.3225683463 0.5016050437 0.7384064193
0.312661163 0.7491592762 0.988335624
0.3324920979 0.4994057563 0.9850403478
0.3126685268 0.4988700909 0.9894217764
0.322569819 0.7488728937 0.2349894799
0.332600345 0.7494586761 0.4828918136
0.3125996758 0.7504870496 0.4889880744
0.3226180515 0.5019910092 0.2326091492
0.3226530293 0.7504805409 0.7400430117
0.3324729522 0.4970261782 0.4830814301
0.3127038728 0.4994604294 0.4891712476
0.3525608817 0.7484693548 0.9799593634
0.3424070131 0.4982999294 0.734536771
0.3524165523 0.4978723083 0.9825734931
0.3425112101 0.7483326722 0.2338609859
0.3525877594 0.7489575067 0.4800420441
0.3423698261 0.4985283845 0.2309338971
0.3425664381 0.7497450586 0.7339716035
0.3524084522 0.497455101 0.4812128797
0.3725718602 0.7499077759 0.9754306599
0.3826638734 0.4999062748 0.7240673658
0.3624614376 0.4982797524 0.7296656534
0.3724172215 0.4992599616 0.9753570225
0.3823914148 0.7479942202 0.2204865831
0.362593985 0.7487557372 0.2260333244
0.3726454976 0.7479226245 0.4758115723
0.3825975997 0.4996107802 0.2241472851
0.3825460535 0.7478965898 0.7191898049
0.36262344 0.4990471273 0.2277012128
0.362391482 0.7465753251 0.7251231428
0.3725313596 0.4995138006 0.4762193397
0.392512883 0.7494716935 0.9696777338
0.4023913476 0.4988720435 0.7167634507
0.3925239287 0.4992840438 0.971840834
0.4025312588 0.7492438892 0.2156301929
0.3925165649 0.7494847109 0.4671867854
0.4024355301 0.5004328281 0.2159127767
0.4024208026 0.7490876806 0.715265849
0.3925092012 0.4996999493 0.4694005114
0.4325385218 0.7471155466 0.9666954168
0.4224096898 0.5001666225 0.7156331158
0.4124281328 0.7498361803 0.9649925507
0.4325642949 0.4994207263 0.9694476167
0.4124575878 0.5014384211 0.9666585981
0.4225275098 0.7483261635 0.2183704267
0.4325790224 0.7515674926 0.4621858817
0.4123802684 0.7486385808 0.4671094661
0.4224833273 0.4995632667 0.2168562566
0.4225164641 0.7503959279 0.7178459213
0.4325458855 0.4999108309 0.4662028049
0.4124980884 0.5004796907 0.4718544796
0.4526305014 0.7520165924 0.9617064792
0.4425090332 0.5005779719 0.7145819411
0.4525715915 0.4999427235 0.9615776137
0.4426047619 0.7513982666 0.215931186
0.4525421365 0.7495758326 0.4616897494
0.4426047619 0.5027616384 0.2114926884
0.4424059408 0.7505391191 0.7150265273
0.4525016359 0.5004061424 0.4645873832
0.4727556179 0.7479226245 0.9545912601
0.4826230369 0.4981443716 0.7018509456
0.4626157403 0.5010628696 0.7083448487
0.4727482542 0.5003371503 0.9582915422
0.4825714907 0.7493285022 0.2065378082
0.4627261965 0.7495823413 0.2103467055
0.472637798 0.7501551062 0.4568398025
0.4827261294 0.4991864134 0.2028191167
0.482821858 0.7498557064 0.7085988979
0.4627041053 0.5002662055 0.2081964918
0.4626709684 0.7530189312 0.7121629507
0.4726488436 0.4994604294 0.455189403
0.4928181426 0.5006306924 0.9610897655
0.502527241 0.7501485975 0.212227222
0.492575139 0.7498947585 0.4560785753
0.5027002891 0.5000312417 0.2032324069
0.5025309229 0.7506432582 0.71005784
0.492486774 0.7508320103 0.9557878688
0.4925235928 0.4987685553 0.4587700243
0.5026708341 0.5010817448 0.7060538034
0.512597163 0.7498361803 0.9597090633
0.5127002555 0.4996680567 0.9584756359
0.5125787537 0.7516911578 0.4582895399
0.512597163 0.4984177367 0.4575927454
0.5226118569 0.4990633991 0.7083264393
0.5324903215 0.7510012363 0.95936849
0.532563959 0.5012190782 0.9630871815
0.5224977189 0.5001321265 0.2097217076
0.5225492651 0.749035611 0.2069152001
0.5324498209 0.7483001287 0.4610813199
0.5326081415 0.4968100896 0.4605299594
0.5225198101 0.7484107765 0.710635894
0.542460833 0.4976855088 0.7125237743
0.5525123456 0.7476232247 0.9617985261
0.5623834465 0.4994402524 0.7187028772
0.5523503432 0.4990842269 0.9635013922
0.542431378 0.4990660026 0.2145854616
0.5424534692 0.7497906194 0.2115534393
0.5623466277 0.4978671013 0.2191739955
0.5624718114 0.7500249324 0.2206191305
0.5524607994 0.4991707925 0.465432373
0.5524055713 0.7490225937 0.467268707
0.5423356493 0.7495367804 0.7140913316
0.5622619447 0.7520296098 0.7196380729
0.5823539243 0.4991786029 0.7214044514
0.5724018222 0.7497906194 0.9688401077
0.5723981404 0.4996700093 0.9682970315
0.582420198 0.49784367 0.2237616089
0.5823391968 0.750669293 0.2196434343
0.5724496866 0.498834944 0.4719290375
0.5723539579 0.7486385808 0.4718609228
0.5823465606 0.7501551062 0.7231073175
0.6024017215 0.4994246315 0.7263160696
0.59243121 0.7513006362 0.9724023196
0.6123943241 0.7501551062 0.9766548826
0.59243121 0.4997194753 0.973865864
0.6124495522 0.5002186921 0.9774280759
0.6023354478 0.7482675853 0.2224122026
0.6024569496 0.5010843483 0.2287846038
0.5923943913 0.7497255325 0.4724656704
0.5924717106 0.5002967964 0.4733833772
0.6124090516 0.7496864803 0.4748239099
0.6124421885 0.5013603168 0.4797005504
0.6023980396 0.750096528 0.7246306924
0.6224716099 0.5004321772 0.731963142
0.6322653914 0.7520621533 0.9806497146
0.6324089845 0.4999869826 0.9843499967
0.6222985619 0.7511704623 0.2317531138
0.6224642461 0.5011565947 0.23465535
0.6323868932 0.7509621842 0.4830013493
0.632394257 0.5014969994 0.4838721123
0.6223132893 0.750923132 0.7301120804
0.6423574046 0.5024804629 0.7356919586
0.6523684167 0.7501681236 0.9846905699
0.6623831106 0.5012906738 0.7371140819
0.6524052354 0.4999589952 0.986338208
0.6423316315 0.750181141 0.2354892941
0.6424531333 0.4999114818 0.2349471384
0.662254245 0.7535721701 0.2382589829
0.6623499737 0.5012659408 0.2367917566
0.6524052354 0.7503308409 0.485485693
0.6523757804 0.5007550084 0.4874260399
0.6422395847 0.750500067 0.7336347122
0.6623867924 0.7523550445 0.737344199
0.682364634 0.5023978025 0.7423957284
0.6721916196 0.7515154231 0.9894770045
0.6724530326 0.5014188951 0.9912350988
0.6822320866 0.7514568448 0.2399222689
0.6822689053 0.5013323295 0.2420080499
0.6721584827 0.7501420889 0.4881900285
0.6724051682 0.5014462316 0.4898091321
0.6822909966 0.7524396575 0.7405437464
0.7023940218 0.501543862 0.7432296726
0.6922578261 0.7501941584 0.9949629949
0.7122577589 0.7486906503 0.9956993695
0.6923277817 0.5027531771 0.9921095435
0.7125412632 0.4999785213 0.9949261762
0.7023645668 0.7523940966 0.2424710453
0.7024823868 0.5020300613 0.2437063137
0.692290963 0.7517562447 0.492691118
0.6923425092 0.5008194444 0.4926929589
0.7123277145 0.5018627879 0.4912054823
0.7122798502 0.752407114 0.4951570523
0.7022909294 0.7499338107 0.7459248034
0.722412364 0.5005083289 0.7429360432
0.732482286 0.7496148847 0.9975495105
0.7424196606 0.5016636219 0.7461862164
0.7323607842 0.500482945 0.9956809601
0.7224197278 0.7498947585 0.2488452876
0.7223681815 0.501364222 0.2442401852
0.7424785705 0.7493285022 0.2481558569
0.7424638431 0.5010088474 0.247399232
0.7323644661 0.5028553636 0.5004248917
0.7324270579 0.749842689 0.5003070718
0.7222356341 0.7509491668 0.7485748314
0.7424233425 0.7493935892 0.7518903578
0.7524711732 0.4997585275 0.4962717392
0.752449082 0.7484107765 1.0000623887
0.7624416846 0.5000507678 0.7505253035
0.7523791264 0.5014852837 0.9989210081
0.762430639 0.7491918197 0.2474075162
0.7624159115 0.5005708124 0.2475796438
0.7525079919 0.7493610457 0.4987072981
0.7625410952 0.7507604147 0.7494805721
0.7725631529 0.5013206138 0.5025069907
0.7725263341 0.7508450277 0.9992615814
0.7924636751 0.5008949453 0.5014226792
0.7924784026 0.7484693548 1.0007251258
0.7824195262 0.4995782367 0.7540700265
0.7724858335 0.4994070581 1.0024187873
0.7925225851 0.4996908371 1.0075734091
0.7826846211 0.7517887882 0.2533703092
0.7824011169 0.5006847145 0.2513811774
0.7725557891 0.7509882189 0.5006927479
0.7923863558 0.7522183619 0.5048477414
0.7825299824 0.7494977282 0.751668525
0.8125998372 0.4981541347 0.5071130136
0.8125041085 0.7506627843 1.0077390934
0.8024231409 0.50005988 0.7517605718
0.8124120617 0.500124316 1.003873127
0.8024231409 0.7494131152 0.2569757831
0.8025925071 0.4988342931 0.2535774145
0.812489381 0.7513657231 0.5076450442
0.8024452322 0.7503959279 0.7571894932
0.8325813607 0.4991994308 0.5110213215
0.8325187688 0.7507994668 1.0117983581
0.8225003931 0.4979230761 0.7589181324
0.8425592358 0.5009255361 0.7601626054
0.8326218613 0.4986657179 1.0098653749
0.8225556212 0.749269924 0.2596801186
0.8224783018 0.4990796708 0.2609163074
0.8425003259 0.7486515982 0.263618802
0.8425481902 0.4981333069 0.2631898638
0.8325261326 0.7520426272 0.5112836549
0.8224672562 0.7506562756 0.76013223
0.842526099 0.7479291332 0.7608492747
0.8524855648 0.4991577751 0.5163057294
0.86246344 0.7490746632 0.7646867066
0.8623677113 0.4993198416 0.7658879175
0.8524634736 0.7493154848 1.0171370736
0.8525187017 0.500672348 1.0104176558
0.8625186681 0.7495107456 0.2653290319
0.8623419382 0.4983585076 0.2648089674
0.8524708373 0.750753906 0.5112026537
0.8724818158 0.5028013415 0.5181310178
0.8824339178 0.7486320721 0.7716491279
0.8926879334 0.4994454594 0.5233270607
0.8724229058 0.7511704623 1.0202390514
0.8923676105 0.7496474282 1.0191160802
0.8826253752 0.4991877151 0.7678383896
0.8725591351 0.5005994506 1.0175144656
0.8926363872 0.4993771181 1.0241694506
0.8823786897 0.7505586452 0.2677342153
0.8825333284 0.4983324729 0.2699884419
0.8724854976 0.7508775712 0.5201357975
0.8924265205 0.750181141 0.5229505892
0.9124669539 0.4993191907 0.5267493615
0.9024706694 0.7508905885 0.7760001811
0.9223159635 0.7508710625 0.7788499506
0.9124080439 0.7487297025 1.0280814404
0.9024927606 0.4997403031 0.7749379608
0.9225957859 0.4998737314 0.7775069875