POSCAR file written by Ovito 3.7.11
1
271.5989922931 0.0 0.0
0.0 15.3639591371 0.0
0.0 0.0 10.8639596917
Sr Ti O 
800 800 2400 
Direct
0.0223594612 0.4998086431 0.7861006601
0.0124555953 0.2491681691 0.5389872616
0.0223063682 0.2481638707 0.7915305403
0.0023448803 0.2515523202 0.7881864557
0.0124134743 0.2507309173 0.0389838417
0.0224120755 5.0088447172e-04 0.2889808112
0.0024835406 -3.9614993699e-04 0.2901571779
0.0025283861 0.5000292893 0.2884828344
0.012377134 0.5008422308 0.5374086475
0.012470912 7.8922160933e-04 0.5397245619
0.0225229375 0.0010349265 0.788287708
0.0023748141 0.0027921559 0.7892790592
0.0223806689 0.2491720744 0.2855796572
0.0023740409 0.2494883991 0.2905621868
0.0324389905 0.4987119206 0.0389451818
0.0423270978 0.4971875739 0.2870772696
0.0324338358 0.4992625599 0.5396509239
0.0322788279 0.2496029529 0.5340010502
0.0423679669 0.2496836612 0.7849012816
0.0322994465 0.251129903 0.0372360443
0.0524928204 0.5002037235 0.0352984451
0.0423377753 0.0016471385 0.7878062997
0.0423167885 0.2486409613 0.2877363294
0.0523900954 0.2480050575 0.5369861497
0.0522597562 0.248337654 0.03537779
0.062424006 0.2524394613 0.2841124206
0.0624490429 0.4977056695 0.7880428617
0.0724741169 0.4989859385 0.0343962879
0.0625432995 0.4994435028 0.2871877265
0.0724365615 0.4996452737 0.5325402569
0.0726217611 0.2495430725 0.5327565684
0.0624556703 0.2511865291 0.7853191771
0.0724962083 0.2496413544 0.0349097286
0.0925099055 0.2497103471 0.5336181327
0.1025268794 0.2507706207 0.7806229152
0.0826324757 0.2522487553 0.7841105938
0.0926744864 0.2501893903 0.03174394
0.1025449207 -0.0010280834 0.2808511787
0.0925518792 0.0012412535 0.5344668104
0.1025740077 0.2514820258 0.2821849465
0.0825695152 0.2523424811 0.2853237653
0.1025173064 0.5019610831 0.7775393249
0.0825787199 0.5018465293 0.7836512769
0.1025438161 0.5030682196 0.2776166306
0.0825868201 0.5023216672 0.2818452914
0.1225847594 0.2520313634 0.2748782184
0.1125191845 0.5011364258 0.0280280757
0.1125199209 0.2526470901 0.5302639229
0.1224993393 0.5034665544 0.2751341104
0.1124249279 0.5014664189 0.5285849771
0.1225030212 0.2531944751 0.7736862179
0.1125950316 0.2516629688 0.0261143168
0.1225656135 3.7988701374e-04 0.2741501229
0.1525730886 0.2514325594 0.5173137644
0.1325347227 0.2546081732 0.5221821551
0.1427188547 0.2511370627 0.7701433107
0.1526375218 0.2494233117 0.0159783256
0.1325523958 0.251992311 0.0197000809
0.1426466895 0.0011160905 0.2673818725
0.1426338028 0.2496081599 0.267270495
0.1425616376 0.5014455909 0.7696039126
0.1527008505 0.4992938018 0.0159491465
0.1326079925 0.5012555358 0.0221676895
0.1525940754 0.5023854528 0.5157066156
0.1324684485 0.5006313477 0.520750817
0.182649047 0.2491961567 0.2589319148
0.1725669036 0.4988720355 0.508854602
0.1824539064 0.5009411637 0.7573183368
0.1725908359 0.2483610855 0.5127242776
0.1625745985 0.2489143283 0.7636125428
0.1726644739 0.2503260738 0.0143760553
0.1823714319 0.4988499058 0.2599186636
0.1625815941 -0.001292208 0.7633962312
0.162678428 0.2498496341 0.2630943013
0.1825249671 0.2503683806 0.7600751585
0.1825529495 -0.0010235924 0.256921598
0.1925135903 2.1417451885e-04 0.0075794542
0.2025184138 0.2509372444 0.2587340127
0.2022150254 0.5023262233 0.7557793031
0.1925084356 0.5000741996 0.004842975
0.2024955861 0.5027759772 0.2549269294
0.1923880375 0.5011852414 0.5060425518
0.1925861237 0.2514618487 0.5078669326
0.2025305641 0.2495951424 0.7595919093
0.1925857555 0.2490620767 0.0072696224
0.2024484578 0.0018092061 0.2562183554
0.2125895116 0.2491603586 0.5053411501
0.2226002262 0.2513394844 0.7548164866
0.2125556381 0.2519220166 0.0060864442
0.2225527297 9.5682163853e-04 0.7522594079
0.2225884441 0.2505838198 0.257648773
0.2327048292 0.2501145398 0.5012100596
0.2325505577 0.2515523202 1.0006366181
0.2325428257 3.3256848123e-04 0.501179684
0.2225074423 0.5007673803 0.7534744345
0.2125482743 0.5039299766 0.0027838731
0.2125291284 0.5004868537 0.5068774223
0.2425362354 0.500572769 0.7460296351
0.2625425688 0.2463720148 0.7398099876
0.2626857947 -4.6995903723e-04 0.2413444047
0.2624998588 -0.0036975581 0.7404303875
0.2525226494 0.2490933186 0.4942411457
0.2426724656 0.2489058669 0.7482295696
0.2526850212 0.2477635832 0.9934569154
0.2626541303 0.2487906623 0.2369288876
0.2426912433 -6.6873592623e-04 0.2465892696
0.2625786514 0.5018972974 0.2380500258
0.2525278041 8.8984671424e-04 0.4915266658
0.2426271783 0.0010909667 0.7459946571
0.2525108674 -7.5100638717e-04 0.9936410104
0.2425667951 0.2498867339 0.2506734158
0.2724199987 0.2485335671 0.4895384405
0.2725275101 0.2487952184 0.9896921739
0.2725091006 -0.0014391103 0.4886041587
0.2724420901 3.7767404248e-04 0.9908519721
0.2824682686 0.2492443214 0.7347160806
0.2725993071 0.4997747976 0.4852296984
0.2824531729 0.2478813914 0.2333905829
0.3125206629 -9.437301489e-04 0.4848237691
0.2925441529 0.4996290019 0.4793469446
0.2925426801 0.2497643696 0.4834126814
0.3024558244 0.2481502023 0.7320043622
0.292466833 0.2486617892 0.9839576166
0.292422282 0.0017835617 0.4842134944
0.3025158393 -4.006409669e-04 0.7319445313
0.3125357587 0.4970027257 0.4791379969
0.3024116416 0.250350807 0.23224091
0.3125180856 0.2479464788 0.4798937066
0.3125040944 0.2486878242 0.9834973792
0.322658403 -0.0017508789 0.2292162301
0.3326079981 -8.1108204812e-04 0.4831135271
0.3226716579 -8.5970232843e-04 0.7318064601
0.3325483514 -0.0031773406 0.9800640086
0.3223896244 0.2457211409 0.2310323267
0.3226528802 0.4994740939 0.7320540678
0.3226042791 0.498900674 0.2298347891
0.3326006343 0.2505681989 0.4769353009
0.3225965471 0.2499010531 0.7314594412
0.3325781747 0.2458200738 0.9783703352
0.3624310101 0.2534847648 0.2172970033
0.3525723579 0.5008253081 0.4736271149
0.3525657305 0.2485335671 0.4726955945
0.3425152514 0.2490946204 0.7249590488
0.3625782861 0.4997324908 0.7180435225
0.3525355389 0.2489768122 0.9705370955
0.362651924 0.4993614927 0.2186132821
0.3427059737 9.2831336172e-04 0.2247997925
0.3423989034 0.2514768188 0.2301514324
0.3624310101 0.2506163635 0.7194472464
0.342529979 0.4996680543 0.7247832382
0.3426533226 0.4988616215 0.2254708186
0.3825084042 0.2515601307 0.2127572221
0.3925599879 0.2481059429 0.4621423521
0.3926225801 0.2496960278 0.9636151258
0.3925857612 0.0026386798 0.9624553277
0.3825452232 0.4986129877 0.7165385463
0.3926667629 0.4983422242 0.9626210131
0.3725046852 0.247703052 0.4644674712
0.3826630439 0.2504217522 0.7153133945
0.3726740525 0.2486617892 0.9677664667
0.3924716223 0.4993510787 0.4605324418
0.3726519611 -4.292143311e-04 0.4650749845
0.4127183837 0.5007400436 0.957024527
0.4024900689 0.2491720744 0.711147326
0.4024569318 4.2642449758e-04 0.7090946675
0.4026262992 0.2501614027 0.209160007
0.412563744 0.2505877251 0.4567833484
0.412563744 0.250639795 0.9581383013
0.4124275137 -1.2161132605e-04 0.4626145556
0.4125747897 2.6943371295e-04 0.9629615887
0.4424570802 -6.1204480956e-04 0.7113829675
0.4424681259 0.2508506781 0.2081907471
0.4226889656 0.4988772425 0.7065744077
0.4326411381 0.5019370007 0.9598319748
0.4325601363 0.4987262398 0.4572546314
0.4425785829 0.4995007797 0.7112172821
0.4425196725 0.4983213962 0.2056640441
0.432571182 0.2490887625 0.4585276479
0.4224496422 0.249628337 0.710584916
0.4324349517 0.2508324537 0.9586261529
0.4225085526 8.303104346e-06 0.2076264961
0.4324644069 0.0024361278 0.9597767463
0.4224238689 0.2502967845 0.2087347477
0.4424165793 0.250995823 0.7088525826
0.4722546871 0.2495938406 0.4541471089
0.4623908802 0.24923586 0.7041001717
0.4723945992 0.2505089693 0.9540882127
0.4723798717 8.6863584052e-05 0.9493569727
0.4623319699 0.2485198987 0.2014970551
0.4525013001 0.498606479 0.9540790079
0.4524276621 0.5001516536 0.4542989872
0.4624608363 0.4984815112 0.7021874253
0.4723835535 0.5006027092 0.9485193408
0.4624387449 0.5003391053 0.2038111285
0.4525123458 0.250810324 0.4579449875
0.4524939363 0.2502772582 0.9586721767
0.4523466604 3.2651535396e-04 0.4570530475
0.4825271847 0.2504451837 0.7002314166
0.4823504536 5.7248821611e-05 0.6994167965
0.4924314924 0.5023704827 0.9488691211
0.4924572657 0.5024101861 0.4526513375
0.4824461829 0.2500572629 0.2027654692
0.4924057191 0.2508090222 0.4522895909
0.4923063079 0.2495697583 0.9523945392
0.4825124571 0.4981306902 0.1994600446
0.5024757123 0.2513531528 0.6998374534
0.5123137459 0.2520059793 0.4549681723
0.5123947477 0.2507003263 0.9550731206
0.5023247545 0.0013020452 0.6996165395
0.5024094381 0.2532914553 0.1962715203
0.5222953735 0.2508428677 0.20377523
0.5222622364 0.2514878837 0.7038691326
0.5124205209 0.5014351769 0.4517860913
0.5223800572 0.4984183764 0.7035672169
0.5424243142 0.5004159084 0.7081438171
0.5523691228 0.4997643836 0.9626394226
0.5423396305 0.4996329071 0.2092980782
0.5524979892 0.4997188225 0.4629486879
0.5323874581 0.0056813851 0.4537743166
0.5322659554 0.2516460461 0.4572472676
0.5323653667 0.2497930081 0.9572546456
0.5322585916 0.5010557175 0.9590771855
0.5523764866 -3.6692569889e-04 0.9601541409
0.5423175391 0.251222978 0.2093072829
0.5525568996 0.2498431253 0.4604495991
0.5423359486 0.2518347995 0.7116094043
0.5527520403 0.2489787648 0.960586764
0.5725901109 0.2502447145 0.4645908148
0.5723986522 0.2498144869 0.9612126868
0.5624427979 0.5002473321 0.7088535031
0.5625974376 0.498580444 0.2139832944
0.5725091091 0.4999668054 0.9611666631
0.5724980634 0.5016161199 0.463255206
0.5623691599 0.2511370627 0.210724814
0.5624685711 0.2500377366 0.7119416957
0.6024613558 0.49967977 0.718279164
0.5926196403 0.5019278885 0.9685028464
0.5926085946 0.5023763406 0.4654891981
0.5824207807 0.2517332632 0.7126090398
0.6026417688 0.2519845005 0.2152369809
0.5926012308 0.2496120651 0.4652646022
0.6025313118 0.2509593741 0.7166048205
0.5925165471 0.2506866579 0.9626762416
0.5825643747 0.5010791489 0.7097629321
0.582479691 0.4985680774 0.2120217628
0.5823692341 0.2513720281 0.2073512742
0.6124466653 0.5013388476 0.9744951367
0.612457711 0.5022923779 0.4764888707
0.6224651119 0.4998047378 0.7225115066
0.6125423946 0.0024490802 0.4709218397
0.6224430205 0.5002401725 0.2274792944
0.6123362083 0.2506755931 0.4705149899
0.6125166213 0.2499296916 0.9691287692
0.6225866145 0.0031529353 0.7262569182
0.6224430205 0.2494870973 0.2203115579
0.6225056128 0.2499472652 0.7249249913
0.6425645973 -2.0205172465e-05 0.2286676272
0.6525351792 -1.4413156299e-04 0.4805472436
0.6325056499 0.499700598 0.4727627891
0.6426566448 0.2493517156 0.2234973208
0.6525646344 0.2519474007 0.4733031078
0.6426566448 0.2496771525 0.7237256128
0.6326161068 3.5378697036e-04 0.4738222555
0.6525057241 0.2504197996 0.9769251899
0.6423878662 0.5002629531 0.7250943586
0.6524173585 0.5006983877 0.4734282923
0.6324835585 0.2497441925 0.47191135
0.6326050611 0.2513342775 0.9725069113
0.6824579707 0.5007439489 0.7320301355
0.6625757172 0.0039658768 0.2308371861
0.6824027422 0.5017313246 0.2315091326
0.6625388983 -3.3171342091e-04 0.7331623193
0.6725242078 0.5024323158 0.4812974305
0.6625057612 0.2511077733 0.2287246966
0.6625683534 0.2513381827 0.7283335091
0.6724247965 2.1736380096e-04 0.9831936226
0.6624173956 0.5003840156 0.7247786358
0.6624468508 0.4990835695 0.2258417699
0.6824690164 0.2516571109 0.2351247572
0.6725094802 0.2511787186 0.4863048129
0.6823990603 0.2517950962 0.7344693934
0.6725352535 0.2500644225 0.9823191716
0.7024359535 0.2517560437 0.2394399426
0.6924432802 0.2511943396 0.4870568407
0.7026237303 0.2504464855 0.7423836349
0.6925058725 0.2529132975 0.9883574856
0.6924727354 0.4999147355 0.9853935571
0.6925574191 0.5003879208 0.4843662932
0.7324507924 0.4996309545 1.0010232174
0.7324839295 0.4999733142 0.4992393233
0.7125243562 0.2503944155 0.495866704
0.7126090398 0.2506619247 0.9948100132
0.7224654829 0.0015338214 0.2476174398
0.7326496149 5.7671128104e-04 0.5008575178
0.7325465218 5.4273566348e-04 1.0021093776
0.7124249449 0.4987568309 0.9916803993
0.7225575304 0.2491564534 0.2493709441
0.7325133847 0.2467195815 0.5011493083
0.7225170295 0.2486155772 0.7481807845
0.7325722951 0.2493465086 1.0022014251
0.7125390838 0.5005909935 0.4936667695
0.7123770802 1.5103975057e-04 0.4926063826
0.712568539 0.0023774841 0.9962551585
0.752472958 0.4990731556 0.0042550678
0.7425576046 -0.0024283019 0.2522566323
0.7425723322 -0.0017024539 0.7547032682
0.7426386063 0.2506970719 0.2543737241
0.7425760141 0.2504907449 0.7544795928
0.7625539969 8.7787063448e-04 0.2579654163
0.7526018245 -9.3761193424e-04 0.5062837161
0.7625613607 -0.0016939274 0.7563039737
0.7526202339 8.2749299464e-04 0.0061204097
0.762439858 0.2508715061 0.2566334894
0.7524545485 0.2493204736 0.5062827957
0.7624693132 0.2510810875 0.7561631411
0.7525318684 0.2492905334 0.0038656149
0.7825282978 -8.7395646684e-04 0.2611143603
0.7824436141 -0.0013494199 0.7582839148
0.7724288494 -5.0126607181e-04 0.0077058354
0.7824693874 0.2503202159 0.2591693972
0.7724988055 0.248182746 0.5070274597
0.7825135702 0.2498652551 0.7559495909
0.7724988055 0.2499518213 0.0080752219
0.7924731064 -0.0014023359 0.5128853607
0.7924546969 -1.5988271136e-04 0.0122394494
0.8125357729 0.498508197 0.0103748438
0.7925467444 0.2496530702 0.512036683
0.7923663313 0.2482107336 0.0092323506
0.8023442771 -0.0027869334 0.267254847
0.8125026358 -0.0010574378 0.5166685117
0.8024657797 -0.0026446134 0.7636162247
0.8123774512 -0.0011479744 0.0162568612
0.8023847779 0.2474251288 0.2597023521
0.8124805444 0.2471016445 0.5140193855
0.8025615091 0.2476685557 0.7609947127
0.8125136815 0.248249786 0.015728969
0.8323370246 -0.0019139879 0.5188325477
0.8224179892 -8.8352431317e-04 0.768968785
0.8324401177 -0.003444993 0.0233055803
0.8223406694 0.2469669136 0.2678605193
0.8324401177 0.2499726493 0.518930118
0.8223774883 0.2481860004 0.7632204206
0.8323812073 0.2474908671 0.0197415943
0.8224106254 -0.0010286041 0.2662285177
0.8423223341 -0.0011302706 0.7734919977
0.8423076065 0.2489319019 0.2685324658
0.8423996539 0.248570016 0.7725475907
0.8624107738 -0.002284999 0.2751672475
0.8424070177 0.5007621733 0.7715580804
0.8524107367 -0.0015993554 0.5272015036
0.8625249127 -0.0021765764 0.7746398296
0.8524254643 -0.0021656027 0.0233657793
0.8625543679 0.2478384337 0.274509108
0.8423517893 -0.0011962692 0.2750972914
0.8524917385 0.2482309107 0.5260297393
0.8623629092 0.249209825 0.775136886
0.8525801041 0.2483819134 0.0291013492
0.8724329023 -0.0020028842 0.5290065545
0.8924219309 -0.0029213454 0.5341814632
0.872443948 -0.0011293594 0.0295036887
0.8824881679 0.2504471363 0.2812736766
0.8925029326 -0.0043147297 0.0325161262
0.8726243611 0.2469551979 0.5294014382
0.8924845231 0.2492332565 0.5334690158
0.8824918498 0.2486279438 0.7832168129
0.8725617688 0.2484496043 0.0267013955
0.8925102964 0.2500234174 0.0322446783
0.902528743 -0.0011993934 0.2848313113
0.9126650104 6.5970531869e-05 0.5340332668
0.9025361068 -3.4655334583e-04 0.7856707984
0.9026244724 0.2487841535 0.2807931888
0.9126024181 0.2503800963 0.5325991672
0.9026060629 0.248786757 0.7802538048
0.902676019 0.498425536 0.7830382408
0.9126576466 0.2484535096 0.0323833938
0.9225766819 -0.0013228642 0.285862243
0.9226355923 -0.0010882892 0.7864504405
0.9225840457 0.2484346342 0.2820395115
0.922462543 0.2492833738 0.7836374698
0.9426246208 0.0011360072 0.2895100842
0.9324183974 -6.5571844823e-04 0.5371757674
0.9425841199 -3.1074766592e-05 0.7873202891
0.9326172199 0.0015123425 0.0350172401
0.9425620285 0.2485713177 0.2830520337
0.9325619914 0.2487294801 0.5336742817
0.9424552535 0.2475234108 0.7822088931
0.9325472638 0.2519695304 0.0367809617
0.9526062484 6.5201739125e-04 0.537136187
0.9525289285 -9.5323290783e-04 0.0346527321
0.9624995104 0.2477577254 0.2875844511
0.9525620656 0.2506476055 0.5369069888
0.9723596354 0.2511266487 0.5378688849
0.962551057 0.2498021203 0.787578022
0.9526835683 0.2494714764 0.031718627
0.9724553648 0.2491577551 0.0410984482
0.9625841941 -0.0015694803 0.2873202749
0.982558495 0.4994356923 0.7903440484
0.9823707182 0.499633558 0.2896877358
0.9824185829 0.0025696872 0.2901719055
0.9924517571 -1.2395447209e-04 0.5380428546
0.9823707182 0.2511383644 0.2894723447
0.9924370295 7.19903539e-04 0.0397421287
0.9924259838 0.2489494755 0.5409570775
0.9822713069 0.2509567706 0.7902179434
0.9924885761 0.2511253469 0.0398913377
0.0124202122 0.7508077486 0.0382898038
0.0025539017 0.5005656094 0.7889891097
0.0124494097 0.5003332474 0.0387153392
0.0224181874 0.7500787698 0.2872134998
0.002443592 0.7497207891 0.2910969825
0.0123503666 0.7507231349 0.540157185
0.0223927823 0.7497272979 0.786067523
0.0223677086 0.4983025209 0.2901470527
0.0022879581 0.7522657061 0.7900863155
0.0123243356 1.0005025027 0.0386167564
0.0524755155 0.999623823 0.5355916305
0.0523945137 1.000769361 0.0365067522
0.0324124808 0.7502089446 0.0367610794
0.0423333571 0.4998581095 0.7860141355
0.0423491892 0.7499290688 0.2886927026
0.0323984896 0.7499941562 0.5363841592
0.042286597 0.7493888434 0.7840010573
0.052173968 0.7492977211 0.0375873895
0.0523208757 0.7473646256 0.5366188802
0.0525038661 0.4993751611 0.5394152824
0.0424898378 1.0005415552 0.2852501273
0.0323244834 1.001094798 0.5356744732
0.0322983419 1.0011013067 0.0381755729
0.07253045 1.0011208329 0.5339449013
0.0625153171 0.999923225 0.7882214338
0.072505413 0.9979966382 0.0327324378
0.0724104201 0.7493562998 0.0401000093
0.0623452133 0.7487900395 0.284260617
0.0723912742 0.7491415114 0.5351387569
0.0624210605 0.7497207891 0.7840028983
0.0624391018 1.0002031007 0.2832720272
0.0824793087 1.0016740758 0.2828283584
0.1025585437 1.0003528017 0.7804885259
0.0825293825 1.0008604834 0.7842827226
0.0925371516 1.0009906582 0.0310040625
0.0923431155 0.7510811156 0.0310057193
0.0925684477 0.5006437143 0.0348972102
0.1024123723 0.7514065525 0.2813776902
0.0822900591 0.7514000438 0.2845938288
0.0923571067 0.7518816905 0.5311770338
0.1023935946 0.7521550575 0.7792624536
0.082386893 0.7523893721 0.7835472633
0.0924068124 0.4996713087 0.5331597363
0.1125523216 1.0033272955 0.0254533239
0.1124665333 0.7537366811 0.0239257961
0.1225656135 0.5022364027 0.7744161543
0.1225398402 0.7547455356 0.2744014125
0.1124205096 0.7517319895 0.5266814354
0.1223557453 0.7531574033 0.7736770131
0.1125092434 1.0014657961 0.5267385049
0.1225821821 1.000046891 0.7748018332
0.1525723522 1.0040302393 0.514547738
0.132572278 1.0020580914 0.5208824448
0.1426231253 0.9995652443 0.7648634679
0.1525587292 1.0004569416 0.0152141475
0.1326632209 1.0017782156 0.0200308075
0.1526780227 0.750846801 0.0095466007
0.1326599072 0.7508598185 0.0180735101
0.1426783538 0.7518426381 0.2677316529
0.1526581405 0.7499160513 0.5154912245
0.1326440751 0.7513935351 0.5190727916
0.1425712106 0.5017104966 0.2665442405
0.1425800471 0.7511136593 0.764258716
0.1724825881 0.7500071737 0.0092373212
0.1624836556 0.4982172564 0.7644225605
0.1725838403 0.5004757888 0.0094552896
0.1624527276 0.7507296437 0.2619114913
0.1825194442 0.9980617256 0.7592642203
0.1724973157 0.7499030338 0.5110388884
0.1625488252 0.4988043446 0.2652316436
0.1624199587 0.7506905912 0.7611180563
0.1824019916 0.7524284246 0.2548717009
0.1823684864 0.7500266999 0.757219846
0.1625606073 0.9987451432 0.2605261769
0.172391277 0.9985238461 0.5133879399
0.1724906883 0.9991161413 0.0120804834
0.1924775077 1.0002877143 0.5092936684
0.2024900632 1.0001640483 0.7559367043
0.1923924558 0.7491219851 0.004668453
0.202462449 0.7501373484 0.2513656128
0.192363737 0.7508728359 0.5029359497
0.2024344665 0.7509183971 0.753783714
0.2325954768 0.7491740551 0.9996793244
0.2324474645 0.5009053656 0.999219087
0.2325910586 0.7527278266 0.4995375571
0.2325906904 0.5013193214 0.5014604287
0.2227033194 0.9998125764 0.2511879611
0.2123774342 1.0020255477 0.508433945
0.2125269193 1.0030474197 0.0087900625
0.212394371 0.7544200987 7.5869986908e-04
0.2323870814 1.0005610814 0.9979580367
0.2225328475 0.7510876243 0.2516334709
0.212444813 0.7526041605 0.5002150265
0.2225114924 0.5014176034 0.2529433064
0.222489401 0.7531508946 0.7524204909
0.252576037 0.7506255039 0.9912201619
0.2525996011 0.4989078336 0.9956292357
0.2424953663 0.7502024358 0.2477950914
0.2525038718 0.7490308628 0.4916794646
0.2425756317 0.5035856643 0.2448053896
0.2425204032 0.7507036087 0.7433077914
0.2525377452 0.4987307959 0.4916987946
0.262490654 0.5004816467 0.7361621464
0.2626198887 0.7493888434 0.237222519
0.2624913904 0.7485752511 0.7382046797
0.2826446316 0.501053114 0.7340717483
0.2823780621 0.7495385444 0.234439924
0.2824837326 0.4987015066 0.2347749768
0.2824627458 0.7509053796 0.7369252199
0.2726011481 0.748028517 0.9863508508
0.2725794249 0.4987412099 0.9859826609
0.2724490857 0.7474101868 0.4883629943
0.2824531729 0.9968901526 0.2351928723
0.2824822599 0.9982049179 0.734484121
0.3125283949 0.9993569647 0.9827978185
0.2924046089 0.7466356469 0.9827978185
0.3025736452 0.4979536525 0.731918758
0.2925305298 0.4979556051 0.9817208631
0.3025721724 0.7514260788 0.2296414894
0.2925058611 0.7509183971 0.4808721712
0.3025438218 0.5009593881 0.2309145059
0.3024462515 0.7491480201 0.7301937884
0.3025633358 0.9982895315 0.2320697017
0.3125158765 0.7489071968 0.9817116583
0.3126907666 0.4981306902 0.9797418425
0.3124551251 0.7500201911 0.4825437533
0.2924351687 1.0000794347 0.9858169755
0.332532151 0.7481131306 0.9777812314
0.3325619744 0.498178204 0.9788213678
0.3225170181 0.7483604627 0.2344564926
0.3325686018 0.749375826 0.4798016591
0.3225759285 0.7497272979 0.7306300935
0.3324883364 0.5000117157 0.4783841281
0.3525970266 1.0005025027 0.4713194848
0.3426135581 0.9983676363 0.7234365837
0.3625414671 0.7488551269 0.2208435923
0.3523934176 1.0002096095 0.9722215642
0.3624494196 0.749948595 0.7217962978
0.362397873 1.0011729028 0.2200869621
0.3525429027 0.7483344277 0.9720742882
0.362615105 0.9994806307 0.7183601657
0.3525926084 0.5006912281 0.9762072196
0.3425833665 0.7495450532 0.2295991476
0.3525727261 0.747579414 0.474732605
0.3424791688 0.7476575189 0.7284485684
0.3925783974 1.000196592 0.4622445248
0.3724825938 0.7485427074 0.9664685973
0.3725451861 0.5009561338 0.9674074815
0.3825636327 0.7489397405 0.2164326775
0.3725415042 0.7497077717 0.4674231154
0.3825304956 0.4993881785 0.2136095816
0.382589406 0.7502935582 0.7170199546
0.3826556801 1.0005740989 0.2163710057
0.382622543 1.0003332755 0.7138369531
0.3724899576 0.9987581607 0.9654560752
0.3726887801 0.4983643539 0.4659006503
0.3926483534 0.7484450763 0.9649774283
0.3925084413 0.752168075 0.4615191907
0.4124311956 0.7494148784 0.9609089302
0.4125784716 0.7472084159 0.4574267602
0.4125858354 0.5019161728 0.4587642099
0.4025563431 0.9981723742 0.2085248794
0.402523206 0.4986852347 0.7081493399
0.4027367561 0.7490048278 0.2125335467
0.4026373448 0.4998581095 0.2072951252
0.4026520724 0.7492586687 0.7093836965
0.432534363 0.751745007 0.9564446279
0.4224827793 0.7508533097 0.2101688472
0.4325454087 0.7489592667 0.4582303346
0.4225269621 0.4992898966 0.2085423684
0.4226190096 0.7517775507 0.7079118575
0.442464444 0.7499811387 0.2079900836
0.4425712191 0.7499420863 0.7056060684
0.4325490906 0.9995587356 0.4620852826
0.4225232802 1.0004634503 0.7097436021
0.4425417639 0.9983936713 0.207120235
0.4523466604 0.9998581376 0.956076438
0.4624497906 1.0005415552 0.2050068251
0.4723761898 0.9998060677 0.4494204713
0.4624092897 0.9991942462 0.7076532041
0.4525123458 0.7506385213 0.9550639159
0.4525160277 0.7523503197 0.4556916654
0.4723430527 0.7490308628 0.950111762
0.4623945621 0.7498314377 0.1988488494
0.4724940105 0.750671065 0.4512347269
0.4625050191 0.7492716861 0.70080027
0.4725455571 0.5013173688 0.4463322787
0.4823467717 0.9995196831 0.1998208707
0.4924719933 1.0013811825 0.4497076594
0.492483039 1.0015959709 0.9495870914
0.4823983182 0.5009990914 0.6974423783
0.4922547613 0.7501764009 0.4507376706
0.4824940476 0.7487119346 0.1998650535
0.4923578545 0.7501959271 0.9499736908
0.4824388191 0.751120168 0.7017308699
0.5123616106 1.0016480408 0.4512430112
0.5124499761 1.0022273186 0.9509770082
0.5023247545 1.0019409341 0.2009199175
0.5223285106 0.753189947 0.7029394532
0.5223763753 1.001244499 0.2044701884
0.5223174649 1.0032622081 0.702599798
0.5023578916 0.7526757566 0.198735631
0.5023468459 0.5023652758 0.2024571102
0.502449939 0.7524479508 0.7014243518
0.5023284364 0.4986071299 0.7006124931
0.5123395192 0.7527538615 0.9540145747
0.5124315666 0.501460561 0.9517225927
0.5124867951 0.7504888203 0.4511003376
0.5223432382 0.5022682955 0.2070751318
0.5224389675 0.7521290226 0.2017511061
0.5324316409 0.7524349333 0.4556217093
0.5322549097 0.5009834705 0.4567373247
0.5322401821 1.0017847243 0.9534438804
0.5423433124 1.0008019047 0.207668838
0.5523102124 0.9989143704 0.457979045
0.5525937186 0.7496882454 0.9592152567
0.5424942702 1.0014527786 0.7068238564
0.5423138572 0.7508728359 0.2066397472
0.5524611702 0.7500332086 0.460416462
0.5424095866 0.7499876474 0.7098641843
0.532317502 0.751868673 0.9548890257
0.562545891 0.9982439703 0.2111003676
0.5625348453 0.9990705802 0.7099175718
0.5624207065 0.7495841056 0.2091314723
0.5624759349 0.7500332086 0.7129560588
0.5725901109 0.9998386114 0.4595033511
0.5726048385 0.9978339197 0.9618662239
0.5724796539 0.7507296437 0.9604947166
0.5723949703 0.7530467548 0.4617161723
0.6023987635 1.0014267437 0.215888677
0.5923545436 0.7518100944 0.9602830074
0.5924944557 0.9991031238 0.4638433893
0.602523948 1.0015048485 0.7176753326
0.592520229 1.0027024565 0.9615992862
0.6024466282 0.7519858303 0.2201283834
0.6024355825 0.5018855817 0.2194499936
0.5923950445 0.7493302648 0.4643459685
0.6023950816 0.7491870725 0.7198807899
0.5825275557 1.0011663941 0.2108444757
0.5825754204 1.0018107593 0.712186542
0.5823508246 0.7515562535 0.2122767343
0.5825201919 0.7498639814 0.713768838
0.6124982119 0.7486143035 0.9721479262
0.6125313489 0.7509834845 0.4711427537
0.612420892 1.0009320795 0.9724608876
0.6225019309 1.0007237999 0.2243892608
0.6223104721 0.7497663503 0.2255002738
0.6225461136 0.7512633603 0.7264686273
0.6425645973 1.0008344484 0.7265192535
0.6524762689 1.0021817574 0.9755260684
0.632571924 1.0006717299 0.975029012
0.6324909223 0.7492912124 0.9766122285
0.6325424688 0.5027655632 0.9754708399
0.6324136024 0.7498835076 0.4780122563
0.6525535887 0.7509509408 0.97892262
0.6525351792 0.5023418443 0.9720190598
0.642432049 0.7509444321 0.2265726268
0.6423768205 0.5012112763 0.2233104645
0.652579362 0.7513479739 0.4773642421
0.6424394128 0.7504367504 0.725079631
0.6724984345 0.7514781487 0.9824020143
0.6724505698 0.4998411868 0.9798246852
0.682483744 0.9999818036 0.2337560113
0.6724027051 1.0004569416 0.4815708115
0.6825426544 0.9993048948 0.736574519
0.6824432431 0.7505669252 0.2348145572
0.6724763431 0.751269869 0.4837937579
0.6825131992 0.7505148553 0.7331006475
0.6625315345 0.7495645794 0.2297832425
0.6624284413 0.7511266768 0.7287854622
0.7023696793 1.0004504328 0.2374968205
0.7024469992 0.5011286153 0.7373790139
0.6925868742 0.7499681212 0.9867006312
0.6924248707 1.0001380133 0.4876312169
0.7024322716 1.0007042736 0.7392264066
0.6925463734 1.0009320795 0.9876947438
0.7025611381 0.7501633834 0.2375667766
0.702491182 0.5007374401 0.2413904285
0.692524282 0.7499551037 0.4865202039
0.7025169553 0.7509444321 0.7388260001
0.7225133476 0.4992397793 0.748745956
0.7325465218 0.7483214103 1.0033059947
0.7225096657 0.7514651312 0.2456945681
0.7223807992 0.5001269204 0.246791774
0.7325317942 0.7507947311 0.5034587793
0.7225207114 0.7480415345 0.7468083567
0.7224139363 0.9981658654 0.7479838029
0.7124764915 0.7506124864 0.9949756987
0.7124654458 0.7483409365 0.4948560228
0.7425391951 0.4999622493 0.7563858959
0.7425981055 0.7501113135 0.2523624868
0.7425171037 0.4983031717 0.2548744623
0.7425833779 0.7500592436 0.7523284435
0.7524766399 0.4994194205 0.5055399726
0.7525134589 0.7480936044 0.0035540342
0.7626349986 0.4997012489 0.7567872229
0.7624840408 0.7511917642 0.2569731446
0.7626202711 0.5011813361 0.2564254622
0.7525318684 0.7497338066 0.505234375
0.7624950865 0.7495580707 0.7583207337
0.7824730693 0.748926723 0.2590810317
0.7824288865 0.4991675323 0.2581255789
0.7725798073 0.7497533328 0.5064466402
0.782484115 0.7492716861 0.7607590712
0.7725245788 1.0003332755 0.5105022517
0.7723588933 0.4996856279 0.5057452385
0.772590853 0.7509444321 0.0077385122
0.7824509779 0.4995671689 0.7575677854
0.7725208969 0.5002974494 0.0068541201
0.7924694245 0.7489462492 0.5114328516
0.8123590418 0.4999362144 0.5107783941
0.8124179521 0.7491350026 0.0143199983
0.8024952349 0.4990477715 0.7630869517
0.8024620978 0.7504888203 0.2637837369
0.8023626865 0.498467192 0.2623339892
0.792598291 0.499060789 0.5125604331
0.7922926934 0.7491415114 0.0112307012
0.8124289978 0.7504172242 0.5154995088
0.7924215598 0.4987268907 0.0122953222
0.8024105512 0.7489592667 0.7631210093
0.8325211195 0.5018777712 0.5185269501
0.8323407065 0.7484450763 0.0192030246
0.8223701246 0.5010706876 0.7652684768
0.832392253 0.5012796181 0.0153241442
0.8224879453 0.7476249752 0.2676837882
0.8223738064 0.499871127 0.2642780318
0.832322297 0.7488421094 0.5201966912
0.8224179892 0.7481196393 0.7675015484
0.8624475928 0.7475598878 0.777081849
0.8625359584 0.4988219182 0.7736889793
0.8524144186 0.7483409365 0.022172568
0.8524659652 0.4992768791 0.0214222891
0.862477048 0.7496231581 0.2803817366
0.862477048 0.4990855222 0.2770174016
0.8524843747 0.7504627854 0.5190065174
0.8424438367 0.747429713 0.270892563
0.8424953833 0.4982511018 0.2719373017
0.8424769738 0.7483930064 0.772790596
0.8524843747 0.4988928635 0.5230832998
0.8725433593 0.498611686 0.5324583346
0.8824918498 0.7502284708 0.7836457541
0.8926796638 0.5006879737 0.5377298932
0.8725065403 0.7485361986 0.025593236
0.8925139783 0.7476575189 0.0303184009
0.882594943 0.498384531 0.7790120844
0.8724734032 0.4978241286 0.031109825
0.8925802525 0.4993562857 0.0345542413
0.8825065774 0.7491610376 0.2832674248
0.8825286688 0.4979106948 0.2804682612
0.8724881308 0.7461865439 0.5274214971
0.8924845231 0.7481261481 0.5324031061
0.8824550308 0.9995327006 0.2799288631
0.8823188006 0.9984913024 0.7796205182
0.9126907837 0.7476640276 0.5359874346
0.9125435077 0.9986084597 0.0374192188
0.9126171457 0.4985602669 0.5313086617
0.9025618801 0.7487444783 0.7877648783
0.9125250982 0.7483669714 0.0361734484
0.9127423303 0.501636297 0.0327892311