POSCAR file written by Ovito 3.7.11
1
271.5929913007 0.0 0.0
0.0 15.3636196697 0.0
0.0 0.0 10.863719652
Sr Ti O 
800 800 2400 
Direct
0.0226131263 0.4991994074 0.783907919
0.0126215577 0.249616296 0.5342448122
0.0226034059 0.2494483668 0.7827444133
0.0025465187 0.2491046978 0.7816527062
0.0125319015 0.2498499649 0.0342711223
0.0225946428 -0.0018978057 0.2832930123
0.0025479915 8.5545171915e-04 0.2820024783
0.0026798064 0.4989097621 0.2826560297
0.0126352179 0.4981150275 0.53585844
0.0125788836 4.750409568e-05 0.5362045461
0.0225504959 4.023683866e-04 0.7832884258
0.002470854 0.0015181211 0.7825400634
0.0226322358 0.2472893704 0.2803041649
0.0025152955 0.2474175954 0.2837873181
0.0325855118 0.5005923083 0.028210583
0.0427175848 0.501206096 0.2810819832
0.0326908164 0.5021934935 0.5334495045
0.0326020807 0.2500790776 0.5321957902
0.0426634596 0.2506844037 0.777890643
0.0326742475 0.2472757017 0.0309691225
0.0525856597 0.4994278692 0.027911146
0.0426119119 -9.6677511293e-04 0.7825455863
0.0427091162 0.250985114 0.2811077571
0.0526821276 0.2518091386 0.5261785142
0.0526464124 0.2514836945 0.0272049422
0.0625675079 0.2519074227 0.2754384282
0.0625052824 0.5013850903 0.7755498241
0.0724812394 0.501211954 0.0255939838
0.0625450478 0.5013968063 0.2761278789
0.0725806529 0.5007381073 0.5252018689
0.072514009 0.2516275408 0.5242758509
0.0626260514 0.2497302014 0.7767298987
0.0725412557 0.2521345827 0.0233893982
0.0923849194 0.2510254691 0.5246753458
0.1023873867 0.2501396102 0.7739196274
0.0824811293 0.2516444639 0.7724385509
0.0924191619 0.2510899071 0.024785513
0.1024308341 -9.3162714575e-04 0.271477538
0.0923370537 -0.0018096754 0.5222295905
0.1023347344 0.2495557634 0.271204151
0.0825013802 0.2509831614 0.2725416303
0.1022710361 0.5002544973 0.7719893493
0.0824682423 0.501642842 0.7738146909
0.1023689768 0.498910413 0.2723004606
0.082304026 0.5006333143 0.2762530663
0.1222995353 0.2522543462 0.2701529457
0.1124255691 0.5000377515 0.0175543802
0.1123066412 0.2489257035 0.5197497769
0.1223875346 0.5008819536 0.2667038508
0.1123239465 0.4994493485 0.518613886
0.1224806887 0.2512832209 0.76953623
0.1124542886 0.2495141065 0.0193360904
0.1224611742 -0.0020237656 0.2655983362
0.1526048092 0.2537546437 0.5135714142
0.132364228 0.2511471852 0.5175157354
0.1423968875 0.2507826878 0.7675498017
0.1525495795 0.2523415652 0.0158035066
0.132557532 0.2494340473 0.0184805823
0.1424996147 6.3069999564e-04 0.2661165749
0.1424226613 0.2513717417 0.264895078
0.1424826776 0.4996062126 0.7649273114
0.1525506841 0.5006313616 0.0156411313
0.1324080436 0.5025618963 0.0164725224
0.1525989181 0.5008370423 0.5164433587
0.1324091482 0.5016910078 0.5160411024
0.1826221523 0.253012631 0.2651482142
0.1724760878 0.5014859779 0.5140325822
0.1826343028 0.4998652661 0.7579103777
0.1726207897 0.2525238139 0.512395942
0.1625325323 0.2523584883 0.7659978471
0.1726067981 0.2530210926 0.0127247268
0.1826505036 0.5053294732 0.2561770696
0.1624728842 0.0017447604 0.7659868012
0.1626628744 0.2494431597 0.2683358885
0.1824881282 0.2535209748 0.7620203881
0.1825650816 0.0024729091 0.2592736149
0.1924732902 0.0016716005 0.0062072538
0.2024956401 0.2506284273 0.2576038369
0.2024989539 0.4996029581 0.7495752952
0.1924007552 0.502691423 0.0026029634
0.2025637567 0.4996699996 0.249792516
0.1923510484 0.5012855044 0.5036392728
0.1924887545 0.2509089601 0.5117101732
0.2024636069 0.2506121551 0.7548110709
0.1925414068 0.2515233986 0.0091924192
0.2025188366 0.0019602044 0.2575062644
0.2124646013 0.2506687823 0.5066133922
0.2224718552 0.2506284273 0.7518240646
0.2124443505 0.2510723331 0.004701416
0.2224740644 -3.711472468e-04 0.7470595823
0.2226187662 0.2473700805 0.2489079203
0.2325056192 0.2498148169 0.4968837597
0.2325354433 0.249918959 0.999147273
0.2327018688 -1.5056120829e-04 0.4944039461
0.2225532269 0.5002538464 0.7456383379
0.2125154127 0.5007953855 -0.0012948912
0.2124369865 0.4993582242 0.4980813237
0.2425158186 0.5011117172 0.7470209215
0.2624979249 0.2534480753 0.7461841915
0.2625369539 0.0011429491 0.2436123123
0.2625387948 0.0021621099 0.7463876209
0.2525878753 0.2489673604 0.4943385909
0.2425058773 0.2501669475 0.7451173377
0.2525470053 0.2505731018 0.9961280493
0.2625619913 0.2528544652 0.2467732923
0.2424620617 0.0014717778 0.2440440245
0.2625211213 0.4994805912 0.2451071963
0.2525179177 1.4826160161e-04 0.4935616931
0.2425095593 5.0794246581e-04 0.74515876
0.2526622513 -0.0019005329 0.9921331008
0.2425309148 0.2520766537 0.2442713868
0.2726027512 0.2513893157 0.4922472262
0.2725725589 0.2498154678 0.9934954335
0.2725681405 -9.4519727281e-05 0.4950924764
0.2725346345 -0.0020194112 0.9937807869
0.2824454205 0.248526709 0.7429661408
0.27255599 0.5001601185 0.4956806727
0.2824903406 0.2527236366 0.2428575064
0.3126008378 -2.7846075555e-04 0.4810650525
0.2925509832 0.4999869822 0.4907468193
0.2924401556 0.2507104392 0.4921045495
0.3025427727 0.2514303216 0.7348400107
0.2924935443 0.2502300836 0.9878067742
0.2924953853 -0.00289785 0.4865659308
0.3026340858 5.9880646987e-04 0.7349375831
0.3125017925 0.4998568046 0.4842766597
0.3025144214 0.2484128036 0.2368604813
0.3125404533 0.2482663537 0.4843963241
0.3125459763 0.2473036899 0.9835264723
0.3224545531 -8.2696431013e-04 0.2343843496
0.3325759483 2.0742734637e-04 0.4746519636
0.322582686 -0.0011910061 0.731253762
0.3325302917 -8.4017734224e-04 0.9772210813
0.3225904181 0.2503244624 0.2311414456
0.3225042598 0.5000084615 0.7308505852
0.3224030053 0.4993263306 0.2318796826
0.3324456062 0.250338782 0.4817029556
0.3225366612 0.2483177739 0.733845876
0.3324636479 0.2489862361 0.9818327614
0.3623948326 0.2476278323 0.2287223846
0.3524405993 0.4980356192 0.4758127079
0.352345236 0.2514133985 0.4762849218
0.3425018303 0.2495557634 0.7291513514
0.3624795182 0.4995795262 0.7271152163
0.3523021569 0.2508952915 0.9792645802
0.3624684722 0.5018491736 0.2243629202
0.3424904162 -8.2520691177e-04 0.2265518574
0.3423932119 0.2490428634 0.2291623813
0.3623874687 0.2490942836 0.7282833245
0.3423994713 0.4991863896 0.7324181882
0.3423667017 0.500862427 0.2294330068
0.3825021262 0.2457448125 0.2295241358
0.3925060662 0.2512285463 0.4749474425
0.3924103347 0.2492003784 0.9733457972
0.3924176987 -0.0014893733 0.9738428645
0.3824873982 0.4983363296 0.7268353858
0.3923440591 0.499038638 0.9745976704
0.3724540024 0.2493084258 0.4781756186
0.3823953487 0.2500946989 0.7259222548
0.372336179 0.2499280715 0.9742478823
0.3923293312 0.4997324849 0.4779464153
0.3722919952 -0.0030963839 0.4778911856
0.4125102643 0.4997279287 0.9678412369
0.4024474126 0.2497809707 0.7208494066
0.4024510946 5.1848685596e-04 0.7236237787
0.4024510946 0.2495531598 0.2234000824
0.4124513526 0.2501623913 0.4723415211
0.4125434021 0.2519647009 0.9690010606
0.4124255788 0.0011564875 0.4685058183
0.4124808085 -0.0012330535 0.96634083
0.4426619997 4.2833882902e-04 0.7117374263
0.4426509537 0.2507566523 0.2133455151
0.4226357097 0.5006665096 0.715863085
0.432580738 0.500669764 0.966331625
0.4326175578 0.4986786968 0.4646609105
0.4425809961 0.4997852069 0.7135977467
0.4425883601 0.4997181654 0.2134734639
0.4324297769 0.2493761182 0.4661797273
0.4226246637 0.2493754673 0.7149251006
0.4325696921 0.2520694939 0.964288126
0.422569434 0.0020636305 0.2174122622
0.4326138759 0.0022803763 0.9636713944
0.4226062538 0.2499326277 0.2149039132
0.4427098654 0.2519712098 0.7127913931
0.4726701378 0.2513183688 0.4574681623
0.4626072861 0.2492622128 0.710671493
0.4726001802 0.2536895548 0.9592438132
0.4725817703 0.0026817141 0.9614345914
0.4625631023 0.2512344043 0.2116674526
0.4525665262 0.5000143195 0.96169233
0.4525444344 0.5015640845 0.4596966808
0.4626404239 0.5002662133 0.704460913
0.4726075441 0.5008611252 0.9572831588
0.4626109681 0.5019044991 0.2074893257
0.4525628443 0.2533901462 0.4577673232
0.4525370704 0.2495798462 0.9593174528
0.4525517983 0.002917596 0.4615965825
0.4825746644 0.2511699663 0.7096147647
0.4826777598 4.6843354714e-04 0.7098945952
0.4925123288 0.5020620141 0.9622998568
0.4925896504 0.4989195255 0.4595908239
0.4826151662 0.2483509692 0.2111749878
0.4927369296 0.2510124513 0.4611611884
0.492659608 0.2486445198 0.9582680885
0.4825452085 0.5004725449 0.2095852929
0.502486813 0.2493194909 0.710768145
0.5125275728 0.2475080688 0.4591250534
0.5124171134 0.2493507336 0.9575408974
0.5025273148 -0.0010313432 0.7083067413
0.5025604526 0.2491541653 0.2119537266
0.5224026435 0.2493032187 0.2116481222
0.5225315128 0.2495219172 0.7135867008
0.5125128449 0.4980167434 0.4657378897
0.5223989616 0.5006534918 0.7090348529
0.5424952092 0.5031847964 0.7169327003
0.5525101951 0.4997005914 0.9679516963
0.5423921137 0.5001959174 0.2150898532
0.5524107817 0.5000123669 0.4696361862
0.5325685907 1.3657905057e-05 0.4626579133
0.53232558 0.2517863575 0.4625713868
0.5324765412 0.2493513845 0.9618027894
0.5326348664 0.4977244946 0.963560935
0.5525506969 9.1338077617e-04 0.9689550359
0.5424620713 0.2522621568 0.2168608856
0.5525212411 0.2519536358 0.4661557944
0.5425762127 0.2496690179 0.7159514526
0.5524623294 0.2516815645 0.96725212
0.5724517996 0.251865115 0.4692615447
0.5723560681 0.2525068908 0.9722135883
0.5624073578 0.5016129012 0.719384899
0.5624478595 0.5013011257 0.2214624403
0.5724775734 0.5022175764 0.969304824
0.5725254392 0.4995560942 0.472164786
0.5626061847 0.2503628648 0.2202446254
0.5627019162 0.2503583086 0.7198884098
0.6023715702 0.5017404753 0.7258274438
0.5924412698 0.4994851474 0.9732261328
0.592397086 0.5014286998 0.4730650302
0.5825477891 0.2499228644 0.726333716
0.6025151674 0.250956475 0.2260750409
0.5924964995 0.2514941087 0.4727483799
0.602588807 0.2494138697 0.7284260013
0.5924964995 0.2508393151 0.9722504081
0.5824594216 0.5007504742 0.7234534871
0.5824226018 0.5022039077 0.2218389228
0.5824410117 0.2490441652 0.2240858512
0.6124712417 0.5013037292 0.9744227764
0.6123865562 0.5008878116 0.4758292768
0.6224678178 0.5018654458 0.728843906
0.6124491498 0.0021896425 0.4761091073
0.6224751818 0.5015725461 0.228933178
0.612419694 0.251882689 0.4754454303
0.6124638778 0.2517622746 0.9762177417
0.6225893231 0.0031787324 0.7272385627
0.6224530899 0.2510196111 0.2295885705
0.6224420439 0.2509597294 0.7243224344
0.6424020583 3.8466422535e-04 0.2318861261
0.652472274 0.0014025233 0.4869543798
0.6324680759 0.5009366282 0.4810429606
0.6425456555 0.2507390783 0.2318244529
0.6525054118 0.25247695 0.4829382599
0.6425861573 0.2505223325 0.7314406225
0.6325233056 0.0024018972 0.4813761798
0.6525459136 0.2511361201 0.983010995
0.6424167862 0.5012015398 0.7314038027
0.6523618145 0.5014859779 0.4812786074
0.6324864858 0.2519276003 0.4796143523
0.6325122596 0.2527145242 0.9786018238
0.682498822 0.5007849713 0.7394360424
0.6624578041 -0.0017100895 0.2370556262
0.6825172319 0.500605977 0.2390015527
0.662479896 9.1793699414e-04 0.7378316195
0.6724727901 0.5019455051 0.4860522946
0.6624983059 0.2525726306 0.2354999896
0.6625608995 0.2493644022 0.7386665085
0.6725648396 4.9652027008e-05 0.9933757691
0.6624946239 0.5024271624 0.7339995987
0.662479896 0.4999609467 0.2373124443
0.6824435923 0.2508412677 0.2427792643
0.6724580622 0.251037836 0.489126748
0.6825209139 0.250670735 0.7406833131
0.6725059279 0.2504565928 0.9893624108
0.7024109706 0.2503758826 0.2452369861
0.6923849387 0.2501838706 0.490625314
0.7025656138 0.2503452909 0.7453078802
0.6924733062 0.250228131 0.9908812276
0.6925395818 0.502045091 0.9904485949
0.6923702107 0.5001497043 0.4915237171
0.7324706564 0.4978364474 0.9983096225
0.7324596105 0.5018185819 0.5016252296
0.7124480484 0.2482279513 0.4946543207
0.7124554124 0.2485468865 0.9948209463
0.7225514019 -0.0014704976 0.2468911156
0.7324485646 -0.0013584146 0.4968506219
0.732374925 -0.0019706401 0.9966987562
0.712536416 0.4994220112 0.9981899582
0.7224225326 0.2482331584 0.2476413191
0.7325369321 0.2478543414 0.4985507762
0.7224814443 0.2481374778 0.746265195
0.7324964303 0.2497829234 0.9994142166
0.7125069601 0.4981664477 0.4976965568
0.7123044512 -4.0040378143e-05 0.4949571636
0.7124296385 5.3495432948e-04 0.9975087918
0.7525264023 0.4989156201 0.0019003496
0.7424156848 -2.2888578331e-06 0.2462467691
0.7424672325 -0.0020460781 0.7452839473
0.7423420452 0.2473160568 0.2456999951
0.7424819604 0.2492908518 0.7484246764
0.7623167875 -7.6617134466e-04 0.2520624568
0.7524748545 -0.0021213338 0.4964704574
0.762397791 -8.0105895654e-04 0.7516289196
0.7524269888 -6.2317118928e-04 3.7947085157e-04
0.7624861585 0.2489224491 0.2549436062
0.7524012149 0.2490155261 0.500450678
0.7623609712 0.2487903188 0.7536227119
0.752382805 0.2474625067 0.0023908814
0.7823246675 -0.0026665178 0.2564016703
0.7823246675 -0.0029502921 0.7579867788
0.7723575473 -0.0011348996 0.0023855425
0.7825713602 0.2490265912 0.2602189633
0.7724348689 0.2493116803 0.5068830973
0.7825603143 0.2496136924 0.7620562874
0.7724311869 0.2495974202 0.0079880435
0.7923985652 -2.1936009962e-04 0.5106249096
0.7923654274 -9.4431946723e-04 0.0087146823
0.8123917174 0.499551538 0.0124891722
0.7925568903 0.2490174788 0.5129878203
0.7925016606 0.249085822 0.0130265572
0.8023693674 -9.5886592671e-05 0.261479121
0.8125242686 -0.0014351543 0.5121345214
0.8024650989 -0.0012016156 0.7620664128
0.8123843534 -0.0010051775 0.011064614
0.8025829223 0.2491463546 0.2628101568
0.8125684524 0.2487506146 0.5105936127
0.8025608304 0.249161976 0.7636579487
0.8125905443 0.2481465902 0.0128246005
0.8325689685 -0.0013817815 0.5181665254
0.8224840249 -0.002191519 0.7649622902
0.8326499721 -0.0020160526 0.0177784287
0.8224913889 0.2493259998 0.2644329895
0.8324400992 0.2506551137 0.5120875762
0.8225650285 0.2475725068 0.7637076555
0.8324327353 0.2475686015 0.0148664426
0.8225981663 1.6590067403e-04 0.2649908095
0.8426097284 -0.0019712845 0.7671457044
0.8426097284 0.2466593105 0.2709804707
0.8424661311 0.2456699603 0.769625518
0.8625292409 -3.9191058297e-04 0.2704226507
0.8424661311 0.4972975119 0.7649981895
0.852495845 -7.0192867131e-04 0.5215281733
0.8624924211 3.5205472246e-04 0.7688504612
0.8524774351 -4.1996386789e-04 0.0166458516
0.8626176084 0.2492791359 0.2690455901
0.8426023644 -0.0015951427 0.2679262682
0.8524442973 0.2494073608 0.5168667864
0.8625771067 0.2470368257 0.7679566605
0.8524332514 0.2484733362 0.0159071543
0.8725736827 -6.5779844584e-04 0.5140325822
0.892555789 -1.5902275595e-04 0.5187538012
0.8724411314 1.3446277005e-04 0.0189027213
0.882529757 0.2488827449 0.2675599112
0.8924968773 6.7346335572e-04 0.0232019854
0.872529499 0.2483919751 0.518056066
0.8926073367 0.2486692535 0.5180855218
0.8825518489 0.2514374814 0.7654878929
0.8723895837 0.2478361165 0.0168314234
0.8925079232 0.2494047573 0.0207072598
0.9025044993 -0.0013407104 0.271947911
0.9125489411 -7.2405887287e-04 0.5226567002
0.9026260046 -0.0010707871 0.7699127125
0.9025302731 0.2496026273 0.2685319539
0.9124973934 0.2504357643 0.5194165577
0.9024198137 0.2468630386 0.7719580525
0.9025265912 0.4988316555 0.7730589645
0.9124900294 0.2502444032 0.0195246078
0.9224534677 -0.0019424436 0.2742675585
0.9224792415 9.4501394664e-04 0.777416588
0.9225271073 0.2482832768 0.2745740833
0.9225565631 0.2501383084 0.7721780508
0.9425055315 -6.55845781e-04 0.2766369127
0.9325200014 -0.0017130185 0.5262843711
0.9425092135 -0.0013568525 0.7755958488
0.9326083689 7.935522436e-04 0.0267981754
0.9424908036 0.2489764728 0.2743678924
0.9325531392 0.2508523328 0.5239684056
0.942597581 0.2492153488 0.7783416855
0.9324684537 0.2515077773 0.024813312
0.9524947436 -0.0027578439 0.5262180955
0.95243215 -4.5875680945e-04 0.0287411563
0.962623871 0.2499280715 0.283720122
0.9525720652 0.2489191946 0.5279403417
0.9726130831 0.2498291365 0.5295861868
0.9625281395 0.2507078356 0.7825419044
0.9525057896 0.2493370649 0.0259591442
0.9725909912 0.2493500827 0.0299986446
0.9624765918 -0.0028908334 0.2831494151
0.9825286556 0.497855974 0.7799958151
0.9826059772 0.4990815966 0.2790348023
0.9825617935 -0.0017996518 0.2792198218
0.9925068218 3.2764641191e-04 0.5293974853
0.9825323376 0.2475445186 0.2806235767
0.9925141858 4.044512291e-04 0.0323216059
0.9925730975 0.2497126274 0.5314511097
0.982639115 0.2502066517 0.7840128554
0.9925620515 0.2516535763 0.0306308406
0.0125532938 0.7485091458 0.0345204844
0.0027032974 0.4984691108 0.7828567137
0.0125809087 0.4997773962 0.0312374468
0.0227021934 0.7507482015 0.2880777455
0.0025471078 0.7483138793 0.2804284317
0.0125578227 0.7497523424 0.5323136136
0.022649762 0.7506440593 0.7871140032
0.0226440181 0.4973717131 0.2832681589
0.0026343707 0.7492316318 0.7820319501
0.0126779289 1.0009561656 0.034807955
0.052493242 1.001157941 0.5267934049
0.0526106972 1.0004484728 0.0273650163
0.0327593013 0.7497523424 0.0332566447
0.0428199438 0.4999485798 0.779647868
0.0425780377 0.7504162484 0.2815716866
0.0326856617 0.7501233487 0.5326385483
0.0427172166 0.7496937624 0.7795613414
0.0525050244 0.751548794 0.0264814331
0.0526766046 0.7510280834 0.5257090617
0.052651199 0.4999505325 0.5299700332
0.0426023388 1.0010277633 0.2787715407
0.0327578285 0.9990230274 0.5307653409
0.0326057627 1.0004484728 0.0318370573
0.0724330055 1.0011774676 0.5249809501
0.0625421022 1.0029999548 0.774262972
0.072484185 1.0019259892 0.0247210784
0.0724565701 0.75349495 0.020359957
0.0626102189 0.7507091482 0.2783278621
0.0725346281 0.74988252 0.5219626469
0.062467358 0.7514576697 0.7773134926
0.0626061687 1.0018543915 0.2732706624
0.0824314225 0.9997194779 0.2742519101
0.1024205245 0.9964780543 0.7676528972
0.0824873886 1.0033709612 0.7708930397
0.092423212 1.0006827926 0.0225774295
0.0924592954 0.74749376 0.0240117449
0.0924482495 0.5016291734 0.0220694083
0.1024577125 0.7495570759 0.2672763987
0.0824258996 0.7525381442 0.276308296
0.0924626092 0.7513144743 0.5226870765
0.1023932779 0.748665359 0.7701538822
0.0824457823 0.7531955414 0.7730184627
0.0924578227 0.5000481657 0.5215456627
0.1124182052 0.997656162 0.0204115047
0.1124406653 0.7507937636 0.0212037748
0.1222295777 0.4998157986 0.7690143093
0.1224306138 0.7493487916 0.2688025795
0.1123673939 0.7519458359 0.5212741166
0.1225937255 0.7499671355 0.7700820836
0.1123942723 0.9984046836 0.5206435775
0.1223628653 0.9989449208 0.7696844297
0.152453848 1.0031887124 0.5136689867
0.1324279263 0.9993940338 0.5160153285
0.1425036649 1.0009561656 0.7667241177
0.1525175463 1.0022253978 0.0137553131
0.1324529637 0.9991727317 0.0147482511
0.1524659986 0.7524209843 0.0178233488
0.1324489135 0.7495245315 0.0188256759
0.1425268614 0.7493943538 0.263422286
0.1524479569 0.751438143 0.5139580221
0.1324474408 0.7527138841 0.5145351725
0.1424896734 0.5002584026 0.2666283702
0.1427094876 0.7473375469 0.7645775233
0.1725331585 0.7542499804 0.0108192101
0.1625910758 0.5031724295 0.7644716663
0.172591702 0.5018595878 0.0117125505
0.1626076447 0.749107963 0.2618988667
0.1824391579 1.0023881199 0.7600440852
0.1724219627 0.7522647711 0.5103662505
0.1627096355 0.5002590535 0.261479121
0.1625965987 0.7512884387 0.7640123393
0.1823456356 0.7510801545 0.2616300821
0.1824557268 0.7507026393 0.7575053599
0.1625873938 1.0010342722 0.2647385939
0.1725375769 1.001489894 0.5113916819
0.1726524547 1.0022384155 0.0137601917
0.1925322019 1.0021733267 0.5044511494
0.202562284 1.0009822012 0.7531771923
0.1925609213 0.7508913969 0.001787773
0.2024639751 0.7498499756 0.2493580423
0.1924585623 0.7495700937 0.5044796847
0.2024625023 0.7499736444 0.7540258887
0.2324794772 0.7491730518 0.9939372711
0.23254428 0.4996283428 0.9990368136
0.2325431754 0.7485872524 0.4922730001
0.2324783726 0.5000019527 0.4961179078
0.2224725916 1.0007804258 0.2484762081
0.2126085668 0.9997585312 0.5003264111
0.2124815384 1.0008455146 0.0010648162
0.2125367682 0.7493227561 0.0013070905
0.2326849317 0.9995307203 0.9978769899
0.222493947 0.748385477 0.2451117987
0.2125500233 0.7493227561 0.5012643956
0.2225697958 0.4987112412 0.2462946349
0.222536658 0.7502860708 0.7475189093
0.2524188724 0.7499801533 0.9945632077
0.2525690972 0.5006743203 0.9950326602
0.2425055091 0.7510801545 0.2453400815
0.2525462689 0.7491795607 0.4922941715
0.2425364377 0.5008110068 0.2484688441
0.2424237691 0.748828081 0.745073154
0.2524391233 0.4993692893 0.493773407
0.2624909291 0.5005291722 0.7447914825
0.2626326853 0.7502535264 0.2415642109
0.2624673644 0.7519848892 0.7449442847
0.2824697215 0.5009216578 0.7430057221
0.2824509434 0.7487369567 0.2410892354
0.2824881314 0.501217812 0.2403749313
0.2825293696 0.7474481979 0.7398346167
0.2724911872 0.7498044134 0.9938728365
0.272449949 0.4997507098 0.9954100632
0.272550467 0.7509695035 0.4968138021
0.2825930679 1.0025508419 0.2403758518
0.2824494706 1.0005330883 0.7420079055
0.312610411 0.9977472864 0.9816026376
0.292573075 0.7505919883 0.9863708019
0.302472815 0.4994207094 0.7344975865
0.292467034 0.5001731363 0.9916084187
0.3026057345 0.7485481991 0.2321972534
0.2925601881 0.7483789681 0.491443634
0.3024602963 0.5005369828 0.2376585504
0.302658755 0.7495961292 0.7330910701
0.3025147896 0.9985283523 0.23533338
0.3126538583 0.7478582575 0.9805440683
0.3123379444 0.4989963303 0.9847599356
0.3126814732 0.7487955366 0.481807892
0.2925649747 0.9998822 0.9856344059
0.3326613702 0.7476825176 0.979688008
0.3324522337 0.4994343781 0.9811239802
0.3226703171 0.7496482003 0.2299383586
0.332590308 0.74988252 0.4771271748
0.3225550711 0.7508458347 0.7310917549
0.3324710118 0.5000279882 0.4821457137
0.3522955293 0.9996999513 0.4735602565
0.3424377639 0.9989969919 0.7286883423
0.3624942461 0.749498496 0.2256470107
0.3524354445 0.9996413713 0.9757298793
0.362512656 0.7476890265 0.7257427582
0.3623543308 1.0000514309 0.2251140441
0.3524947244 0.7486002701 0.9776813288
0.3624574263 0.9989514297 0.7242736482
0.3524199802 0.498432661 0.9768712932
0.3425559554 0.7493618094 0.2256203164
0.3526243301 0.7501949464 0.4740333909
0.3425349681 0.7486979034 0.7272330397
0.3924545185 1.0004159284 0.4773941183
0.3724908222 0.750494355 0.9756838546
0.372343543 0.497978341 0.9765951446
0.3824726703 0.7505268994 0.2257786415
0.3725497338 0.7484310392 0.4764533724
0.3824174406 0.4979627197 0.225870691
0.382524218 0.7481837016 0.7248268657
0.3823806208 1.0004679994 0.2257234118
0.3824100767 1.0000774665 0.7245682066
0.3724061366 0.9983916658 0.9778470179
0.3724576843 0.4978976309 0.4768860051
0.3926459814 0.7510150656 0.9723700724
0.3924802923 0.7496221647 0.4743371543
0.4125286742 0.7502274908 0.970225319
0.4125139463 0.7501233487 0.4700715803
0.412569176 0.50022716 0.4701838807
0.40255419 1.0001230286 0.2233908774
0.4023479991 0.501741777 0.7205824631
0.4024584585 0.7501493842 0.2224077887
0.4025026423 0.4988941408 0.2215259545
0.4023811369 0.7502860708 0.7172935343
0.4326580596 0.7523689133 0.9642513062
0.4224847485 0.7498174312 0.2202317384
0.432580738 0.7492902117 0.4659229092
0.4226283457 0.5011436107 0.2185039693
0.4224773845 0.7517831138 0.7166639157
0.4424410809 0.748938732 0.2138085241
0.4424742187 0.7510215745 0.713557245
0.4326065119 0.9970248004 0.4634725514
0.4226136178 1.0002336796 0.7159275197
0.44260677 0.999771549 0.212441589
0.4525738902 1.0011058699 0.9631651221
0.4626367419 1.0021472912 0.2089243774
0.4725707243 1.0029478838 0.460388893
0.4624857807 1.0004159284 0.7062696858
0.4524855227 0.7493618094 0.9586915162
0.4525112965 0.7519848892 0.458921624
0.4725633604 0.7510280834 0.956500738
0.462625696 0.7498564845 0.2112449454
0.4725007667 0.7498239401 0.4576310899
0.4624673708 0.7514316341 0.7092723406
0.4725559964 0.5022800616 0.4603990185
0.4825967563 1.0007934436 0.2108040283
0.4924350072 1.0002662241 0.4582561061
0.4925307387 0.9980922572 0.9607074003
0.4826225301 0.5042249158 0.7142871975
0.4927074737 0.7527919907 0.4631540601
0.4825562545 0.7498629934 0.2067787035
0.4927185197 0.7499801533 0.9623366766
0.4825120707 0.7502470175 0.7083813014
0.5125202089 0.9977603042 0.4611077997
0.5124355233 1.0006697748 0.9601643083
0.5025420427 1.0008650413 0.2072168591
0.5224615552 0.749439916 0.7133354057
0.5225241489 0.9986845655 0.2090182679
0.5225683327 1.0000188865 0.7080968684
0.5025530886 0.7482227549 0.214109526
0.5025935904 0.5018420138 0.2090477238
0.5025457247 0.7481381394 0.7117751666
0.5025714985 0.5003742608 0.7093680721
0.5124465692 0.7495310404 0.9590044845
0.5124428873 0.4989078095 0.9599617994
0.5126306683 0.7499150645 0.4605582641
0.5224063255 0.500314379 0.2085902377
0.5225609687 0.7495050048 0.2094536621
0.5324434034 0.7495115137 0.4617723971
0.5324802232 0.5002655624 0.462527203
0.5326054105 0.9991532051 0.9617107399
0.5424105236 1.0005395971 0.2154755406
0.5525727888 1.0018674092 0.4677565353
0.5524549654 0.7506375504 0.9661751409
0.542520983 1.0034490678 0.7137809253
0.5424620713 0.7527789729 0.2153742861
0.5524291916 0.7527464285 0.4671885899
0.5424068416 0.7521671379 0.7167614882
0.5324286755 0.7489712764 0.9598605449
0.5624809974 1.0025313153 0.220584288
0.5626430045 1.0016721427 0.7207260603
0.5624846793 0.752049978 0.2198322436
0.562547273 0.7506375504 0.7213473944
0.5725769869 1.0020171135 0.4731239419
0.5726358986 1.0005981771 0.976521505
0.572551213 0.7523363689 0.971145814
0.5723523861 0.7521736468 0.4710942503
0.6023862981 1.0015289473 0.2242110385
0.5923013545 0.7504683195 0.9770553922
0.592581185 1.0011514321 0.4754610787
0.6024636197 1.0005591238 0.7235133193
0.5924928175 1.0000058687 0.9721583586
0.6023789342 0.7506700949 0.2228293754
0.6023163405 0.5024226062 0.2265978821
0.592393404 0.7502470175 0.4774686784
0.6023936621 0.7507872548 0.7269219124
0.5824704675 1.0010733255 0.225688433
0.5824815135 1.002160309 0.7222448771
0.5825036054 0.7518156582 0.2229306299
0.5824815135 0.7516008651 0.7246814275
0.6123607823 0.7524990909 0.9803231495
0.6123607823 0.7529612216 0.4773471731
0.6125301534 1.0012946275 0.9773039258
0.6225340934 1.0019520247 0.223369706
0.6223536764 0.750826308 0.231153412
0.6224089061 0.7524730554 0.7325737519
0.6424830618 1.0018674092 0.7307152724
0.6525311856 1.0010082367 0.9841432039
0.6324938497 1.0011188877 0.9801482555
0.6322913408 0.7534819322 0.9825783624
0.6323833903 0.5023008901 0.9797984674
0.6322729309 0.7515227585 0.4788033962
0.6523065848 0.7508653613 0.9849716495
0.6523949524 0.5006437285 0.9838394406
0.6424204682 0.7493487916 0.234122929
0.6423541925 0.5021681089 0.2282289993
0.6523213128 0.749498496 0.4849099603
0.642269507 0.7491860696 0.7355846911
0.6723181469 0.7495635848 0.9858277098
0.6724580622 0.5002733731 0.9873833465
0.682498822 0.9997780578 0.2406299084
0.6726274332 1.0003443306 0.4883001435
0.6824178184 1.0005916682 0.7412061543
0.6823589067 0.7512428765 0.2416986032
0.6724212423 0.7511582611 0.4872093569
0.6824509562 0.7494334071 0.7393513568
0.6625203978 0.7494594427 0.239504143
0.6624246663 0.7510606278 0.7371467712
0.7023483769 0.999992851 0.2435119784
0.7025987516 0.4996752067 0.7427102432
0.6924843521 0.7494659515 0.98950969
0.6924917161 1.0005070527 0.4940633629
0.7024514724 0.9989123764 0.7435285633
0.6925248539 1.0005981771 0.9941121652
0.70252143 0.7491795607 0.2437927294
0.7024993381 0.4992729578 0.2433766656
0.6924070305 0.749329265 0.489593439
0.7024882922 0.7498239401 0.7441213621
0.7224777623 0.4985478682 0.7456190075
0.7323822889 0.7505724616 0.9926761929
0.7224961722 0.7479038197 0.2465523735
0.7224703984 0.4984652054 0.2478024057
0.7324817024 0.7489777853 0.494786872
0.7224335786 0.747662991 0.747661586
0.7224483065 0.9998171111 0.7477343051
0.7124259566 0.7476239377 0.9926853979
0.7124001827 0.7495180226 0.4926365956
0.7424635505 0.4988485786 0.7475584906
0.7422610416 0.7488215721 0.2448071149
0.7424635505 0.4977479265 0.2478751248
0.7423125894 0.7459641726 0.7469334744
0.7524490807 0.4970137246 0.5029350941
0.7522944375 0.747109736 -0.0033112172
0.7623131055 0.4976379264 0.7551396877
0.7623425613 0.7489126965 0.251369324
0.7624456568 0.4990119516 0.251932667
0.7523754411 0.7488476077 0.4965035952
0.762394109 0.7497328157 0.7494464259
0.782427763 0.7481381394 0.254418924
0.7824461729 0.4991811825 0.2598581292
0.7723465014 0.7472399136 0.5038749195
0.7823835792 0.7487434655 0.7567477925
0.7722949536 0.9974608956 0.505541936
0.7725453283 0.4992215376 0.5051378387
0.7722691798 0.7505073728 0.0030756376
0.7824572188 0.4977681041 0.7618261636
0.77260424 0.5000039053 0.0083911283
0.7922881058 0.7477996775 0.5124318413
0.8123401696 0.4987314187 0.5115868269
0.8123622615 0.7487825188 0.0088786224
0.8024724629 0.4987626614 0.7639589506
0.8023730494 0.7488476077 0.2601480851
0.8024319611 0.4976320684 0.2620820452
0.7924942967 0.4970410619 0.5099198104
0.7924096111 0.7498174312 0.0111953243
0.8125058587 0.7487369567 0.5111321023
0.7924022472 0.4987639632 0.0118410516
0.8022736359 0.7487434655 0.7612094319
0.8324437812 0.4998899999 0.5159867932
0.8326315622 0.7481837016 0.016940502
0.8224287952 0.5005239651 0.7606120307
0.8324364172 0.4973326598 0.0171983327
0.822476661 0.7479038197 0.2618289091
0.8223919754 0.4988004129 0.2620940116
0.8325247848 0.7480925773 0.5155366711
0.8224803429 0.7487369567 0.7648619562
0.8624813752 0.7502600352 0.7657575979
0.862507149 0.4997442009 0.7675092999
0.8525437108 0.7472594403 0.019398592
0.8525437108 0.4972109437 0.0173933856
0.8625586968 0.7484375481 0.2632584379
0.8624445554 0.4988668035 0.2658293805
0.8525621207 0.7487629922 0.5189645946
0.8424771771 0.7510606278 0.2681066852
0.8425508167 0.4980375718 0.2639616961
0.8424477212 0.7497132891 0.7670637804
0.852499527 0.4958610014 0.5199108635
0.8724558594 0.4966804698 0.5150165914
0.8824266616 0.747220387 0.7658910697
0.8925189691 0.4975520092 0.5174706311
0.8724558594 0.7476304466 0.0211458757
0.8924195557 0.7460813325 0.0195543397
0.8824377075 0.5030793525 0.769268366
0.8725000431 0.499149289 0.014820694
0.8924158737 0.4976802342 0.0187479861
0.8825003012 0.7490754186 0.2665924709
0.8824266616 0.5010323088 0.2700148714
0.8723822198 0.7478777841 0.5203324502
0.8924600575 0.7493097384 0.5231445625
0.8825187111 1.0011188877 0.2681324591
0.8824119337 1.0015029118 0.7672865402
0.9123280223 0.7491470163 0.5231730979
0.9124200718 0.9983721392 0.0242268646
0.9124458457 0.4997337867 0.5191339657
0.902368266 0.7494659515 0.768710546
0.9124937114 0.7505399172 0.0217366494
0.9125489411 0.4986246731 0.0214761493
0.9023240823 0.748997312 0.2708884212