POSCAR file written by Ovito 3.7.11
1
271.5990790774 0.0 0.0
0.0 15.3639640464 0.0
0.0 0.0 10.8639631631
Sr Ti O 
800 800 2400 
Direct
0.0223481999 0.499768289 0.7703696611
0.0124577024 0.2493244589 0.5158492841
0.0223550482 0.249298424 0.7669905996
0.0024314166 0.2470346853 0.765359519
0.0124542046 0.2514944718 0.0139612606
0.0224973536 -5.3944260667e-04 0.2682895346
0.0023987214 -0.0035843794 0.2648957454
0.0024499366 0.5002323619 0.2692385437
0.0124757806 0.5007218189 0.5148542513
0.0125790578 -0.0014368673 0.5180657865
0.0223771396 7.3366633455e-04 0.7654754987
0.0023708862 -0.0030883095 0.7642623135
0.0223324414 0.2484561934 0.2649712243
0.002521034 0.2481860809 0.2674436186
0.0324693314 0.4991792483 0.0177715644
0.0424134005 0.5002642547 0.2661190559
0.0323886979 0.4996413686 0.5158888645
0.0323338376 0.2500573427 0.514469493
0.0424734154 0.2504589318 0.7651846288
0.0322252216 0.250751825 0.0133394801
0.052464981 0.4994363434 0.0144544507
0.042365904 -7.091904655e-04 0.76508982
0.0424458012 0.248556428 0.2610509239
0.0523397964 0.2505116526 0.5117448888
0.0523453193 0.2506841341 0.010256075
0.0623862223 0.2480487465 0.2612819629
0.0624289323 0.499871127 0.7580196561
0.0724101885 0.4985628709 0.0118075346
0.0624432917 0.5008982057 0.2609294212
0.0724978177 0.4998502991 0.5099702141
0.0724639442 0.2489879573 0.506541447
0.0624837925 0.2492086034 0.7637993148
0.0723873607 0.2488948823 0.0081041899
0.0923344092 0.2499779361 0.5031734311
0.1022670644 0.2508989224 0.7519951511
0.0823288525 0.2489345856 0.7569592696
0.092355396 0.2496733272 0.0019524754
0.102369053 -0.0023800353 0.2564264605
0.0925111403 0.0010319617 0.5044519701
0.1023105108 0.2481157865 0.2481606003
0.0823605168 0.2513747111 0.2564982575
0.1023823078 0.5008598041 0.7534964449
0.0823932857 0.4998496482 0.7553548827
0.1024150767 0.5006111704 0.2509220235
0.0823715625 0.4983422247 0.2539559072
0.1224814187 0.2471863389 0.2479801873
0.1124239471 0.4979796881 0.0029862602
0.112233593 0.2513434691 0.5013527328
0.1225064556 0.5004718834 0.2498183747
0.1123411045 0.4997162191 0.5015469529
0.1223415066 0.2504595827 0.7485396902
0.1122685711 0.2518303227 0.0015991052
0.1224891506 3.7080425136e-04 0.2514163183
0.1524863068 0.2511761946 0.4912219915
0.1323124535 0.2504973333 0.4952822041
0.1423794979 0.2515660679 0.7404680502
0.1524185599 0.2506912937 -0.0084830727
0.1323989781 0.2502324277 -0.0023360793
0.1424792773 -0.0011277022 0.2461558071
0.1422867141 0.2488018074 0.2431716291
0.1423879663 0.4994220242 0.7450529332
0.152364436 0.5000911223 -0.0039511713
0.1324770343 0.5012379618 -0.0010364983
0.1523824773 0.5004666764 0.4944519362
0.132544413 0.4995072886 0.4970973796
0.1823170413 0.2510258428 0.2434404076
0.1725003659 0.5018471795 0.4930334851
0.1825048181 0.5019760525 0.7478530163
0.172504416 0.2515986116 0.494637872
0.1624756633 0.2492014438 0.7420558685
0.1725349757 0.2518381331 -0.0018989828
0.1824709446 0.4988368887 0.2505529133
0.1625562968 0.0014916738 0.7419748668
0.1623350148 0.2494917335 0.2424057944
0.1824672627 0.2497904845 0.7457202771
0.1824668945 0.0019575692 0.2464024942
0.1924529372 0.0019923259 -0.0018182848
0.2024478165 0.251246489 0.2439098495
0.2024761671 0.5028404128 0.7470218279
0.1924636147 0.5020333294 -0.0048645028
0.2024820581 0.5020085962 0.2458695395
0.1924540418 0.5011468394 0.495697338
0.1924842333 0.2498484123 0.4935480303
0.2025435458 0.2524740367 0.7431687221
0.1926164135 0.250751825 -0.0040467718
0.2025707918 1.6558377632e-04 0.244161139
0.2126098539 0.2525514907 0.4955215274
0.2223970741 0.2508045457 0.7458574278
0.212547998 0.2510232393 -0.0035060115
0.2227133491 0.0026898021 0.7455877288
0.2223690917 0.2504778071 0.2457756512
0.232426195 0.2498503649 0.5042467043
0.2324324542 0.2512106909 1.000783734
0.2324585957 -5.0761488314e-04 0.4972418941
0.2223764555 0.4997129647 0.7483822891
0.2124986606 0.5027395274 -0.0035143142
0.212462578 0.503751636 0.4944114353
0.2425878642 0.4985127536 0.754067139
0.2625227624 0.2510395111 0.7521562341
0.2625636315 8.6403633502e-04 0.2513610898
0.2624513336 7.2351270496e-04 0.7503373767
0.252403435 0.2509516432 0.5038205246
0.2423908827 0.2518771856 0.7523016691
0.2524744957 0.2484106323 1.0046865455
0.2624436016 0.2503287571 0.2541041035
0.2423872008 0.0014692838 0.2515092862
0.2625875638 0.5015627477 0.2529783633
0.2525234649 7.5958468956e-05 0.5026515221
0.2425650364 0.0045054794 0.749068963
0.2525867935 -0.0024096956 1.0041894893
0.2423651094 0.249530135 0.2509625244
0.2724359036 0.2510733566 0.5027536948
0.2724001891 0.2502851485 1.0026338876
0.2723994528 -1.2490115234e-04 0.5053089317
0.2725456241 0.0011608347 1.0046865455
0.2823460992 0.2510844214 0.7548486218
0.2724892911 0.5003293421 0.5049729586
0.2825257758 0.2507863213 0.2515635942
0.312414316 -3.1521661983e-04 0.4996737875
0.2924860452 0.4968751554 0.5020697823
0.2924227165 0.2496010803 0.5007139235
0.3025287891 0.2488616878 0.7496737147
0.2924157209 0.249720841 0.9998816691
0.2926281664 -0.0010432839 0.5039263792
0.3026075817 0.0012959561 0.7511842132
0.3126757307 0.4990738067 0.500678025
0.3024264323 0.2491552318 0.2490967228
0.3124592351 0.2505819469 0.4991748903
0.3125325049 0.249880956 0.9998908738
0.3225785625 0.0021178143 0.2445679887
0.3324239567 0.0019211203 0.4935259389
0.3225156021 0.0029856242 0.7445862526
0.3324736624 3.0330864951e-04 0.994598146
0.3225450573 0.2483416397 0.2437156294
0.3224986653 0.5016050545 0.7496939651
0.3226238499 0.5024921954 0.2484800049
0.3326794804 0.2521108492 0.4942310223
0.3225881355 0.251900617 0.7458077222
0.3325852238 0.2502024876 0.9934015293
0.3625341472 0.2509145434 0.245979076
0.3524615799 0.5015139322 0.4942558751
0.3525182811 0.2506886902 0.4969537856
0.3425005741 0.2523822636 0.7432359167
0.3627035145 0.5007445995 0.7420328567
0.3526320518 0.2504400565 0.9953805493
0.362648286 0.4986312126 0.2406596544
0.3425219291 0.0026500337 0.2446572748
0.3426077173 0.2514463072 0.2450724087
0.36257833 0.2509360222 0.7431273007
0.3424939467 0.5007426469 0.7452149367
0.3426125038 0.5011318694 0.2467080917
0.3824348038 0.2526608375 0.2418848059
0.3925158394 0.2537796894 0.4871194371
0.3925452946 0.2531242596 0.9882928964
0.3925047937 0.0026162534 0.9895079226
0.3825084417 0.5009515773 0.7389216532
0.3925821136 0.5016161194 0.9887531336
0.3725157716 0.2501400037 0.4890855704
0.382534215 0.2521824453 0.7425041395
0.3724752707 0.2529739077 0.9929412921
0.3925894774 0.5044259411 0.4896884811
0.3726225466 4.9557673808e-04 0.4925796912
0.4125674538 0.5024225519 0.9864979713
0.4024311897 0.2544813312 0.7400133358
0.4025453285 0.0045897675 0.7356097863
0.4024716906 0.2545529273 0.2392356805
0.4124349055 0.2544038772 0.4921976944
0.4124680426 0.2519019188 0.98816403
0.4126153185 0.0020755075 0.4854091956
0.412416496 0.0030163455 0.9859088677
0.4423687331 4.1909907929e-04 0.7290320762
0.442549146 0.250555912 0.2317724741
0.4225306687 0.5019714964 0.7341600391
0.4324533828 0.5005389234 0.9811408103
0.4324975656 0.5011344728 0.4862192131
0.4426117383 0.497207101 0.7308739455
0.4425307366 0.5009567843 0.230875932
0.4324276095 0.251230868 0.4807736866
0.4223797109 0.2510486234 0.7340679917
0.4325086113 0.2504953807 0.9803123833
0.4224643946 0.0014751416 0.2335775244
0.4324754742 3.8609978311e-04 0.9833959725
0.4224975317 0.2517743475 0.2338803604
0.4423908244 0.248680094 0.7320696417
0.4724387908 0.2527936157 0.487949705
0.4624461207 0.2497995967 0.7292704791
0.4723099244 0.2494435688 0.987372422
0.4724940193 5.9340305396e-04 0.9836813196
0.4623614371 0.2476634293 0.229564256
0.4525749532 0.5017944588 0.9832763109
0.4526228179 0.5005760232 0.479606525
0.4625123949 0.4999368653 0.7333076798
0.4724756098 0.5012099742 0.9850436217
0.4625050311 0.49719148 0.2321268567
0.4523393118 0.2492808504 0.4811759339
0.4523650851 0.2502272208 0.9782321112
0.4524129497 -0.0016774302 0.4841803623
0.4823651868 0.2506424782 0.7346561748
0.4824977351 -9.2970647229e-04 0.7361298543
0.4925161785 0.5005656092 0.9829081211
0.4925419518 0.5010876099 0.4855491078
0.4825640093 0.2505669768 0.2346600023
0.4925456337 0.2497000131 0.4869878092
0.4924793595 0.254729965 0.9852553308
0.4824866894 0.5027323678 0.2344694641
0.502494121 0.2492177157 0.7341720053
0.5124646998 0.2508429473 0.4831411467
0.512420517 0.2498516666 0.9841875805
0.5025088486 2.5052279311e-04 0.7339934332
0.5025198943 0.2491383091 0.2356154547
0.5225273259 0.248782932 0.2329534427
0.5224131871 0.2482654875 0.7361224905
0.5125199282 0.4996979946 0.483902379
0.5224315966 0.4982498006 0.7357561417
0.5424169368 0.5002753196 0.7395144387
0.5523580604 0.4976379794 0.985826025
0.5423837997 0.4990907295 0.2371323965
0.5524206526 0.4990243403 0.4875262868
0.5324905408 -0.0031153989 0.4859485936
0.5324721314 0.249133753 0.4842070561
0.5323984934 0.2484399216 0.9851172597
0.5324831771 0.4973522458 0.9866912709
0.5523396509 -0.0015399006 0.9891857565
0.5424022092 0.2479244296 0.2376819197
0.5524022431 0.2490022765 0.4870080597
0.5423690721 0.2504634879 0.736804562
0.5524501078 0.2466415576 0.9903363495
0.5723912652 0.2463564749 0.4901588436
0.5723949471 0.2489059472 0.989314623
0.5623617762 0.4980382667 0.7352526422
0.5623912313 0.4985485517 0.2390055619
0.5723618101 0.4991629764 0.9923982122
0.572472267 0.4981489152 0.4916058293
0.5624795969 0.2498991804 0.2403190789
0.5622623649 0.2473666309 0.7382156493
0.6022919557 0.499438296 0.7436795854
0.5925091538 0.4981365486 0.9913856904
0.5924576072 0.5001503518 0.4927030348
0.5823544802 0.2489729872 0.7441195721
0.6023692756 0.25024154 0.2468222305
0.5923508322 0.2490881918 0.4937772284
0.6024429135 0.2506463834 0.7445494337
0.5923471503 0.2493257607 0.9936500574
0.5823692078 0.4972936672 0.7414004907
0.5823102974 0.4956886127 0.2401266997
0.5823912992 0.2487451814 0.2443774505
0.612387719 0.4998906532 0.9963378426
0.6124613569 0.4993237422 0.4967973049
0.6222662503 0.4977759646 0.7467005823
0.6125570863 -0.0018138533 0.4956872128
0.62242089 0.4993152809 0.2467430697
0.6124098104 0.2499408363 0.4922289905
0.6123729914 0.2494507284 0.9968533083
0.6225055736 -9.3191944284e-04 0.7458703144
0.6225755297 0.2512230575 0.2453181754
0.6224945279 0.2490641095 0.7449387943
0.6423473198 -7.2370494883e-04 0.2443332678
0.6526161323 -7.0105454435e-04 0.4968819886
0.6324393334 0.5013772487 0.5021931259
0.6425166871 0.2491304986 0.2473910837
0.652336308 0.249752083 0.4963066921
0.6424614586 0.2499141505 0.7502407269
0.6324945618 -0.00161768 0.4974664898
0.6523436718 0.24900488 0.9955094157
0.6424356854 0.4995300692 0.7524425017
0.6524651745 0.5003683945 0.4981918237
0.6325056075 0.2503684604 0.4973026454
0.6324466972 0.2488486703 0.9977553732
0.6827266909 0.4994962238 0.7409135598
0.6624504808 0.001069387 0.2449785203
0.6826125521 0.5005916442 0.2412598037
0.6625057092 -0.0018351108 0.7440376499
0.6725425621 0.4986181952 0.4966638362
0.6625977567 0.249659008 0.2477786035
0.6625351644 0.2513669006 0.7483104921
0.6726677466 0.0012836546 0.9974332072
0.662406298 0.5005180955 0.7463434383
0.6625241187 0.4991193679 0.2448818705
0.6826272797 0.250169293 0.2431863567
0.6725131069 0.2493374764 0.4936649306
0.6826456892 0.2500007167 0.7428437946
0.6726162001 0.2506092836 0.9908978389
0.7027009854 0.2508507578 0.2413113503
0.6925573575 0.2497605443 0.4924020397
0.7026347113 0.2503072782 0.7426394493
0.6925426299 0.249381085 0.9940826804
0.6927046334 0.4977668524 0.9966600087
0.6927414524 0.4997858626 0.4927205238
0.7325206742 0.4994936203 0.9856603396
0.7326127216 0.498711921 0.4875041954
0.7125390159 0.2497943898 0.4903815984
0.712498515 0.2497670531 0.9903455543
0.7225537773 6.2614200066e-04 0.2382084311
0.7325759026 -0.0019488445 0.4876487099
0.7326569044 -0.0015451726 0.9866452472
0.71260529 0.50150482 0.9910819338
0.7226789619 0.2470874061 0.2365543386
0.7325206742 0.2504595827 0.4844187652
0.7227194627 0.2503261536 0.7362191403
0.7324801733 0.2510310498 0.9879339114
0.7126752461 0.5007810484 0.4916960358
0.7126200176 8.376759505e-04 0.4900410228
0.7125868805 7.0515806685e-04 0.9935672147
0.7525060144 0.4994630292 -0.0138117073
0.7426495745 -2.8215223629e-04 0.2357710149
0.7425317538 -0.0020245151 0.7367161965
0.7425796184 0.2474955039 0.2357875834
0.7426458926 0.2477929532 0.7354652718
0.7626165052 -0.0014995464 0.2359845649
0.7526164713 -0.0043038097 0.4875971633
0.7625134121 -9.1836768797e-05 0.7386197376
0.7526201532 -0.0017667951 -0.0161680389
0.7625686406 0.247731771 0.2414779562
0.7526753817 0.2472995909 0.485091632
0.7625428673 0.2469682962 0.7387200693
0.7526753817 0.2511150125 -0.013970572
0.782546617 -2.4934820222e-04 0.2431596629
0.7825502989 -9.5378879889e-04 0.7414557192
0.7725060822 -0.0016116919 -0.0088293865
0.782403023 0.2465230986 0.242148982
0.7725208098 0.2481971457 0.4915073386
0.7824987523 0.247623726 0.7419914353
0.7725723564 0.2498432053 -0.0115228004
0.7924656492 -9.746818444e-04 0.4920310885
0.7924693311 0.0015932101 -0.0048017265
0.8124914903 0.4987574821 -0.002298211
0.7924546035 0.2511026459 0.4952131685
0.7924582854 0.2508253737 -0.004695559
0.8024877745 -0.0011209332 0.2447723341
0.8126498119 5.4609811864e-05 0.4985176716
0.8024288641 1.994292083e-04 0.7434006816
0.8126939946 0.0039217759 -0.0023582996
0.802502502 0.2504172759 0.2479360046
0.812285304 0.2501979314 0.4962164856
0.8024472736 0.2508078001 0.7490984182
0.8124509894 0.2509021768 8.5000476739e-04
0.8324657848 3.5036681743e-04 0.49541015
0.8225504345 4.3979686269e-04 0.7468478583
0.8325688779 8.9020145744e-04 -0.0015781883
0.8224767966 0.2503775726 0.2472143526
0.8325725598 0.2487920443 0.5014254502
0.8225393888 0.2523516725 0.7526753817
0.8326682892 0.2507908774 5.6184105098e-04
0.8225393888 8.2016744819e-04 0.2469805521
0.8426940963 -0.0020269949 0.7515468801
0.8424253178 0.2507954335 0.2517559733
0.8425320929 0.2486612187 0.7528493514
0.8626499814 -4.2305280849e-05 0.2508207714
0.842598367 0.5014605606 0.7495660192
0.8526204923 -0.0011116908 0.4997952901
0.8626021167 3.6255173755e-05 0.7558629846
0.8526830846 -8.549210851e-04 0.0068885194
0.8625395245 0.2500130833 0.2574702784
0.8425173653 -0.001780138 0.2486696227
0.852631538 0.2480292203 0.5046572359
0.8624916598 0.250581296 0.7592733422
0.8526462656 0.2497579408 0.003061647
0.8726647429 4.3289760156e-04 0.5042770799
0.8925506719 -0.0013373487 0.5025511904
0.8726500153 -0.0017746056 0.0029517424
0.8825395923 0.2516968936 0.2546628315
0.8926869021 -0.0016997551 0.0030023685
0.8725653317 0.248494595 0.5057360319
0.8926979478 0.2501061583 0.503681533
0.8826831863 0.250473251 0.7525916185
0.8725800592 0.2509464362 0.0078865897
0.8926869021 0.2499551556 0.0026605963
0.9027127093 5.814920654e-04 0.2538979173
0.9127606079 0.0010003944 0.5084302604
0.9026611627 -0.0012606107 0.7518506366
0.9025912067 0.2476718906 0.2519244202
0.912576513 0.2501914227 0.5037330796
0.9026464351 0.2491402617 0.7516831103
0.9024954773 0.4995958074 0.752159916
0.9126170139 0.2478267986 0.0021387794
0.9225507736 -0.0011151404 0.257809013
0.9226833219 -6.901849537e-04 0.7577499571
0.9225765469 0.2481073251 0.2590037888
0.922716459 0.2466148718 0.7574627691
0.9427570277 0.0015801927 0.2613104976
0.9326539006 -4.4350382449e-04 0.5098072902
0.9426355251 -5.6254862273e-04 0.7634973992
0.9327017653 0.0025953604 0.0118922182
0.942421975 0.2485121686 0.2630888542
0.9325103066 0.2503196448 0.5055859945
0.9426465708 0.2510954863 0.7635691962
0.9325434437 0.2502844976 0.0074319674
0.9525582391 0.0013663156 0.513410027
0.9525950581 0.0021493166 0.0135730045
0.9624441342 0.2501862157 0.263133037
0.9524330546 0.2500885847 0.5101957304
0.9724625776 0.2494396636 0.5144142645
0.9622563574 0.2496206065 0.7624775136
0.9524772374 0.251462579 0.0115612156
0.9725803983 0.2475482246 0.0113648784
0.9627276403 -8.3767293226e-04 0.2631901064
0.9823226994 0.4977948399 0.7657654482
0.9824257925 0.4973945526 0.2657655937
0.9824920667 -4.1701326524e-04 0.2648165846
0.9924515997 -0.0032303562 0.513443164
0.9825583408 0.2500853303 0.263185504
0.9924994644 -0.0014185126 0.0133427938
0.9923558704 0.247190895 0.5134864263
0.9823595184 0.249215763 0.7636888579
0.9924810549 0.2491435161 0.0170911497
0.0126787268 0.7479568416 0.0169933032
0.0023810851 0.4989462355 0.7671480007
0.0123663914 0.49794389 0.0198580037
0.0224463593 0.7490958706 0.2664458243
0.002515143 0.749902954 0.2678974125
0.0125367896 0.7473580378 0.520887961
0.0225506675 0.747924298 0.767228082
0.0225453287 0.4976575056 0.2661310221
0.0024617186 0.747527265 0.7659099627
0.012525118 0.9979313917 0.0156861375
0.0525021681 0.9978923393 0.5136659188
0.0525065864 0.9988426149 0.0149993716
0.0324439263 0.7465965156 0.0174852048
0.0424494831 0.4975787499 0.764152777
0.0424874066 0.748295296 0.2639651458
0.0324155757 0.7492781152 0.5183143146
0.042554049 0.7478592106 0.7632783263
0.0524480442 0.7500396375 0.0129227813
0.0523276462 0.7486467678 0.5102592431
0.0524207982 0.4983838806 0.5147272258
0.0423983047 1.0013680048 0.2631873449
0.0324623358 1.0011987777 0.5168461579
0.0324501856 0.9990639119 0.015993668
0.0725026041 1.0011206728 0.5126865341
0.0623582398 1.0004372554 0.7617558617
0.0723685831 0.9984976518 0.007993825
0.0724407482 0.7491284143 0.0089165086
0.0625110386 0.7495970433 0.2623773275
0.0723527509 0.7500070938 0.5054562077
0.0625217161 0.7488810823 0.7620237197
0.0624804788 1.0005999739 0.2619732392
0.0822835651 0.9985236868 0.2576138724
0.1023731031 1.0011076553 0.7548928045
0.0823907083 0.9970006423 0.7577904579
0.092442657 1.0002224671 0.0031054616
0.0923712282 0.7479633504 0.0067629666
0.0922206386 0.4986214495 0.0022403998
0.1024445319 0.748418962 0.2525577065
0.0823748762 0.750742581 0.2556652281
0.0923870604 0.7504822316 0.5076855967
0.1022574915 0.7495710084 0.753399795
0.0823468938 0.750150286 0.7570172595
0.0922199022 0.4973379266 0.5062266447
0.1123922828 0.9989923158 0.0015693739
0.1124228426 0.7500136025 0.0071194664
0.122489887 0.5007849537 0.7534126817
0.1225259696 0.7507946509 0.2534468848
0.1125579682 0.7497207093 0.5030611333
0.122491728 0.7485296105 0.7547510515
0.1125822687 0.9988165799 0.5010775109
0.1222829644 0.9992266304 0.7512541692
0.1523044211 1.0008277797 0.4955859606
0.1325344719 0.9984390732 0.4952380213
0.1424089531 0.9992266304 0.7462348223
0.1524502243 0.9991875779 -0.0063939723
0.1324070782 1.0009579544 -0.0011065832
0.1526299009 0.7506774937 -0.0055977527
0.1325458858 0.7514780683 -0.0021555835
0.1425098371 0.7477485621 0.2477565121
0.1526556741 0.7516407867 0.4961161539
0.132567609 0.7489656959 0.4996747079
0.142511678 0.5002831301 0.2443866553
0.1425370831 0.7520833808 0.746480589
0.1726542692 0.749629587 4.0524074091e-04
0.1625375191 0.5002876862 0.746226538
0.1725699537 0.5010778468 -0.0036586353
0.162500332 0.7470521272 0.2471269076
0.182549369 1.0016674067 0.7493506282
0.1726019862 0.7511851752 0.4995624101
0.1624811861 0.5010342383 0.2473045591
0.162508064 0.7489461697 0.7456843786
0.182557101 0.7519076449 0.2464871779
0.1825652012 0.7519597148 0.7495650987
0.1625515103 0.9990964556 0.2435628307
0.1724742244 1.0010035155 0.5001855712
0.1723519854 1.0012573563 -0.0023476681
0.192495279 0.9983870033 0.4993580647
0.2026186565 1.0025786299 0.7474397233
0.1924993291 0.7517058741 -9.877315817e-04
0.202664312 0.7501763209 0.2464742912
0.1925725989 0.7522135556 0.4997879263
0.2025372866 0.7532354273 0.7470337941
0.2324313496 0.7521810119 1.0008389625
0.2324420271 0.5018959951 0.9978382159
0.2326161809 0.7500461462 0.5027021482
0.2325049876 0.5003358508 0.4969270918
0.2225159994 1.0034312744 0.2468222305
0.2124327546 1.0025135425 0.4927941618
0.212476201 1.000892867 -0.0039554883
0.2126253178 0.7521094158 -0.0040981987
0.2325764164 1.0010816204 1.0000381497
0.2224482525 0.7528644293 0.2523690093
0.212418027 0.7533525845 0.4992954725
0.222406647 0.4998958602 0.2472447283
0.222515263 0.7524543788 0.7497464321
0.2525805343 0.7502869695 1.0044380174
0.2524837004 0.5004530081 1.0010782858
0.2424689389 0.7520182935 0.2526920958
0.2525153647 0.7502153734 0.5033584465
0.2424052421 0.5008585024 0.2530234666
0.2425819732 0.7539253534 0.7555389776
0.2524792821 0.4999583441 0.5040377566
0.2624697431 0.5027017767 0.7530398896
0.2625581086 0.7520898896 0.2519133745
0.2624586974 0.7514975945 0.7524480245
0.2824613426 0.500850041 0.7546387536
0.2824521378 0.7517188916 0.2563261288
0.2823773953 0.4996921367 0.2566289648
0.2824937433 0.7505147752 0.7545614337
0.2725113825 0.7507230548 1.0062605567
0.2725684519 0.5005473848 1.0044288126
0.2724701452 0.7497467443 0.5003457338
0.2825143619 1.0017390028 0.2517430867
0.2824215781 1.0004502729 0.7534356936
0.3124268344 1.0008277797 0.9991360848
0.292427503 0.7496816569 1.0053769013
0.3024514692 0.5004256714 0.7509559355
0.2926543079 0.499602967 1.0001117877
0.3024695105 0.7497142006 0.2527105053
0.2923590197 0.7496165696 0.507870612
0.3025501441 0.5018029201 0.2513859426
0.3024249596 0.7505798626 0.7534946039
0.3025000703 1.0009970068 0.2520901056
0.312544287 0.7487053464 1.0012439712
0.3126797808 0.5022865193 0.9992097228
0.3124945814 0.7500591637 0.5010121572
0.2925560012 1.0003721681 1.0018698938
0.3324935446 0.7512112101 0.9948742883
0.3326091562 0.5019675912 0.9951136117
0.3223532304 0.7529490429 0.2451184324
0.332472926 0.7504887403 0.4971691766
0.3225126566 0.748418962 0.7489888817
0.332550614 0.5027616571 0.4940708598
0.3524339657 1.0002029409 0.4960894601
0.3424910012 1.0026046648 0.7448863273
0.3625120558 0.750495249 0.2417200409
0.3524310202 0.9992461566 0.9942575705
0.3625083739 0.7531052525 0.740941174
0.3624826006 1.0006976049 0.2443645639
0.3525414771 0.7525650274 0.9948098551
0.3625120558 1.0024809988 0.7403612751
0.3524998716 0.5036540049 0.9958407865
0.3424549186 0.7522135556 0.2442651527
0.3524667346 0.7523437303 0.4958519777
0.3423356251 0.7512307363 0.7441720392
0.392493748 1.0017520203 0.4902821871
0.372574682 0.7499354977 0.9898300886
0.3725710001 0.5043575994 0.9887807478
0.3825047598 0.7506319325 0.2421922443
0.3726078191 0.7524804138 0.4897133339
0.3824826684 0.5012770142 0.2398606826
0.3825158055 0.7518881187 0.7380969081
0.3825084417 1.0029626454 0.2386005532
0.3825968073 1.002005861 0.736429929
0.3725636363 0.9996952594 0.9926835593
0.3723537681 0.502478527 0.4889309307
0.3925894774 0.7499615326 0.9855498827
0.3925084756 0.7541010893 0.4851689518
0.4126190004 0.7539904408 0.9860377341
0.4125343167 0.7530662001 0.4868755114
0.4125564081 0.5032446054 0.4864438089
0.4025342828 1.0028845405 0.236432836
0.4026889225 0.5017703764 0.7342115857
0.4024606449 0.752747272 0.2358105953
0.4025563742 0.5044864724 0.2352794815
0.4024864182 0.7527407633 0.7345687297
0.4325675216 0.7500786899 0.9784438203
0.4225012136 0.7531963749 0.2367411949
0.4325564759 0.7501958471 0.482105613
0.4225306687 0.4999960948 0.2346093762
0.422412848 0.752278643 0.7328060212
0.4425675555 0.7507230548 0.2310996073
0.4425344185 0.7488485386 0.7306116103
0.4325343845 1.0006650612 0.4826486929
0.422519623 1.0036070103 0.734701278
0.4424607805 1.0020579309 0.2292080324
0.452438723 0.9986538615 0.9799810125
0.4623835285 1.0002550108 0.2303300907
0.4724829736 1.0003591506 0.4842770121
0.4624571664 1.002155562 0.7342474842
0.4525160429 0.751237245 0.9798429414
0.4525234067 0.7508206859 0.4791895501
0.4723835624 0.7510289655 0.9851264644
0.4625013492 0.7504041267 0.233196448
0.4724572003 0.7545176485 0.4859596393
0.4626007604 0.7511916839 0.731845046
0.4725124288 0.5021049255 0.4835940201
0.482394642 1.0018496513 0.2364116651
0.4926376811 0.9994804711 0.4846129853
0.4925861346 1.0003656593 0.9851724881
0.4826671024 0.5011917497 0.7348135759
0.4926155897 0.7476834747 0.4856558828
0.4825161446 0.7518946275 0.2339088952
0.4925124966 0.7497662705 0.9848963458
0.4824830075 0.7520768721 0.7318165113
0.5124610179 0.9980550577 0.4835792925
0.512420517 0.9979118655 0.9869674132
0.5024757115 0.9981071276 0.2347345607
0.5226009639 0.7476639485 0.7337826446
0.5224352785 0.9989467547 0.234023034
0.5223542767 0.9979704441 0.7339170338
0.5026229874 0.7487053464 0.2321645962
0.5025603952 0.5007133576 0.2294344691
0.5025714409 0.7507555985 0.7334328643
0.502457302 0.5011611587 0.7309116849
0.5125493834 0.7459716769 0.9829633496
0.5126082938 0.4997611294 0.9849239601
0.5125346558 0.74626457 0.483275536
0.5225015526 0.5006254896 0.2358198
0.5225089164 0.7498053229 0.23680931
0.5325715426 0.7486597852 0.4890211372
0.5323653563 0.49787685 0.4831567948
0.5324021753 0.9993828401 0.9854854494
0.542339617 0.9999491002 0.2364733368
0.552405925 0.999311244 0.4904598387
0.5523580604 0.7501633035 0.988523015
0.5423801178 0.9993568051 0.7388470947
0.5424868929 0.7498573928 0.2396278026
0.5524537897 0.7490503094 0.4853668538
0.5425273937 0.7492455715 0.7379082109
0.5325052684 0.7474166165 0.9830830113
0.5623065477 0.9972935355 0.2362837191
0.5623985951 0.9992071042 0.7412532148
0.5622697287 0.7498378666 0.2404737186
0.56236914 0.7496165696 0.7380950672
0.5724059928 0.9984716169 0.4924186082
0.5724649032 0.9993372789 0.9936776716
0.5723839014 0.7488615561 0.992692764
0.5723839014 0.7479828766 0.4849590837
0.6023398204 0.9983544596 0.2446057282
0.5923729236 0.74878996 0.9936592621
0.5923618779 1.0002875545 0.4933676173
0.6022035902 0.9994153837 0.7492079546
0.5924134244 0.9990313683 0.991505352
0.6025165515 0.7485100843 0.2454626899
0.6023250928 0.4981300399 0.2460692825
0.5923324227 0.7494994123 0.4951514967
0.6023619118 0.7488290124 0.7430472194
0.5823360707 0.998295881 0.2430307965
0.5822219319 0.9988556324 0.7447749499
0.5824428457 0.7492650978 0.2430252736
0.5824465276 0.7460758167 0.7420890056
0.6124724026 0.7471107058 0.995859196
0.6123729914 0.7485881891 0.4964070238
0.612457675 0.9978663044 0.9945429176
0.6223877529 0.9990313683 0.2442384589
0.6224245719 0.747800632 0.2485343129
0.6225792116 0.7481260688 0.7452775289
0.6424209578 0.9979899704 0.7501440771
0.6524872658 0.9993307702 0.9940458614
0.6324798342 0.9996627157 0.9956198726
0.6323325583 0.7478917543 0.9949203121
0.6325461084 0.5011884954 1.0000841735
0.6322957394 0.7504887403 0.4972391327
0.6525130391 0.7500591637 0.9979486729
0.6524872658 0.5006619385 0.9985930049
0.6424320035 0.7490763444 0.2492292711
0.6423436379 0.4992267621 0.2499831396
0.6523768089 0.751113579 0.496077494
0.6425130052 0.75002662 0.7464492928
0.6725941087 0.7519011362 0.9954541872
0.6725941087 0.4985225167 0.9947914457
0.6825389141 1.0026437173 0.2443231425
0.6724615604 0.9988881761 0.4987615973
0.6825499598 1.0004177292 0.7444675114
0.6825720512 0.7491544492 0.2470063254
0.6725793811 0.7512958237 0.4988398376
0.682616234 0.7496230783 0.7456678101
0.6625535739 0.7497727792 0.2461788189
0.6624725722 0.7476899834 0.7489539037
0.7025758009 1.0010620942 0.2465212354
0.7026310294 0.500273367 0.7420751985
0.6926015403 0.7501633035 0.9969177415
0.692612586 1.0018301251 0.4940064266
0.7025610733 1.0017259853 0.744233711
0.6925573575 1.0017780552 0.9965863707
0.702572119 0.7497857967 0.2432553922
0.7026163018 0.4995990618 0.2439043267
0.6926567688 0.7504692141 0.4958335683
0.7026126199 0.749629587 0.7425667318
0.7224985489 0.4999973965 0.7351228553
0.7325722207 0.7480024028 0.9849515743
0.7225243222 0.7488485386 0.2398450346
0.7226126877 0.4973242583 0.2351598199
0.7326384949 0.750273952 0.4841232929
0.7225574592 0.7489656959 0.7367705045
0.7225169584 1.0017650378 0.7389676769
0.7125905624 0.7522721342 0.9900049788
0.7124580141 0.7481651212 0.492173762
0.7425575271 0.4985869532 0.7350703883
0.7425059805 0.7464468147 0.2361253975
0.7424102512 0.4989826844 0.2366804436
0.7424581158 0.7482822785 0.7380794191
0.7525281058 0.5003007036 0.4856107795
0.7525943799 0.7493757463 -0.0148134412
0.7624950026 0.5006378562 0.7401026218
0.7624913207 0.7483994357 0.2382111925
0.7625502311 0.4987594347 0.2385508476
0.752590698 0.7487313813 0.4842098175
0.7625723225 0.7485100843 0.7393432305
0.7825760722 0.7505082665 0.2406964734
0.7824766609 0.4998060396 0.2399149906
0.7725686745 0.7508206859 0.4929211872
0.7825687084 0.7494473424 0.7420678347
0.7725171279 0.9993307702 0.4918120156
0.7724324443 0.497712179 0.487464615
0.7725576288 0.7501307598 -0.0097925019
0.7824913885 0.4993087721 0.7439483639
0.7723772158 0.4980916383 -0.0115794372
0.7924619673 0.749258589 0.4937137157
0.8125614463 0.5011429342 0.4973946928
0.8124804446 0.7511526315 -0.0037210251
0.8025540486 0.5005551953 0.7462099695
0.8025614124 0.75188161 0.2446913323
0.8024583193 0.5011032309 0.2432544718
0.7924288302 0.5012802686 0.4942402271
0.792542969 0.7485035755 -0.0049030155
0.8125945834 0.7503455481 0.4946074963
0.792542969 0.500510285 -0.0060689528
0.8025798219 0.7511005616 0.7462716413
0.8325946512 0.4978345432 0.5006016257
0.8325836055 0.7504301617 -2.1640164674e-04
0.8224436595 0.5009645948 0.7457138338
0.8325173314 0.5007699836 -0.0018513483
0.8226019811 0.7506124063 0.2484947325
0.8224804785 0.4999238478 0.2477537506
0.8326609254 0.7506319325 0.4992301188
0.8226203906 0.7501828297 0.7498697757
0.8627935754 0.7473385116 0.7537127563
0.8625505702 0.5001640202 0.7554782263
0.8526131285 0.7489526784 -0.0022317159
0.8524400793 0.5009626422 0.0056862877
0.8627825297 0.7517644527 0.2570358145
0.8626941642 0.5014091415 0.2554719285
0.8526978122 0.7477811057 0.4990193302
0.8426683231 0.7480089115 0.2511217665
0.8425836394 0.5020964642 0.2493231595
0.8426683231 0.7489331522 0.7485755887
0.8525026716 0.5008858391 0.505658712
0.8726536972 0.5013323384 0.5043792526
0.8827420966 0.7503260219 0.7503880028
0.8926721745 0.4994610766 0.5023643341
0.8726868343 0.7504757228 0.0069553458
0.892690584 0.7478136494 0.0047248522
0.8826868682 0.5010225226 0.758275548
0.8724364652 0.498608432 0.005770327
0.892653765 0.4985342324 0.0021504694
0.8826537311 0.7499550239 0.2551598877
0.8826095483 0.5008233552 0.2526893344
0.8726168782 0.7491739754 0.5034698239
0.8927752676 0.7484254707 0.5043488769
0.8826868682 0.9987384751 0.2510324805
0.882657413 0.9996301721 0.7536142656
0.9125875587 0.7480284377 0.5076266863
0.9126427871 0.9975799199 0.0052531125
0.9124881474 0.4992853407 0.505030028
0.9025691153 0.7484645231 0.7552830857
0.9125581035 0.7474556689 0.0074449461
0.9125581035 0.5010863082 0.0066556393