POSCAR file written by Ovito 3.7.11
1
271.5899344928 0.0 0.0
0.0 15.3634467505 0.0
0.0 0.0 10.8635973797
Sr Ti O 
800 800 2400 
Direct
0.0122644023 0.2508540849 0.5116532337
0.0224010077 0.252562035 0.7585401447
0.0023242696 0.2526407933 0.7641312945
0.0123744211 0.2527605581 1.0094073211
0.0222619746 7.920342012e-04 0.2611174392
0.0023834765 1.0004020338 0.2626381142
0.0122782467 8.1227705458e-04 0.5112868725
0.0223811616 9.6888253765e-04 0.7581903527
0.0024178297 0.0010868899 0.7650729715
0.0124288046 1.0024783908 1.0078608721
0.0222375996 0.2498282734 0.2571739941
0.0024528458 0.251346162 0.2624641386
0.0324384931 0.2539386792 0.5061209963
0.0423696417 0.2504453224 0.7606204869
0.0322164672 0.2500964424 1.0060474764
0.0424326043 1.0030772147 0.2615307462
0.0323920996 4.9607196865e-04 0.5062793232
0.0424038845 1.0003890159 0.7561808894
0.0323887858 -1.2598896307e-04 1.0094441413
0.0423998343 0.2495060801 0.2592211981
0.0724263521 0.250566389 0.5101758225
0.0524160376 0.2510727858 0.5091052748
0.0625206094 0.2510968689 0.759440399
0.072377013 0.2487015731 1.0068114959
0.0524101464 0.2506692305 1.0091587847
0.0623593369 1.0020357818 0.2615169386
0.0723899001 0.9988724291 0.5121852858
0.0522956355 -6.2197141568e-04 0.5116062879
0.0623751696 0.9988724291 0.7598224088
0.0724094148 -5.3429577741e-04 1.0103554417
0.0524609583 1.0012091443 1.0116809695
0.0624992537 0.2519300153 0.2586955896
0.092381068 0.2508293509 0.5083237657
0.1024963177 0.2498692798 0.7530815477
0.0824013168 0.24758008 0.7566669163
0.09251583 0.2485635832 1.0083947652
0.1024153133 0.9993540919 0.2558935711
0.0824447646 0.9986836694 0.2581276377
0.0923865911 -5.6124285554e-04 0.5064625038
0.1024790122 -0.0014400821 0.7575828191
0.0823420362 0.9997641561 0.7590593098
0.0923273105 1.0037085835 1.0059186057
0.1023803341 0.2496427682 0.2532047749
0.0825570663 0.2498523565 0.2602760973
0.1124061106 0.248858439 0.5040839178
0.1223424141 0.2486534068 0.7521260631
0.1124974248 0.2483787289 1.0066918302
0.1224841719 -0.0011539484 0.250587778
0.1123346794 1.0013067787 0.5052529597
0.1223807071 0.9996079411 0.7494943382
0.1122709804 -9.3518238182e-04 1.0026416065
0.1224072176 0.249843244 0.2529249412
0.1524153253 0.2489918726 0.4982046499
0.1323225336 0.2496753129 0.4979119291
0.1423291636 0.2483767762 0.7477398549
0.1525165809 0.2504752636 0.9994566578
0.1324919065 0.2512329061 1.0000549863
0.1422901342 -8.7022300024e-04 0.2435965396
0.152391024 0.998442838 0.4921882266
0.1323148013 -0.0034132852 0.4927497349
0.1424223188 -0.0034452246 0.7440762435
0.1524326308 1.000512686 0.9970081134
0.1323074373 3.6888696702e-04 0.9961704535
0.1423615654 0.2504238429 0.249902922
0.1723947108 0.2504082214 0.500443319
0.1623442647 0.2486566613 0.7508778578
0.1723748279 0.250498045 1.0001562419
0.1624587756 0.0014482021 0.2478050902
0.172486025 -8.9710498881e-04 0.5022622376
0.1624841815 0.999633977 0.7474250421
0.1723391123 4.7049177129e-04 1.0000457813
0.1623796121 0.2506262714 0.2495522095
0.1924724063 0.2501446087 0.5039016578
0.202493028 0.2505696435 0.752868911
0.1824326381 0.2457712411 0.7560649057
0.1925287412 0.2492379111 1.0043813617
0.2025508358 4.8194753397e-04 0.2515395806
0.1824978098 -9.4811063485e-05 0.2548451155
0.1924024479 -8.4210431001e-04 0.5023717778
0.2025953882 1.0010203846 0.7549621403
0.1824344791 0.9999659337 0.7546620555
0.1925773439 -2.5057038227e-04 1.003074244
0.2024551032 0.2493374981 0.250334639
0.1824319017 0.2507681667 0.2567956664
0.2125408967 0.2502910602 0.5050403229
0.2223928819 0.2512491785 0.74937007
0.2125806626 0.2510350339 1.0015922303
0.22265541 1.0016712802 0.2508620886
0.2125364783 1.0007014458 0.5011926104
0.2225018697 0.9984688738 0.7510490718
0.2125475244 1.0016582623 1.0016290505
0.2224819868 0.2505781051 0.2487311186
0.2525828814 0.250285853 0.5020551239
0.2324098216 0.2518779437 0.5014448289
0.2425965025 0.2503847892 0.7493433753
0.2525158686 0.2493856644 1.004445797
0.2325744079 0.2506549108 1.0005520592
0.2424326525 1.001404413 0.2521167375
0.2524356006 5.5536855846e-04 0.5006301816
0.2323590097 -1.0405378111e-04 0.5016832398
0.2425497408 0.9981043723 0.7490156754
0.2524959857 -5.0285751958e-04 1.0017763314
0.2324959809 -3.0745865833e-04 1.0038658786
0.2424297069 0.2487256562 0.2507764816
0.2726951879 0.2482140523 0.5052400726
0.2624020966 0.248421688 0.7538216341
0.2725074048 0.2490621693 1.0064985241
0.2626082898 0.9984949097 0.2527905474
0.2725258149 0.0018382187 0.4997492579
0.2624440716 1.0000114964 0.7500788591
0.2725648443 -6.7736263185e-04 0.9980482845
0.262539436 0.2492457218 0.2529599204
0.2925534349 0.2510636733 0.5024270081
0.3025405502 0.2503411791 0.7468939105
0.2825736836 0.2482635204 0.7531091629
0.2925096188 0.2493967296 1.0016658707
0.3025527009 -0.0013188203 0.2452681774
0.2825626375 0.9987292321 0.2481438362
0.2926141883 -7.7818636139e-04 0.4985802161
0.3027275969 -6.8393667748e-04 0.7462265441
0.2826141858 1.0003434532 0.7512184448
0.2926303891 1.4842862489e-04 0.9989135596
0.3025052028 0.2513162208 0.2493782339
0.2826123448 0.2487204491 0.2537414295
0.3324396701 0.2478475981 0.4956042221
0.3125482849 0.2481704423 0.4959586167
0.322425676 0.2498757888 0.7481227852
0.3324985824 0.2502891075 0.9933721171
0.3125512305 0.2488844748 0.9933352969
0.3227128737 7.6521730219e-04 0.2451641602
0.3327091941 1.2857630887e-04 0.496185061
0.3126882017 -0.0015006805 0.4976468236
0.3227511667 -0.0016358064 0.7471019447
0.332760006 2.9051913592e-04 0.9953051785
0.3125887871 1.0001156397 0.9976616723
0.3225272998 0.2513754523 0.2459134516
0.3524632398 0.2481613298 0.4929909073
0.3424757563 0.2479348181 0.7471580955
0.3524717085 0.2494364343 0.9913101851
0.3425873216 -0.0023510821 0.2448051631
0.3525803281 -4.9888705638e-04 0.4927165967
0.3426307694 0.9988138485 0.7452590929
0.3526197258 6.6328705012e-04 0.9918256681
0.3425405599 0.2508644992 0.2450288459
0.3724120646 0.2479575994 0.4916506514
0.3825044857 0.2503991089 0.7387253456
0.3625221546 0.2495021747 0.743576409
0.3723826084 0.2496486262 0.9927829937
0.3824860756 0.9983061499 0.2405570307
0.362584749 1.0002458188 0.2416929344
0.3724709769 -0.0033767309 0.4892794295
0.3825155318 -0.001877484 0.7398078599
0.3624337861 1.000968313 0.7390990708
0.3724304747 -0.0022446151 0.9931511958
0.3824897576 0.2474603152 0.2408147722
0.3624374681 0.247748011 0.2426530215
0.3924938103 0.2476152283 0.489702862
0.4025899134 0.2490836488 0.7353590574
0.3925085384 0.2472351053 0.9889260761
0.4025310011 1.000668901 0.2361818686
0.392442262 0.9973428244 0.4902229476
0.4026046415 -0.0025398939 0.7363854209
0.3923980777 0.9953250481 0.990454115
0.4024684067 0.2492489763 0.2368768502
0.4325247489 0.2484392622 0.4879382532
0.4125939661 0.2476178319 0.4862666154
0.4225685625 0.2470788904 0.7340712703
0.4326720298 0.2476998448 0.9853913354
0.4126307863 0.2494474995 0.9881988768
0.4225832906 0.9981173902 0.2358560097
0.4324437444 0.9998422636 0.4840914611
0.4124650953 -0.0014099456 0.4833974001
0.4225869727 0.9986120709 0.7371006536
0.4325910253 0.9976617633 0.9840934228
0.4124908695 -0.0022163923 0.985492591
0.4225096502 0.2490725836 0.2352466351
0.4525512643 0.2511905979 0.4871005933
0.4425251195 0.2483963031 0.7325174572
0.4525880845 0.2493667884 0.9859160234
0.4425251195 1.0015996817 0.2374300739
0.4524076654 -0.0024113225 0.4813060118
0.4425877139 -0.0022517554 0.7350101858
0.4525181261 0.9998943352 0.9842407036
0.4425545757 0.2473737461 0.2360263032
0.4724084067 0.2500320037 0.4838374017
0.4825781503 0.2518720856 0.7377265972
0.4626031832 0.2483110357 0.734866587
0.4725556875 0.2493016989 0.9884658234
0.4825450121 -9.8868600073e-04 0.2356120758
0.4625074506 -5.7387023032e-04 0.2357823693
0.4724489089 1.0015801548 0.4855523032
0.4824345514 0.9992694754 0.7322505107
0.4625184967 -8.7217568706e-04 0.7345471716
0.472463637 -0.0010034613 0.9846641361
0.4825155559 0.2505826614 0.2322586746
0.4625810911 0.2503476881 0.235399439
0.5124246172 -6.8627990167e-04 0.4842571521
0.5124098891 9.6048598432e-04 0.9803469658
0.4925601108 0.2492613433 0.481672373
0.5024058365 0.2494891568 0.7310059874
0.492427558 0.2505794069 0.9834122488
0.512391479 0.2481730459 0.4867379142
0.5124724835 0.250223367 0.9844524199
0.5023690163 1.825355547e-04 0.2292725551
0.4923023693 9.9407219765e-04 0.4815287741
0.5024831589 -0.0021776054 0.7319752795
0.4924606962 -5.01165191e-04 0.9818750048
0.5023984724 0.2507121896 0.2339698941
0.5223550294 1.0014239399 0.2312369136
0.5324437685 -0.0019941244 0.4820516212
0.5224102597 1.00111151 0.7336966246
0.5324916348 1.0041577014 0.9816724936
0.5223697575 0.2497820598 0.235137095
0.5324179944 0.2509868676 0.4849346441
0.522461808 0.2522893097 0.7317755299
0.5324953168 0.2498875049 0.9850231332
0.5423005403 3.687567879e-04 0.2335308131
0.5624117422 9.2006536712e-04 0.2341898949
0.5524555558 -6.1159760598e-05 0.4805199002
0.5424478212 1.0026150789 0.7315628931
0.5624411984 1.001703825 0.7305853164
0.5524408277 0.0028206155 0.982767895
0.5424073189 0.2509621336 0.2352549197
0.5624485624 0.2495073819 0.2338806051
0.5524371457 0.2519026777 0.4860815938
0.5424956875 0.2493355454 0.7354280953
0.5623601939 0.2517393029 0.733500557
0.5524666019 0.2515811353 0.9843787794
0.5824308935 0.0018884679 0.2332804356
0.5725225735 -2.1119119804e-04 0.4842378215
0.582342525 1.002445846 0.7322385441
0.572441569 8.7131328615e-04 0.9811017802
0.5825008519 0.2514424945 0.2366982721
0.5724084308 0.2523732752 0.4855320521
0.5824713958 0.2493837117 0.736409354
0.5725004813 0.2529018025 0.9851888242
0.6026120538 1.0013067787 0.2354960921
0.5924975405 1.0021008713 0.4842249344
0.6124025492 -8.6703361176e-04 0.4892877141
0.6024905471 0.0014972796 0.7366127857
0.592401808 -2.7257065379e-04 0.985842383
0.6124356874 -3.0081952314e-04 0.9870574501
0.6024426808 0.2514887081 0.2411811334
0.5923428956 0.2512550366 0.4861727238
0.6125203739 0.2503925999 0.4916304003
0.602464773 0.2505058557 0.7394912061
0.5924165361 0.2525737511 0.9889260761
0.6125535121 0.2510011873 0.9911997244
0.62243974 2.627258935e-04 0.2435321042
0.6325321612 -0.0015604978 0.4945345949
0.622428694 5.3851036223e-04 0.7398833414
0.6324511567 1.001105001 0.9947528752
0.622601749 0.2506418929 0.2435854935
0.6324879769 0.2504700565 0.4938359313
0.6224949704 0.2514125533 0.7421275335
0.6323885623 0.2499415292 0.9935654233
0.6424662554 1.003187867 0.2478547975
0.6622939416 1.2044011379e-04 0.2514061073
0.6523340732 9.8671707729e-04 0.4945916662
0.6423778869 1.0020878534 0.7484127444
0.6624449045 1.0029795804 0.7470559194
0.6522714789 1.0027778028 0.9986558181
0.6424441633 0.2518831508 0.2467860907
0.6623418079 0.2508208892 0.2497574822
0.6523377553 0.2532819255 0.4991757831
0.6424073431 0.2524858802 0.7467604372
0.6624890888 0.249481346 0.7498376867
0.652289889 0.2533470151 1.0002759076
0.6824456457 1.0020292728 0.2502131323
0.6723900448 1.0031748491 0.4973356928
0.6823609592 9.1609490392e-04 0.749706975
0.6723789987 -7.0496060559e-04 0.9995210932
0.6825303322 0.2512615455 0.2514097893
0.6724526392 0.2517425574 0.5008225672
0.6824787839 0.2490237664 0.7529710871
0.672426865 0.2513598308 1.0013160787
0.7025126634 0.0012165483 0.2507092847
0.6925307028 1.0003825069 0.5036954645
0.7125719463 1.0014695026 0.5021149568
0.7025016173 1.0013132876 0.7496351755
0.6923686939 0.9998813173 1.001702691
0.7125645823 1.4068296717e-04 1.0023194296
0.7025016173 0.2493667884 0.2476393992
0.6926301174 0.2506874556 0.4979110086
0.7125866744 0.2466558082 0.4988232295
0.7025421195 0.2493726465 0.7500171853
0.6925159748 0.2486195603 1.0010031069
0.7125535362 0.2497963795 1.0004323935
0.7224360821 -8.4457771332e-04 0.2533060305
0.7425178278 0.9998032098 0.2523873661
0.7324916831 -0.0014650765 0.5018240771
0.7225649529 1.000076586 0.7535850642
0.7425841042 -0.0034553981 0.7538170316
0.7324916831 0.999777174 1.0007637755
0.7225244506 0.249543832 0.2485819968
0.7425730582 0.250965388 0.2474635827
0.7325469134 0.2491031757 0.4989392132
0.7224949945 0.2505898213 0.7475879715
0.7425914683 0.2505403532 0.7481301492
0.7325579595 0.249269805 1.0008926462
0.7623970623 -4.5156694574e-04 0.2507994943
0.7525366086 0.0011419557 0.5000143635
0.7624375646 9.9211951083e-04 0.7528228857
0.7525255625 0.998143426 0.9977076975
0.7626032556 0.250897044 0.2498274406
0.7524776962 0.2533769563 0.5010306014
0.7626584859 0.251769895 0.7490570982
0.7523598715 0.2481756495 1.0012240282
0.7824898541 -0.0019757236 0.2515865264
0.7725888981 0.9992499486 0.5010711037
0.7926154135 1.0006298473 0.5009983837
0.7824493519 4.5877565036e-04 0.754912433
0.7724747554 0.9981954977 1.0006993401
0.7924497225 -0.0020639265 1.0030190137
0.7825745406 0.2483513913 0.2507276949
0.7724600273 0.2498035394 0.501133698
0.7925712292 0.2514607196 0.4973448978
0.7825119462 0.2526043432 0.7521481553
0.7724894835 0.2482238157 0.9997236044
0.792534409 0.2493999841 1.0026139913
0.8025642358 1.0004736323 0.249311037
0.8126235187 9.2501217373e-04 0.498740384
0.8026562863 -1.8561100068e-04 0.751167817
0.8125609244 1.0001286576 0.9961612485
0.8026157841 0.2497664383 0.2484973103
0.8126051086 0.2500079206 0.4975842292
0.8026452402 0.2495809331 0.7472041208
0.8125425143 0.2475156413 0.9986005878
0.8225281568 0.9986511246 0.2497998254
0.8425767643 1.0023286848 0.2442924416
0.8326095319 -0.001416715 0.4966287446
0.8225870691 8.4575765834e-05 0.7463121511
0.8425694003 -8.2635263632e-04 0.7459457899
0.8325027532 -2.6996707136e-04 0.9957930463
0.8226238893 0.2512348588 0.2462116954
0.8426651328 0.2508104749 0.2486574782
0.832631624 0.2502702315 0.4980840637
0.8225760231 0.2518245702 0.7446055341
0.8427093171 0.2516598936 0.7462449542
0.8326132139 0.249219686 0.9959495322
0.8623639483 -3.5171955961e-04 0.2486777293
0.8525697709 0.9981369171 0.4954670668
0.8624339067 1.0012872518 0.75031727
0.8526397293 -0.0010045028 0.9982876159
0.8626069617 0.2521350474 0.2505435938
0.8526213192 0.2496857273 0.4998781287
0.8626842841 0.2480428668 0.7507747612
0.852588181 0.2491890939 0.9992265315
0.882442012 1.0006428652 0.2508206659
0.8724895076 -6.0875823486e-04 0.5035748783
0.8924166084 -0.0030786011 0.5061863521
0.8823462794 1.0028233654 0.7541695851
0.8725005537 -4.4236474813e-05 0.9995395033
0.8825230164 0.2498054921 0.2555925659
0.8924129264 -0.0025457845 1.0027796823
0.872552102 0.249500222 0.5035058404
0.8924828848 0.2505377496 0.5080153964
0.8825672007 0.2511619585 0.7554417236
0.8725226458 0.250897044 1.0057437097
0.8924681567 0.2499962045 1.0055043782
0.9025384857 -0.002488753 0.2541077907
0.9224287663 -0.0026066172 0.2581451273
0.9125204462 -0.0014466561 0.510346116
0.9024353891 0.9997706651 0.7577632382
0.9225355449 1.0004996681 0.7585364627
0.9123842114 1.0001937472 1.00751108
0.9025532138 0.2514073462 0.2609535893
0.9225760472 0.2478528052 0.2617065627
0.9126935013 0.2480109729 0.509568289
0.9024795734 0.251620189 0.758251106
0.9226202314 0.2494950149 0.7609086051
0.9125867226 0.249319273 1.0105027225
0.9423853233 1.0007014458 0.2602273105
0.9325211875 1.0010008577 0.5065260186
0.9424921019 1.0021594519 0.7611948823
0.9325580077 0.9993606008 1.0111654864
0.9424442356 0.2510955672 0.2575145811
0.9324990953 0.2503457354 0.5128913134
0.9425289221 0.2504329554 0.7629898678
0.9325432796 0.2482244666 1.01177302
0.9623971106 1.585175068e-04 0.2618998688
0.9525072006 1.0002067651 0.5090408394
0.9724637576 1.0004475965 0.5092092919
0.9625480735 0.9999464069 0.7624964769
0.9525108826 1.0015215742 1.0092416302
0.9626033038 0.2505579274 0.2628756046
0.9724343014 8.7495830155e-04 1.0114876633
0.9525035186 0.2503971562 0.5152027025
0.9724379834 0.251813505 0.5128370036
0.9624376128 0.2496941889 0.7649321342
0.9525035186 0.2512979957 1.0167621592
0.9724932138 0.2524663533 1.015869269
0.9825046304 8.5959716522e-04 0.2625874864
0.9925307752 1.0011700906 0.5135393492
0.9824494001 1.0027062042 0.7617932108
0.982423626 0.2515485905 0.2616964371
0.9923761303 1.3488999626e-04 1.011266742
0.9925602314 0.2504615948 0.5125617725
0.9825893169 0.249057613 0.7622083587
0.9925675954 0.2500970933 1.0125646546
0.0122678634 0.7510764715 1.0113772027
0.022420007 0.4998893477 0.7608699439
0.0024328156 0.5002004758 0.7643273622
0.0123398838 0.5010375276 1.0096558576
0.0223976571 0.751004873 0.2609443842
0.0023305658 0.7491888742 0.2617212908
0.012233952 0.751597188 0.5136792661
0.0223587381 0.7500936191 0.7591937036
0.0223489439 0.5009158101 0.2583559231
0.0023498596 0.5001477533 0.2608624593
0.0024803873 0.7525800403 0.7616072687
0.0123342503 0.5021622752 0.5121549091
0.0323169864 0.7508681849 1.0084499955
0.0424200854 0.498883714 0.7571087589
0.0323998319 0.5003762177 1.009039119
0.0425423285 0.7501912535 0.2575937446
0.0324049867 0.7513498476 0.5080466935
0.0424996171 0.7499308952 0.759700902
0.042479366 0.5018094898 0.2573553337
0.0324712631 0.5004686448 0.5068647646
0.0724569129 0.7495533758 1.007842462
0.0624329773 0.4981677289 0.7568574609
0.0525172932 0.7512066506 1.0076215407
0.072442553 0.4992475647 1.0076399508
0.0525239208 0.5016155229 1.00836715
0.0624867348 0.7510243998 0.260810911
0.0724506534 0.7497746803 0.5074621726
0.0524465984 0.7512652312 0.5091697101
0.0624340819 0.5012015533 0.2564965022
0.072517298 0.4998177492 0.5076186585
0.0624381321 0.7498592967 0.7628849302
0.0524929919 0.4991694572 0.5069936354
0.0925301899 0.7503279415 1.006148732
0.1025125186 0.5008468152 0.7542717612
0.0824631747 0.5021154107 0.7555558662
0.092543077 0.499700588 1.0072901587
0.1024455058 0.7493320713 0.2540985856
0.0824204633 0.7500480564 0.2566999339
0.0925040476 0.748485907 0.5055585675
0.1025165689 0.74996344 0.7543859039
0.1025298241 0.4994154957 0.2550393421
0.0826145058 0.49973834 0.257243032
0.082441819 0.7495338489 0.7575340323
0.0924105242 0.4989435964 0.5086450221
0.1124664958 0.7485770324 0.9990792506
0.1224591341 0.5013395432 0.7471949157
0.112532404 0.4994851416 0.9997696296
0.1224293098 0.7494947952 0.2456750407
0.1125684878 0.7493125444 0.5013619834
0.1226060468 0.5001926651 0.2474000678
0.1224112679 0.7485900503 0.7449093008
0.1124293074 0.4982171969 0.5000751168
0.1523530992 0.7510894894 0.9927921987
0.1425254154 0.4993067962 0.7432183324
0.1324841743 0.7499048594 0.9930867605
0.1524609824 0.5001653275 0.996253299
0.1324414629 0.4993862054 0.9963177344
0.1423505193 0.7493385802 0.2398887438
0.15231812 0.7494687593 0.4899026117
0.1325950032 0.7484208174 0.4929154259
0.1424642938 0.5003026665 0.2439352855
0.1423866031 0.7503344505 0.7391202424
0.1524834427 0.4984840641 0.4946966038
0.1324204753 0.4996517709 0.495500205
0.1724823429 0.7519551806 0.9942281872
0.1624473613 0.5005649774 0.7493498189
0.1725736571 0.500068344 1.0002114722
0.162428583 0.7498462788 0.2448281758
0.1724974392 0.7496965728 0.4955637199
0.1625600312 0.5004432599 0.2465246672
0.1624392609 0.748629104 0.7457184251
0.1725379415 0.4986669658 0.4973025546
0.1926601894 0.7479456636 0.9998985004
0.2026200578 0.4987828252 0.7514577762
0.1825629816 0.4989787448 0.7530962758
0.1926892774 0.4985335322 1.0015554101
0.2024956055 0.7530486852 0.249045011
0.1824550984 0.7499113683 0.2514539736
0.1924742473 0.7510699625 0.5007157886
0.2025217478 0.5020080129 0.251006608
0.2025526768 0.7503930311 0.7487358418
0.1826554004 0.4987574403 0.2505454348
0.1824466297 0.7507380058 0.7513500771
0.1924632012 0.4999179872 0.5007470858
0.2126432569 0.7502758699 0.9998432701
0.2225059199 0.4999960946 0.7489742527
0.2125582022 0.5019207929 0.9997512195
0.2226174852 0.7527037105 0.2466783916
0.2126259514 0.7500024937 0.500017125
0.22265541 0.498615545 0.2461776367
0.2224989241 0.7495013041 0.7454220224
0.2125084949 0.4999023657 0.4981043148
0.252549375 0.7456740379 0.9982231806
0.2427474654 0.5005747408 0.7443174159
0.2326465756 0.750848658 0.9970817539
0.2525744128 0.4994962068 0.9968332174
0.2326329521 0.4992013511 0.9962256839
0.2424709456 0.7500545654 0.2439831518
0.2524967221 0.7495598847 0.4981199634
0.2326259563 0.7471776068 0.4982193779
0.2425504772 0.5002850923 0.2473034148
0.2427297917 0.7496184653 0.7466683867
0.2525990823 0.500062486 0.4971460687
0.2325622573 0.500642434 0.5003604735
0.2726156562 0.748043298 0.9937034991
0.2625858295 0.4996621852 0.7474112345
0.2724993044 0.4988407549 0.9960323777
0.2625541641 0.7496575191 0.2453501023
0.2725692628 0.7485119428 0.495669578
0.2627165412 0.4997760919 0.2500695335
0.2624256615 0.7489740787 0.747060522
0.2725950369 0.4995170355 0.4966517573
0.2926587407 0.7508681849 0.9963821698
0.3026175045 0.4992638371 0.7449019368
0.2825968803 0.5004647395 0.7471544135
0.2927390088 0.5001191139 1.000008961
0.3027603669 0.750412558 0.242229589
0.2826219181 0.7501196549 0.246318474
0.2927110254 0.7487918279 0.4947325035
0.3027364338 0.4999101764 0.2454237428
0.3027780406 0.7501456908 0.7432661987
0.2826959267 0.4988433585 0.2471312803
0.2825158759 0.7505232102 0.7451431092
0.292783193 0.4989344839 0.4980859047
0.3326992526 0.7498592967 0.9934825778
0.3226038858 0.5002896485 0.7467116504
0.3127040344 0.7521634672 0.9967135517
0.3325976288 0.4986279121 0.9949922066
0.3127010888 0.4994799344 0.9949737965
0.3227935099 0.7486616488 0.2428555327
0.3327769433 0.751590679 0.493622374
0.3127570555 0.750555755 0.4926816175
0.322631501 0.5002323697 0.2449027367
0.3227725224 0.750555755 0.746978597
0.3325516035 0.4992566772 0.4965311711
0.3127474823 0.497437424 0.4965882424
0.3525932152 0.7486876846 0.9903436544
0.3425331958 0.4989162588 0.7433766594
0.3525913742 0.4985061946 0.9955076897
0.3426981504 0.7491368026 0.2459898536
0.3526491819 0.7481018786 0.4914775964
0.3426760583 0.4996517709 0.2476614914
0.3426852633 0.7511741058 0.7440964946
0.3525869558 0.4995424204 0.4947232985
0.3725924836 0.7477699218 0.9900490927
0.3825008037 0.4991382142 0.7347524443
0.3626215692 0.4990946042 0.7388486933
0.3724378387 0.4989201642 0.98958884
0.3825707621 0.7455764036 0.2374438815
0.3625221546 0.7485575055 0.2402311718
0.3725593454 0.7479716994 0.4859830997
0.3824566194 0.4978858911 0.2379271468
0.3825670801 0.7449840886 0.7370104441
0.362419058 0.4989715849 0.2401556904
0.3626399793 0.7493906519 0.7390604096
0.3725041151 0.5001874579 0.4892527349
0.3926300451 0.749514322 0.9881896718
0.4026451438 0.497861157 0.7341826515
0.3926521372 0.4972571259 0.9830072264
0.402516273 0.7467740515 0.2341429491
0.3925895428 0.7485640144 0.4892720655
0.4025420472 0.4974947028 0.2332758331
0.4026267337 0.7486551398 0.7372875162
0.3926079529 0.4984157201 0.4862316362
0.4326573017 0.7481083875 0.9845168552
0.4225722446 0.4994480405 0.7349687631
0.4126307863 0.749670537 0.9842407036
0.4325137028 0.4988759033 0.9818750048
0.4125902841 0.5002102393 0.982602204
0.4225206963 0.7490912399 0.232927882
0.4325689332 0.751597188 0.4871677902
0.4125203256 0.7492865086 0.4823010781
0.4226017007 0.4988785069 0.231135658
0.4225243783 0.7503019057 0.7329832329
0.4325652511 0.499064663 0.4847394969
0.4124614133 0.4992716478 0.4806137918
0.4525659924 0.7480758427 0.9869285794
0.4425877139 0.4988628854 0.7354142877
0.452503398 0.4970670644 0.9833478134
0.4424993454 0.7477113412 0.230880678
0.4526101766 0.7495729026 0.4855265291
0.4425251195 0.4978722223 0.2363227059
0.4426392622 0.749664028 0.735037801
0.452496034 0.4974979573 0.4844688684
0.4725814617 0.7500285296 0.9870850653
0.4824713716 0.4981019884 0.7323885865
0.462562681 0.4985022892 0.7373243364
0.4725372774 0.4998424833 0.9834858892
0.4824934638 0.7494817772 0.2350073037
0.4625000866 0.7480758427 0.2352825348
0.4724010426 0.7502107803 0.4854952319
0.4826076064 0.5006398304 0.2339247894
0.4824934638 0.7516557686 0.7337187168
0.4625884551 0.4997852044 0.2345001052
0.4625184967 0.7488959712 0.733079886
0.4726109179 0.4981429948 0.4869404253
0.4924091479 0.5008962833 0.9830532517
0.5023101039 0.7501456908 0.2315554085
0.492434922 0.7500740923 0.4835225888
0.5023947904 0.5000429591 0.2328634466
0.5023984724 0.7497356265 0.73281386
0.4923760097 0.7497160997 0.9825745889
0.4924606962 0.5007485299 0.4806911142
0.5024242466 0.499519639 0.7308660705
0.512391479 0.7493060354 0.986348661
0.5122994285 0.5017489565 0.9817829542
0.5123804329 0.7505752819 0.484493722
0.5124319813 0.5005031423 0.4825680247
0.5223918496 0.5027200927 0.7338733617
0.5324805888 0.7509397834 0.985492591
0.5323738101 0.5014521481 0.9817553391
0.5223292553 0.4967617944 0.2355457994
0.5223697575 0.748772301 0.2333071302
0.5324216764 0.7521113955 0.4822872706
0.5323627641 0.5012100149 0.482785264
0.5224176238 0.7497942071 0.7329344462
0.5424883234 0.5011481799 0.7360034111
0.5523855974 0.7520658328 0.9817921593
0.5624632905 0.5004035553 0.731367746
0.5525402423 0.5014560535 0.9805126568
0.5423668167 0.502787135 0.2328413545
0.5424478212 0.752182994 0.2339616096
0.5623565119 0.5025365402 0.2309635235
0.5624080602 0.7520853597 0.2307435227
0.5523855974 0.5012562285 0.4812563045
0.5525034221 0.7512782491 0.4810096091
0.542411001 0.7500285296 0.7308605475
0.5624853826 0.7497421355 0.730001716
0.5824051194 0.5010778831 0.7353572164
0.5723863387 0.7509137476 0.9802365051
0.5724857532 0.500928828 0.9833570184
0.5823719812 0.503198501 0.2335409386
0.5823977553 0.753660527 0.2340628652
0.5725225735 0.5013258744 0.4830503695
0.5724231589 0.7503019057 0.4799482664
0.5824088014 0.7515776611 0.731635613
0.6023911325 0.5015686584 0.7416212556
0.5923502597 0.75426586 0.9857779476
0.612369411 0.7516232238 0.9909880082
0.5924828124 0.4993289266 0.9847653917
0.6125203739 0.5015985996 0.9884197981
0.6023174921 0.7490196414 0.2366881466
0.6023285382 0.5017489565 0.2344430339
0.5923833979 0.7523587358 0.4840389923
0.5923907619 0.501602505 0.4851445193
0.612373093 0.7510374178 0.4895684682
0.6124467335 0.5009184137 0.4892950781
0.6022843539 0.7496379922 0.7354962127
0.622443422 0.5010642143 0.7401898697
0.6324180185 0.7512457043 0.9933997323
0.6323738343 0.4994695201 0.9923043309
0.6223992378 0.7489805876 0.2392416285
0.6223771457 0.5002160973 0.2393447251
0.6323738343 0.7495468668 0.492598772
0.6322854657 0.50013083 0.4938083161
0.6224250119 0.7473077859 0.739979074
0.6423042465 0.4986493916 0.7438451966
0.6523267092 0.7514670089 0.9990700455
0.6622239832 0.4995638999 0.7474986825
0.6523082991 0.4997904116 0.9950658471
0.6422821543 0.7511220342 0.2440043234
0.6421937858 0.4991844278 0.2450739507
0.6621650709 0.7504320848 0.2468689362
0.6622902596 0.5007472282 0.2470355477
0.6522788429 0.749664028 0.497370672
0.652286207 0.5004452126 0.4969776162
0.6423521127 0.7501391818 0.7438369121
0.6622571214 0.7491498205 0.7451467912
0.6823867334 0.502637429 0.7468874669
0.6723679527 0.7492995265 0.9954984846
0.6723569066 0.4990705211 0.9965202456
0.682313093 0.7486551398 0.2458462547
0.6824198716 0.5004230821 0.2454025711
0.6722906302 0.7502237982 0.4980288333
0.6722906302 0.5016513222 0.4954394517
0.682316775 0.7493906519 0.7470918191
0.7024832072 0.5008708983 0.7477113193
0.69237974 0.7495663937 0.9982415907
0.7124393935 0.7491758563 0.999327787
0.6924938826 0.5011325584 0.9971277792
0.7124541216 0.5024844685 0.9994014275
0.7024132488 0.7517013313 0.2477848391
0.7024206128 0.4988628854 0.2465973871
0.6923613299 0.7488373906 0.4983611358
0.6924717905 0.4999544373 0.497033767
0.7124430756 0.5015315574 0.4978751089
0.7125756283 0.7518770731 0.4979487494
0.7023801106 0.7500936191 0.7498100716
0.7225575888 0.5012679446 0.7499628755
0.7324695909 0.7499113683 0.9974775712
0.7425030997 0.4990633612 0.7484468031
0.732476955 0.5016519731 0.9970081134
0.7224802664 0.752339209 0.2478897767
0.7224434462 0.5006333214 0.2475123695
0.7424405054 0.7487853189 0.2467308604
0.7425067818 0.5022084888 0.2481024135
0.7325726875 0.500106096 0.4993893403
0.7324069966 0.7489870966 0.4983694203
0.7225465428 0.7494492325 0.7455600982
0.7424294593 0.7495013041 0.7459853717
0.7525218805 0.5001171612 0.4961657304
0.75244824 0.7491368026 0.9982876159
0.7625296151 0.5006157472 0.7492154251
0.7525366086 0.4982868428 0.9977997481
0.7624964769 0.7482906383 0.2498817504
0.7623160579 0.4986578533 0.2515589112
0.7524961063 0.7516557686 0.5032039147
0.7625443432 0.7480628248 0.7465201853
0.7725557599 0.5001054451 0.5006973785
0.772408479 0.7502498341 1.0011319776
0.7926375056 0.4986428827 0.5022171329
0.792538091 0.749520831 1.0021353285
0.782478808 0.4982835883 0.7488472229
0.772570488 0.4995443731 1.002218174
0.7925749112 0.4990906988 0.9999905509
0.7825229923 0.7489024802 0.2504441792
0.7824935361 0.5005513086 0.2508004148
0.7724416172 0.7492018921 0.5024932845
0.7925933213 0.7492474548 0.4990956991
0.7825414024 0.7498007161 0.7515212911
0.812671385 0.4978468373 0.4959899139
0.8125425143 0.7498592967 0.9969897033
0.8026121021 0.4976841134 0.7509791134
0.8126566569 0.5000494681 0.9978641835
0.8025200515 0.7499178773 0.2496746367
0.8025458257 0.496857476 0.248103334
0.8125866985 0.7485249607 0.5001275856
0.8025863279 0.7505752819 0.7479975964
0.8327604948 0.4992091618 0.4987910118
0.8325800757 0.7503735042 1.0007729805
0.8226717556 0.4990191003 0.7478484746
0.842694589 0.4989422946 0.7508548452
0.8327604948 0.5007198905 1.0006164946
0.8226091613 0.7484598711 0.250662339
0.8226533455 0.5005304799 0.2521010889
0.8426835429 0.7484338353 0.2483316193
0.8426761789 0.4993536607 0.2488636714
0.8326463521 0.7529380329 0.4980794611
0.822726986 0.750549246 0.7488914072
0.842705635 0.7477503949 0.7518738447
0.852757554 0.4993497553 0.5010665011
0.8625995977 0.7466894351 0.7497888999
0.862827883 0.5002636127 0.7529048107
0.8526434113 0.7521569582 1.0022457891
0.852764918 0.4987138303 1.0033319855
0.862492819 0.7482776204 0.2484522055
0.8626916482 0.4981866048 0.2525521365
0.8526102731 0.7482841293 0.5020229062
0.8727362031 0.4991557884 0.5020229062
0.8825009243 0.7487397563 0.7532711719
0.8925638893 0.5006723752 0.5104179154
0.8724747795 0.7480172621 1.0020340729
0.8924497466 0.7504320848 1.0060198613
0.8825266984 0.499002177 0.755593607
0.8726920188 0.5010056337 1.0046391032
0.89269276 0.4997637249 1.0083395349
0.8826040209 0.7488764443 0.2534496293
0.8825598366 0.4996231314 0.2579085574
0.8724085031 0.7494362146 0.5025788915
0.8924902488 0.7501717266 0.5047568073
0.9125977687 0.4997481034 0.5097358209
0.902409615 0.748179986 0.7582916083
0.9226349595 0.7493971608 0.7566043219