POSCAR file written by Ovito 3.7.11
1
271.6034142039 0.0 0.0
0.0 15.3642092782 0.0
0.0 0.0 10.8641365681
Sr Ti O 
800 800 2400 
Direct
0.0224889223 0.4968713001 0.7647799962
0.01251784 0.250366587 0.5136528143
0.0225667564 0.2502787205 0.7666641772
0.0024178565 0.2480592766 0.7611128847
0.0125214482 0.2476576939 0.0145373102
0.0226219471 8.3340696868e-04 0.2631303744
0.0025282012 -1.4047979172e-04 0.2646169169
0.0025080247 0.5005701563 0.2627437814
0.01243452 0.4979387159 0.5143523637
0.0123537404 -3.2799350934e-04 0.515408131
0.0224389229 -6.8707479364e-04 0.7669329514
0.0025956157 -1.1926164804e-04 0.7632713627
0.0225463958 0.2512530628 0.2685638481
0.0024339461 0.2491735546 0.263836367
0.032527235 0.4984346738 0.0163654352
0.0425094364 0.4988349547 0.269034203
0.0324834211 0.4969494037 0.5170677198
0.0325055121 0.2489633257 0.5225711484
0.0424361679 0.2500886684 0.7691945209
0.03244918 0.2493076324 0.0178469151
0.0523918601 0.4994578309 0.014785282
0.0423779948 -6.7973619755e-05 0.7680494691
0.0423875676 0.2513161966 0.2726285982
0.0524253648 0.2503210266 0.5219700882
0.0524548195 0.2490258086 0.0192727072
0.062509185 0.2492802962 0.2696960135
0.0623932071 0.4992638736 0.7662950729
0.0725834325 0.4977460604 0.0155871865
0.0624812031 0.4999205947 0.2645626097
0.0725609733 0.5002596945 0.51346412
0.072442418 0.2487862909 0.51652741
0.0623751661 0.2494156757 0.7699115591
0.0723352765 0.250037901 0.018058989
0.0924841396 0.2476843793 0.5113028806
0.1025569143 0.2469899082 0.7582419709
0.082485738 0.2476739655 0.7663199253
0.0925371581 0.247728638 0.0126273563
0.1024317318 -0.0027071853 0.2569743399
0.0923906209 -0.0016648016 0.5119453615
0.1023985952 0.2484803852 0.2583568704
0.0823933239 0.2464581529 0.2654591375
0.1024247363 0.5003469101 0.7586285639
0.0824931017 0.4969279252 0.7650386454
0.102550287 0.498885722 0.2618214807
0.0825225564 0.4981313715 0.2641115845
0.1224174894 0.2495575639 0.2566162811
0.1125998661 0.4988388599 0.0052267682
0.1124757881 0.2499968967 0.5071516074
0.1224255894 0.4985947861 0.2561763013
0.1123749058 0.5014722528 0.5075750188
0.1223803028 0.248809722 0.7581250725
0.1123907377 0.2486313854 0.0093464697
0.1223390662 -0.0034856959 0.2543160522
0.1524911172 0.2489210196 0.4990018571
0.1324405593 0.2467881406 0.503526837
0.142503393 0.2492015417 0.7516606839
0.1524716035 0.2489971706 -9.0138566711e-04
0.1324534457 0.2492822487 0.0037358075
0.1425284295 -0.0012367289 0.2495048093
0.1423800514 0.2485409154 0.2526251678
0.1424463245 0.5008558852 0.7505018251
0.1525176265 0.4969409425 -0.0011396283
0.1323245813 0.4982172854 0.0052171033
0.152524622 0.5000123664 0.5006577641
0.1323923272 0.4979868798 0.5056834741
0.1823688712 0.2496994521 0.2438890846
0.1725387297 0.4991629898 0.4930998694
0.1824417717 0.5003768499 0.7396505256
0.1723594242 0.2492965677 0.4925457527
0.1623926864 0.2489711361 0.7416092639
0.1724124427 0.2501778367 -0.0072190437
0.1824182079 0.5016974515 0.240614089
0.1625156598 2.4515671536e-04 0.7455009675
0.1624729505 0.2493297618 0.2476822991
0.1824218897 0.250666635 0.7413423306
0.18247454 -4.0245227121e-04 0.240169507
0.1923639592 -6.3676306032e-04 -0.0119791551
0.2022931421 0.2498393877 0.2357540617
0.2023675153 0.5030811869 0.7368514076
0.1925303783 0.4991512743 -0.0124818826
0.202419061 0.5016518911 0.2366588736
0.1925756649 0.4994272403 0.4885951396
0.1923374499 0.250181091 0.4860399434
0.2024223747 0.2508254456 0.7357496174
0.1923311908 0.2501218624 -0.0101052832
0.2024915933 0.001402652 0.2350351827
0.212430349 0.2487290149 0.48729453
0.2222921544 0.24847648 0.7353216036
0.2124940448 0.2481425871 -0.0128301661
0.2224791918 5.8699012213e-04 0.73661577
0.2224350097 0.2485493767 0.2349827165
0.2323943838 0.2508072215 0.4889826531
0.2325703757 0.2481471431 0.9844743994
0.2325007889 -0.0015247359 0.4882821833
0.2224714599 0.4990464853 0.7339317094
0.2124995676 0.501371369 -0.0135734558
0.2125227632 0.5016629557 0.484747618
0.2424940359 0.5006026994 0.7370529883
0.2625357575 0.2486261785 0.743251364
0.2622702969 4.5929074207e-04 0.2441256428
0.2624750071 -7.1943885904e-05 0.7450692719
0.2524563554 0.2524897031 0.4875752702
0.2424465402 0.2506464582 0.7401466534
0.2525281513 0.2506008978 0.9914698932
0.2625291301 0.2491091191 0.2446328161
0.2425161269 7.3525678258e-04 0.2402762803
0.2625567439 0.5004152508 0.243915778
0.252517474 0.0014368874 0.4939595788
0.2425481589 -5.3784799748e-05 0.7407311453
0.2525263104 7.9578706976e-04 0.9921234196
0.2424089854 0.249461887 0.2408727382
0.2724885042 0.248528549 0.494366422
0.2724336448 0.2501433409 0.9979959526
0.2725934366 -0.0024096106 0.4961511934
0.2725709774 -0.0024485712 0.9925652403
0.2825539152 0.2477397027 0.7470694309
0.2725186953 0.4977018017 0.4967909129
0.282517465 0.2461496437 0.2454870027
0.3125745246 7.2705590496e-04 0.4980049992
0.2924727891 0.4976868318 0.4977564751
0.2924414934 0.2487329201 0.491453167
0.3024704543 0.248300096 0.7470390557
0.2925545259 0.2461307686 0.9980143618
0.2924897255 -0.0010251332 0.4983372852
0.3023732537 -0.0017330772 0.7466855992
0.312423201 0.4967834336 0.4934579282
0.3025205273 0.2497365513 0.2456876629
0.3125995611 0.248462161 0.496410763
0.312473274 0.2479388669 0.9943509321
0.3225633534 -3.1549693392e-04 0.2457530156
0.3325753777 0.0023283098 0.492982971
0.3226020127 8.6790272374e-04 0.7464462797
0.3326052006 -3.8910957349e-04 0.9929334241
0.3225221168 0.2471884215 0.2453121154
0.3225077576 0.4983012468 0.7450379763
0.3225397896 0.4966265755 0.241893528
0.3325035819 0.2525886343 0.4913638824
0.3223674796 0.2478659702 0.7458673105
0.3326118279 0.251547253 0.9949584355
0.3625510687 0.2488331531 0.2379051761
0.3525931673 0.5009391957 0.4914043826
0.3525869082 0.2505592425 0.4891649041
0.3424832061 0.2500932244 0.7417519351
0.362543705 0.5011370582 0.7406262129
0.3525154805 0.249704659 0.9924916035
0.3625142503 0.5010478899 0.2401170407
0.3424743697 0.0024714997 0.2407217828
0.3426047067 0.2516995551 0.2410043639
0.3627167514 0.2498738835 0.7379918572
0.342511188 0.4991734036 0.7415512749
0.3424607469 0.5007647644 0.2419966195
0.3825692265 0.2490258086 0.2374569122
0.3925433279 0.2510246098 0.4827216862
0.3925543734 0.2491214855 0.9824677972
0.3924549637 -0.0017002086 0.9834803029
0.3823998619 0.4992489037 0.7383388705
0.3925764644 0.4983214235 0.9838853052
0.3725583066 0.2502884834 0.489008426
0.3825618628 0.2473986503 0.737232478
0.3724699425 0.2502936903 0.9878064636
0.3925359642 0.5001073924 0.4832629165
0.3724073513 -8.5807274259e-05 0.4867588225
0.4123405753 0.4980558713 0.9798628963
0.4025100656 0.2501309745 0.7314133317
0.402410656 -0.0024481547 0.7322104498
0.4025579295 0.2492171624 0.2310624786
0.412646168 0.2473036243 0.4755264526
0.4124768034 0.250123815 0.9773316321
0.4124878489 -0.0010093823 0.4795019181
0.4124105303 -6.1593543462e-04 0.9777550435
0.442277607 -2.0888552487e-04 0.72908733
0.4424801081 0.2473055769 0.23140581
0.4223294041 0.499423986 0.7276771857
0.4323366421 0.4983995271 0.97760777
0.4324213244 0.5003091601 0.4744531966
0.4422665614 0.5011565841 0.7283555645
0.4422555159 0.4994343998 0.2279863022
0.4322740508 0.2494488698 0.476089774
0.4224729958 0.2498140041 0.7259108235
0.4323145511 0.2487635107 0.9767057195
0.4223294041 -3.6170822843e-04 0.22662034
0.4324213244 -3.3412778361e-05 0.9792369837
0.4225171779 0.2486385449 0.2283876227
0.4425021991 0.2493688136 0.7286022477
0.4724392307 0.2491390588 0.4890737786
0.4625424479 0.2477911209 0.7346874069
0.4724171397 0.2494091671 0.9885704451
0.4724650036 -0.0016355128 0.9886532865
0.4624430383 0.2483964238 0.2330166145
0.4524505277 0.4991799122 0.982679503
0.4524247548 0.4995919087 0.4830834268
0.4623841289 0.5015412443 0.7352433645
0.4724318671 0.4996120855 0.9892884037
0.4625461298 0.4998424911 0.2362179734
0.4524247548 0.2501016856 0.4812765644
0.4523953001 0.2472834475 0.9818971122
0.4524063456 -0.0010967932 0.4840416254
0.4823912411 0.2491221364 0.7441847102
0.4824759234 0.0016471163 0.7408701347
0.4924905251 0.4963493077 0.9931543345
0.4923874336 0.4993641066 0.4932968478
0.4825900604 0.2503470611 0.2420859041
0.4924905251 0.2501361814 0.494764981
0.492310115 0.2504961088 0.9937894517
0.4824243777 0.4999433749 0.2399403125
0.502453581 0.2494807621 0.7482623467
0.5124939555 0.2497658402 0.4990432778
0.5124497734 0.2501589616 0.9973516308
0.5024977631 -0.0015533088 0.7456491616
0.5023873079 0.2498114006 0.2470324546
0.5224754206 0.2481106948 0.2501647789
0.5224312385 0.2480137162 0.7436867414
0.5124571371 0.5008845232 0.4956863612
0.5224975116 0.4985264455 0.7469773849
0.5423794414 0.4989722868 0.7531159307
0.5525486803 0.4978736296 1.0036475752
0.5425377605 0.4995880035 0.2534296495
0.5524897708 0.4982029664 0.5055021436
0.5325599772 -0.0021533331 0.5008593448
0.5324789767 0.2489158127 0.5028015148
0.532449522 0.2477253837 1.0003339202
0.5325231588 0.4995632707 0.9996803938
0.5525376348 -7.6465769937e-04 1.0060315658
0.5426040336 0.2480651344 0.2501123127
0.5524345433 0.2496727667 0.5011676988
0.5425119876 0.2491982874 0.751680934
0.5525302711 0.2491592356 1.0017882466
0.5724711102 0.2510382779 0.5062035338
0.5725263378 0.2487517952 1.0063445221
0.5625780093 0.498766614 0.756388165
0.562515418 0.5009925665 0.2553718195
0.5725521107 0.4978339269 1.0091151059
0.5724895194 0.4998359824 0.5106024108
0.5626037821 0.2494137231 0.2563116089
0.5624675541 0.2480130653 0.7561322772
0.6024155055 0.5003091601 0.7658514113
0.5925371319 0.500162065 1.0077804393
0.592581314 0.5005050699 0.5144996372
0.5824268025 0.2521356335 0.7569119066
0.6025038697 0.251828426 0.2617966283
0.5924229949 0.2509211225 0.5103916255
0.6024891423 0.2509744933 0.7606075523
0.5923677673 0.2490583518 1.009980338
0.5824820301 0.4998027884 0.7589157474
0.5824820301 0.4995307276 0.2565785422
0.5825630305 0.2497703962 0.2574354902
0.6124853348 0.4992065976 1.015576733
0.6124779711 0.5035387438 0.514469262
0.622418936 0.4992586667 0.7631185664
0.6124006525 9.1131530606e-04 0.5131778571
0.6224262997 0.499514456 0.2607767589
0.6126326083 0.2494091671 0.5126421495
0.6125368805 0.2481614621 1.01438934
0.6225146638 9.7301714719e-04 0.7603231303
0.622418936 0.2485942862 0.2590472152
0.6225146638 0.2491598864 0.7596714448
0.6424628666 0.002112809 0.2575302975
0.6525106048 -5.4655340651e-04 0.5039686577
0.6324961289 0.4977460604 0.5112007096
0.6424370938 0.2505787684 0.2581065053
0.6525547869 0.2501055908 0.5022685686
0.6425328216 0.2489132093 0.7532641247
0.6325071744 -6.0981731957e-04 0.5102369883
0.6524737864 0.2491969857 1.0044299659
0.6425070487 0.4990835845 0.7579925263
0.652484832 0.5003410524 0.5043902282
0.6325550383 0.2511215884 0.5076311669
0.6325697657 0.2510896961 1.0082498737
0.6825323187 0.500409393 0.748779645
0.6625178428 8.3677529863e-05 0.2516890602
0.6825433643 0.5010557003 0.2477632996
0.6624478879 5.2177361917e-04 0.753657161
0.6724845805 0.5004438888 0.5046277068
0.6623742511 0.2512628258 0.251716674
0.6624662971 0.2502338109 0.7519460264
0.6725582173 0.0013435536 1.0046784901
0.6624920699 0.500080707 0.7521291979
0.6625657067 0.5016564471 0.2520765738
0.6825286369 0.2511495756 0.2511551936
0.6724183074 0.248852679 0.502179284
0.6825175914 0.251147623 0.7486480193
0.6724845805 0.2514743564 1.0013096075
0.7026977501 0.2514222873 0.2467719645
0.6926058298 0.2523439097 0.5000594653
0.7026351588 0.2502383669 0.7497829461
0.6925911025 0.2512927655 0.9981892491
0.69264633 0.5005206906 0.9991465272
0.6925911025 0.5006079063 0.4986981054
0.7326126907 0.50054282 0.9933384264
0.7326863274 0.5012587696 0.4930345168
0.712590851 0.2509087561 0.4949665617
0.7126203058 0.2542789263 0.9976645871
0.7226422711 0.0024380454 0.2440529265
0.7324764626 3.3849051302e-04 0.4925521959
0.7326347817 8.7675446467e-04 0.9913962564
0.7125319416 0.5023164225 0.9919025093
0.7225318159 0.2520288919 0.245399559
0.7325795541 0.2495133052 0.493509474
0.7226974987 0.2508306525 0.7444488821
0.7326016452 0.2510369762 0.9937894517
0.7124619867 0.5021133531 0.4923110354
0.7126276694 9.9221761463e-04 0.4927915154
0.7126865789 0.0012320607 0.9922798978
0.752571939 0.5010374761 -0.0120594836
0.7425315645 3.9797941892e-04 0.241903653
0.7425978376 3.4200517486e-04 0.7409861127
0.7425462919 0.2504511992 0.2417665045
0.74254261 0.2514717529 0.7386334176
0.7624797674 0.0011453657 0.236695692
0.752571939 4.9652012301e-04 0.4890480058
0.7624760855 9.1593643551e-04 0.7369324081
0.7525314388 8.6503892521e-04 -0.0088117501
0.7625902225 0.2510115925 0.2400783814
0.7524725294 0.2525346127 0.4894953492
0.762557086 0.2509940192 0.7375767299
0.7524798931 0.2526875655 -0.0125529053
0.7824463794 2.1389911758e-05 0.2324192362
0.7824132428 0.001139508 0.7318496296
0.7725127782 -5.0704600401e-04 -0.0135253525
0.782501607 0.2483274323 0.2307486018
0.772586415 0.2524155047 0.4872798027
0.782501607 0.2491956839 0.7339197435
0.7725201419 0.2510317693 -0.0156007222
0.792575118 -5.9191857873e-04 0.4837056576
0.7925603907 -7.5198202419e-05 -0.020778796
0.8125932758 0.4993751712 -0.0163982269
0.7925677544 0.2469046451 0.4803202068
0.7924830721 0.2504603113 -0.0173657129
0.8025492195 3.9335828947e-04 0.2337888802
0.8125711848 -0.0014033499 0.4860003637
0.802468219 0.0023738051 0.7355314684
0.8125711848 -7.3738652697e-04 -0.0135235668
0.802538174 0.2486242259 0.2337585051
0.8125969577 0.2478295219 0.4834166333
0.8026228562 0.2503574749 0.7344398032
0.8126227305 0.2487973556 -0.0141619241
0.8324715237 3.2508272898e-04 0.4884690366
0.8225821046 6.2133954531e-05 0.7382118471
0.832556206 9.7815896729e-04 -0.0067269292
0.8225857864 0.2510909979 0.2383617241
0.8325193876 0.2493981024 0.4909717666
0.8226005138 0.2478152029 0.7367759299
0.8327108433 0.251271287 -0.014347682
0.8226741506 -9.9903357481e-04 0.2383129397
0.8426886265 0.0010745518 0.7434667516
0.8426260353 0.2518147579 0.2412943087
0.8425339893 0.2529114625 0.7419249816
0.8625521471 -2.4793732306e-04 0.2470149658
0.8425744895 0.5013882914 0.7399644024
0.8527179555 0.0016282412 0.4930142667
0.8624453738 0.0010274944 0.7482982446
0.8525890912 0.0012045943 -0.0026406863
0.862622102 0.2517028094 0.2440409605
0.8425818532 0.0012306939 0.2401501773
0.852570682 0.253971068 0.495529883
0.862644193 0.250971239 0.7438192876
0.8526222277 0.2545210475 -0.0088818514
0.8725814761 0.0022645903 0.4958483621
0.8923897691 8.3939491107e-04 0.4967329239
0.8724894301 9.2394205414e-04 -0.0043885565
0.8825997596 0.2488832695 0.2502273702
0.8924928605 0.0013512338 8.0392242468e-04
0.8724894301 0.2524558582 0.4966381165
0.8925996339 0.2493531928 0.4978595666
0.8825261228 0.2521024394 0.7468696911
0.872493112 0.2527786864 -0.0027828605
0.8927137709 0.2516728697 0.0013556828
0.9025737353 0.003726234 0.2527752027
0.9126141098 2.9898311052e-04 0.5033464269
0.9025516443 -2.267353386e-05 0.7494626261
0.9025037804 0.2501589616 0.2491872507
0.9125367912 0.2514815158 0.502087238
0.9025921445 0.2505162856 0.7502551419
0.9024927348 0.499928405 0.7504677681
0.9125588822 0.2516064816 1.21935416e-04
0.9224998471 0.0033426803 0.2517203559
0.9224814379 0.0021117676 0.7491395448
0.9224372558 0.2505455744 0.2508118621
0.9225329837 0.249957194 0.7537528888
0.9425364141 0.001640152 0.2518805158
0.9324776304 0.0014934474 0.5045154107
0.9426468692 0.0015171389 0.7533165909
0.9325402216 2.4854120453e-04 0.0013854136
0.9425585051 0.2528750142 0.2582326083
0.9325254943 0.2514925805 0.5039115892
0.9425879598 0.2501114486 0.7544653247
0.9324813122 0.2496734176 -3.6007251598e-04
0.9525657431 0.002414419 0.5076099963
0.952521561 9.2023213331e-04 0.0079708426
0.9625472082 0.2510955539 0.2571179316
0.9525436521 0.2523627848 0.5046985822
0.9725986282 0.2508560362 0.506474149
0.9626613452 0.2495738355 0.7561396409
0.9525289247 0.2495653743 0.0041864646
0.9725507643 0.2497983833 0.0103872335
0.9625766629 1.0294308363e-04 0.2597706965
0.9825138202 0.5031436698 0.7590234411
0.9825432749 0.5011741574 0.2588318276
0.9826279572 1.4153927751e-04 0.2636743661
0.9924731943 8.1882763069e-04 0.5150307425
0.9824549108 0.2487218554 0.2590315673
0.9925652403 5.0263823806e-04 0.0107124319
0.9925357856 0.2491898262 0.5111776981
0.982451229 0.2482044191 0.7617894226
0.9924584669 0.2504948071 0.0128088709
0.0126090023 0.7490528429 0.0130770929
0.0024212806 0.5010661141 0.7619661508
0.0126178387 0.4996940942 0.0110505167
0.0225886633 0.748128617 0.2652870115
0.002422017 0.7507646134 0.2588051342
0.0125768967 0.7508622429 0.5117548264
0.0224799754 0.7485646954 0.7667930416
0.0225703277 0.5004783845 0.2664808478
0.0024154265 0.7516042271 0.7610779072
0.0123774515 0.9979624959 0.0165105917
0.0523918601 1.0005984923 0.5189767533
0.0524349376 1.0002795693 0.0183159814
0.032509194 0.7502374141 0.0158687551
0.0425234274 0.5006873116 0.7705660059
0.0424494225 0.7491439638 0.2667413379
0.0325010939 0.7507906479 0.5171680499
0.0424976546 0.7489226703 0.7666384043
0.0525711656 0.7503090091 0.0137148794
0.0523800782 0.7520793573 0.5134751656
0.052435674 0.5016206496 0.516605649
0.0424855045 0.9977086592 0.2694355234
0.0324756892 0.9990624549 0.5167593658
0.0323725977 0.9999541376 0.0170393958
0.0724645091 0.9987956009 0.5150224583
0.0624708939 1.0016203477 0.7641006969
0.0724715046 0.9986979715 0.0172209105
0.072380195 0.7505368113 0.0114188847
0.0623755343 0.7497753012 0.2652741251
0.0724829183 0.7477120645 0.513762349
0.0624848849 0.7505172854 0.7666522112
0.0623678024 0.9995180592 0.2664256202
0.0822504685 0.9986914628 0.2628689639
0.1024239999 0.9983725398 0.7584693244
0.0823878011 0.9976630988 0.7624180966
0.0924892942 0.9982163326 0.0090080166
0.092547099 0.7504912508 0.0098998501
0.0924881896 0.4971414084 0.0101921881
0.1024228954 0.7493912918 0.2597081052
0.0825925114 0.7483564192 0.2598047535
0.0924451121 0.7493066796 0.5071009821
0.1024851184 0.7486558163 0.7577182293
0.0824713789 0.7485581868 0.7606931551
0.0925463627 0.4991304466 0.5119821799
0.1124319743 0.9963483549 0.0046570956
0.1124581153 0.7494433609 0.0070912513
0.1223648391 0.499695396 0.7565547682
0.1224097575 0.7486102559 0.2547109295
0.1125998661 0.7522290558 0.5074903365
0.1223953984 0.7502894832 0.7538725486
0.1124779972 0.9984246089 0.507022743
0.1225183718 0.999309783 0.7541275159
0.1524281578 0.9992446966 0.5000116014
0.1323636088 0.9999541376 0.5014861778
0.1425549387 1.0000647844 0.7498492192
0.15250474 0.9993878866 0.0014624561
0.1324471866 0.9993423261 8.5493430184e-04
0.152522781 0.748642799 -0.0018253339
0.1324512366 0.7483629278 0.0034653764
0.142439329 0.7485646954 0.2479519938
0.1524314714 0.7480114616 0.4996406561
0.1324957868 0.748467066 0.5035286779
0.1423528058 0.5001223623 0.2518538225
0.1424801974 0.7478747803 0.7503425856
0.1724341655 0.7507581048 -0.0081682899
0.1625167644 0.5010133942 0.7461443689
0.1724367428 0.4991688476 -0.0051448706
0.1625550555 0.7503806041 0.2452495241
0.1825242448 1.0024013836 0.7413266828
0.1724507338 0.7513438818 0.4917145775
0.1624968825 0.4989410454 0.2458321751
0.1624604323 0.7509728897 0.7453693418
0.1825073084 0.7486037472 0.2408893064
0.182494422 0.7497883185 0.7404789394
0.1625874557 1.0005138801 0.2488945445
0.1724153881 1.0007546995 0.4920431817
0.1723977153 1.0007612081 -0.0035512511
0.1923496 1.0005138801 0.4864210138
0.2023299605 1.0005464232 0.7363589617
0.1925476829 0.7479919357 -0.0106060133
0.2024713431 0.749228576 0.2374937306
0.1924169776 0.7489291789 0.4881431939
0.2025129479 0.7497167235 0.7381851538
0.2324470341 0.7484280142 0.9849254247
0.2323619836 0.5004848932 0.9883311256
0.2323870201 0.7504456904 0.4842634562
0.2324205248 0.4997969306 0.4840581937
0.2225288966 0.9981772808 0.2389259659
0.2124038398 1.0005464232 0.4837157827
0.2125238677 1.0003641815 -0.0141170148
0.2124200399 0.7509533638 -0.0161922004
0.2323343698 0.9995440937 0.9912029599
0.2223849367 0.7507125443 0.2350894898
0.2124656947 0.7497687926 0.4834819859
0.2225513558 0.4985472731 0.2368208745
0.2223422274 0.750204871 0.7328234759
0.2524537782 0.7501397846 0.9912305737
0.2525472969 0.4992111537 0.9870148682
0.2424804131 0.7504066386 0.2385439751
0.2524408917 0.7526781515 0.4893333483
0.2424288674 0.4998079953 0.2379806538
0.2423758489 0.7509468551 0.7382551087
0.2526783703 0.500971088 0.4922364782
0.2624912072 0.4971251368 0.7438432196
0.2626926038 0.7502309055 0.2421991206
0.2625037255 0.7468594336 0.7441570964
0.2826312339 0.4960778977 0.7447158154
0.2825679062 0.7468854681 0.2434942074
0.2825380833 0.4977083103 0.2458745162
0.2825892609 0.7487404285 0.7458599468
0.2726648643 0.7493912918 0.9941208172
0.2725886502 0.5006248288 0.9963483297
0.272676278 0.74935224 0.4969648797
0.2824644466 0.9969471492 0.2476031396
0.2825506016 1.000728665 0.7474311716
0.3126382204 0.999947629 0.9965324216
0.2927110041 0.7485842213 0.9984837962
0.3025643412 0.4969546106 0.7445206779
0.292524703 0.4980409015 0.9969466285
0.3024402632 0.7502113796 0.2467305438
0.2926311081 0.7492415933 0.4977592365
0.3025256819 0.4983975745 0.2478737547
0.3025223682 0.7475558573 0.744360518
0.302568023 1.0006961218 0.2501316424
0.312479165 0.750328535 0.9946454792
0.3125369698 0.4979972936 0.9938538839
0.3124938923 0.7487013767 0.4973220181
0.2926049671 0.9981512463 0.9973516308
0.3324608726 0.7472304257 0.9926112633
0.3324660271 0.4997442107 0.9898959071
0.3224311754 0.7484410314 0.2434988097
0.3324601362 0.7481221084 0.4903200811
0.322356434 0.7505628458 0.7435413088
0.3325227274 0.5013550974 0.4916492249
0.3525596626 0.999557111 0.4876884868
0.3426415251 1.0019848311 0.7390890452
0.3623043855 0.752847376 0.2351134218
0.3524337437 0.9998565081 0.9898498841
0.3623780222 0.7498664221 0.7381023124
0.3626725694 0.9995050419 0.2386571916
0.3524690894 0.7520728486 0.9920773966
0.3625547505 1.0014511232 0.7394378994
0.3525257897 0.500828549 0.9905678427
0.3424861515 0.7495995681 0.2396006628
0.3525036987 0.751428494 0.4905483551
0.3423845328 0.7473736156 0.7419019701
0.3925691008 0.9992056448 0.4822725018
0.3723079416 0.7486623249 0.9898038611
0.372458897 0.4999869827 0.9863521372
0.38239618 0.7542857839 0.2369083182
0.3725767158 0.7506018976 0.4911438925
0.3824734986 0.5015132572 0.232903398
0.3824329984 0.7490788775 0.7382173699
0.3825618628 1.0016008218 0.2371798538
0.3824219529 0.9975264175 0.739675378
0.3723484418 0.9979234441 0.9871713464
0.3725325338 0.5005376131 0.4894438034
0.3923886906 0.7499705602 0.9897210198
0.3924328727 0.7486493077 0.4850173127
0.412462076 0.7480309875 0.9760153747
0.4124731215 0.749742758 0.4781322741
0.4125025762 0.4978580089 0.4785289922
0.4023996105 0.9982814189 0.2329089208
0.4025432022 0.4999127843 0.7288056693
0.4023480647 0.7489877566 0.2326843286
0.4024622017 0.4976308576 0.2308434092
0.4024916564 0.7499315084 0.7316526512
0.4324286881 0.7511356055 0.9755367356
0.4224177682 0.7507515961 0.2253436624
0.4324802338 0.7495670249 0.4743234118
0.422355177 0.4975879006 0.2267252724
0.4223183586 0.7477511163 0.7268837494
0.4423586074 0.7487013767 0.230949262
0.4423586074 0.7488640926 0.7291177052
0.4324875975 0.9990364204 0.4775036001
0.4224030409 0.9993813779 0.7284071103
0.4424064713 1.0016398736 0.2258802904
0.4525020734 0.999361852 0.9838484868
0.4624835385 1.0002925865 0.2327027378
0.4724723673 0.9988606873 0.4861209439
0.4625314024 1.0021865988 0.73169039
0.452329027 0.750328535 0.981970749
0.4523547999 0.7472434429 0.4818417267
0.472387685 0.7495605163 0.9863613418
0.4623141739 0.7504456904 0.2340309611
0.4721999112 0.748909653 0.4872236546
0.4623878107 0.7489487048 0.7368182711
0.4723766395 0.4981840914 0.4903596609
0.4825716512 0.999823965 0.2440768584
0.492446343 0.996790942 0.4963684218
0.4924647522 0.9978062887 0.993964339
0.4823801956 0.4992124554 0.7416562073
0.4924095246 0.7497557753 0.4940092836
0.4823617864 0.7517604343 0.2437252428
0.4923984791 0.7495735336 0.9920037598
0.4824464687 0.7499054739 0.7415577181
0.5125013192 0.9994529729 0.4988389357
0.5125307739 1.0003641815 0.9969098101
0.5024093989 0.9980340909 0.2442867232
0.5225159208 0.7495670249 0.7488726115
0.5225159208 0.9998304736 0.2501620176
0.5224091475 0.9956649485 0.7504419953
0.5023688987 0.7506344408 0.2467627599
0.5024462173 0.500804467 0.2423298259
0.5024793539 0.7496256026 0.747684298
0.5024388536 0.5017449645 0.740634497
0.5125013192 0.7515847012 0.9982168629
0.5124939555 0.5008005619 0.9972595848
0.5124976373 0.7506214235 0.4972962452
0.5225453755 0.4971023566 0.2489737041
0.5224496477 0.7510249587 0.2493925132
0.5325084315 0.7484084883 0.5034900186
0.5324384765 0.4984626609 0.4995421669
0.5326041593 0.9986133592 1.0020275661
0.5425524878 1.0016073304 0.2538595042
0.5525413166 1.0015878045 0.5019638964
0.5526149534 0.7490007739 1.002966435
0.5424236235 0.9995506024 0.7538605826
0.5426518975 0.7475493487 0.2508827375
0.5525634076 0.7497753012 0.5065128083
0.5424457145 0.7499054739 0.751795071
0.5325084315 0.7488250408 1.0058290647
0.5625227817 1.0013795283 0.2579270157
0.562493327 0.9994399556 0.7596429105
0.5624528268 0.7514219853 0.2600726073
0.5623902355 0.7496646544 0.7571742376
0.5725668381 1.0011972865 0.5111620503
0.5724895194 1.0011126743 1.0097410185
0.572338564 0.7502178882 1.0078448715
0.5724342919 0.7489617221 0.5094306656
0.6026180067 1.0017375031 0.2615306155
0.5924855862 0.7479724098 1.0125944436
0.592559223 1.0005919837 0.5124055914
0.6024523239 0.9996352146 0.7639663098
0.5925371319 1.0005268973 1.0127877401
0.6024780968 0.7486232731 0.2668361452
0.6024118237 0.4996973486 0.2664246997
0.5925187227 0.7486818508 0.5144186368
0.6026290522 0.7494108177 0.766691791
0.5824010296 0.9975849952 0.2583559499
0.5826550765 1.0026682376 0.7589663726
0.5824709845 0.7499640515 0.2612241024
0.5825483032 0.7523266853 0.762008492
0.612525835 0.7486818508 1.0139567239
0.6125074258 0.7496776717 0.5150381062
0.6123675159 0.999680775 1.0115819379
0.622533073 1.0002079743 0.2619844021
0.6224852091 0.752137935 0.2598783903
0.6224962546 0.7511746573 0.75946158
0.6425365034 0.9997849132 0.7574319663
0.6524590591 0.9997003009 1.0025982511
0.6325255836 1.0010540966 1.0080749864
0.63237831 0.752580522 1.0083603289
0.63237831 0.4996973486 1.0071729359
0.632492447 0.7506995271 0.5100169984
0.6525253322 0.7496256026 1.0052123567
0.6525216503 0.4979803712 1.0044207613
0.6425843673 0.7514415112 0.2564496778
0.6423892299 0.5005799192 0.2545148715
0.6524958775 0.7472499516 0.5060930787
0.6426027765 0.7497687926 0.754960532
0.6725692628 0.7491244379 1.0034358694
0.6725508536 0.503094855 1.0047613314
0.6826133192 1.000728665 0.2487426687
0.6724256711 1.0005724578 0.5018746118
0.6825507279 0.9991861189 0.747992652
0.6826317284 0.7501462933 0.251202137
0.6725803084 0.7494173264 0.5034725299
0.6826059555 0.751356899 0.7493208753
0.6625546612 0.747809694 0.2527439071
0.6625399338 0.7503350436 0.7542333688
0.7024621124 0.9999996981 0.2456968675
0.7025283855 0.5020860169 0.744440598
0.6924843291 0.7515977184 0.9976737917
0.692532193 1.0013534937 0.5007341623
0.7024915671 1.000780734 0.7472341932
0.6924217379 1.0002079743 0.9984469778
0.7024915671 0.7523071594 0.2470582274
0.7024621124 0.502885277 0.2450405797
0.692418056 0.7520858659 0.4977270204
0.70251734 0.7521509522 0.745639957
0.722483952 0.4994187791 0.7449358053
0.7324065077 0.7502699573 0.9933568356
0.722506043 0.750966381 0.2405984412
0.722483952 0.5025813239 0.2432484447
0.7324875082 0.7502504314 0.4923819108
0.722461861 0.7507776307 0.7422038809
0.7225428614 1.000852329 0.74052036
0.7124619867 0.7534136271 0.9947559344
0.7124251683 0.7533941012 0.4949269819
0.7424726551 0.5023144699 0.7401006304
0.7425242008 0.7517409084 0.2413237634
0.742612565 0.49918577 0.2419579602
0.7426015194 0.7514545285 0.7417878331
0.7525977119 0.4994012058 0.4893517575
0.7524983023 0.7515781925 -0.0087801204
0.7625092221 0.499633564 0.7344011439
0.7626159954 0.7526846602 0.2383782924
0.7624613582 0.5004263155 0.2333065593
0.7524209836 0.7512397436 0.4902381602
0.7624466308 0.7509208206 0.7371680458
0.7825678801 0.7489031444 0.2340990752
0.7825641982 0.5013622569 0.229317287
0.7725385511 0.7501658192 0.4864872869
0.7826010166 0.7510119415 0.7325786337
0.7725495966 0.9979559873 0.4876544298
0.7724759598 0.5007218074 0.4843223656
0.7724759598 0.7508752602 -0.0142063454
0.782501607 0.5015002399 0.7306548729
0.7725680058 0.5007100919 -0.016852078
0.7926561185 0.7503610782 0.4802622178
0.8126374579 0.4998040901 0.4853210644
0.8123760473 0.7502243969 -0.0177954019
0.8027222659 0.498338346 0.732262916
0.8025271284 0.7494433609 0.2320068702
0.8023688094 0.4981847422 0.2332614568
0.7925235723 0.5013485888 0.4821160237
0.7925603907 0.7526130652 -0.0188223588
0.8125601393 0.7492546105 0.4868803231
0.7925051631 0.5021914567 -0.0195456561
0.8026486291 0.7468399077 0.7337163219
0.8326777067 0.5016941972 0.4901194209
0.8325377968 0.7504326731 -0.0114952602
0.8226152412 0.5004601604 0.7348788625
0.8325414787 0.5005076734 -0.010108781
0.8226446959 0.7496581458 0.2349293298
0.8226078775 0.5002479789 0.2381868367
0.8325672515 0.7527887983 0.4892274954
0.8226152412 0.7501528019 0.7349423742
0.8625484652 0.7533745753 0.7458148443
0.8626147383 0.5035459033 0.743501729
0.8525670001 0.7512657782 -0.0074101772
0.8525964548 0.5024225132 -0.0056995857
0.8626147383 0.7495540077 0.2483118935
0.8626368294 0.5015991711 0.2443391894
0.8526774553 0.7530035832 0.4919520562
0.8425781714 0.7521444436 0.2396853451
0.8426886265 0.5025702592 0.2416109469
0.8425965806 0.751552158 0.7395667638
0.852592773 0.5028358114 0.4921987394
0.8726182945 0.5016779256 0.4953237001
0.8824929862 0.7512527609 0.7481445278
0.8924523603 0.5014390588 0.4988509017
0.8725188848 0.7539017745 -0.0056126759
0.8924449966 0.7519166415 0.0036902448
0.8826844419 0.4999837284 0.7489968735
0.8726587947 0.5014253906 -0.0068913693
0.8926254067 0.5023066595 0.0016226161
0.8825960777 0.7501137501 0.2483671211
0.8825040318 0.5024680736 0.2497045491
0.8726403855 0.7522095299 0.4960398177
0.8925186334 0.7504456904 0.5005150928
0.8825997596 1.0007481909 0.2496272305
0.8825150773 0.9999671549 0.7498151622
0.9124999728 0.7517929774 0.5013324611
0.9125515186 1.0024599613 0.0037112312
0.9125552004 0.5021127023 0.5025143313
0.902581099 0.7507515961 0.7498795944
0.9124557907 0.7529124623 0.0013296338