POSCAR file written by Ovito 3.7.11
1
271.570863377 0.0 0.0
0.0 15.3623679253 0.0
0.0 0.0 10.8628345351
Sr Ti O 
800 800 2400 
Direct
0.0224389781 0.50128626 0.7994417367
0.0122938913 0.2513716623 0.5510139446
0.0224055798 0.2526982807 0.7957925971
0.0023932341 0.2498744973 0.8027659151
0.0123285047 0.2484059737 0.0497126514
0.0224584942 -3.5424469467e-04 0.2978350905
0.0023463955 7.1616320599e-04 0.301627839
0.0022946227 0.5008292992 0.3009990897
0.0124345175 0.4998932456 0.5514420096
0.0124081524 -9.7459176917e-04 0.552182148
0.0224183574 0.0010640913 0.7976604337
0.0024813879 -0.0014101366 0.8009220133
0.0224227024 0.2502839394 0.3024149264
0.002354607 0.250798834 0.2988366707
0.0324527917 0.5019261354 0.0497332722
0.0424847957 0.5018161263 0.297506447
0.0323879836 0.5000963393 0.5489896111
0.0324608927 0.2524496211 0.5514235982
0.0424800088 0.2537502019 0.8034379313
0.0324229652 0.2516815104 0.0502019344
0.0525341065 0.5030815562 0.0486000505
0.0425054165 0.003011187 0.7982321077
0.042535243 0.253560778 0.2991110005
0.0525374206 0.252551168 0.5485044707
0.0525514132 0.2546862555 0.0488176732
0.062487678 0.2507910227 0.2946931849
0.0625337065 0.5017009097 0.7957953588
0.072582649 0.5022678795 0.0407573461
0.0625510132 0.5006034226 0.2944630424
0.0726400926 0.5017952962 0.5410653442
0.0725785985 0.2526911204 0.5421838368
0.0624593244 0.2517277272 0.7939569804
0.0725322018 0.2521423768 0.0410715366
0.0924224063 0.2519503492 0.5327056477
0.1025022799 0.2497150167 0.781931574
0.0824084454 0.250743504 0.7866817154
0.0924684348 0.2510813425 0.0299380705
0.1023862881 8.1360912105e-04 0.2792819219
0.0924154099 -6.1318915032e-04 0.5312023568
0.1024348942 0.2505228349 0.2818153307
0.0825248054 0.2522322067 0.2842907435
0.1024687712 0.5005305172 0.7788955341
0.0824515281 0.4991179745 0.7862306361
0.1023623533 0.5002642822 0.2793399178
0.0826094979 0.5001041506 0.2857682584
0.1224381447 0.2523728101 0.279703543
0.1124407541 0.5027404629 0.0255816569
0.1124749993 0.250054808 0.5275108709
0.1225596599 0.5008605444 0.2764815479
0.1125081398 0.4999427172 0.5273884351
0.1224576608 0.2503255996 0.7819085598
0.1124705805 0.2515174732 0.0305658993
0.1225802807 7.6465833406e-04 0.2791999912
0.1524583018 0.2514354546 0.5219174874
0.1326413748 0.2485316054 0.5269152621
0.1423463923 0.2524268382 0.7767911109
0.152473031 0.251175078 0.0228812568
0.1326137577 0.2510045314 0.0293518515
0.142507308 0.0013917752 0.2739683917
0.1424609112 0.2536955228 0.2778136127
0.1424741674 0.4998613495 0.7734116983
0.1523798693 0.4997096802 0.0217130534
0.1324977658 0.5001705466 0.0275791098
0.1523319996 0.4993184644 0.5225002082
0.1325485813 0.5017939943 0.5258142604
0.1824744085 0.251076135 0.2630706836
0.1723418782 0.5028537267 0.5155977741
0.1824453185 0.4989181355 0.7605384469
0.1724000582 0.2526865638 0.5163692118
0.1624626888 0.2517472555 0.7716110633
0.1724424045 0.2480245221 0.0154311755
0.182557628 0.5007446769 0.2591564198
0.1622690009 0.0013291546 0.7696272349
0.162475945 0.2534065049 0.2737262817
0.182554314 0.2490028869 0.7641765397
0.1824486325 -3.8223517127e-04 0.2623959057
0.1925086219 -2.0897646549e-05 0.0073509641
0.2026890219 0.2491714807 0.2561259032
0.2026186903 0.4994089453 0.7549763628
0.1924913152 0.5008436199 0.0052341133
0.2024942292 0.4990860784 0.2549779524
0.1925196688 0.4995215581 0.5057044079
0.1925844769 0.2470767515 0.5094833479
0.2025306838 0.2507688907 0.7565781546
0.1925936826 0.249379131 0.0076420483
0.2026897583 -0.0025454238 0.2535713213
0.2126050341 0.2509934654 0.5019153416
0.2226097892 0.2477329004 0.7495993132
0.2126680011 0.2490321792 0.0044581648
0.2225468223 -0.0011481978 0.7499712235
0.2225269379 0.2505007028 0.2519603238
0.232621909 0.2495210362 0.4976107561
0.232730168 0.2492274616 1.0017839516
0.2325276426 -7.7855011732e-05 0.5001911139
0.2224886422 0.4988875413 0.7501857163
0.2124246023 0.4990001541 0.002288105
0.2124875693 0.4996289634 0.5003853542
0.2426494943 0.4988419754 0.7478088044
0.2625187098 0.2481260689 0.7459814729
0.2625625289 -0.0016671933 0.2409134833
0.2627017191 -2.4540730657e-04 0.7413408794
0.2526848124 0.2503269015 0.4946759788
0.2426196678 0.2483877473 0.7468385236
0.2526678739 0.2510006258 0.9921179662
0.2626015611 0.2480629276 0.2436153564
0.2426406568 2.4156189221e-04 0.2445248796
0.2625448539 0.4971436695 0.2410303957
0.2525783945 -0.0014049291 0.4959997585
0.2426494943 -0.0028555843 0.7434038768
0.2526093256 -4.2109636786e-04 0.9940695747
0.2426432344 0.2495288475 0.2450183051
0.2725661794 0.2494936966 0.4902986683
0.2725205191 0.2491194054 0.9911237506
0.2724855374 0.0012384134 0.4927354172
0.2726262005 -7.5268587442e-04 0.9903228547
0.2826099667 0.2498829595 0.7408695475
0.272602634 0.4998711136 0.4913251039
0.2825366893 0.2498484596 0.2425300043
0.3124651577 8.0501669567e-04 0.4752574744
0.2925572783 0.5000371037 0.4844364783
0.2925407081 0.2487112652 0.4857041032
0.3024585614 0.2509335788 0.7301651591
0.2925071993 0.249123962 0.9866405745
0.2925418127 -5.7504398918e-04 0.4826100673
0.3026029068 -2.4347635526e-05 0.7299736805
0.3124434323 0.503228018 0.4778645288
0.302474027 0.2473983165 0.2305285327
0.3124088189 0.2501836944 0.4798437544
0.3125914599 0.2478103624 0.9769653834
0.3225527642 -0.0014210724 0.2240375934
0.3325578876 -0.0019858747 0.4690565147
0.322681644 -0.0021318483 0.7193631903
0.332647367 5.8740701361e-04 0.9685237562
0.3224868514 0.2512896437 0.2285723214
0.3224868514 0.499456464 0.7217032793
0.3225148367 0.5005506964 0.2226990845
0.3324577296 0.2473501469 0.4682933621
0.3223627586 0.2476834288 0.7239282971
0.3324956571 0.2513065682 0.970585833
0.3624977711 0.2466425737 0.215968797
0.3525633474 0.4988003152 0.4666197658
0.3524602436 0.250787117 0.4643505606
0.3424584343 0.2507845133 0.7201079314
0.3626045572 0.4993978793 0.7140321692
0.3524937524 0.2505820705 0.9663604166
0.3625051356 0.5015479385 0.2149672168
0.3426241369 -0.0030213726 0.2158537257
0.3427010965 0.2486500767 0.2155066708
0.362575099 0.2483324173 0.7128170167
0.3425110909 0.5004628193 0.718190384
0.3424400229 0.5016839852 0.2155867604
0.3825035991 0.2498041956 0.2124144761
0.3924015682 0.2498712426 0.4605688589
0.3923942036 0.2492463389 0.9556265699
0.3924715315 -0.0011492393 0.9594469356
0.3824373181 0.4989422204 0.7119489192
0.3925120366 0.5011066002 0.9594009071
0.3725761718 0.2513117757 0.4639059253
0.3824189067 0.2503757221 0.7090822641
0.3723920578 0.2494819797 0.9612696643
0.3925893645 0.4991667951 0.4606995799
0.3724804326 0.0010741158 0.4616054208
0.4123079747 0.5000956884 0.9535460816
0.4024173702 0.251097616 0.7051532712
0.4025388854 -0.0026434165 0.7072328389
0.4023842297 0.2496902809 0.2069324815
0.4124147608 0.2486155768 0.4522993783
0.4123411152 0.2491656222 0.9516220903
0.4125510052 7.9583842311e-04 0.4519845433
0.4123632089 8.960182917e-04 0.9538314584
0.4424658491 0.0011615373 0.6959199537
0.442568953 0.2488564251 0.1966138119
0.422327459 0.4993907189 0.6990416067
0.4324169066 0.4977796392 0.9469271831
0.432501599 0.5003026877 0.4511799651
0.4423737921 0.5007264505 0.6936894125
0.4425284479 0.5001145657 0.197816997
0.432435318 0.2497950825 0.4496370897
0.422485797 0.2501146946 0.6990084662
0.4324537294 0.2491076884 0.9495323963
0.4225299844 -2.4866201315e-04 0.2013888087
0.4324868699 -0.0012142684 0.9511894223
0.4224673856 0.2490849055 0.2027963603
0.442568953 0.2494982532 0.6983649877
0.4726973692 0.2515148694 0.4425763175
0.4626852494 0.2521436787 0.6912701544
0.4725353488 0.2497950825 0.940630484
0.4725758539 0.0015097258 0.9411460032
0.4627036608 0.2516502652 0.1916602246
0.4525737081 0.5026219916 0.9437143936
0.4526326246 0.5005220549 0.4433827369
0.4624606303 0.5039023932 0.6923923293
0.4726531818 0.5015095329 0.9416523168
0.4624716772 0.5012777978 0.1894158748
0.4523932764 0.2499129028 0.4467400558
0.4524264169 0.2524535268 0.9432264915
0.4526841765 6.6343695936e-04 0.4420285784
0.4824885521 0.2515649919 0.6881089169
0.4825290572 1.1944530126e-04 0.6921391725
0.4925227655 0.5007303562 0.9410999747
0.4924196617 0.5005344228 0.4420110875
0.4825732445 0.2515480674 0.1891268158
0.4924675313 0.2497657901 0.4403632672
0.4925522237 0.2520037263 0.9430147604
0.4824627761 0.5021995307 0.1920772428
0.502387594 0.2515610862 0.6936719216
0.5124733594 0.2495516304 0.4429206107
0.5124586302 0.2495158286 0.9435947195
0.5025385675 -0.0013244727 0.6935071396
0.5024538751 0.2508274754 0.1974865123
0.5225407133 0.2524138194 0.1953968184
0.5224744323 0.2500059874 0.6928719463
0.5124917708 0.5012166093 0.4448666958
0.5224781145 0.5018805695 0.7009407427
0.5424802603 0.4994792469 0.6995700139
0.5524150522 0.5008637991 0.9499006243
0.5425354945 0.5014652689 0.2008300227
0.5523009015 0.5018122206 0.4512959569
0.532276662 -4.4622270267e-04 0.442333287
0.532604385 0.2523148763 0.4470815873
0.5324497292 0.251919104 0.9476452277
0.5325381039 0.5020537199 0.9470652686
0.5524776509 0.0012843048 0.9471020914
0.5425170831 0.2504733633 0.1999379904
0.5523414066 0.2497625354 0.451533464
0.5423882033 0.2490699338 0.6969473098
0.5522603964 0.249866686 0.9495784248
0.5724466562 0.2509596165 0.4540374145
0.5725534423 0.2502227509 0.9557094212
0.5624860884 0.500232386 0.7054579798
0.5623240681 0.5001236789 0.2023066171
0.5723030473 0.5015323159 0.9528832712
0.5723509169 0.5014522501 0.4537124533
0.5625192289 0.2504967972 0.2007931999
0.5624897707 0.2516912745 0.7017996345
0.6023946407 0.4991986912 0.7127654648
0.5922794171 0.5000585847 0.9553596046
0.5923641095 0.4980269969 0.4600432134
0.5825140101 0.2493524424 0.7038856462
0.6023357242 0.2482445402 0.2128867285
0.5923972501 0.2492971124 0.4546201353
0.6024425103 0.248868142 0.7114306383
0.5924966716 0.2489605757 0.9579187893
0.5823335784 0.5000475187 0.7067173197
0.5823298961 0.5011860151 0.2065872677
0.582433 0.2507708435 0.2057182496
0.6124583123 0.4974561213 0.9644640423
0.6124214895 0.4975147061 0.4635680761
0.6224888435 0.4991147198 0.7219343424
0.6123736199 -0.0017399035 0.4667357576
0.622404151 0.4982339962 0.2163379456
0.6125540516 0.2476079196 0.4638083449
0.6124472655 0.2494533383 0.9655871377
0.6225330308 -0.0041472016 0.7180928036
0.6224777966 0.249412329 0.2139748423
0.6225809005 0.2485869354 0.7144786456
0.6424836247 8.8879284309e-04 0.2211138629
0.6526467179 0.0015468294 0.4736768557
0.6323904948 0.4996979632 0.4666041161
0.6425462234 0.2517270763 0.2196078104
0.6525362495 0.2503998069 0.4756487167
0.6425425412 0.2514842752 0.7180246814
0.6324420467 5.4937016809e-05 0.4678091423
0.6524810153 0.2506797117 0.9734027774
0.6424799424 0.5012576186 0.7183165021
0.6525288849 0.5006144886 0.4712051251
0.6324383644 0.2500691288 0.4689791868
0.6325304214 0.2489065476 0.9694259148
0.6824216352 0.5004706306 0.7365078867
0.6624857705 -0.0029911884 0.2332156767
0.6823958593 0.4994037378 0.2390447261
0.6624158071 -2.3655450466e-04 0.7292814119
0.6723321876 0.4994890111 0.4823670369
0.662610968 0.251120399 0.2308415265
0.6625888743 0.2504264955 0.730919106
0.6723911041 -1.9372256605e-04 0.9842839152
0.6625041819 0.5012133546 0.7278158644
0.6624415831 0.5036862807 0.2277051444
0.6825210568 0.249545121 0.2371004822
0.6725973118 0.2495164796 0.4841897655
0.682576291 0.2479216733 0.7385948189
0.6725199839 0.2513156814 0.9864012263
0.7024937443 0.2494181874 0.2415836583
0.6925184474 0.2496941866 0.4893191818
0.7024274633 0.250543014 0.7399287249
0.6924705777 0.248014758 0.9888039141
0.6923380157 0.500055981 0.9828938545
0.6923895676 0.5015824383 0.4864746204
0.7325706086 0.4994968224 0.9985803679
0.7325816554 0.499356219 0.4967978928
0.7124432653 0.2503744202 0.4911860978
0.7124948172 0.2517068971 0.994060369
0.7224001508 8.0670914309e-04 0.2420025177
0.7324122706 -7.5821887561e-04 0.4964130945
0.7324895984 -5.9333544017e-04 0.9952939329
0.7125610983 0.4998457269 0.9884264804
0.722547442 0.2507617303 0.2435269816
0.7325706086 0.2530224495 0.4981953181
0.7225769003 0.250365958 0.7445932533
0.7324895984 0.2504805237 0.9990406529
0.71232175 0.4990118711 0.4894747581
0.712439583 6.2171162098e-04 0.4877376425
0.712413807 -5.4438465318e-04 0.9874690875
0.7525838012 0.5008279974 0.0037622138
0.7425201296 0.0013083245 0.2493330169
0.7424943536 4.9972521829e-04 0.7480113298
0.7425459055 0.2493628574 0.2509716315
0.7425238118 0.2492821407 0.7500595982
0.7625554159 -1.1521904329e-04 0.254479924
0.7525506607 0.0014942985 0.5022449057
0.7625222754 0.0011575014 0.7525386933
0.7525506607 -0.0010488642 0.0012456515
0.7626548374 0.25215149 0.2530852604
0.7527310924 0.2495828756 0.5025652641
0.7627137539 0.2515337467 0.7553961427
0.7525727544 0.2499050915 0.004791227
0.7826091136 0.0023206034 0.2588498699
0.7826312073 5.0337048966e-04 0.759349991
0.7726890509 0.0012095767 0.007463826
0.7825575617 0.251352785 0.2576107827
0.7725528065 0.2525693943 0.5055129293
0.7825686085 0.2503509863 0.7610548867
0.7726374989 0.2518885097 0.0075009249
0.7925954574 8.9241624182e-05 0.5153317293
0.7925402231 -0.0014879241 0.0149398673
0.8126233791 0.4997793309 0.0216585557
0.7926801498 0.2491988202 0.5109590217
0.7926764675 0.2496928847 0.0132029358
0.8026664936 2.9038249094e-04 0.2690451831
0.8124429474 -0.0011554233 0.5208634347
0.8026554467 -7.4383307252e-04 0.7704796828
0.8127191184 -0.0024711124 0.0223024944
0.8026922695 0.2491115941 0.2712425838
0.81260865 0.2510735312 0.5224928437
0.8026664936 0.2500183553 0.7702016706
0.8125570981 0.2504408162 0.0197967948
0.8325408324 -0.0019453861 0.5242225948
0.8225765823 -1.0910019492e-04 0.7767349562
0.8325408324 6.3073783264e-05 0.0263865113
0.8226686394 0.2482477949 0.268754283
0.8325629261 0.2477335513 0.5274666836
0.8226391811 0.2492762822 0.7744961298
0.8326623477 0.2511353706 0.0261686124
0.8226134051 -0.0019509907 0.2745317805
0.842589775 -0.0010163171 0.7797719167
0.8426081864 0.2475857876 0.2792552254
0.8426413269 0.2500248647 0.7779860109
0.8625661448 5.0903367911e-04 0.2799254004
0.8427186548 0.5002141597 0.7780449273
0.8524987909 7.6092609592e-05 0.5244720692
0.8624409473 -0.0021241997 0.7800480877
0.8524693326 6.1852200853e-04 0.0314206486
0.8624151713 0.2501895529 0.2817619376
0.8425050825 -0.001507257 0.2747591613
0.852579801 0.2497866202 0.529621738
0.8625366866 0.247759589 0.782398303
0.8525061554 0.2494038667 0.0264204804
0.8725009366 0.0015726067 0.5348303233
0.8924368014 0.0011860126 0.5376279357
0.8724420202 -2.2394811577e-05 0.0328839867
0.8826235248 0.2476775704 0.2871850157
0.8923557912 0.0027493133 0.0385615104
0.8724677961 0.2504056654 0.5307347072
0.8924883533 0.2474250051 0.5336225354
0.8825461969 0.2492430842 0.7856396301
0.8724567493 0.2481384368 0.0319403104
0.8925251761 0.2476066178 0.0341994813
0.9024415566 -0.0037950229 0.288753667
0.9122769268 -0.0034557978 0.5431881787
0.9024452388 -0.001785209 0.7892869286
0.9024194629 0.2468879785 0.2884867017
0.9124536763 0.2452033424 0.5395224688
0.9025078376 0.2485823788 0.7888625459
0.9024415566 0.499323672 0.7861643551
0.9123432079 0.2490985752 0.0415478396
0.922373739 -8.3594126879e-04 0.298026569
0.9223295517 -0.0025717739 0.7966082221
0.9223958327 0.2482523515 0.2930223503
0.9225026188 0.248358455 0.7934276527
0.942548952 -0.0024199419 0.3003970369
0.9324889626 -0.0021473016 0.5466587277
0.9424458481 -0.0012371164 0.8001827956
0.9323600828 -0.0031604983 0.0507798682
0.9424163899 0.2488740005 0.2998649474
0.9324005879 0.2488141139 0.5451554369
0.9424863532 0.2482341252 0.7980673257
0.9324963272 0.2472225624 0.0438056296
0.9524321919 -0.0028388226 0.5532840703
0.9524432387 1.7028381807e-04 0.0513789752
0.9623817129 0.2507923246 0.3045230318
0.9525794831 0.248335672 0.5518489016
0.9725668998 0.247093676 0.5527501397
0.9624222179 0.2487626895 0.8026867461
0.9524616501 0.2495965454 0.0537349901
0.9725926757 0.2507018437 0.0523673913
0.9624148534 3.5864436239e-05 0.3027859161
0.982520103 0.5011658359 0.8055331487
0.9827152639 0.4998014629 0.3020964092
0.9825421967 -0.0036160986 0.3020835212
0.9924548949 0.0013385933 0.5567389696
0.9825274676 0.249135028 0.3057676425
0.9924107075 -2.2314511355e-04 0.0524082646
0.9925064468 0.2522133294 0.5531202088
0.9825274676 0.2487913309 0.8058590305
0.9923849315 0.2481677292 0.0542953411
0.0125311037 0.7508597645 0.0486262867
0.0023035706 0.5013812975 0.8036542652
0.0122946645 0.4986004762 0.0506824719
0.0225592782 0.7503845773 0.3006483525
0.0025227031 0.7512373105 0.3000803608
0.012623934 0.7508337269 0.5493357454
0.0225217558 0.753261738 0.8019769866
0.0225331708 0.5012608733 0.2969614695
0.0026808939 0.7507295762 0.8023553409
0.0125014246 0.9988293496 0.0486941327
0.0525145904 1.0016869819 0.543343755
0.0525039118 1.0017000008 0.0447354974
0.0325334336 0.7518882518 0.0471390137
0.0423942117 0.5005611114 0.7966183484
0.0425426075 0.7516474035 0.2978848012
0.0325488992 0.7511006128 0.5445349727
0.0425499721 0.753593718 0.7999729056
0.0525760845 0.7509964622 0.0477812955
0.0525359477 0.7525717402 0.5470103855
0.0523993351 0.5013096939 0.5475535218
0.0424203558 1.0036137682 0.2998069515
0.0325488992 1.0022923574 0.5505702298
0.032556632 1.0034249953 0.0502987783
0.0724677619 1.0011467007 0.534103073
0.0624471729 1.0011532101 0.7942699743
0.0723477196 1.00337292 0.0408452605
0.0724519281 0.7500460879 0.0376366136
0.0625388617 0.752474099 0.293616118
0.0725649741 0.7524024954 0.5405323341
0.0625782621 0.7499419372 0.7921305695
0.0625753163 1.0018562267 0.2955806144
0.0824570515 1.0010034936 0.2836813261
0.1023693496 0.9990116131 0.7788402998
0.082443427 1.0006780229 0.7839034351
0.0924798498 1.0005934005 0.0318483454
0.092439713 0.7512763669 0.0301470399
0.0924872144 0.5011476095 0.0312020132
0.1023524111 0.7489264688 0.2792736368
0.0825270148 0.7522397601 0.2854092361
0.0923506018 0.7504171244 0.5313413629
0.1024603019 0.7489590159 0.7801355419
0.0824305391 0.748835337 0.7863171697
0.0924566515 0.5014769858 0.5331392362
0.1125335475 0.997560014 0.0282491007
0.1124702123 0.7491542983 0.0285010607
0.1224270978 0.5010447608 0.7782953224
0.1224057406 0.7472991155 0.2743522694
0.1124495915 0.7491608077 0.5267173396
0.1225504542 0.7483406216 0.7742052297
0.1123593757 0.9981068047 0.5307347072
0.1225084762 1.0000856663 0.7781139701
0.1523791328 0.9993305744 0.5233204361
0.1323552616 0.9987056707 0.5268029526
0.1425603328 1.0011922665 0.7747916328
0.1524870236 1.0008017018 0.0202600257
0.1323615215 0.9995909509 0.0269838692
0.1523592485 0.7490826947 0.0210617501
0.1325879817 0.7503129738 0.0240776296
0.1424366082 0.7510615563 0.2687911058
0.1523570391 0.7517775918 0.5179010403
0.1324425316 0.7503845773 0.52342354
0.1425500224 0.5009477706 0.271843716
0.1424995752 0.7511136316 0.774288081
0.1722350921 0.7490696759 0.01511542
0.1624288118 0.5000026038 0.7672853047
0.172378701 0.4996914538 0.0142826724
0.1624766815 0.7529167391 0.2654328663
0.1823307996 1.000333024 0.7622718803
0.1722571858 0.7507946704 0.5120756731
0.1623894114 0.5021552667 0.2686474968
0.1623849927 0.7509639151 0.7656098673
0.1824125462 0.7500460879 0.2593138372
0.1823370595 0.7528711732 0.7571700812
0.1624313894 1.0032362223 0.2726657851
0.1725421943 1.0043688602 0.5140070291
0.1724807002 1.0018822643 0.0156479698
0.1924846871 1.0005152876 0.5073218494
0.2025527775 0.9990506696 0.7557892261
0.1924729038 0.7520444777 0.0047542201
0.2024861282 0.7502088232 0.2537591176
0.1924404997 0.7490826947 0.5051585099
0.2025152182 0.7505863692 0.750845765
0.2325604149 0.7512958952 0.9939222835
0.2326454756 0.49856858 0.9998323432
0.232596133 0.747227512 0.4929968591
0.2325972377 0.4972842728 0.4977562062
0.2225891685 0.9995974603 0.2503585319
0.2125243921 0.9989920849 0.5041624531
0.2124838871 0.9994021779 0.0017236115
0.2125321249 0.747858925 0.0026938923
0.2325593102 1.0001051945 1.0047389815
0.2225250968 0.7492063736 0.2453828508
0.2125545868 0.7474227944 0.5000272525
0.2224919563 0.5008807236 0.2520873624
0.2224923245 0.7470777955 0.7452348906
0.2526818666 0.7486335452 0.9896140157
0.2525982788 0.5008390634 0.9901479464
0.2426126715 0.7491087324 0.2412283183
0.2526203725 0.7511591975 0.4905895684
0.2425485998 0.4974854137 0.2489224426
0.2425482316 0.7475204356 0.7460569597
0.2526060116 0.5020895216 0.4926958327
0.2625367529 0.4978955067 0.7435189481
0.2626545859 0.750000522 0.2410570922
0.2626601093 0.7490696759 0.7392401385
0.2824527334 0.4974574232 0.7359435772
0.2826703561 0.7500656161 0.2391818911
0.282550682 0.499334087 0.2361302014
0.2826125443 0.7486986393 0.7355210356
0.2725400352 0.7493495807 0.9912618361
0.2727178893 0.4998919437 0.9908199625
0.2726379838 0.7501046726 0.4874872474
0.2825363211 1.0010360406 0.2403694264
0.2826228547 1.000521797 0.7401708348
0.3124938795 0.9977422776 0.9760724305
0.2926773207 0.7521291001 0.9813288854
0.3024777093 0.5012452507 0.7299018761
0.2924906291 0.5008149785 0.9811447714
0.3025329435 0.7499093902 0.2281442563
0.2926931545 0.752474099 0.4813313956
0.3025966469 0.4982684961 0.2291338691
0.3026095349 0.7512958952 0.727765233
0.3025988563 1.0001702887 0.2295076205
0.3128094509 0.7503455209 0.9753451801
0.3124861467 0.5002401973 0.9757410253
0.3126282827 0.7520835342 0.475048505
0.2924040955 0.999656045 0.984504852
0.332747525 0.7489329782 0.9704385418
0.3326142265 0.5000351508 0.9720955679
0.3226131536 0.7498638243 0.221193032
0.3326587821 0.7487181676 0.4697073577
0.3226201499 0.748614017 0.7257860074
0.3326591503 0.4988543433 0.4732368232
0.3523700277 0.9997601956 0.4669217128
0.3426322379 0.999324065 0.7164072399
0.3624204432 0.7512242916 0.2147766588
0.3525541417 0.999812271 0.9649887672
0.3625382762 0.7492519395 0.7130296684
0.3626192863 0.9987902931 0.2137585083
0.3526539315 0.7489590159 0.9636907635
0.3624867242 0.9986015201 0.7126135707
0.3526108489 0.497316169 0.9637091749
0.3426116171 0.7483080745 0.2158389966
0.3525670297 0.7497726925 0.4632799377
0.3426274509 0.749701089 0.7211656664
0.3923905213 1.001120663 0.4605338773
0.3725835364 0.7489655253 0.9652833496
0.3725025262 0.4977757335 0.9637552034
0.3825256928 0.7518817424 0.2099335398
0.372565125 0.7487962805 0.4612620482
0.38248887 0.4993171626 0.2141156895
0.3825183283 0.7495774101 0.7089515431
0.3824594118 0.9990376508 0.2118078204
0.382514646 0.998725199 0.7136105481
0.3725430313 1.0013484925 0.9621442058
0.3723846933 0.5006841393 0.4645346746
0.3924899429 0.7508467457 0.9536657558
0.3926335518 0.7466481742 0.4585767454
0.4126430622 0.7489720347 0.9484185065
0.4126025571 0.7509769339 0.4511772034
0.4124589482 0.4973701971 0.4510612116
0.4024320993 0.9997927427 0.2060478137
0.4024689221 0.4987951076 0.7035496382
0.402520474 0.7512958952 0.2027788695
0.4024431462 0.4984924199 0.2022900468
0.4025646614 0.7513284423 0.7045189984
0.4324831876 0.7475204356 0.9503793207
0.422485797 0.7485163758 0.2024907311
0.4324316357 0.7499093902 0.448116308
0.4224379274 0.4984012881 0.1977571599
0.4224526565 0.7481062827 0.7023786731
0.4424805782 0.7501697667 0.1952679386
0.4424842605 0.7505473127 0.6969482304
0.4324537294 1.0004892499 0.4482092856
0.4224894793 0.9997536862 0.6995009711
0.4423811567 1.0028391481 0.1978197587
0.4526068487 1.0029367893 0.9437788335
0.4624238075 0.9989530284 0.1929352141
0.4726016299 1.0026048092 0.4399112673
0.4625416405 1.0019929244 0.691849193
0.4524043233 0.7513805176 0.9432356972
0.452374865 0.7477092085 0.4439903131
0.4725758539 0.7505928786 0.9398111767
0.4625674165 0.7518296671 0.1914466523
0.4724248804 0.7498182584 0.4393193407
0.4625784633 0.7533658886 0.6903864072
0.4725758539 0.5006034226 0.441971503
0.4825585154 1.0005673629 0.1896515407
0.4924564845 1.000899343 0.4452883169
0.4924196617 1.0012052854 0.9449847803
0.48256588 0.4986694759 0.6906828307
0.4926258694 0.7492649583 0.4400484322
0.4825180103 0.7523699484 0.1923524932
0.4924491199 0.7511657069 0.9389642522
0.4825106458 0.7520119306 0.6902529245
0.5124696771 0.9999880251 0.4430209529
0.5124659948 0.9982304836 0.9422230702
0.5024833333 0.9989009531 0.192796208
0.5225443956 0.7480281698 0.6927090054
0.5225112551 1.000443684 0.1938023911
0.5225738538 0.9976967117 0.6957643773
0.5024538751 0.7498573149 0.1932656987
0.5025091093 0.5009718554 0.1965042641
0.502387594 0.750332502 0.6912443785
0.5025753903 0.5046015042 0.6940530376
0.5125506873 0.748945997 0.9445521124
0.5125985569 0.5009002518 0.9446073466
0.5122818808 0.7517385353 0.4455635673
0.5225922652 0.5003267725 0.1971652334
0.5223860575 0.7503910868 0.1945139917
0.5324534115 0.7514846682 0.445986109
0.5324791874 0.5017445227 0.44736052
0.5324681406 1.0030995246 0.9434198112
0.5424949894 0.9996495356 0.1957650464
0.5524886978 1.002995374 0.4493857741
0.5524297813 0.7507295762 0.9516036789
0.5424066147 0.9996951015 0.6975447598
0.5424508021 0.7511396693 0.2001754974
0.5524813332 0.7506254256 0.4509001118
0.5423882033 0.7522723072 0.6969252162
0.5326338432 0.7517645729 0.9493298709
0.5624382187 1.0009383994 0.2006735258
0.5624492656 1.0017585855 0.7027211251
0.5624492656 0.7511787258 0.2038080668
0.5623572086 0.7519598553 0.6997964741
0.5724208802 1.0025266962 0.454543728
0.5723288232 1.0028391481 0.9525426603
0.5723582815 0.7506905198 0.9559855922
0.5725423955 0.7496750513 0.4536562985
0.602582437 0.9986991613 0.21188791
0.592330969 0.7502869361 0.9597231066
0.5924119792 1.0024485833 0.4581201426
0.6024609217 0.9982630306 0.7133168863
0.5924303906 1.0008798147 0.9612880757
0.602306266 0.749434203 0.2125755758
0.6024130521 0.4985776932 0.2119219711
0.5922757348 0.7512177822 0.4567346847
0.6024535572 0.7515823094 0.7129136766
0.5823740835 1.0007496265 0.2041827388
0.5825029633 1.0003720805 0.7076986473
0.5823777658 0.7516148564 0.2046770849
0.5823372607 0.7530924932 0.704599088
0.6123846667 0.7491087324 0.9667102332
0.6123367971 0.7469150601 0.4684056717
0.6125614162 1.0005803817 0.9662039197
0.622404151 0.9984843507 0.2160857094
0.6225330308 0.7496815607 0.2150776852
0.6223489168 0.7486660923 0.7173858058
0.6425020361 0.9997732145 0.7215743995
0.6525399318 0.9997992521 0.9757686424
0.632471505 1.0002158546 0.9690300697
0.6324125885 0.7476180768 0.9703741019
0.6324162708 0.4957708343 0.9652189097
0.6323904948 0.7475660014 0.4673111139
0.6523337241 0.7481974145 0.9733015147
0.6523668646 0.5006476866 0.9719482767
0.6424504842 0.7496490137 0.2208920056
0.6425351766 0.4987619096 0.2212675981
0.6523889583 0.7473837379 0.4735424525
0.6424320728 0.7497206172 0.719800461
0.6724279269 0.7482494898 0.9838328359
0.6723947864 0.5017067681 0.9817431419
0.6823111668 0.999955478 0.2363318062
0.6724205623 0.9995323662 0.4859425309
0.6823332605 1.0003069864 0.735520115
0.6823185314 0.7487376958 0.2335774607
0.6724352914 0.7478914721 0.4832406578
0.6823811301 0.7491738265 0.735034054
0.6624415831 0.7514325929 0.2296318975
0.6625041819 0.7487507146 0.7291608172
0.7023538177 1.0012833983 0.2363069508
0.7024974266 0.500143858 0.7395338004
0.6922864637 0.7496685419 0.9850479883
0.6923711562 0.9997471768 0.481902149
0.7023943228 1.00071057 0.7385257762
0.6923232865 1.0001637793 0.9854346278
0.702449557 0.7500916538 0.2364560832
0.7024569215 0.4996302653 0.2391690031
0.6923601093 0.7503194832 0.4875102617
0.7024863798 0.7489199594 0.7336716104
0.722573218 0.5023095398 0.744142174
0.7325264212 0.7526173061 0.9958923034
0.7224701141 0.7503520303 0.2431596742
0.7225621711 0.5009549309 0.24176409
0.7325116921 0.7505798597 0.4926359956
0.7224148799 0.7506970292 0.7399066312
0.7224701141 1.0030669775 0.7418223375
0.7124101248 0.7505798597 0.9893102276
0.7124174893 0.7536783404 0.489447141
0.7426085043 0.499411549 0.7485802421
0.7424501662 0.7504041056 0.2495419863
0.7426379625 0.5026525859 0.249636805
0.742486989 0.7504757091 0.7497180667
0.7527089987 0.5006730733 0.5043484082
0.7526058949 0.7508337269 0.0024714826
0.7625885564 0.5010004968 0.7559834664
0.7626253792 0.7494992972 0.2529922828
0.762570145 0.4994746904 0.2562750355
0.7526537645 0.7494602407 0.5023332804
0.7625112285 0.74924543 0.75455198
0.7825759731 0.7515302341 0.2630679218
0.7827379934 0.5015564007 0.2608162075
0.7725159837 0.750599388 0.5077278208
0.7826901237 0.7483015651 0.7611386586
0.7725528065 1.0001898169 0.5048197401
0.7727811079 0.5008475256 0.5097898977
0.7725969938 0.748425244 0.0095073073
0.7827895453 0.4995846994 0.7623823487
0.772678004 0.5000468678 0.0093810972
0.792709608 0.7515758 0.5154026132
0.8128664096 0.4996868972 0.5240522893
0.8125313221 0.7480346792 0.0219493637
0.8028248316 0.4996660671 0.7692258664
0.8025118378 0.7471298708 0.2696297451
0.8026996341 0.500721243 0.2683750081
0.7927722068 0.5003684328 0.5166389388
0.7926101865 0.7490696759 0.0139335001
0.8126160145 0.7492779771 0.522057414
0.7927685245 0.4988309094 0.015884188
0.8026885872 0.7479695851 0.7705367581
0.8325850198 0.498558165 0.5251891933
0.8324966451 0.7489069406 0.0267226114
0.8227091444 0.5004120459 0.7736482848
0.8326218426 0.4984527125 0.0239156093
0.8225434418 0.7502674079 0.2724301191
0.8225360773 0.4988829847 0.272342665
0.8325960666 0.7512633481 0.5248881669
0.8225544887 0.7514456117 0.7712290268
0.8625514157 0.7494732595 0.7774391923
0.8625771916 0.497592819 0.7792978232
0.8525319314 0.7479826039 0.029380021
0.8525282491 0.4992709457 0.0279100547
0.8625440511 0.7485033569 0.2786660606
0.862621379 0.4976461962 0.2791162193
0.8524325098 0.7476050579 0.5303793672
0.8425676813 0.7497206172 0.277915796
0.8425308585 0.4991062576 0.2797403658
0.8424388015 0.7506189162 0.7737863703
0.8525466605 0.500721243 0.5287131354
0.8725598531 0.4999401134 0.534077297
0.8823841766 0.7474097755 0.7851765834
0.892536223 0.4985119482 0.5349831379
0.8724088796 0.7488743935 0.0313390861
0.8923778849 0.7489850535 0.0366916485
0.8825204209 0.4988810319 0.7824157939
0.8725414417 0.4999251417 0.0340224557
0.8926503736 0.5002538671 0.0357895819
0.8824467753 0.7481127922 0.2870156308
0.8825204209 0.4996842935 0.2837384015
0.8724493847 0.7518557047 0.5297055099
0.8924368014 0.7482429804 0.5353467631
0.8824209994 0.9982435024 0.2840900592
0.8825351501 0.9982825589 0.7814409102
0.9123910775 0.7475139261 0.5419573765
0.9124463117 0.9995649133 0.0424509188
0.9125346865 0.5002369426 0.5402699717
0.902367911 0.749434203 0.7882881101
0.9124978637 0.747227512 0.043261941
0.9124205358 0.4984123541 0.0395516755
0.9024857439 0.748614017 0.2891808115