POSCAR file written by Ovito 3.7.11
1
271.574728147 0.0 0.0
0.0 15.3625865497 0.0
0.0 0.0 10.8629891258
Sr Ti O 
800 800 2400 
Direct
0.0223855699 0.5014580878 0.7689495502
0.0123973798 0.2489491768 0.5235585285
0.0224347644 0.2484004411 0.7698645838
0.0024447601 0.2491444564 0.7729539729
0.0123780481 0.2499106034 0.0175325226
0.0225971507 6.3780111736e-04 0.2694341832
0.0024877317 5.1112973988e-04 0.2718718179
0.0024177693 0.5025399369 0.2739541177
0.0125087304 0.5022580833 0.5248058832
0.0124553749 0.0023686945 0.5190128183
0.0224320764 0.0019931067 0.7704822775
0.0023439775 2.8805532536e-04 0.7720426215
0.0222782697 0.2482917354 0.2692316606
0.0024751753 0.2515346789 0.2726883519
0.0324196773 0.5028471768 0.0200649747
0.0424883608 0.5026401804 0.2683350382
0.0324222549 0.5011886019 0.5183886807
0.0324259371 0.2490292414 0.5151722548
0.0424559572 0.25050881 0.7638174452
0.0323533972 0.2501006756 0.0157137782
0.052404232 0.5014327014 0.0119488845
0.0424452788 -0.0015810961 0.7647499694
0.0425027215 0.248956337 0.2650799489
0.0524660934 0.2505029516 0.5115332932
0.0524252207 0.2494490926 0.0144120186
0.0624905902 0.2489420165 0.25845378
0.0623985345 0.5017360358 0.763845062
0.0725334982 0.5008006464 0.0075032388
0.0623550842 0.500775911 0.2653054853
0.0724292911 0.5012198467 0.5097290016
0.0724513845 0.2467887333 0.509088294
0.0625156294 0.2523724285 0.7597946114
0.0723512279 0.2498175201 0.0069605705
0.0924727614 0.2489094699 0.4986620661
0.1024501257 0.2495519399 0.7493416874
0.0825130718 0.2493768391 0.7524890716
0.0924635559 0.2494295646 0.0033168221
0.1024990994 2.8844588459e-04 0.2516177242
0.0925217351 -0.0016863518 0.5039027968
0.1024722191 0.2504860274 0.2467848003
0.0823665192 0.2516642144 0.2541879192
0.1026066204 0.5001028473 0.7493656219
0.0824096012 0.5018213079 0.7592275484
0.1023823728 0.501436607 0.2506244433
0.0823160726 0.4994584245 0.2573518734
0.1224998558 0.2482917354 0.2469458977
0.1124904561 0.49932954 4.8332938693e-04
0.1124838281 0.2493032838 0.4944431537
0.1223890208 0.4998528894 0.2468750149
0.1125055533 0.5014359561 0.4980637041
0.1224206879 0.2498403028 0.7438201869
0.1125821436 0.2491164663 -0.0032570315
0.1225642948 -1.9780035889e-04 0.2450145693
0.1523664051 0.2498110108 0.4897216172
0.1324271418 0.2515060379 0.4935235173
0.1422837291 0.249502469 0.741145969
0.152316695 0.2505608845 -0.0099281143
0.1325342947 0.2490162228 -0.0061758506
0.1425146048 -7.2531569452e-04 0.2443563711
0.1423408036 0.2493104441 0.2409236143
0.1424899338 0.4980712883 0.7448779068
0.1524477823 0.4980947219 -0.0074883789
0.1325379769 0.49948316 -0.0058818984
0.1523155904 0.4972114071 0.4918895287
0.1324179363 0.4993497189 0.4942553601
0.1823434212 0.251304249 0.2392297895
0.1723395449 0.5007928352 0.4891913764
0.1824196433 0.4996901563 0.738914539
0.1722798928 0.2491652862 0.4906771553
0.1623743319 0.2507249194 0.7397338347
0.1723476458 0.2465023232 -0.0094718771
0.1824745085 0.49775819 0.2407045217
0.1623224125 6.1534396154e-04 0.7418133728
0.1623905337 0.2495935995 0.238397606
0.1823846622 0.2486185033 0.7381412712
0.1823345839 0.0017324736 0.2387069132
0.1923984805 -2.0665303481e-04 -0.009061781
0.2025470684 0.2512014017 0.2443471655
0.2024318147 0.5007733073 0.7378411696
0.1923789647 0.503007957 -0.0073936554
0.2026023018 0.5007733073 0.2397756798
0.1923671816 0.5014021076 0.4920625934
0.1924647606 0.2497869263 0.4902914419
0.2023592748 0.2519968407 0.740410444
0.1923995852 0.2501950607 -0.0084819065
0.2025187153 -4.3226608433e-04 0.2383994471
0.2125833484 0.2503955478 0.4888434058
0.2224804401 0.2501481936 0.7456714269
0.2125284832 0.2491398999 -0.0121528887
0.2224682888 0.0024218757 0.742608734
0.2224542963 0.2510679606 0.2440203678
0.2324493353 0.2493065385 0.4978464527
0.2325034641 0.2511018091 0.9941638049
0.2324828436 8.7047507441e-05 0.49640394
0.2225087933 0.4988296242 0.7456539363
0.2124548386 0.5006776203 -0.0085851626
0.2125590457 0.5008592303 0.4912129194
0.2424440061 0.4962421693 0.7484607144
0.2625537565 0.2499294805 0.7487737038
0.2625526518 -0.0014408202 0.2504808364
0.2624830577 -7.5369633203e-04 0.7489973991
0.25246703 0.25125608 0.4984742725
0.2423383262 0.2497745586 0.748494775
0.2524180564 0.2518132778 0.9996963521
0.2625014689 0.2498110108 0.2490576554
0.2425349571 0.0021393061 0.2437552474
0.2626270328 0.4988159546 0.2504200796
0.2525705006 3.2333584263e-04 0.4993405166
0.2424134436 9.4692874926e-04 0.7439306537
0.2525443568 -0.0010074296 0.9980209385
0.2424027651 0.2505394038 0.2500859175
0.2725307526 0.2518939934 0.5023111538
0.2725112368 0.2499457538 1.0028078345
0.2726588941 0.001276756 0.5008327394
0.2725918776 0.0018191126 1.0000001359
0.2823854987 0.2518087213 0.7551255466
0.2725591057 0.4997975601 0.5039184462
0.2824399957 0.2501787874 0.2515781403
0.3125967045 5.8911139981e-04 0.5036422792
0.2925488155 0.5017614221 0.5059703677
0.2924755392 0.2541436146 0.5086151277
0.3024694735 0.2516023758 0.7584008882
0.2924998419 0.2520085574 1.0056799722
0.2925105204 0.0036101522 0.5053158517
0.3025070323 0.0014118895 0.7582020479
0.3125985456 0.5005890935 0.5092328214
0.3024433297 0.2499346879 0.2568805482
0.3125930223 0.2513237769 0.5083895913
0.3124759274 0.2504554336 1.0070700132
0.3224606562 8.6328398047e-04 0.2521755817
0.3324995137 6.2094197719e-04 0.5026683299
0.3223663912 0.0014252336 0.7537253795
0.332513138 0.0017100815 1.0002486862
0.3224753851 0.248180426 0.2543665072
0.3225302503 0.5012406765 0.7540043083
0.322460288 0.5005409245 0.2571309397
0.3324468579 0.2503597465 0.50496604
0.3225048429 0.2517625051 0.7557367965
0.3324015665 0.2498494158 1.0053577773
0.3626580637 0.2540876344 0.2453597781
0.3524295714 0.5003130983 0.4990330506
0.3525149991 0.2503434732 0.5004111243
0.3424135437 0.2510555929 0.7510244655
0.362308252 0.5003365319 0.7454376054
0.3523772838 0.2485345331 1.0033693743
0.3624076722 0.4997240048 0.2486351197
0.3422644135 0.00132141 0.2499303433
0.3423936597 0.2495935995 0.2540737701
0.3624150366 0.2517410244 0.7497881575
0.3424625173 0.4992852766 0.747225327
0.342480192 0.4985139221 0.2500012262
0.3824647667 0.2497485213 0.2404265135
0.3924988373 0.250240626 0.4870952682
0.392509884 0.2512743061 0.9894413478
0.392590893 -2.9980141157e-04 0.9886128466
0.382534729 0.5015824158 0.7403754628
0.3925798463 0.5032084441 0.9881433625
0.3724896117 0.2502445316 0.497124736
0.3824905423 0.2493709808 0.7385168584
0.372412285 0.2505869218 0.9979196772
0.3924841084 0.5032331795 0.4861931224
0.3724012383 7.1164765351e-05 0.4937840349
0.4126884921 0.5014665499 0.9846820684
0.4025550013 0.2493787919 0.7374830729
0.4025218613 0.0019284041 0.7339343259
0.4026360103 0.2507470511 0.2363429229
0.4125191096 0.2492167099 0.4860835761
0.4124712406 0.2484440535 0.9850687024
0.4126038008 -4.1989837532e-04 0.4836827636
0.412541203 0.0012170656 0.9832644108
0.442613957 0.0011797671 0.7302125143
0.4426470971 0.2488072736 0.2308177402
0.4226673293 0.4995241687 0.733111348
0.4325688397 0.5017184606 0.9826660487
0.432638802 0.5021858298 0.4827714123
0.4426802371 0.5002603728 0.7289016412
0.4426470971 0.498936377 0.2268814387
0.4325393819 0.2503402186 0.4760495055
0.4224132556 0.2503356621 0.7315197051
0.4326829888 0.2485683815 0.9801989562
0.4225053113 -0.0013211138 0.2291938778
0.4325393819 5.5754119525e-04 0.9810458685
0.4224390312 0.2500538085 0.2335048459
0.4426102748 0.2485469008 0.7327210319
0.472605702 0.2497849735 0.4782284638
0.4625937248 0.2501605613 0.7248309384
0.4723810861 0.251083583 0.975605377
0.4726572532 0.0018169645 0.976525934
0.4625679492 0.2490722029 0.224314926
0.4527400833 0.4990157907 0.9792876048
0.4526185698 0.4999648497 0.4777608209
0.4624390712 0.4990385734 0.7225534805
0.4725173286 0.4999225391 0.9749241649
0.4626231826 0.4986343446 0.2260253208
0.4525780653 0.2494490926 0.4727750845
0.452622252 0.2504001043 0.9754396768
0.4527290366 -8.8069317554e-04 0.4783702296
0.4823562411 0.2496632492 0.7258951022
0.4825440347 -4.5003652937e-04 0.7276524454
0.4926517499 0.5001523181 0.9807604959
0.492460274 0.5012257051 0.4819162149
0.4823967456 0.2491412017 0.2250136287
0.4923939939 0.2488254997 0.4820644246
0.4925118252 0.2518555884 0.9793796605
0.4824851191 0.4996517514 0.227581062
0.502564307 0.2511265445 0.7334464308
0.5123958551 0.2520046518 0.4819318644
0.5125505086 0.2503467279 0.9839456229
0.5025053913 0.0021482239 0.7317618116
0.5024980269 0.2487525953 0.2330500908
0.522418879 0.2504046609 0.2385494979
0.5224225612 0.2496684567 0.7447214121
0.5124253129 0.5005571978 0.4858847358
0.522385739 0.4998782757 0.7369887339
0.5423802356 0.50007681 0.7437097201
0.5524327174 0.4990431299 0.9983891612
0.5425017492 0.4998991055 0.2448709624
0.5524732219 0.5007583358 0.4947763953
0.5323756228 6.5023391957e-04 0.4907415942
0.5324529496 0.2497543797 0.4882781839
0.5323056605 0.2530962649 0.9895886369
0.5325450053 0.502356374 0.994182216
0.5522817461 0.001484859 0.9953881456
0.5424796558 0.2493612168 0.2464644465
0.552410624 0.2508837468 0.4959353765
0.5424133757 0.2506585244 0.7452903163
0.5524032596 0.2483171218 0.9964928139
0.5724934942 0.2468037047 0.50420566
0.5724161674 0.2501097886 1.0034246077
0.5624299657 0.5006008103 0.7506056121
0.5623820968 0.4980087989 0.2518018356
0.5725008586 0.4997389762 1.00200695
0.5724382608 0.4999726609 0.501157696
0.5623820968 0.2506194684 0.2527573737
0.5624299657 0.2518243437 0.7508145785
0.6024999681 0.5020426248 0.758041871
0.5924658975 0.4986499669 1.01017229
0.5924069818 0.5008455607 0.5053002022
0.5825533404 0.2499639799 0.7589090357
0.6024152769 0.2498676419 0.2617521355
0.5925321776 0.2508134462 0.5094233767
0.6025220615 0.2501481936 0.7588538022
0.5925837288 0.2505257342 1.0106601852
0.582417098 0.5018447414 0.7543439938
0.5823986868 0.4989253112 0.2556736981
0.5826048916 0.2512775607 0.2556055769
0.612489852 0.5017939687 1.0048146487
0.6124272541 0.4992995971 0.5083371195
0.6226012494 0.5000566311 0.7553731765
0.612537721 -0.0018162778 0.5097253194
0.6225165582 0.499961595 0.2565684794
0.6124935342 0.249282454 0.5048491293
0.6125745432 0.2508505493 1.0089387437
0.6225202404 -0.0015674916 0.7577058677
0.6224723714 0.2488547916 0.2548010101
0.622546016 0.2494855448 0.7554109193
0.6425405127 -0.0011622864 0.2497361058
0.6525046209 -5.5353472577e-04 0.4996378565
0.6326500489 0.4991127796 0.5039534274
0.6425846994 0.2492075968 0.254298386
0.6524383408 0.2487571518 0.5016906985
0.6425000081 0.2493826975 0.7526658185
0.632587451 -0.0022708562 0.5027962873
0.6524972565 0.248985629 1.000147425
0.6425736527 0.5004536996 0.755374097
0.6524714809 0.4977399639 0.4971569555
0.6325469465 0.2481172856 0.5057844152
0.6324143863 0.2486477952 1.0058180557
0.6825110949 0.4996113936 0.7439278921
0.662384038 -0.00129052 0.2457408887
0.6824669081 0.4972061996 0.2435278698
0.6624724115 -0.0038506097 0.7452387651
0.672650089 0.4982665679 0.4922752421
0.6626086539 0.248180426 0.2421682072
0.662512916 0.250623374 0.7470854024
0.6724181086 -6.8118250134e-04 0.9958944519
0.6624466359 0.4972517649 0.745583974
0.6624724115 0.4976097775 0.2469320894
0.6825184593 0.2479447886 0.2433428379
0.6725248932 0.2481628509 0.4927152683
0.6825442349 0.2504528298 0.7408937364
0.6724696598 0.2483444609 0.9955814626
0.7024540404 0.2492238701 0.2375470114
0.6926003989 0.2495180914 0.4934038449
0.7024908626 0.2487968587 0.7379028469
0.6925451655 0.2481394173 0.9906933052
0.6925009788 0.497049325 0.9922766632
0.6924715209 0.4994167649 0.494012333
0.7326078034 0.4992416642 0.97832102
0.7322874496 0.4982906524 0.4798256301
0.7124991577 0.2478796954 0.483744441
0.7126390823 0.2498656891 0.9862378097
0.7225000882 0.0011002232 0.2337543168
0.7325562522 -0.0026459168 0.4784889814
0.7325194299 -0.0028057271 0.9819940422
0.712359233 0.4989962628 0.9862470152
0.7224080325 0.2475919835 0.2317189654
0.7324163276 0.2501527502 0.4795706358
0.7224669482 0.249541525 0.7331951187
0.7325378411 0.2474644008 0.9798951724
0.7125801667 0.5006763184 0.4875085983
0.7124439242 3.524975986e-04 0.4860670061
0.7125948956 -0.0020339755 0.9872228056
0.7524365998 0.4995371873 -0.0198579227
0.7424909027 -0.0020190887 0.2292435878
0.742479856 -0.0019464447 0.7282406813
0.7425792761 0.2492642279 0.2290705231
0.7425166783 0.2487031245 0.73037085
0.7625185394 -0.002504684 0.2263245018
0.7525433844 -0.0013484529 0.4804368799
0.7624522593 -7.4419272406e-04 0.7284284749
0.7525470667 -0.0019065621 -0.0213995794
0.7625074927 0.2486972661 0.2276657532
0.7525765245 0.2491952291 0.4780001657
0.7624596238 0.2492655298 0.7278586502
0.7525728423 0.2482871789 -0.0205319545
0.7825388117 -0.0022414015 0.2284003577
0.782560905 -0.0033258413 0.7277850056
0.7724752832 -0.0025138036 -0.0220242693
0.7824946249 0.249061788 0.2284859695
0.7724458254 0.2471018316 0.4734544555
0.7825019894 0.2477527637 0.7279847665
0.7725084233 0.2484421007 -0.0262558854
0.7925692001 -0.0031100053 0.4815443099
0.7925066022 -0.0024434899 -0.0171210885
0.8125158278 0.5010317273 -0.0091437023
0.7923998176 0.2502744744 0.4827962673
0.7922746219 0.2499503103 -0.0190213205
0.8023933837 -0.0012327823 0.2370121678
0.8124200899 -6.8027119647e-04 0.4901100922
0.8026216818 1.7967513856e-04 0.7373431483
0.8124127254 7.7963921168e-04 -0.0097344015
0.8023749726 0.2491822105 0.2363576519
0.8124274543 0.2508720301 0.4931322806
0.8023933837 0.2468271383 0.7355186044
0.8123206697 0.2493813957 -0.007486964
0.8324882311 0.0023451959 0.4932307802
0.822527805 0.0015055586 0.7434142213
0.8324109043 0.0014168366 -0.0096777505
0.8225057117 0.2492928689 0.2418193162
0.8323519887 0.2498311897 0.4941034682
0.8223768337 0.2516987138 0.744233517
0.8323593531 0.2493722826 -0.0067684499
0.8224615249 7.9513139454e-04 0.239885226
0.8425480773 0.0011599788 0.7418234989
0.8425038906 0.2498409537 0.2441492458
0.8423602837 0.2489120737 0.7440714989
0.8624652472 -5.0289221206e-04 0.2491147299
0.8425186195 0.4995410929 0.747337635
0.852534279 0.0016826122 0.4945793961
0.8625094339 0.0027675857 0.7474158823
0.852615288 2.9866551782e-04 -0.005804323
0.8625683496 0.2492082477 0.2489775669
0.842478115 4.935854158e-05 0.24696615
0.8523906721 0.2488905929 0.4960099416
0.8625204806 0.2506110063 0.7481486456
0.8524790456 0.2490650427 -0.0044377379
0.8726392425 -3.1640017892e-04 0.5021629442
0.8926263747 -6.979114551e-04 0.5067712522
0.8726134669 -8.9280051172e-04 5.5787608772e-04
0.882526024 0.2508388325 0.2575194147
0.8926668792 4.688499978e-05 0.0051375916
0.8724035799 0.2497660965 0.4995402775
0.892663197 0.2512736551 0.5048583349
0.8824671083 0.2484121578 0.7514212255
0.8724072621 0.2498494158 0.0010984639
0.8925711413 0.2505602336 0.0033678209
0.902671492 -7.9808989803e-04 0.2543683483
0.9126613759 3.612200881e-04 0.5079339156
0.902590483 -0.0014997296 0.7559402395
0.9025315673 0.2496704095 0.2577633623
0.9125361801 0.2494940069 0.5115728772
0.9026162586 0.2516206019 0.7585306868
0.9025794363 0.5005780277 0.757879853
0.9125730024 0.2508036822 0.0104421169
0.9226843998 -0.0018645119 0.2643582322
0.9225849797 -0.0013310731 0.7648705624
0.9226659887 0.2505719504 0.2631955688
0.9225997086 0.2493605658 0.7618051078
0.9425352896 0.0010558948 0.2679253903
0.9325269946 0.0018630505 0.5147092147
0.9424616451 -0.0014821544 0.7674094584
0.9325638169 0.0028490824 0.0148824232
0.9425537008 0.2509996128 0.2636880668
0.932582228 0.2505439603 0.5164168478
0.9425426541 0.2503734161 0.7681238106
0.9325748636 0.2495525908 0.0161582231
0.9525767247 0.0026068706 0.5210223941
0.9523594733 0.0012030054 0.0189702484
0.9625887019 0.2486165505 0.2695869956
0.952484669 0.2513530689 0.5172361435
0.9725196702 0.2512339483 0.5208428855
0.9625666086 0.2493651224 0.7703018483
0.9525877714 0.2503154832 0.0169125275
0.9726227726 0.2484909206 0.0212004817
0.9625076929 -5.402557119e-04 0.2660824354
0.9824911429 0.5023537703 0.774322841
0.982395405 0.5002369393 0.2722078212
0.982395405 -1.3068926424e-04 0.2753984716
0.9925583536 8.7272249524e-04 0.5250728447
0.982524283 0.2509820376 0.2705360898
0.9926430448 -3.9386109321e-04 0.0240427012
0.9923816067 0.2507822014 0.5217082091
0.9824359095 0.2528834101 0.7722663168
0.9923963356 0.2494783845 0.0228828915
0.0124674158 0.7494046161 0.0230925944
0.002331863 0.4992546828 0.7704169179
0.0124359327 0.4987658328 0.0239867314
0.0223431506 0.7514875986 0.2698465927
0.0025115557 0.752633239 0.277200922
0.0124981992 0.7506999708 0.5232133197
0.022475048 0.7516047664 0.7689219335
0.0224847322 0.4997617589 0.271719926
0.0025360057 0.7487211374 0.7747370916
0.0124976837 1.0000785496 0.0217568663
0.0524336898 1.0005602393 0.5157853457
0.0524631476 0.999518748 0.0130118515
0.0323268852 0.7495152745 0.0170062402
0.0424714226 0.4992260418 0.7687332193
0.042409193 0.7502833743 0.2647964173
0.0324130493 0.7495087652 0.5183177979
0.0423491726 0.7497170634 0.7668856615
0.0524631476 0.7503224302 0.0173007263
0.0524403178 0.7500230015 0.5153167822
0.0523880302 0.5013708629 0.5106329885
0.0424898337 1.0007229723 0.2650063043
0.0324756472 1.000065531 0.5157144628
0.0324594454 0.998848288 0.0172874703
0.0723803175 1.000046003 0.5102537191
0.0625550292 1.0022461533 0.763061668
0.0724443883 0.9997270463 0.0082625142
0.0724981488 0.7504330887 0.0108467937
0.0623841738 0.7523663569 0.2625778751
0.0723832633 0.7508171386 0.5124372801
0.0623815963 0.7505567658 0.763942641
0.0625314629 1.0005862766 0.2626911036
0.0825550492 1.0015171094 0.2565178488
0.1024302417 1.0004495809 0.7501793942
0.0824210161 0.9998116675 0.7589246851
0.0924333616 1.0009507986 0.0040420368
0.0924296794 0.7497821566 0.0066579835
0.0924550867 0.5006444227 8.9925542236e-04
0.1024777424 0.7496714982 0.2522952541
0.0823241735 0.7519237231 0.2586240831
0.0924926455 0.7491442432 0.5052274782
0.1023286122 0.7509082691 0.7520794237
0.082405919 0.7498732871 0.7580317449
0.0925508247 0.4970154765 0.5054134307
0.1125357475 1.0002998665 3.6908827101e-04
0.1124963477 0.7509147784 -0.0013838178
0.1225908069 0.4995072444 0.7460129535
0.1224530915 0.7508561945 0.2487419043
0.112414234 0.7488383052 0.4993322316
0.1225208445 0.7505112005 0.7508007702
0.1125136542 0.9991086608 0.5012589573
0.1224983829 0.997162374 0.7439950927
0.1524267936 0.9998442141 0.4898670652
0.1323417142 0.9995447853 0.4942811357
0.1424656311 0.9963942742 0.7447370616
0.1524054367 0.9986530084 -0.0103189736
0.1323789047 1.0006904257 -0.0026045776
0.1524724533 0.7493590508 -0.0047784912
0.1325865823 0.7479986028 -0.0028153759
0.1424961936 0.7494046161 0.245979313
0.1526120097 0.749931871 0.4954778597
0.1324518128 0.7497300821 0.4988259253
0.1426346454 0.4992885313 0.2437745791
0.1424645265 0.750459126 0.7452774285
0.1725155554 0.7490010382 -0.0078980212
0.1625175706 0.5000234336 0.7430901852
0.172310087 0.5016663861 -0.0077157095
0.1625201481 0.7493915974 0.2448737241
0.1824259031 0.9984447102 0.7394769993
0.1725799943 0.749769138 0.4921555697
0.1624748567 0.5005253022 0.2410819501
0.1625720675 0.7506869522 0.7415252385
0.1825422615 0.7524249408 0.2405949754
0.1824811365 0.7509863809 0.7409075447
0.1623511339 0.9995252574 0.2389858419
0.1724452248 1.0011460782 0.4937582593
0.1724864658 0.9999809098 -0.0096351103
0.1924069497 0.9986269711 0.4915415582
0.2024148765 0.9996294065 0.7392717151
0.1924437719 0.7514225054 -0.0095856856
0.2025625338 0.7490205661 0.2404891114
0.1924548186 0.7513183563 0.4900134337
0.2025518553 0.7499969642 0.7382839575
0.2325244528 0.7525876738 0.996428375
0.2324710605 0.5013064206 0.9999172858
0.232508251 0.752997761 0.4973751275
0.2324975725 0.4999277465 0.4951749965
0.2224609243 1.0026952965 0.2441787036
0.2125244327 1.0010549477 0.4887099251
0.2124846647 0.9985879152 -0.0133691562
0.2125189094 0.7509538343 -0.0110611726
0.2325108285 1.0014585256 0.9981129942
0.2225500342 0.7509603437 0.2432360533
0.2125807708 0.7532125686 0.49382546
0.2225047428 0.5013168355 0.2461275226
0.222387648 0.7509277971 0.7454063065
0.2525244728 0.7504330887 1.0011416265
0.2526161603 0.5019521452 1.000276303
0.2425537365 0.7501922438 0.2482484858
0.2525465662 0.7507455361 0.4970685821
0.2425736205 0.4995645265 0.248962838
0.2425946092 0.7500490388 0.7475355547
0.2524975925 0.5015309922 0.500575904
0.2626274011 0.5016175662 0.7521042788
0.2624263514 0.7501531879 0.2461753916
0.2625471285 0.7509147784 0.7496822935
0.2825180589 0.5005969047 0.7574591585
0.2824694535 0.7531539847 0.2565261338
0.2826988563 0.5001230262 0.2586323681
0.2824341041 0.7505958217 0.7532015826
0.2725937187 0.7492353737 1.0033141409
0.2725679431 0.5006092724 1.0041794644
0.2726368008 0.7483435968 0.4998532668
0.2825858119 1.0011005129 0.2552171018
0.2825379429 1.0000004378 0.7566702412
0.3125337384 1.001569184 1.0021174168
0.2924574963 0.7510970394 1.0074290304
0.3026348056 0.5031843596 0.7589900447
0.2924928457 0.5025737853 1.0091320607
0.3024131354 0.7502117718 0.256723133
0.2924843765 0.7520539095 0.5086878517
0.3025051911 0.5024540138 0.2541989659
0.3024002476 0.7529717237 0.7603883707
0.3023671076 0.9998311954 0.2538399486
0.3125237964 0.7517674994 1.0068859018
0.312505017 0.5032592168 1.0076591696
0.3124939704 0.7506478963 0.5072886052
0.2924792214 1.0027799176 1.0080181868
0.3323559068 0.7518781579 1.0012705045
0.3324722652 0.5010369348 1.0012520933
0.3225435063 0.7520148536 0.2536254589
0.3324162954 0.7481027519 0.4999793831
0.3226270929 0.7503224302 0.7538929209
0.3325613751 0.4984110749 0.5032261874
0.3524991655 1.0019076687 0.4984264036
0.3423605196 1.0001957174 0.7501766326
0.3625070923 0.7512597724 0.2477707168
0.3524678666 1.001080985 0.9986561227
0.3625291857 0.750602331 0.7478927308
0.3624776345 1.0039190487 0.2489435063
0.3524152107 0.7497300821 0.9967597755
0.3623966255 1.0005602393 0.7505733926
0.3524037958 0.5008162688 0.9978092104
0.342508177 0.7505177099 0.2509641288
0.3523868576 0.7508627039 0.4971873339
0.3425564141 0.7508627039 0.7483364392
0.3925467063 0.999557804 0.489071704
0.3724343783 0.7504851633 0.9924883913
0.3724159672 0.50309388 0.9940073102
0.3826341492 0.7510254369 0.2392251867
0.3725595741 0.750765064 0.492693175
0.3824794956 0.503774755 0.239731493
0.3824426734 0.7541108548 0.7387828993
0.3825236824 1.0006058046 0.2423385103
0.3824647667 1.0019467246 0.7404279346
0.372526434 1.0000004378 0.9972844929
0.3724306961 0.5011996678 0.4904746327
0.3925651174 0.7484347273 0.9863666876
0.3924877907 0.7517219342 0.485564382
0.4125522497 0.7517154248 0.9832275885
0.4125485674 0.7488968891 0.4833752976
0.4126479876 0.5014131735 0.4864002477
0.4025402724 0.9998962886 0.2337745691
0.4024997679 0.4981083915 0.7371102474
0.4026249636 0.7505177099 0.2357583693
0.4024629456 0.5018043837 0.2357436404
0.402485039 0.7484151993 0.7341184373
0.432605662 0.7481938824 0.9794256883
0.4227998895 0.7496389516 0.2330022218
0.4326240731 0.7499709269 0.4802536891
0.4225347691 0.497844113 0.2314427984
0.4227151982 0.7497821566 0.7332660016
0.4427722928 0.7495478211 0.2291681022
0.4427907039 0.750114132 0.7263065912
0.4325835686 1.0004886368 0.4801027177
0.4224758534 1.0012306993 0.7283916526
0.442661826 0.9995968599 0.2267976681
0.4527621767 1.0007685376 0.9758171051
0.4626710516 0.9991997913 0.2263613241
0.4726425243 0.9994276176 0.4775969617
0.4626563226 0.9990435676 0.7265017492
0.4525265141 0.7491572619 0.9723373999
0.4526075231 0.7492288644 0.4741375088
0.4726498888 0.7495348025 0.9749057538
0.4628036118 0.7489619823 0.2242642954
0.4727272155 0.7489750009 0.4770252959
0.4627226027 0.7482915222 0.7248143684
0.4724841885 0.4983746227 0.4759813843
0.48237097 1.0008596681 0.2246214715
0.4923645361 1.0026171846 0.4810886342
0.4924639563 1.002239644 0.9817915197
0.4826729127 0.4988491521 0.7293250974
0.4925412831 0.7511165674 0.4821040085
0.4824814368 0.7495413118 0.22627203
0.4925412831 0.7506544056 0.9804290954
0.4824482968 0.7496454609 0.7278337951
0.5124069018 1.0030988743 0.4889290176
0.5124694996 1.0020248364 0.9881801848
0.5024980269 1.0005862766 0.2340304839
0.5225072525 0.7500425295 0.7377417494
0.5224299257 0.9993364871 0.2396375962
0.5223452345 1.0000590216 0.7402097626
0.502402289 0.7493330135 0.2308030113
0.5025495781 0.5008696452 0.2326846297
0.5025053913 0.75214504 0.7308403341
0.5025716714 0.5010128503 0.7337851957
0.5125026397 0.7481873731 0.9823806761
0.5125689198 0.4997910508 0.9832275885
0.5125210508 0.7484217087 0.4816464917
0.5224593835 0.5025842002 0.2354914078
0.5222863188 0.7528285186 0.2384436339
0.5323645762 0.7520148536 0.4891416663
0.5325118653 0.4984774699 0.4926554321
0.5325118653 1.0038995208 0.9928658196
0.54232132 0.9984512195 0.2422667068
0.552458493 1.0013739044 0.4953848834
0.5524363996 0.7495087652 0.993777171
0.5424870202 0.9988092321 0.7435992532
0.5424281046 0.7520929654 0.2413995422
0.5524437641 0.7511035487 0.4944311864
0.5424317868 0.7496910262 0.7410760067
0.5324050807 0.7515006173 0.988410324
0.5624041901 0.9987701762 0.2483350182
0.5622495366 1.000046003 0.7458868372
0.5623673679 0.7508952505 0.2478268707
0.5624005079 0.7505372378 0.7471148602
0.5724124852 1.0001371335 0.5032924675
0.5723903918 1.0026106753 0.9987942063
0.5723057006 0.7509017598 0.9999264913
0.5724051207 0.7482980316 0.4986878417
0.6023305856 0.9999874191 0.2641557097
0.5925432243 0.7519953256 1.0071988911
0.5924658975 1.0009377799 0.5110665709
0.6025257437 0.9999158166 0.7633755779
0.5925763643 1.0001045869 1.0109915857
0.6025073326 0.7531084194 0.2618046073
0.6024594636 0.5021610944 0.2596164434
0.5924364397 0.7522101332 0.5082257322
0.6025073326 0.7505893124 0.7612619792
0.5824539202 1.0033136819 0.2564948349
0.5824281446 1.0018360661 0.7568571142
0.5824281446 0.7505372378 0.2524121648
0.5824686491 0.7489554729 0.7543844983
0.612604001 0.7508496852 1.0090952384
0.6125634965 0.7489945289 0.510413896
0.6125340387 1.0017058797 1.0084140263
0.6225681093 0.9988547973 0.2566890724
0.6225717916 0.7483110502 0.2564672181
0.6226049316 0.7478684164 0.7553639709
0.6425589238 0.9969866224 0.7541506769
0.6524530698 0.9986660271 0.9979380883
0.6326390022 1.0003519411 1.0028446568
0.6325506288 0.7472239937 1.0037744193
0.6325690399 0.4989604615 0.9994570073
0.6325911333 0.7492158458 0.5037426199
0.6526445456 0.74840869 1.002669751
0.6525267143 0.4974457426 0.9980577607
0.6425699705 0.7493720694 0.2524250526
0.6425994283 0.4983212462 0.2518727185
0.65258563 0.7500815854 0.4990533028
0.6426325683 0.7504981819 0.7494374253
0.6725285754 0.7490661314 0.9920833462
0.6725506688 0.4986245806 0.9934917983
0.6826068328 0.999011021 0.2445634964
0.6724991176 0.9980411323 0.4921334763
0.6824742726 1.0009117426 0.7444148667
0.6826252439 0.7482069011 0.243999195
0.6725359399 0.7490726407 0.4958451619
0.6826510195 0.7509733623 0.7451439478
0.6624687292 0.7493460322 0.244242222
0.6625828783 0.7473086148 0.7428388732
0.7024098536 0.9992388473 0.2404707002
0.7024503581 0.5004413319 0.7421852778
0.692456792 0.7490466034 0.9956643127
0.6924862498 0.9998572327 0.494270089
0.702479816 0.9993625243 0.7439656349
0.6924899321 1.0000199657 0.993648293
0.7025866006 0.7489229263 0.2398484038
0.7025681894 0.497969092 0.2393973309
0.692423652 0.7488252865 0.4944210603
0.7024429937 0.7482003918 0.7402272532
0.7225590039 0.4994206705 0.7354247076
0.732471561 0.7472174844 0.9816166138
0.7224264437 0.7502182811 0.2358043971
0.7225295461 0.4976377676 0.2342652259
0.7324273742 0.7499123431 0.484342803
0.7225111349 0.7491507526 0.7339039476
0.7223896214 0.9984121636 0.7325829484
0.712407102 0.7488383052 0.9904355493
0.7123445041 0.7477772859 0.4912488211
0.7425166783 0.4987918701 0.7301057296
0.7424025292 0.7478553978 0.2310791784
0.7424209404 0.5004296152 0.2316701759
0.7425093138 0.74974961 0.7305614053
0.7525176088 0.501609755 0.4800981149
0.7524623754 0.7478163418 -0.0194076783
0.7624596238 0.5001855156 0.7321502866
0.7625222216 0.748773212 0.2258890784
0.7623712503 0.4994284817 0.2290972193
0.7523519086 0.7481287892 0.4784935842
0.7624890816 0.7497170634 0.727460049
0.782527765 0.7485779323 0.2269329899
0.7825645873 0.4987892664 0.2305839187
0.7725673389 0.7480311494 0.474504811
0.7825719517 0.748590951 0.7276312726
0.7726188901 0.9990045117 0.4765861902
0.7724495076 0.4983550947 0.4766349797
0.7725599745 0.7484802925 -0.0234874946
0.782398887 0.4980081479 0.7274075773
0.7725010588 0.4986753533 -0.0182553251
0.7926428446 0.7463061795 0.4791462591
0.8124200899 0.501398202 0.4905464362
0.8125342389 0.7510449648 -0.0065945659
0.8025333084 0.4992989462 0.7356557674
0.8025774951 0.7483240688 0.2391745561
0.8025774951 0.4999622459 0.2352244463
0.7926133868 0.4990496392 0.4844284148
0.7925213311 0.7446528121 -0.0187005985
0.8124495477 0.7501987532 0.4900033076
0.7925471067 0.4983134351 -0.0194091512
0.8024964861 0.7487797213 0.7375060869
0.8325766046 0.500182261 0.4928625574
0.8325397823 0.7507455361 -0.0076800572
0.8224026093 0.500594301 0.7421374088
0.8324329977 0.5015785102 -0.0055303745
0.822332647 0.7496519702 0.2385209607
0.8224909828 0.501283638 0.2450651999
0.8324514088 0.7514029775 0.4942553601
0.8223878804 0.7500425295 0.7421254416
0.8626014896 0.7489554729 0.7451853728
0.8624652472 0.4981298722 0.7507713123
0.852438541 0.7494566906 -0.0063329621
0.8525821479 0.4996289687 -0.0015327455
0.8625941252 0.751292319 0.244105059
0.8626383119 0.4970538815 0.2524103237
0.8526005591 0.7496584796 0.4952974305
0.8425223017 0.7504135607 0.2440765218
0.8424155171 0.5006600451 0.2429442367
0.8425075728 0.7509798716 0.7427891631
0.8525195501 0.5016533674 0.4935041856
0.8725766446 0.4986734005 0.5006467869
0.8825481174 0.7496910262 0.7516835843
0.8925785057 0.4990392243 0.5061305446
0.8725876913 0.7500360201 -0.001123963
0.8927184304 0.7486039696 0.002043968
0.8826143975 0.4977503788 0.75293278
0.8725361401 0.4984475271 0.0026297184
0.8925416835 0.4995352345 0.0074194682
0.8825775752 0.7496649889 0.252972784
0.8826917242 0.4984032637 0.2523873098
0.8724882711 0.7482003918 0.5000898499
0.8927405238 0.7476340809 0.5050129884
0.8827322287 0.9980671696 0.2490714637
0.8826438553 0.9994536548 0.751000531
0.9125877313 0.7491702805 0.5084153669
0.9126687403 0.9992388473 0.0104602518
0.9124919934 0.4989240093 0.5121491458
0.9026567631 0.7489750009 0.7580768522
0.9126392825 0.7501401693 0.0088584828
0.9125877313 0.5024169107 0.0116110401