POSCAR file written by Ovito 3.7.11
1
271.6850814496 0.0 0.0
0.0 15.3688290752 0.0
0.0 0.0 10.867403258
Sr Ti O 
800 800 2400 
Direct
0.0125333775 0.251539302 0.5062228333
0.0223101013 0.250049273 0.7531833938
0.0025773285 0.2505476845 0.7532836938
0.0124528799 0.2491162156 1.0076370047
0.0224751822 0.0021386494 0.2532341538
0.0024543184 1.0009034821 0.2592089022
0.0124716885 0.002500746 0.506024994
0.0224699555 0.001045788 0.7553789505
0.0025132101 0.0020701341 0.7563727482
0.0123887616 0.9998494005 1.0045175843
0.022433958 0.251312219 0.256367377
0.0023876235 0.2501201958 0.2532470364
0.032396117 0.249133133 0.5024187967
0.0422733616 0.2495105202 0.7481978422
0.0325002818 0.2516785448 1.0043519513
0.0424279524 0.9997648137 0.2504174736
0.0324781974 0.0014864852 0.506432635
0.0424113891 0.9986847054 0.7506556511
0.0323394338 0.0024640483 0.9993737612
0.0424798507 0.2525445835 0.251696528
0.0724288636 0.2495118215 0.4963143025
0.0523964791 0.2518041237 0.4985669105
0.0623620613 0.2487720124 0.7471801198
0.0725370771 0.2526617037 0.9980302939
0.0523872773 0.2503394708 0.9983063488
0.0624316271 0.9999079606 0.2462748096
0.0723475194 1.0016647633 0.4958146431
0.052511318 0.0019641404 0.5014940127
0.0623447618 0.9998233738 0.747111106
0.0723898478 0.001302021 0.9965211938
0.0523994237 0.9991661995 0.996723634
0.0623981325 0.250006329 0.2493215356
0.0924958469 0.2502041319 0.4964918978
0.1024636375 0.2492359385 0.7475573948
0.0824065921 0.252635677 0.7474736582
0.0923986756 0.2517950144 0.9969076707
0.1024728393 0.9994199599 0.2478243978
0.0824551778 1.0002593211 0.2470330404
0.0923637086 0.0023806978 0.4966722537
0.1023013172 0.0022989739 0.7484564136
0.0823782505 1.000584655 0.7468387319
0.0924601438 0.9978518508 0.9965856066
0.1025700107 0.2492053571 0.2481878701
0.0823418113 0.2494356934 0.2454972549
0.1125006259 0.2509445917 0.4979724723
0.1224897647 0.2508131569 0.7449081879
0.1124744927 0.2513206776 0.9947452405
0.1224249838 5.5999956595e-04 0.2454558467
0.1123986696 0.998873399 0.4950683747
0.122476146 0.9989579858 0.7464660577
0.1125171891 0.0011626479 0.9963647627
0.1223951699 0.2501468732 0.247161866
0.1524468752 0.2484401719 0.497588756
0.1325525182 0.2473782823 0.4972252837
0.1425151558 0.2507962395 0.7486984218
0.1524273673 0.2505307671 0.9980763031
0.1323824684 0.2481291528 0.9978002482
0.1425203088 1.7148590816e-04 0.2474471227
0.1524627023 0.9990100392 0.4971507489
0.1324328944 7.1681047121e-04 0.4966492491
0.1423664542 0.0011736442 0.745793404
0.1524417221 1.0000706275 0.9970917073
0.1324380474 2.8404090459e-05 0.997376964
0.1425486504 0.2483184971 0.245331622
0.1725650207 0.2487010896 0.4976991779
0.1625258239 0.2505659032 0.7483809586
0.1724453969 0.251364923 1.0004595771
0.1623749139 -7.416610812e-04 0.2473505035
0.1723695738 -7.7497526522e-04 0.4964652125
0.1624592026 0.9994655066 0.7487306282
0.1724707939 -1.0836625097e-04 0.9995946051
0.162501531 0.2490069034 0.2501165737
0.1924693156 0.247408213 0.4964403676
0.2025040956 0.2471525006 0.7463961238
0.1824742876 0.2513193763 0.7478960222
0.1924648988 0.2468063454 1.0004871826
0.2025604108 -4.5536731227e-04 0.2469382615
0.1824297508 -0.0011922484 0.2471535844
0.1924520162 -0.0012355178 0.4992312827
0.2023785826 0.9987692922 0.7456158086
0.1825324432 0.9981316379 0.7480690166
0.1923390177 -0.0018907076 1.0006804211
0.2025258119 0.2506218606 0.2476063144
0.1825099907 0.2453351859 0.2476210373
0.212475935 0.2480569287 0.4964238043
0.2226583122 0.2500844091 0.7498136836
0.2126279492 0.2494233307 0.9997142289
0.2223921953 0.9983853983 0.2490031522
0.2124383915 0.9985675852 0.496005121
0.2226145115 1.0010856691 0.7469611162
0.212571634 0.9981967047 0.9943587637
0.2225478903 0.2491884397 0.2517204527
0.2526305137 0.2520513774 0.5003263005
0.2327081832 0.2499562276 0.4965609115
0.2425232234 0.2489834794 0.7493048224
0.2525234044 0.2505502871 0.9975425969
0.2325120001 0.2512386935 0.9984351745
0.242636958 0.9989254525 0.2482955315
0.2525377593 4.6753969194e-04 0.4995892339
0.232561322 4.8608372015e-04 0.4968167224
0.2426203947 1.0013134028 0.7503243852
0.2526003317 9.167606421e-04 0.9970180926
0.2325771491 0.0025783706 0.9967328359
0.2426104567 0.2511840374 0.247880529
0.2725660949 0.2528126586 0.4966648922
0.2626454177 0.2490693675 0.7477662764
0.2726408138 0.2503570388 0.997864661
0.2625015011 1.0002267878 0.2443369041
0.272606951 1.4805136434e-05 0.4950435297
0.2625887344 0.9982943048 0.7487720364
0.2725756648 0.0017820836 0.9988584587
0.2626126592 0.2502854654 0.2478161161
0.2926441204 0.2488214632 0.4961891576
0.3025423452 0.2497779446 0.7508323262
0.2827087203 0.251357115 0.7489707959
0.292707429 0.2517494676 1.0028244475
0.3026616009 0.0013625331 0.2493362585
0.2825754778 1.0004415081 0.2502021507
0.2924777514 6.6866106461e-04 0.4975390661
0.3024271383 0.0021242046 0.7487251071
0.2824253039 0.998873399 0.7489864391
0.2924424163 0.0017373827 0.9987940459
0.3025890905 0.2488117031 0.248855923
0.2826247996 0.2511820854 0.2494540419
0.332621656 0.2519420652 0.5002821317
0.3125679233 0.2500486224 0.4999251007
0.3226251557 0.2487609511 0.7501532311
0.3324898858 0.2497141792 0.9978462573
0.3125116081 0.2507877808 0.9981407159
0.322611537 -2.1377441135e-04 0.2457466245
0.3324998238 -7.6124617767e-04 0.4973338653
0.3124898918 9.190379789e-04 0.4945006218
0.3224782945 0.0010727907 0.7465635971
0.3324136946 3.0819118282e-04 0.9978186518
0.31266215 0.998853879 0.9961899279
0.3225147337 0.2490381355 0.248614835
0.3526146566 0.2499763983 0.4977359853
0.342586502 0.2510057545 0.7480092047
0.3525425142 0.2485891748 0.99846278
0.3425644176 0.0013964328 0.2456527659
0.3525550287 -4.1450538343e-04 0.4965958785
0.342586502 0.9994720133 0.746582921
0.3525299998 -8.1616252789e-04 0.9975978079
0.3425588965 0.2489711167 0.2453785513
0.3725193196 0.2503908736 0.4945751566
0.3824094468 0.2477673816 0.7469224685
0.3625224513 0.2516063207 0.7470558951
0.372556127 0.2491285783 0.9994565776
0.382516188 0.9975850771 0.2490059128
0.3624341137 0.9983398516 0.2460392427
0.372445705 2.9680449883e-04 0.4974562496
0.3824977844 -1.4623510859e-04 0.7491851986
0.3626439154 0.9988864124 0.7501697944
0.3725266811 -0.0011275721 0.9968156523
0.3824720192 0.2489086526 0.248906533
0.362636554 0.2511092106 0.2491062127
0.3924283996 0.2496855498 0.4974902964
0.402576178 0.2478636804 0.7462286505
0.3924725683 0.2499106808 0.9966776249
0.4025504128 0.99728577 0.2470818101
0.3925645866 0.9975590504 0.4965618317
0.4025724972 4.7079303022e-04 0.7470853409
0.3925829903 0.9989840125 0.9972205329
0.4024804789 0.2496627764 0.2444896545
0.4326293555 0.2502678974 0.4944426502
0.4124552629 0.2501429692 0.4952238856
0.4225036615 0.2518099797 0.7454998656
0.4325115721 0.2494838428 0.9970456981
0.4124479014 0.2473971517 0.9945704058
0.4224926193 0.9990816127 0.2471729082
0.4325520602 0.9970189962 0.496090698
0.4124883895 -0.0011420169 0.4973522689
0.4225993606 0.9983723849 0.7464936632
0.4325594216 0.9998494005 0.9949292771
0.412495751 -7.1081943427e-04 0.9951225156
0.4224742157 0.2487713618 0.2471637064
0.4524500979 0.2481167901 0.4914520554
0.4425710129 0.248071894 0.7467936429
0.4525237125 0.2492430958 0.9928496635
0.4426335854 0.9969669428 0.2431167414
0.4524721823 7.7543562707e-04 0.4953232654
0.4425047598 6.1205297848e-04 0.7478113653
0.4524574594 0.9977802774 0.9916994347
0.4425452478 0.2499640356 0.2434019982
0.4724401539 0.2509556531 0.4933715572
0.4824186186 0.2496901045 0.7352241817
0.4624469663 0.2507207621 0.7432905061
0.4725064071 0.2494955549 0.9898682705
0.482455426 0.001386868 0.2399016219
0.4624285626 9.2502412134e-04 0.2417171431
0.4723554971 0.9998168671 0.4900285323
0.4824701489 1.0002072677 0.7417289555
0.4624690507 9.4070521186e-04 0.7432656612
0.4725100878 6.2265886129e-04 0.9908988755
0.4824591067 0.2512068108 0.2408926591
0.4624064782 0.249612675 0.2412046011
0.512460754 4.681903596e-04 0.4862833873
0.5124349889 4.0181175044e-05 0.9922607464
0.4924486136 0.2496035657 0.4879111911
0.5025743076 0.2501475238 0.7381706078
0.4925332704 0.2504260096 0.9884603905
0.5123981816 0.2503258068 0.4880050498
0.5123724165 0.250035609 0.9894541882
0.502500693 -4.0442003475e-04 0.2417005798
0.4925479934 -0.0014158178 0.4868539008
0.5023461022 0.0015104298 0.7396309382
0.4924412521 2.5646310412e-04 0.988000299
0.5024086747 0.2487167057 0.2352740215
0.5225422792 0.9994329732 0.242662171
0.5324692137 0.00359133 0.4911723198
0.5225422792 1.0008514287 0.7403781269
0.5325097018 0.9983268382 0.9914417835
0.5224208151 0.2505951832 0.2393301883
0.5323882376 0.2511658187 0.4933862801
0.5224171344 0.2490303275 0.7416166932
0.532314623 0.2527632078 0.9897486467
0.5425249738 0.0022560299 0.2437571888
0.5624782225 0.0020364946 0.2444151197
0.5523525285 0.0019293296 0.494974516
0.5424844858 1.0005976683 0.7436309738
0.5623641198 0.9981836913 0.7436429362
0.5524408661 1.1411156446e-06 0.9936134154
0.5423335757 0.2500284517 0.2397746367
0.562334674 0.2514469072 0.2453886733
0.5523267634 0.2503518335 0.4944877392
0.5425176123 0.253111315 0.7436963068
0.5624414152 0.2494695281 0.7451446749
0.552400378 0.2523936286 0.9942207362
0.5824866822 0.0015361312 0.2459674684
0.572445645 -3.425415406e-04 0.495562513
0.5825271703 0.9992703063 0.7447131091
0.5724530065 7.7667189562e-04 0.9962635425
0.5824682785 0.2511723254 0.2454033963
0.5723904341 0.2492300825 0.4942494118
0.5823173685 0.2529571068 0.7472960628
0.5723462653 0.2496315444 0.9969168725
0.6023515933 1.0016582566 0.2511573007
0.5923510442 1.0006432151 0.4972657717
0.6125582635 0.0020694835 0.4964762547
0.6024325694 0.0015422475 0.7460151681
0.5925240386 0.0024895545 0.9948004515
0.6125288176 1.556746841e-04 0.9987572385
0.6024951419 0.2495476083 0.2445807526
0.592505635 0.2527963919 0.4979467072
0.6125582635 0.2506303192 0.4964606116
0.6024951419 0.2516108754 0.7488428905
0.5925093157 0.2505483351 0.9965027901
0.6124294378 0.2513948537 0.9950489009
0.6226397887 9.8254314219e-04 0.2463530251
0.6324305361 -7.6613669326e-05 0.4975602303
0.6225036016 7.0561898751e-04 0.7485944411
0.6325299158 0.9993874265 0.9951777266
0.6224483906 0.2497798966 0.2462950536
0.6324563012 0.2490823809 0.4950380086
0.6224999208 0.2505789165 0.7465332311
0.6325078314 0.2511118133 0.9976530189
0.6424826154 1.0005260949 0.248333259
0.662561009 0.0020597885 0.2464744893
0.6524721223 0.0017740803 0.4992082781
0.6426445676 1.001450043 0.747915346
0.6625168402 1.0008774554 0.7493968407
0.6525494177 1.0000966542 0.9965027901
0.6424789347 0.2516909075 0.2466879718
0.6626014971 0.2510857866 0.247749863
0.6525273333 0.2493459013 0.4964633721
0.6424494888 0.2499334542 0.7443717212
0.6624579485 0.2512432482 0.7450259713
0.6526119901 0.2491318316 0.9968248542
0.6823780706 0.9988994257 0.2471857908
0.6725578774 0.9990035326 0.5003603473
0.6826209989 0.0019496955 0.7495201452
0.6724511362 5.7912919506e-04 0.9961439187
0.6824627275 0.2491305303 0.2462113169
0.6724695398 0.2512874936 0.4971387865
0.6826025953 0.2513955044 0.7473328702
0.6724437747 0.2504357696 0.9963095517
0.7025374403 3.4358750335e-04 0.2495432997
0.6924927224 0.9993744131 0.496819483
0.7124864592 0.9980600645 0.499006758
0.7024196569 0.9989840125 0.7480165661
0.6924927224 0.9994850266 0.9970641018
0.7124975014 6.434802263e-04 0.998840055
0.7025227174 0.2495899017 0.2492341182
0.6924375115 0.2497376032 0.4998754108
0.7124975014 0.2512074615 0.4984712115
0.7025263981 0.2525244128 0.7456958646
0.6925479334 0.2485384227 0.9962175334
0.7125011821 0.2491090583 0.9967604414
0.7224833276 5.7841346063e-04 0.2488807679
0.742399769 0.998613132 0.2515769042
0.7324728345 -1.9041544248e-04 0.4976807743
0.7224612432 0.9985871053 0.747668737
0.742535956 5.2362724394e-04 0.7493710756
0.7325427684 0.9990490793 1.0005792009
0.7224612432 0.2519420652 0.2499224151
0.7425138717 0.2502503293 0.2505242148
0.7326016601 0.2492626158 0.4992515267
0.7225495808 0.2503707029 0.7485833989
0.7425028295 0.2505210071 0.7486174457
0.7324949189 0.2513636217 0.9983431562
0.7625223313 -4.8855136276e-04 0.2514894868
0.7525144208 -0.0013432684 0.4992322029
0.7625591387 -2.5353020517e-04 0.7495164645
0.7524739327 0.9992117462 1.000247935
0.7625260121 0.2497206859 0.2508379972
0.75251074 0.2491129623 0.4970495287
0.762485524 0.2509790771 0.7494060425
0.75251074 0.2508086022 0.9977818445
0.7824682186 0.0015335285 0.2484077938
0.7724860731 0.9999079606 0.5009299405
0.792560786 0.9991727062 0.500690693
0.7825786405 4.2329429129e-04 0.748000923
0.7724823924 1.000584655 0.9979934866
0.792505575 0.0018869061 0.9989412751
0.7825970442 0.2529688188 0.2507358569
0.7725449648 0.2502496787 0.4990104388
0.7925166172 0.2478734404 0.5031227367
0.782641213 0.2472975995 0.7513954782
0.7725302419 0.2506010392 1.0013981638
0.7924982136 0.2485071907 0.9996130087
0.8024766783 0.9978648642 0.2500383581
0.8125766072 -8.9163997606e-04 0.4997410641
0.8025723773 2.5073722874e-04 0.7494180049
0.8124661852 0.998613132 1.000413568
0.8024619553 0.2505327191 0.2483424608
0.8125839686 0.2502574867 0.4995515064
0.8024729975 0.250012185 0.749574436
0.8124772274 0.2509035997 0.998729633
0.8224998609 1.0002983612 0.2497586225
0.8424236637 0.9970970763 0.2503871075
0.8325445788 0.001419987 0.5003695491
0.8224777765 -5.9760326201e-04 0.7508654528
0.8425488086 3.9134650934e-04 0.7464264899
0.8324893678 6.6067239606e-06 0.9963739645
0.8225293067 0.2499015715 0.2504064314
0.842626104 0.2486438309 0.2465278599
0.83250041 0.2508020955 0.495970154
0.8226470902 0.2478571737 0.7488373694
0.8424494289 0.246965759 0.7467430328
0.8324856871 0.2500245477 0.9990424953
0.8624284427 -1.9412424812e-04 0.2483406205
0.8524647009 0.9991531861 0.499710698
0.8625241417 0.9974874769 0.7488520923
0.8524462972 6.1185777819e-04 0.9955918089
0.8625425454 0.2484271586 0.2477507831
0.8525088697 0.2491318316 0.4946460107
0.8625609491 0.2518835052 0.7469105061
0.8526082495 0.2503492308 0.9984351745
0.8824994748 0.9991727062 0.2497236556
0.8724216303 0.0020290119 0.4945457107
0.8926104459 0.0032953413 0.4970366462
0.8826062161 0.9990620927 0.7463712789
0.8724473955 4.6357061923e-04 0.9995301923
0.8825804509 0.2513824911 0.2480792885
0.8925589157 0.0013624029 0.9980855049
0.872550456 0.2516362514 0.4949082628
0.8926030844 0.2507663088 0.4955790763
0.8824258602 0.2486360229 0.7454262509
0.8725467752 0.2511469494 0.995858662
0.8924742588 0.2498195873 0.9938710667
0.9024490428 3.0754051517e-04 0.2478878904
0.9226084125 0.0013291538 0.2481409407
0.9124275075 -0.0013429431 0.4949966004
0.9024748079 0.9997778271 0.7444241716
0.9225274364 0.9985545719 0.7484269678
0.9126593936 0.9968303026 0.9989596788
0.902570507 0.2477621762 0.2436679311
0.9224022915 0.2486139002 0.2444537674
0.9124937607 0.2495886003 0.4984325638
0.9024564043 0.2485683534 0.7473715178
0.9224869483 0.2487440337 0.7481380303
0.9125232066 0.2494896988 0.9950765064
0.9426021493 1.0004089747 0.2465793902
0.9326200038 0.9993809198 0.5006244398
0.9426499988 0.9996216668 0.7476853003
0.9325095819 0.9989124391 0.9977358354
0.9425616612 0.2513876964 0.2510754044
0.9325059011 0.2487902311 0.4964504896
0.9426168722 0.252210791 0.7476392911
0.9325684736 0.2507422341 0.9978830647
0.9624817833 0.0020834728 0.2512318355
0.9525916562 1.0017883901 0.5004468445
0.9725338627 0.9999339873 0.5043189746
0.9624523375 0.9998103605 0.751972433
0.9525143608 0.9989189458 1.0021435121
0.9624560182 0.2490817302 0.2507367771
0.9725596278 8.4844053815e-04 1.0020606956
0.9525511681 0.2515380006 0.5002444042
0.972530182 0.2493810373 0.5043521012
0.9626915851 0.2486028388 0.7524122805
0.9525364452 0.2504826177 0.9973493585
0.9725780315 0.2495118215 1.004259933
0.9824792008 0.0020103378 0.2558778396
0.9924760692 0.9994264665 0.5029617047
0.9825638577 0.9983593716 0.7540051173
0.9825969843 0.249146797 0.2555217288
0.9926490636 0.0020829523 1.002309145
0.9924834307 0.2501026278 0.5095023656
0.9824792008 0.2497785953 0.7523855951
0.9924282197 0.2514430032 1.0073609498
0.0124441566 0.7499019269 1.0086308024
0.0224272958 0.5022051127 0.7546336023
0.0025355154 0.5014028395 0.7581284574
0.0125089375 0.5001698243 1.0059070606
0.0223922921 0.7493553661 0.2529930658
0.0024891749 0.7519255033 0.2563480531
0.012518581 0.7488153119 0.5077751821
0.0224765808 0.7515806494 0.7529119398
0.0224592446 0.4988984197 0.2543383734
0.0025141671 0.5000787308 0.2573068839
0.0023663857 0.7503573943 0.7558924127
0.0124345867 0.5002166723 0.5032984917
0.032511324 0.7507217681 1.0025207871
0.0423944577 0.5010814096 0.7513531498
0.0323578374 0.4997716157 1.003772236
0.0424375223 0.7515936628 0.2521317745
0.032506539 0.7501296606 0.5004551261
0.0424426753 0.7478978705 0.7491474711
0.0424868441 0.4999681173 0.2494614034
0.0323736646 0.4996544955 0.5016440026
0.0724480034 0.7518539299 0.9942667454
0.0623727354 0.5008107319 0.7480340496
0.0523828604 0.7497848067 0.9976622207
0.0724399058 0.5014750636 0.9996038069
0.0523611441 0.4983557628 0.999382963
0.0624235295 0.751047102 0.2469870312
0.0724384335 0.7509169684 0.4954382883
0.0524321822 0.7497913134 0.4988990966
0.0623661101 0.5007710412 0.2479357399
0.0723795418 0.5002836911 0.5004689289
0.0623812011 0.7502272607 0.7439042682
0.052335747 0.5020951499 0.4989267021
0.0924682414 0.7513203824 0.996235937
0.1024588525 0.4999290772 0.7471819601
0.0823278245 0.499118996 0.7492873389
0.0923684936 0.5020430964 0.9983799635
0.1024098988 0.7500906205 0.2473081751
0.0824371422 0.7498563802 0.2488678853
0.092335367 0.7525696643 0.4981850346
0.1023616812 0.7519970767 0.7489413501
0.1023819252 0.5008823053 0.2479099748
0.0822508972 0.5002804378 0.24934362
0.0824246277 0.7515676361 0.7473356307
0.0925006318 0.5023879503 0.4982246025
0.1124940005 0.7485160048 0.9965027901
0.1224971262 0.4992972789 0.7472031244
0.1124178094 0.4990448199 0.999760238
0.1224673122 0.7498238468 0.2474498833
0.1123850509 0.7485680582 0.4978418063
0.1224632634 0.49999024 0.2474277989
0.122436026 0.7512748356 0.7468819805
0.1125131403 0.5008335053 0.5012694881
0.1525985213 0.7491276324 0.9986652202
0.1423903789 0.5004118726 0.7468157273
0.132461236 0.7483208045 0.9975333951
0.1525694436 0.4994495352 0.9978278537
0.1323809961 0.499365599 0.9977726427
0.1424728273 0.7508128616 0.2486028726
0.1524788975 0.7483142978 0.4995662293
0.132365537 0.7485615515 0.4943497117
0.1425711029 0.4994970339 0.2458064364
0.1424603128 0.747123576 0.7480092047
0.1524115401 0.4986414059 0.4989340636
0.1325308019 0.4976836231 0.4958827367
0.1725042886 0.74758555 0.9995669996
0.162501163 0.499348031 0.7440202113
0.1726172871 0.4981983013 0.9955734053
0.1625434914 0.7514960627 0.2499334573
0.1725138585 0.7497002199 0.5007265801
0.1624349098 0.500463926 0.2475133759
0.1625191986 0.7493878994 0.749876256
0.1724943506 0.4988053742 0.5018685272
0.1925580213 0.7493748861 1.0008092467
0.2024212791 0.4992575882 0.7493489912
0.182531339 0.4998666131 0.7465507146
0.1924126324 0.496697211 0.9983155507
0.2026262959 0.7492707793 0.2466014745
0.1824176044 0.7485680582 0.2490758467
0.1925035465 0.7480930708 0.4974893762
0.2026557417 0.4995484366 0.2475004934
0.2025339095 0.7503769143 0.7495799571
0.1824606689 0.4985294911 0.2478409611
0.1825935434 0.7475920567 0.7482613348
0.1925377773 0.49913266 0.4987859141
0.2125142146 0.748893392 0.9967052304
0.2225092426 0.4989576304 0.7478040039
0.2125745786 0.5002205763 0.9961991297
0.22261672 0.747123576 0.2499352976
0.2125686894 0.7497522733 0.4986800931
0.2224834775 0.5003123205 0.252983864
0.2226491104 0.7493098193 0.7490030023
0.2124446487 0.4998483944 0.5003483849
0.2526128462 0.7527388379 0.9982695415
0.2425839555 0.4994319671 0.7516770542
0.232541446 0.7491276324 0.996778845
0.2525786154 0.49953217 0.9984811836
0.2326084353 0.5008621346 1.0017754389
0.2425754898 0.7493098193 0.2506824863
0.2525499057 0.7514114759 0.500318939
0.2325274592 0.7511967555 0.4939715165
0.2426314369 0.4994540898 0.2489276972
0.2424978263 0.749316326 0.7457860425
0.2524924863 0.5022883981 0.4996968953
0.2325495436 0.4989725958 0.4970587306
0.2725123562 0.7518539299 0.9977082299
0.2625482464 0.499780725 0.7493158646
0.2725841305 0.4999368852 0.9996958252
0.2625129113 0.7509950486 0.2504763653
0.2726437584 0.7524460374 0.4980028383
0.2624716871 0.498923145 0.2463346215
0.2626446815 0.7510210753 0.7499968
0.2724965291 0.5019474483 0.5004422435
0.2925252328 0.7511447021 0.9980947068
0.3026321551 0.5000806828 0.747513226
0.2825887284 0.4984149736 0.7483680761
0.2924932104 0.5013221567 0.9957850474
0.3025857778 0.7505981413 0.2484022727
0.2826200146 0.7491601658 0.2454264008
0.292596639 0.7500841138 0.4965958785
0.3025106909 0.4998978452 0.2495589428
0.3024514311 0.7510991554 0.7469215483
0.2825854158 0.4997234662 0.2459849519
0.2825975622 0.7501752073 0.7486634548
0.2925852287 0.5002700271 0.4963281052
0.3325837444 0.7500060337 0.9964383773
0.3225857718 0.4990194438 0.746040013
0.312596633 0.7508844351 0.9958494602
0.3326025162 0.5004736861 0.9976070098
0.3125995776 0.5025141798 0.9983247525
0.3225474922 0.7517823564 0.2474397613
0.3325086575 0.7488868853 0.4994300422
0.3125918481 0.7491992058 0.499725421
0.3225073723 0.5003038618 0.2481593444
0.3225625832 0.7502988342 0.7475353104
0.3326625121 0.5003591685 0.4969013793
0.3125406859 0.4996941862 0.4969519893
0.3525925722 0.7508909417 0.9998522563
0.3426494425 0.4995894287 0.7498146038
0.3524747888 0.5012974313 0.9948740662
0.3425397567 0.7506762214 0.2460650078
0.352571592 0.750624168 0.4958183238
0.3424712951 0.4993812151 0.2442550078
0.3426152117 0.7488153119 0.7455697995
0.3524832545 0.5000949975 0.4971553498
0.372500916 0.7493683794 0.9982235324
0.3825014651 0.4980915918 0.746256256
0.3623825834 0.5000260267 0.7479125855
0.3724935545 0.4995347726 0.9971101109
0.382460977 0.7480345107 0.2487234166
0.3625187705 0.7486201116 0.2494374786
0.372541404 0.7488348319 0.4978114403
0.3824499348 0.4987194861 0.2477167364
0.3825014651 0.7491536591 0.7469878015
0.3626291925 0.4986869527 0.2491439402
0.3624856439 0.7492642726 0.746442133
0.3725119582 0.4976810205 0.4983653905
0.3925351408 0.7478913638 0.9961439187
0.4025246477 0.4976595484 0.7466464136
0.3925204179 0.4996330234 0.9970825054
0.4024915211 0.7510210753 0.2477728675
0.3925240986 0.7501426739 0.4983801134
0.4024031835 0.4993369697 0.2493988309
0.4024510331 0.7483728579 0.747387161
0.3923842308 0.4997293223 0.495874455
0.4325557409 0.7499084336 0.9960979096
0.4226140835 0.4987572248 0.7463979642
0.4124773473 0.7491796858 0.9948372588
0.4324931685 0.498007005 0.998241936
0.4125767271 0.4977070472 0.9954721851
0.4225294267 0.7502532874 0.2458809712
0.4324379575 0.7469674158 0.4945098236
0.4124626244 0.7498824069 0.4978114403
0.4224594928 0.4994065911 0.2466907323
0.4225588725 0.7492707793 0.7460280506
0.4324821263 0.4990806066 0.4950830976
0.4126687454 0.4992218015 0.4989745516
0.452586285 0.74975878 0.9936962319
0.4425084405 0.4982841894 0.7440303333
0.4525384355 0.497779922 0.9932361404
0.4425194827 0.7489454454 0.2472005137
0.4524979474 0.7491406457 0.4959425486
0.442460591 0.4989699931 0.245015079
0.4424201029 0.7476636302 0.745693104
0.4525237125 0.4988626329 0.4955468699
0.4723775815 0.7498108334 0.9918282604
0.4825842516 0.5035051467 0.7428166119
0.4625794726 0.4994078924 0.739805773
0.4725579373 0.5001503042 0.9931441221
0.482400215 0.7528884914 0.2375634369
0.4624874543 0.750604648 0.2417659128
0.4725873832 0.750402941 0.4894506573
0.4824517452 0.5005029661 0.2397635945
0.4823707691 0.7497652867 0.7392959916
0.4625500268 0.4988736943 0.2447739911
0.4624396048 0.7489909922 0.7426426973
0.4724880034 0.5025851026 0.4877510793
0.4924118063 0.5003038618 0.9867672537
0.5025375003 0.7502597941 0.236005567
0.4925185475 0.7495310463 0.4878311352
0.5023792288 0.4997358289 0.2394737368
0.5025227774 0.7500060337 0.7360569474
0.4925590356 0.7505395812 0.9872273452
0.4925369512 0.5008276493 0.4871759649
0.5024528435 0.5003305392 0.74099741
0.5123687357 0.7511837422 0.9878714734
0.5124423504 0.4983186748 0.9885340051
0.5125748567 0.7497522733 0.4917198287
0.5124165852 0.4996525435 0.4897883645
0.5224318573 0.4988372569 0.7420473389
0.532369834 0.7532203319 0.9909632883
0.5324692137 0.5023085688 0.9937054337
0.5224576224 0.5024822971 0.243345867
0.5224465802 0.7508584083 0.2421257043
0.5324250449 0.7508779284 0.4938969817
0.5324213642 0.5014906796 0.4921983238
0.5224944297 0.7518213965 0.7398379794
0.5423777445 0.5020183711 0.7409247156
0.5525402459 0.7521662503 0.9927208379
0.5624193308 0.5013859221 0.7452698198
0.5523930166 0.5009668921 0.9969628816
0.5423078106 0.4989296517 0.2444629692
0.5424329555 0.7494399529 0.2418266448
0.5624340537 0.4996766182 0.2440047181
0.5625481564 0.7500060337 0.244592715
0.5524445468 0.5005563208 0.4931286289
0.5522789139 0.7516327029 0.4954014809
0.5424108711 0.7518213965 0.7442787827
0.5623604391 0.7502858208 0.7437367949
0.5824535556 0.5021953527 0.7468525346
0.5723720304 0.7511642221 0.9952421394
0.5724750909 0.5004274887 0.9951041119
0.5825198088 0.5015772184 0.2469060551
0.5824241098 0.7496351532 0.2442688106
0.5724272414 0.4994651512 0.4955211047
0.5723425845 0.7508974484 0.4961679934
0.5823468144 0.7490430456 0.7480957019
0.6025245877 0.4998490451 0.7485291081
0.5924945928 0.7490560589 0.9953617632
0.6125693056 0.750383421 0.9961163133
0.5923768094 0.5027568789 0.9985455964
0.612344781 0.500626593 0.9985087891
0.6024877804 0.7529145181 0.244301017
0.6024840997 0.4999180159 0.2510183531
0.5923915323 0.7527193178 0.496925304
0.5925718882 0.5010065829 0.4963566309
0.6124441608 0.7524200107 0.4955017809
0.612495691 0.4999505493 0.4980378053
0.6026166061 0.7497067266 0.746713587
0.6225146438 0.499790485 0.7500667339
0.6325372773 0.7498433668 0.9969628816
0.6325225544 0.5018290268 0.996778845
0.622415264 0.7498108334 0.2465931929
0.6224557521 0.500217323 0.2470753688
0.6325262351 0.7487762718 0.4985632298
0.6325998497 0.4991242013 0.4927274291
0.6223858182 0.7508063549 0.7448106485
0.642420043 0.5013514367 0.746758676
0.6524500379 0.7508909417 0.995913873
0.662520521 0.5001008535 0.7459792809
0.6524389957 0.5014509889 0.9978922665
0.6426372062 0.7505265678 0.2478262382
0.642570953 0.5015804717 0.2456196393
0.6623990568 0.7489779788 0.246282171
0.6624248219 0.5001678723 0.2483387801
0.652490526 0.7517042763 0.4981914759
0.6525273333 0.5005712862 0.4956720147
0.6424678925 0.7523809707 0.7481748376
0.6624579485 0.7503118475 0.7467310705
0.6825473843 0.4988541743 0.7476880608
0.6724364132 0.748873872 1.0008368522
0.672440094 0.5008374093 0.9970825054
0.6824995348 0.7502467808 0.2479449418
0.6825915531 0.5005810462 0.2485375396
0.6724732206 0.7499930204 0.4964587712
0.6725026664 0.4994592952 0.4977166614
0.6824811311 0.7500385671 0.746562677
0.7026368201 0.4994579938 0.7498780964
0.6924632766 0.749075579 0.9969720835
0.7125343087 0.7518604365 0.9992541374
0.6924669573 0.4979692662 0.9995946051
0.7124349289 0.5008836067 0.9974045695
0.7024859101 0.7504549944 0.2519707425
0.7024638257 0.5014444822 0.2471333403
0.6925074454 0.7507803282 0.496070454
0.6924043849 0.5011614418 0.4968618114
0.7125821582 0.4998633598 0.4980470071
0.7124238867 0.7486916851 0.5004486848
0.7025116752 0.7496546732 0.7482282082
0.7225569422 0.5001067095 0.7451106282
0.732410262 0.7488348319 1.0003767607
0.7424844258 0.5001971523 0.7494575728
0.7324985996 0.4995308686 0.9985916056
0.7223986707 0.7483338178 0.2494614034
0.7225606229 0.5008367586 0.2506677633
0.7424991487 0.7510340886 0.2489525422
0.7424881065 0.4985171284 0.2499343775
0.7325280455 0.5002973551 0.4980543686
0.7325832565 0.751268329 0.5012133569
0.7224649239 0.752172757 0.7519770339
0.742550679 0.7504289677 0.749866134
0.75251074 0.500650017 0.5000502456
0.752470252 0.7503769143 1.0019042645
0.762485524 0.5007964172 0.7497327075
0.7525033786 0.4995939834 0.9990701008
0.7625039277 0.7494204328 0.2485559433
0.7625333735 0.501080759 0.2472391614
0.752470252 0.750201234 0.4964615318
0.7624892048 0.750441981 0.7506657731
0.7725670492 0.50045807 0.4983617097
0.7725449648 0.7487502451 0.9999534765
0.7924982136 0.5007905612 0.4968332857
0.7925018943 0.7508193683 0.9988768623
0.78247558 0.5010716496 0.7521978778
0.7724492658 0.4993662497 0.9967052304
0.7925939126 0.501292226 1.0018582553
0.7824498149 0.749114619 0.2486258772
0.7825050259 0.4985203817 0.2477176566
0.7725964951 0.7493683794 0.4998818521
0.7925313401 0.7496676865 0.5008774901
0.7824571764 0.750422461 0.751429525
0.8124735467 0.5016182105 0.4986423655
0.8125839686 0.7496416598 1.0003123478
0.8024361902 0.4988886596 0.746593043
0.8124588237 0.4996590501 0.9992541374
0.802480359 0.7476831502 0.2477664263
0.8026202268 0.501294178 0.2486231167
0.8124588237 0.7499930204 0.4979292237
0.8025871002 0.7499084336 0.7523681117
0.8325261751 0.4999889386 0.4978372054
0.8325666632 0.7508193683 0.9979290738
0.8226102829 0.4998568531 0.7501605926
0.8425120013 0.4990396145 0.7475408315
0.8325997898 0.4981013518 0.9990885044
0.8225550719 0.7516977696 0.2501791461
0.8226323672 0.4987331501 0.2467910323
0.842530405 0.7505786213 0.2494135539
0.8425230435 0.5007385078 0.2484400002
0.832555621 0.7467396821 0.5016320402
0.8223673545 0.7498889135 0.7500961798
0.8426187425 0.7499930204 0.7486376897
0.8525824843 0.4989764998 0.4982301236
0.8625130995 0.7494334462 0.7460906231
0.8625388647 0.4983108668 0.7500280862
0.852505189 0.7479108839 0.9986836239
0.8525383155 0.5015856771 0.9980118903
0.8625388647 0.7494334462 0.2461266601
0.8624799729 0.5014919809 0.2482798884
0.852545677 0.7486591517 0.4967173427
0.8725173294 0.4998958932 0.4982522079
0.8825326014 0.7521792637 0.7473880811
0.8925625964 0.4999355839 0.4957253854
0.8724842028 0.7524590508 0.9958126529
0.8925773193 0.7509364885 0.9968156523
0.8825399629 0.499976576 0.7440781828
0.872550456 0.4994996366 0.9958862675
0.8924595359 0.501323458 0.9967052304
0.882455306 0.7499344603 0.2451301019
0.88252524 0.4995269646 0.2445641893
0.8724989257 0.7515155827 0.4951981205
0.8925147469 0.750441981 0.4977838348
0.9125489717 0.4990851613 0.4966722537
0.9026220372 0.749518033 0.7437478371
0.9225200749 0.750624168 0.7504789759
0.9125011222 0.7484964848 0.9949660845
0.9024674465 0.5005153288 0.7478840598
0.9225384786 0.498888009 0.7433457171