POSCAR file written by Ovito 3.7.11
1
271.6030425517 0.0 0.0
0.0 15.3641882543 0.0
0.0 0.0 10.864121702
Sr Ti O 
800 800 2400 
Direct
0.0225983928 0.5004855447 0.779543632
0.0124832631 0.2493111946 0.5307559183
0.0225819718 0.250789958 0.7820187515
0.0026698606 0.2512201792 0.7854143321
0.0125581887 0.2500674988 0.0297717477
0.0225848805 0.0014865821 0.2792298331
0.0025620193 -8.2105690342e-04 0.2813754277
0.0025373878 0.5004224109 0.2835320677
0.0126469579 0.5000468622 0.5332991519
0.0124587789 -7.4529631127e-04 0.5294976481
0.0225384892 -5.0870717686e-04 0.7811774502
0.0025979541 -0.0016261108 0.7842775628
0.0225750499 0.2511088815 0.2848538497
0.0026120556 0.2510268726 0.2831740084
0.0326447825 0.5001269185 0.0312907844
0.0425117559 0.5008695546 0.2775058097
0.0325928685 0.4990842341 0.5284234702
0.032603914 0.2494010138 0.5289490534
0.0424881921 0.2496216568 0.7818954098
0.0325078179 0.2513047916 0.0290310527
0.0525591397 0.5011155812 0.0257115023
0.0426667615 2.7532383087e-04 0.772101705
0.0424557919 0.2520617466 0.2795262216
0.0525134848 0.2505484874 0.5279024892
0.0525547215 0.2495624281 0.0284350542
0.0626146235 0.2490912025 0.2758213662
0.0627173469 0.5008884296 0.7727220957
0.072545661 0.5017937817 0.0193090519
0.0625203683 0.4983721887 0.2726871966
0.0725548656 0.5018015921 0.520951168
0.0725589156 0.2508394237 0.5228602041
0.0625954779 0.2525505457 0.775404319
0.0726476481 0.2497531313 0.0221672673
0.092729161 0.2499555501 0.5184981395
0.1026064435 0.2502588528 0.7702478967
0.0826530588 0.2506330997 0.7727395845
0.0925516961 0.2497889289 0.0188312406
0.1025519522 -5.7314273204e-04 0.2660856505
0.0925502233 0.0018705269 0.5179237719
0.1025791979 0.2500590375 0.2704633629
0.0825757401 0.2504567155 0.2729467665
0.1026686667 0.4997897709 0.7687963297
0.0825705855 0.4993888385 0.7688073752
0.1026149118 0.499813202 0.2667585074
0.0825779492 0.4997995338 0.2684576784
0.1225833921 0.2478701812 0.2672997385
0.1124704715 0.5002824751 0.0192454481
0.1125823995 0.2490267669 0.5192823723
0.1224803004 0.4995723822 0.2677378779
0.1125315901 0.5016473373 0.5194149186
0.1224920823 0.2484683254 0.7676024918
0.1125492629 0.2487006839 0.0204955261
0.1224427456 0.002298405 0.2686518957
0.1524070639 0.248978603 0.5196487157
0.132517375 0.2485744163 0.517756248
0.1425492951 0.250885635 0.7630268803
0.1524346777 0.2512696449 0.0167463045
0.1323785695 0.2504586681 0.0174056307
0.1424867037 9.2638328382e-04 0.2629929016
0.1425820635 0.2520194405 0.2675160468
0.1425308858 0.5017892257 0.7651549861
0.1524151639 0.5033988128 0.0119329379
0.1324842384 0.4983136109 0.0133297375
0.1524913781 0.5012158143 0.5127268492
0.1325847528 0.5000260346 0.5154633797
0.1824185097 0.2511010711 0.2574342378
0.1724418173 0.5022357185 0.5122408458
0.1823283045 0.5026086637 0.7610736622
0.1724797403 0.2493359274 0.5145309527
0.162521089 0.2526136795 0.7647545856
0.1724554401 0.2493066385 0.0140923394
0.1823754321 0.4989514578 0.2619969629
0.1625516483 0.003178113 0.7614050281
0.1624665977 0.2530946681 0.2626845472
0.1825742517 0.249960757 0.7594177529
0.1824792601 0.0015331189 0.258998101
0.1924843027 0.0013595985 0.0066185645
0.2025243227 0.250463875 0.2505160532
0.2024598905 0.5013778795 0.7540008401
0.1925524168 0.5003482123 0.0072488041
0.2023369169 0.5014833195 0.2523809071
0.1925572032 0.500464717 0.5071829128
0.1925380576 0.250406599 0.5023394472
0.2025099636 0.2524431531 0.7516021188
0.1924014612 0.2526260459 0.0055255171
0.202512909 -9.5786855693e-04 0.2476285671
0.2125658156 0.2508218504 0.4991491295
0.222488753 0.2497121269 0.7515919937
0.2126155205 0.2496574543 -0.0011510374
0.2226419177 -6.8990776839e-04 0.7495402862
0.2224581937 0.2504072499 0.2497980936
0.2325957826 0.2486115156 0.4986437964
0.23260241 0.2484924074 0.9964226457
0.2324978456 -0.0012892235 0.4959836642
0.2224637165 0.5018770923 0.7501174152
0.2125253153 0.4979061699 6.5023111497e-04
0.2125002787 0.501586156 0.4993709606
0.2424653333 0.5000631338 0.743838951
0.2626215877 0.2489356459 0.7436005516
0.2625439008 -0.0011493528 0.2436981988
0.2625059778 4.871150395e-04 0.7442246241
0.2525749403 0.250104598 0.496342644
0.2425886751 0.2509669931 0.7459827046
0.2525591083 0.2500681496 0.9956770724
0.2625218097 0.2486850632 0.2457858042
0.2426508983 -9.2330766825e-04 0.2467983113
0.2625129733 0.5025012711 0.2460159195
0.2526220679 -6.5450075625e-04 0.495621923
0.2426225481 -5.232865348e-04 0.7455344401
0.2524434984 0.0016365412 0.9970485592
0.2425838887 0.2477829654 0.2476267262
0.2726177938 0.2488978958 0.4939798207
0.27259423 0.2489668874 0.9933759199
0.2724848792 0.0010262259 0.4923367978
0.2725456297 0.0012156273 0.9924002313
0.2825403631 0.2516647195 0.7399987878
0.2723376055 0.5010355249 0.4929599499
0.2826302 0.2498989249 0.2414844901
0.3125536498 1.8362647194e-05 0.4854563521
0.292542092 0.5010901975 0.4877031973
0.2925822241 0.2494504795 0.4868646574
0.3025327753 0.2502139432 0.7388804277
0.2924680869 0.2495097081 0.9925106866
0.2926271425 0.0026820894 0.4923496843
0.3025894757 -0.0010466464 0.7372521323
0.3125098359 0.4998405383 0.4849059164
0.3025670165 0.2512618346 0.2361494984
0.3125676408 0.2510040923 0.4857389336
0.3125407634 0.2488354128 0.9842081287
0.3226731977 -1.6706856159e-04 0.2295580773
0.3325033527 -0.0012822593 0.4825504568
0.3225505923 -0.0011604175 0.7309285654
0.3325096118 -0.0010007605 0.9824040252
0.3224729054 0.2497257951 0.2340167903
0.3225034647 0.4966656227 0.733000523
0.3225483832 0.4980356919 0.2343343493
0.3325906124 0.2482268548 0.4822862845
0.322557956 0.2478148578 0.7320395618
0.3325258119 0.2500883264 0.9771758069
0.3624919711 0.2497205881 0.2261689401
0.3524180781 0.5016863891 0.480376328
0.3525432607 0.2496470405 0.4768822581
0.342334244 0.2495780489 0.7293426111
0.3623041971 0.4981170499 0.730252947
0.3525285334 0.2490111462 0.9750679512
0.3623851976 0.4974473106 0.228317296
0.3425212817 -0.0016430333 0.2262628271
0.3424623722 0.2496463896 0.2278009174
0.3623815158 0.2494088242 0.725312833
0.3424885133 0.4977245788 0.7268030593
0.3424811496 0.4987959012 0.2288898227
0.3823481551 0.2506897249 0.2263981348
0.3923664523 0.2499627096 0.4756212266
0.3925100442 0.2499529467 0.9765406888
0.3925799993 -5.2068307803e-04 0.9756570463
0.3825285655 0.4998919565 0.7259148145
0.3925358172 0.4998750341 0.9771205792
0.3724071767 0.2495071047 0.4770773959
0.3823592007 0.2481070958 0.7261716231
0.3723629945 0.2494758632 0.9790535472
0.3925431808 0.4990621047 0.4754665892
0.3725249957 0.0010121672 0.4767414276
0.4125797752 0.5005343595 0.9737608967
0.402491523 0.2514069773 0.7274842004
0.4025357051 -6.9107932394e-04 0.7218307292
0.4025246596 0.2504944657 0.2224806529
0.4125871389 0.2490632153 0.4678203199
0.4125466386 0.2485744163 0.9703736003
0.4125355931 -8.5138717485e-04 0.4714653453
0.4125908208 0.001948175 0.9720580439
0.4424579383 1.7191091646e-05 0.7143621089
0.4424873931 0.2504703837 0.2143069595
0.4225060263 0.5019864375 0.72091395
0.4324690959 0.5007205067 0.9664340273
0.4325243235 0.5031807733 0.4695931277
0.4425205297 0.5005864286 0.7119210464
0.4425904847 0.5031931397 0.2143060391
0.4326936884 0.250593397 0.4629317517
0.4225686177 0.2526260459 0.7202861957
0.4326347788 0.2492129141 0.966277549
0.4223661163 9.5750399825e-05 0.2182492939
0.4325316872 -1.9844021573e-04 0.9684958599
0.42251339 0.2521723936 0.2207437431
0.4424873931 0.247516762 0.7156240608
0.4726637855 0.2508114365 0.4612022055
0.462722807 0.2511251531 0.7088706387
0.4725680576 0.2476182968 0.9625772959
0.4726232852 -0.0017640289 0.9632400278
0.4626859886 0.2508303116 0.211618293
0.452535145 0.5011149304 0.9612334229
0.4526087819 0.4993790756 0.4627320116
0.4625497604 0.5027310262 0.7134388865
0.4725901486 0.4982133778 0.9620802469
0.4625460785 0.4999589956 0.2110568118
0.4526419185 0.2477679956 0.4632934928
0.4526934643 0.2511713644 0.9623471806
0.452630873 -9.0905374241e-04 0.4628838877
0.4825569 0.2496991096 0.7152264217
0.4824979905 -0.0010571253 0.7126298013
0.4924573782 0.4983279299 0.9639027597
0.4925346969 0.5014371081 0.4637482006
0.4826084458 0.2516080943 0.2122534111
0.4924131961 0.248226204 0.464162408
0.4924978785 0.2512110671 0.9611137629
0.4824832631 0.5034495802 0.2101050552
0.5025382668 0.2506916775 0.7130541338
0.5126044279 0.2504710346 0.4632428675
0.5125712913 0.2501403955 0.9645194685
0.5026082218 -3.7611673464e-05 0.7146051106
0.5025235394 0.2499711709 0.2152817277
0.5225822248 0.2509630879 0.2118695789
0.5225269972 0.2517656034 0.7133827384
0.5124534723 0.5029093629 0.4592581919
0.5225012243 0.5014624918 0.7139092421
0.5424973184 0.5005851269 0.7171722762
0.5524272513 0.5010355249 0.9711375829
0.54260041 0.5014546815 0.2162454503
0.5523977966 0.5011546331 0.4683532668
0.5326042039 5.0481854557e-04 0.4673076231
0.5326852044 0.2491139827 0.465092994
0.5326373405 0.2515970296 0.9660382291
0.5323685659 0.500589683 0.9634609384
0.5526555256 9.7442646729e-05 0.9719383839
0.5425230913 0.2495038504 0.2186874333
0.5525266611 0.2513041407 0.4721566115
0.5425488642 0.2531363234 0.7179896455
0.552552434 0.2496613595 0.9738529428
0.5725853466 0.2510346829 0.4727880477
0.5726810745 0.2512273387 0.9741014672
0.5624750033 0.4997474647 0.7231212154
0.5624087301 0.5015379921 0.220392127
0.5723644359 0.501677277 0.9759884122
0.5724380728 0.5024941116 0.473395552
0.5624934125 0.2500323521 0.2256544024
0.5623461387 0.2514245506 0.7222651867
0.6026402382 0.5029777037 0.7274961664
0.5924893946 0.5033962094 0.9768536455
0.5924452125 0.5023776069 0.4786504637
0.5825631435 0.253646601 0.7184314668
0.602408282 0.2532866731 0.2263751233
0.5925078038 0.2537813298 0.4738806349
0.6024635097 0.2540598997 0.7233375238
0.5925151675 0.2523897822 0.9741198764
0.5824784611 0.5019278597 0.7247522723
0.5824710974 0.50353224 0.2247109299
0.5825373706 0.2537299116 0.2240104591
0.6125628074 0.5028195437 0.9856348432
0.6125628074 0.502070399 0.4822025225
0.6223786032 0.5004673205 0.7348092288
0.612478125 0.001839741 0.4805088744
0.6224816948 0.5016434321 0.2313198396
0.6125848985 0.2533263758 0.4792128653
0.612478125 0.2525837397 0.979789916
0.6222791934 3.3370634904e-04 0.7334543103
0.622595832 0.2538392568 0.2321648228
0.6224559219 0.2530504094 0.7315277855
0.6424888345 0.0017730925 0.2330125674
0.6523009484 -7.9322662311e-06 0.4816355186
0.632430037 0.5025357669 0.4813179596
0.6423967884 0.2511869852 0.2323553582
0.6524077219 0.2484012864 0.4871113409
0.6423710155 0.2513640202 0.7318554696
0.6323674457 -3.4071912847e-04 0.4824639335
0.6524482222 0.2511798257 0.9840516503
0.642452016 0.4999583447 0.7317947192
0.6524850406 0.5013212543 0.4875651282
0.6324963102 0.2506311471 0.4821224424
0.6323416727 0.2493782336 0.9824408436
0.6823852948 0.4995177096 0.7437082455
0.6624002462 2.0294773253e-04 0.2387958236
0.6824110677 0.4991890232 0.2420616192
0.6624444283 0.0011011403 0.7372502913
0.6724001342 0.4981111921 0.4921296941
0.6623855188 0.2480192291 0.2394465895
0.6622824272 0.2509559284 0.7375742936
0.6723191336 0.0010795967 0.9867670102
0.6623155638 0.4997565768 0.7393765562
0.6624297009 0.5019350192 0.2376572134
0.6824331587 0.2491445733 0.2395459993
0.6723669976 0.2506890741 0.4884469298
0.6824478861 0.2490462928 0.7432682652
0.6724148615 0.2513047916 0.9908814707
0.7024918442 0.2494361605 0.241146681
0.6924404104 0.2504241723 0.4949104067
0.7022709336 0.2481337812 0.74136107
0.6923925464 0.2498533644 0.9932378508
0.6924293649 0.4987770262 0.9944252454
0.6924404104 0.4984431328 0.4926350272
0.7324362805 0.4986846035 0.9949959312
0.7325283266 0.495437442 0.4963150301
0.7124144134 0.249630118 0.4940819918
0.7123702313 0.2504423965 0.9948026344
0.7223664375 -0.0016852093 0.2432526957
0.7324178712 -0.0017006348 0.4950530781
0.7325062355 4.7930466917e-04 0.9956770724
0.7124733229 0.5003892168 0.991912387
0.7224032559 0.2499327699 0.2444778292
0.7324215531 0.2496463896 0.4960508578
0.7224511199 0.2496229585 0.7473744415
0.7324215531 0.2472883086 0.9945264961
0.7124770048 0.4984574519 0.4930851326
0.7125359143 6.0485637214e-04 0.4940764691
0.7123113218 -9.5148068187e-05 0.9908078338
0.752421329 0.4981203042 -0.0020373676
0.7424177592 -0.0034312631 0.2469188917
0.7424656232 -0.0029813728 0.7465009241
0.7424619413 0.2506070652 0.2478789325
0.7424729869 0.2469010445 0.7472198041
0.762516945 -0.0020091574 0.2496241265
0.7524581475 3.029855591e-04 0.5009136531
0.7624764447 -7.3885275576e-04 0.7526072622
0.7524434201 -7.7946668144e-04 -0.0017715937
0.7624838084 0.2477354523 0.2507756232
0.7524912841 0.2484618168 0.4968120791
0.7625427179 0.2483570277 0.750524259
0.7524986478 0.2504463017 -0.0021704111
0.7824025838 -0.0018852199 0.2585737685
0.782373129 -6.8912673136e-04 0.7578124689
0.7725131511 1.2686170828e-04 0.0067286516
0.7824872662 0.2465307027 0.2586372803
0.7725168329 0.2489675383 0.5036603087
0.7823952201 0.2467441862 0.7590661368
0.7725941517 0.2477302454 0.0025877738
0.7924871541 -0.0024671575 0.511174952
0.792442972 -0.0020722978 0.0117406536
0.812560567 0.4995105501 0.0127121081
0.7924171991 0.245939718 0.5119021162
0.7925313363 0.2474061151 0.0119056002
0.8024575874 -0.0024854143 0.2608951711
0.8124132932 -0.0020993477 0.5152498328
0.802394996 -6.7721591661e-04 0.7629274706
0.8125347941 -0.0019049345 0.0138589105
0.8024723147 0.2472870069 0.2622804648
0.8124501117 0.2496769802 0.5153915837
0.8024023597 0.2469114583 0.7613985849
0.8123801566 0.2482717644 0.0133629661
0.8325235245 -2.5135547467e-04 0.5176734065
0.8223874083 -0.0022866599 0.7639583868
0.8323283868 -0.0021034611 0.0109235604
0.8226230463 0.2484240667 0.2623679086
0.8325272063 0.248163721 0.517744282
0.8224831362 0.2484605151 0.7647481424
0.8325640248 0.2502113397 0.016455899
0.8223616354 -0.0033701079 0.2676973776
0.8424203208 -0.0015089553 0.7645760162
0.8425234125 0.2493164015 0.2631144025
0.8424681848 0.2501618741 0.7593036157
0.8624937337 -0.0021284088 0.2637467592
0.8425050033 0.499304877 0.7625997865
0.8524717546 -0.0024214539 0.509631339
0.8623832784 -0.0024176528 0.763435565
0.8524791183 -0.0028817971 0.0145223787
0.8623869602 0.2470618079 0.2648531532
0.8424424119 -0.0020031434 0.2648927331
0.8526337558 0.2483192775 0.5148218184
0.86248637 0.248820443 0.763894875
0.8525490734 0.2482346652 0.0149727603
0.8724163029 -0.0022489228 0.5176734065
0.8925486253 -7.3507774343e-04 0.5193339181
0.8725488493 -0.0038913916 0.0137282971
0.8825045552 0.2485145368 0.2659475813
0.8925191705 -4.2708880697e-04 0.0167263305
0.8724641669 0.249749877 0.5141655297
0.8925191705 0.2504098533 0.5174304048
0.8824714186 0.2477523748 0.7657422402
0.8726408954 0.2504072499 0.0176802962
0.8924933976 0.2496223076 0.0142261744
0.9024417398 0.001006765 0.2683683937
0.9124232185 -2.9346638801e-04 0.5223972122
0.9023865121 -0.0010730064 0.7714113593
0.9024454216 0.2501078523 0.2680158571
0.9124784462 0.249453083 0.5217372417
0.902577968 0.2514141368 0.7675352982
0.9024527853 0.4996322617 0.7651163267
0.9124968554 0.249630118 0.0215740302
0.9225924713 2.4557933721e-04 0.276156414
0.9225335618 -0.0010277714 0.7730543821
0.9225188345 0.2517187412 0.271520052
0.9225261981 0.249538997 0.7692832536
0.9425222923 -0.0012130724 0.2767768046
0.9325960412 6.1351286591e-04 0.5245584545
0.9424965193 1.1553667131e-04 0.7778665521
0.9323824942 -0.0026409838 0.0257983938
0.9424081551 0.249644437 0.2742482984
0.9325592227 0.2497843728 0.5248511611
0.9424523372 0.2510418425 0.7725195943
0.9325481772 0.2470533467 0.0200825153
0.952551635 -0.0013979178 0.5310670341
0.9525148165 -0.0024880047 0.0274631395
0.9625662503 0.2483375017 0.2783268609
0.9525148165 0.247804444 0.5267408675
0.9725550928 0.2464844914 0.5325232033
0.9624778861 0.2466231254 0.7781104743
0.9523086333 0.2496991096 0.0263675148
0.9726029568 0.248709796 0.0308196004
0.9626067506 3.2667701575e-04 0.2780682114
0.9826175721 0.500886477 0.7824182316
0.9827022545 0.4983435506 0.2815466334
0.9825991629 -0.0011780559 0.2842343794
0.9924333679 -1.7976041337e-04 0.5346080474
0.9825807537 0.248762516 0.2818724766
0.9925843235 8.540722719e-04 0.035423286
0.9924922774 0.2492350435 0.5309924767
0.9825365715 0.2476547452 0.7805441731
0.9926100964 0.24823076 0.034462785
0.0125697865 0.7518584084 0.0330729809
0.0025273732 0.5013336207 0.780322342
0.0126337769 0.5004464928 0.0339644474
0.0225044322 0.7488383985 0.278666511
0.0025373142 0.7510057763 0.2846881667
0.0126438283 0.7496649961 0.5328297168
0.0225772959 0.74950228 0.7803591604
0.0225874209 0.5024836978 0.2793605386
0.0025230654 0.7504850849 0.7839020147
0.0125214439 0.9999352958 0.0338314408
0.0526349857 1.0021482341 0.5262843189
0.0525878581 1.0026428909 0.0247543149
0.0324964042 0.7504395245 0.0289262122
0.0425890746 0.4991883724 0.7755607974
0.0426509296 0.7505436627 0.2761711413
0.0325729865 0.7504720677 0.5285854713
0.0426229476 0.7512270701 0.7777754265
0.0527598002 0.7497300825 0.0253663294
0.0525466214 0.7506087491 0.5259078503
0.0525646624 0.5007517481 0.5204568805
0.0424948194 0.9995773205 0.2763064491
0.0325265953 1.0004885304 0.5317030726
0.0326381552 0.998913439 0.0294542807
0.0726351298 1.0022003032 0.5198806719
0.0624905454 1.0007228415 0.7713727
0.0726042023 1.0030138835 0.0185460818
0.0724341011 0.7500490059 0.0208220136
0.0625281002 0.7520666849 0.2683278934
0.0724827015 0.75319268 0.5228786133
0.0625461412 0.7520731936 0.7723088088
0.0625380411 0.9999287872 0.275825048
0.0825912038 1.0008334884 0.2699368592
0.1025103474 1.0013737057 0.7689712173
0.08256764 0.9983927477 0.7695142893
0.0925417551 0.9996554242 0.019127445
0.0924983093 0.7524962553 0.0149916297
0.0924799001 0.499434399 0.0181807509
0.1024459151 0.7505241368 0.2686721458
0.0824969486 0.7489099936 0.2665974268
0.0924515499 0.7486561566 0.516905742
0.102463588 0.7505501714 0.7686462946
0.0825094669 0.7491182701 0.767243512
0.0925793099 0.5019994548 0.5197324777
0.1125271719 1.0001696069 0.0176469755
0.1125072899 0.7474064973 0.0132751541
0.1226356742 0.5006508642 0.7656336258
0.122485455 0.7499513763 0.2641140231
0.1125253309 0.7496780133 0.5143818381
0.1223702133 0.7498407294 0.7626596164
0.1125120763 1.0015884909 0.5159134851
0.1225841284 1.0009115921 0.7641627292
0.1525278283 1.0010027131 0.5168744464
0.1325534571 1.0027340119 0.5148945348
0.1425117402 1.002258881 0.7654090333
0.152469287 1.0021221995 0.0159238726
0.1324728247 1.0004559872 0.0164495479
0.1525812151 0.7518323738 0.0112531775
0.1324787157 0.7509732331 0.0132437664
0.1423663074 0.7513246998 0.2641002162
0.1525900515 0.7540518207 0.5101679677
0.13257518 0.74950228 0.5133960244
0.1424914901 0.5002766173 0.2659797975
0.1423166025 0.7538044923 0.7635202474
0.1724543356 0.7511815096 0.0113877489
0.1625177753 0.5014787634 0.7632855299
0.1724226717 0.5007296188 0.0137983441
0.1623450969 0.7544748825 0.2640974548
0.1825860336 1.0022198291 0.7566637337
0.172401317 0.7519755639 0.5104974928
0.1623914881 0.5016082854 0.2648780057
0.1623830198 0.7533944479 0.7618146332
0.1824674782 0.7514028035 0.2577637628
0.1824244006 0.7529713862 0.7580094476
0.1623885426 1.002532244 0.2640394657
0.1724705357 1.0026493995 0.5124838475
0.1723420394 1.0024020711 0.0110469022
0.1923996203 1.0008725403 0.505621811
0.2024436904 1.0007293501 0.7508142042
0.1923355562 0.7534855689 0.0046585349
0.2024061356 0.7527631096 0.2523974754
0.1923999884 0.7532642751 0.5043451316
0.2023273441 0.7517998306 0.7498311519
0.2323803948 0.7523465565 0.9950143405
0.2324680227 0.5000013017 0.9952444557
0.2324499816 0.7496259442 0.4975033453
0.2324654454 0.4980304849 0.4976276075
0.2224751302 0.9985424464 0.2492228055
0.2124380556 0.9997465452 0.5008289707
0.2124351101 0.9984578341 -1.1573968582e-04
0.2123916643 0.7493590899 -0.0049798512
0.2324934274 0.9994536563 0.9958059369
0.2223620976 0.7507324133 0.2491381231
0.2123541095 0.7509471985 0.4976837556
0.2224754984 0.4997188267 0.2485738805
0.2224666619 0.748812364 0.7459385224
0.252556531 0.7501921961 0.9950143405
0.2523908481 0.5003325916 0.9951800234
0.2424292513 0.7491117615 0.2438795296
0.2525027761 0.7510318109 0.4961834042
0.242488529 0.497546242 0.2434653221
0.2425930933 0.7511294405 0.7444713076
0.2526279588 0.5008031664 0.4980077579
0.2625328552 0.5014084701 0.7474416352
0.2624095135 0.750465559 0.2477537498
0.262416509 0.7495413319 0.7464125598
0.282470408 0.5003371477 0.7411567277
0.2825933816 0.7519430207 0.2425918047
0.282508331 0.5022148909 0.2437589492
0.2824100258 0.7514353467 0.7436346086
0.2724856156 0.751773796 0.9938361504
0.2724377516 0.5018237215 0.992501482
0.272448429 0.7508560775 0.4915921449
0.2825974316 0.9999808563 0.2433226507
0.2826611275 0.9997400366 0.741373036
0.3126306003 0.9999287872 0.9851377942
0.2924588823 0.7513767689 0.9916454533
0.3025618619 0.5018686311 0.7379498417
0.292502328 0.5007133472 0.98830418
0.3024410974 0.7499253417 0.2413362959
0.2925155827 0.7501856874 0.4890802069
0.3025408754 0.4984886933 0.2370975732
0.3024727613 0.7506673269 0.7415782988
0.3026402852 1.0015689649 0.2368389236
0.312470072 0.749938359 0.9880372463
0.3125142541 0.4985583358 0.9829286879
0.3125289815 0.7493786158 0.4851820547
0.2925862741 1.0002802538 0.9913048827
0.3323943701 0.7500034454 0.9798359391
0.3323553426 0.4975547032 0.9807195816
0.3223178998 0.7501856874 0.232654508
0.3325202892 0.7494046504 0.4824786608
0.3225447014 0.7474455492 0.7348083084
0.3323951065 0.4977161175 0.4818223722
0.3526802253 1.0004429699 0.4789081927
0.3425665684 1.00005896 0.7267597977
0.362587699 0.7497430998 0.2282970458
0.3525425244 0.9983471872 0.9794493455
0.3625545624 0.7478425763 0.7290637115
0.3626208356 0.9992063279 0.2276941439
0.3524733057 0.7503809467 0.9772310345
0.3623483792 1.0005536168 0.7292790993
0.3522899499 0.5012861076 0.9790167288
0.3424546403 0.750120601 0.2326397807
0.3524979741 0.7500229714 0.4764275504
0.3425205453 0.7501856874 0.7289348469
0.3924143163 0.998750723 0.4745995149
0.372517632 0.7481680084 0.9810969706
0.3724624043 0.4990484365 0.9797807114
0.3824807015 0.7482135689 0.2287462308
0.3724145403 0.7482461121 0.4800992692
0.3824512468 0.4986611724 0.2295516341
0.3824954289 0.7488253813 0.7287608798
0.3823481551 0.9983992563 0.228930323
0.3824144283 0.9990371032 0.7293840319
0.3724624043 1.0005536168 0.9785841121
0.3723850856 0.4999908879 0.477946311
0.3923406794 0.7493135294 0.9779489941
0.3923885434 0.7483307245 0.4784691329
0.4124325015 0.7509797417 0.9720672485
0.4123625464 0.7504590504 0.472145566
0.4124877291 0.4995437442 0.4705043841
0.4025172959 0.9995382687 0.2220176611
0.4025762054 0.4994929768 0.726433034
0.4023884314 0.7496584874 0.2224815734
0.4023884314 0.4997344474 0.2265527723
0.4024583864 0.7499904282 0.7311862945
0.4324506867 0.7507519393 0.9696464361
0.4225980724 0.7516631491 0.2190896747
0.4325758693 0.7525353072 0.4658339651
0.4224765716 0.5009509126 0.2191430615
0.4226385727 0.7504850849 0.7210529396
0.4427119855 0.7529258257 0.2124734013
0.4426052121 0.7499448677 0.7177834623
0.4324249137 1.0037688859 0.465977557
0.4224250258 1.0009441353 0.7167368982
0.4425499844 1.0017121551 0.2143051186
0.452652964 0.9999808563 0.961960587
0.4625239875 0.9986205502 0.2105422742
0.472700604 0.998659602 0.4625451581
0.4626565338 1.0010027131 0.7128626779
0.4526051001 0.7514028035 0.9633965061
0.4526235093 0.7483502504 0.4632189355
0.4725422847 0.7498732726 0.9629086618
0.4625755333 0.7524572035 0.2090649343
0.4725312391 0.7509406899 0.4586359603
0.4625865788 0.750921164 0.7096972127
0.4726122397 0.4989351862 0.4603636656
0.4825826729 0.9990436119 0.2119284884
0.4926635615 0.9992258539 0.4672542364
0.4925310151 1.000859523 0.9609020569
0.4824538084 0.4975241126 0.7101997844
0.4924242416 0.749430685 0.4593189424
0.4824464447 0.7518258652 0.2143971647
0.4923285137 0.7510057763 0.960451031
0.4825753092 0.7495283146 0.7124567547
0.5126228371 1.0027340119 0.460470439
0.5125933824 0.999349518 0.9629822987
0.502556676 0.9987311971 0.2171263315
0.5226227251 0.7514093121 0.7126942336
0.5226153614 1.0028837106 0.213694853
0.5225895885 0.9999092613 0.7157796188
0.5025198575 0.7524246602 0.2106545704
0.5024241296 0.4972500988 0.2142765843
0.5025529941 0.7515004331 0.7116752833
0.5024867209 0.4992918598 0.7145195077
0.5125970642 0.7491898652 0.9604142126
0.512412972 0.5005616958 0.9627061604
0.5124424268 0.7511815096 0.4622855881
0.5225638156 0.4981821363 0.2107852759
0.5225380427 0.7518974602 0.2142342431
0.5326115676 0.75213828 0.465270643
0.5324679757 0.501380483 0.4650911531
0.5326078857 1.0015103872 0.9681736986
0.5427734567 1.0026559082 0.2179547464
0.5525818888 1.0010352563 0.4729380829
0.552530343 0.7494437022 0.9725642974
0.5426409103 1.0003127971 0.7187766397
0.542648274 0.7499709022 0.219555428
0.5525450703 0.7499904282 0.4697385606
0.5426556377 0.7514678899 0.7168639218
0.5326741589 0.7516956923 0.9649428806
0.5626112315 1.0000199082 0.2223757204
0.5625265491 0.999622881 0.7226849169
0.5623940027 0.7483827936 0.2245802244
0.5624050482 0.7499448677 0.7208973817
0.5724933005 1.0008074538 0.4751379846
0.5723607541 1.0033002637 0.969931779
0.5724196636 0.7489620627 0.9738437381
0.5726258469 0.7484804232 0.4745866285
0.6026107834 1.0023044415 0.2285188769
0.5926256228 0.7511164232 0.9734847584
0.5925151675 1.0037168168 0.4757942733
0.6025592376 1.0029097452 0.7277778275
0.5925298949 1.0014908612 0.9760804583
0.6025076918 0.7514158207 0.2297237603
0.6025886923 0.5010374775 0.2257501303
0.5925851225 0.7533293615 0.4719025643
0.6025371465 0.7527370751 0.7284672528
0.5826257348 1.0022003032 0.2245995541
0.5826625533 1.0004364613 0.72474767
0.5824747792 0.7497430998 0.2246271679
0.5825189614 0.7508886207 0.7216088981
0.612430261 0.7529974207 0.9785564983
0.6123492605 0.751337717 0.4802189292
0.6124707613 1.0016796119 0.9786025214
0.6223712395 1.002350002 0.2372089489
0.6225332406 0.7525418158 0.2321813911
0.6224264672 0.7508886207 0.729901331
0.6424078339 1.0007423674 0.7357738719
0.6523635398 0.9992388711 0.9874573559
0.6323932186 1.0013541798 0.9825512989
0.6324484462 0.7507714652 0.9847788145
0.6324631736 0.5000156207 0.981087766
0.6324742191 0.75161108 0.4849335302
0.6524739951 0.7510383195 0.9851009758
0.6523929945 0.5010596069 0.9859846183
0.6423599699 0.7508756035 0.2311633613
0.6424336068 0.4991154756 0.2351701279
0.6524629495 0.7513767689 0.4864412453
0.6424777889 0.7522554356 0.7327593623
0.67259159 0.7501921961 0.9941306979
0.6725032258 0.5004009323 0.9923265944
0.6824073858 1.0013541798 0.2448193202
0.6722970425 1.0001240464 0.4922769679
0.6823852948 1.0003518489 0.7419658129
0.6825362504 0.750302843 0.2418517541
0.6724553618 0.7499058158 0.4926635615
0.6824883864 0.7506738356 0.7453659957
0.6623302911 0.7522424183 0.2369466176
0.6624297009 0.7504850849 0.7382250595
0.7024881623 1.0007163329 0.2448211612
0.7024329347 0.4985264435 0.7447005024
0.6925103654 0.7509667244 0.9956310493
0.6923704554 1.0000394341 0.491047232
0.7023997981 1.0001045205 0.7431918669
0.6922931366 1.0002021501 0.9905040817
0.7023482523 0.7520601763 0.2445026817
0.7023850707 0.5009580721 0.2399933434
0.6925324565 0.7495413319 0.495374319
0.7024476621 0.7487017171 0.7444786713
0.7223738011 0.4974961254 0.7454157006
0.732329507 0.7478881368 0.9961557121
0.7223590738 0.7505306454 0.2442900552
0.7225173931 0.4991226351 0.2464264451
0.732329507 0.747666843 0.4972143205
0.7224327106 0.751884443 0.7440119976
0.7224548017 0.9980998588 0.7436557792
0.7125101414 0.7515329763 0.9948394529
0.7124843685 0.7498732726 0.4948395312
0.7424840324 0.4974544701 0.7476422957
0.7424913961 0.7480508529 0.2469520283
0.7424913961 0.4995007872 0.2496811951
0.7424030318 0.7488644331 0.7457028844
0.7524949659 0.4992183121 0.4963196324
0.7524876022 0.7500620232 -8.2391384882e-05
0.7626163547 0.4994949294 0.7515514934
0.7624433081 0.7469053319 0.2506596451
0.7624985357 0.4983175161 0.2522133832
0.7523808288 0.7468532627 0.4995449277
0.7624617173 0.7480052924 0.7511170359
0.7824173111 0.7490076232 0.2594638543
0.7825903578 0.4976197896 0.2568350177
0.7723879684 0.7491117615 0.5032433399
0.7823547198 0.7487602948 0.7569444743
0.7724947419 0.9989785255 0.5035747058
0.7725131511 0.4975996129 0.5052812404
0.7724836963 0.7477970158 0.0034152683
0.7824725388 0.4985134262 0.7574636142
0.7724321505 0.4976751131 0.0044488539
0.7924135173 0.74844788 0.5067668645
0.812608431 0.4988167289 0.5108583135
0.8124022477 0.7487602948 0.0151448865
0.8023913142 0.4992482519 0.7573927387
0.8024686329 0.7479141714 0.2616269375
0.8025790882 0.500115203 0.2607893181
0.7924245628 0.4990952988 0.5079643842
0.7924171991 0.7478425763 0.0061951524
0.8123028379 0.7470420134 0.5148245798
0.7925166089 0.4982615417 0.0065142762
0.8025790882 0.7500164627 0.7611509809
0.8324130692 0.4973711595 0.5079137588
0.83239466 0.7492224084 0.012058949
0.8225162728 0.4981320198 0.7649359164
0.8325308882 0.4991623378 0.0126165643
0.8223800446 0.7506738356 0.2643487406
0.8226156826 0.5010478914 0.2642686605
0.8324425239 0.7497300825 0.5139298917
0.8224315904 0.7495348232 0.7638304428
0.8624716426 0.7486561566 0.7654532155
0.8624311423 0.4984021284 0.7629698118
0.8523539356 0.7506022405 0.0100225212
0.8525380278 0.4989826993 0.0135231263
0.8624421879 0.7476733516 0.2661878216
0.862534234 0.4987086854 0.2620963726
0.8523760267 0.7475952479 0.5132423074
0.8424902759 0.7476408084 0.2617981433
0.8424608211 0.5009841067 0.2622565328
0.8425160488 0.7478816282 0.7628427881
0.8525122549 0.5008083733 0.5082285565
0.8725193946 0.5002043714 0.5146101124
0.8824824641 0.751175001 0.7666949173
0.892412397 0.4999915388 0.5163810793
0.8724715306 0.7492549516 0.0094347148
0.8923792605 0.7518974602 0.0154989878
0.882460373 0.496635683 0.7642013885
0.8725414856 0.500100884 0.0155567928
0.8925265342 0.5008226923 0.0152172347
0.8824640549 0.7500490059 0.2674847512
0.8825892376 0.4985427151 0.262428659
0.8724899398 0.7498602553 0.509938773
0.8924344881 0.749157322 0.5139363349
0.882508237 0.9975010637 0.2645190259
0.8825892376 0.9977158489 0.7669204302
0.9124710825 0.7505176282 0.5162512943
0.912647811 0.9994341304 0.0210547982
0.912460037 0.5001353798 0.5187328571
0.9026111046 0.7493590899 0.7687880456
0.912529992 0.7488058553 0.0186730134
0.9124858099 0.4989098025 0.0170965399
0.902577968 0.7510057763 0.2661675715