POSCAR file written by Ovito 3.7.11
1
271.6153475605 0.0 0.0
0.0 15.3648843308 0.0
0.0 0.0 10.8646139024
Sr Ti O 
800 800 2400 
Direct
0.0222996042 0.5010810364 0.7675793236
0.0124950036 0.2497247674 0.5167844012
0.0224406861 0.2520703757 0.7681058034
0.0026292136 0.2486619543 0.7690704028
0.012324137 0.2471741462 0.0159302477
0.0224270639 -5.3842479023e-04 0.2708686214
0.0025411847 -7.5290812331e-05 0.2693618951
0.0025469649 0.4995248907 0.2656185499
0.0125134856 0.4999101848 0.518720043
0.0124150008 4.8156336345e-04 0.5202626657
0.0225189586 -3.9179173061e-04 0.7664251178
0.0025063192 -0.0030330612 0.7660164517
0.0224889897 0.2486059825 0.2678625321
0.0026562371 0.2496447147 0.2688814362
0.0325529276 0.4992235542 0.0156689406
0.0425538353 0.5007491107 0.2638356978
0.0325742814 0.5010888465 0.5155538007
0.0322554481 0.2509489875 0.5172225208
0.0423888961 0.2492997723 0.7653022063
0.0323938792 0.2516317131 0.01889906
0.0525864053 0.5005187153 0.0101790078
0.0424301309 -7.4760306523e-04 0.7655267886
0.0425446311 0.2499017944 0.2665813085
0.0525698378 0.2513225666 0.515247301
0.0526725565 0.2509678617 0.0145147349
0.0625806859 0.2521959868 0.2662665251
0.0626108757 0.5020917828 0.7586733467
0.0724939696 0.4986631855 0.0108668372
0.0624636086 0.5013088286 0.2595732361
0.0725469858 0.4995209857 0.5119209058
0.0724427943 0.2505226907 0.5124989291
0.0624636086 0.2503756021 0.7667003232
0.0724291721 0.2496408097 0.0116100757
0.0924817945 0.2489776091 0.5123212882
0.1025084739 0.2516219506 0.75775845
0.082520649 0.2510485652 0.7634098243
0.0924066883 0.2492281805 0.0114166036
0.1024337358 3.884289168e-04 0.2631426221
0.0923654535 7.4892626131e-04 0.5088421033
0.1025165735 0.2506613185 0.2585331624
0.0825125493 0.2483111544 0.2626124606
0.1023457437 0.5016179751 0.7562489624
0.0824584286 0.5003039398 0.7598431996
0.1025279867 0.4984503626 0.2576688887
0.082593178 0.5013439737 0.2567024484
0.122648352 0.250348267 0.2572694267
0.1124401659 0.5013778171 0.0071070165
0.1125322079 0.2488175038 0.5093170397
0.1225412152 0.4989755862 0.2525403125
0.1125649748 0.4985011277 0.5047131025
0.1225283293 0.2504732273 0.7568610412
0.1125189538 0.252132205 0.0096005243
0.1223597085 8.0001678586e-04 0.2580333747
0.1523823124 0.2503352503 0.505083111
0.1326131792 0.2495171511 0.5049386052
0.1424782329 0.2476407947 0.7535410889
0.1524927627 0.2505975367 0.0047480739
0.1325064105 0.251537342 0.0051588571
0.1424045994 9.3539040503e-04 0.2540976619
0.1425886832 0.2497260691 0.2551469399
0.1426023054 0.5005974663 0.7545121312
0.1522751756 0.5012014409 0.0028256863
0.1323613525 0.4988174333 0.0040780087
0.1523867304 0.5002700964 0.502090828
0.1323911741 0.4976706626 0.5051162461
0.1825529198 0.2518145976 0.2486717903
0.1724032724 0.5020182384 0.5021258039
0.1825462928 0.4976882351 0.748112456
0.172487951 0.250970465 0.4995099724
0.1624251912 0.2507205445 0.7500204852
0.172483533 0.2500443272 -0.0021949616
0.1824281109 0.500704854 0.2451603908
0.162470844 0.0016190272 0.7536579821
0.1625260691 0.2484445755 0.2531588343
0.1824454148 0.2498516802 0.7483683326
0.182467873 0.0022873693 0.248065234
0.1925232695 -3.8778985237e-05 -0.0048756643
0.2024479664 0.2494260343 0.2479842371
0.2025072414 0.4992443809 0.7500490182
0.1924890299 0.5005427961 -0.0033759791
0.2024115178 0.4984698876 0.2500220454
0.1924599446 0.4980793868 0.4974049735
0.1924952887 0.2501621283 0.4998109495
0.2024615886 0.251033596 0.7483738551
0.1924820347 0.2508266305 -0.0040955169
0.2025076096 -0.0011998681 0.2488411475
0.212679347 0.250466719 0.5012955857
0.2224622993 0.2500130872 0.750957472
0.2126141813 0.2498113284 -0.0021956151
0.2225628091 -5.0705455732e-04 0.7509721987
0.2224383684 0.249848426 0.2506451692
0.232586175 0.2510596294 0.499160213
0.2326830031 0.2484595447 0.9989129009
0.2324050365 7.7391831408e-04 0.4981974545
0.2225731178 0.5001301669 0.7491580523
0.212440038 0.4990367646 1.1431516631e-04
0.2124705959 0.4992502384 0.5000051579
0.2424512287 0.5025297945 0.7498833427
0.2626831488 0.2520762332 0.7502680779
0.2626143014 -5.1876958206e-04 0.2510878909
0.2626345506 0.0021083898 0.7488506323
0.2526122893 0.2499792438 0.5007709468
0.2426990056 0.250234371 0.7488248605
0.2527098537 0.2509535433 0.9970168372
0.2626201921 0.2497124015 0.2511062993
0.2426747065 9.917526907e-04 0.2500524192
0.2624313221 0.4993010035 0.2524390664
0.2526807685 1.9070533265e-04 0.5010912527
0.2425826646 -0.0020047033 0.7520739406
0.2526601511 -2.4847792801e-04 0.9990049428
0.2425425343 0.2535672955 0.2513723005
0.2725441527 0.2514442727 0.5006733823
0.2725754469 0.2498503785 1.0021895935
0.2725655064 0.0018812485 0.5004451183
0.2726060048 8.3281885512e-04 1.0026037822
0.2825030892 0.2494644335 0.7504641272
0.2725868601 0.5005623212 0.4990451606
0.2826960091 0.2515269287 0.2476814192
0.3126516065 0.0016047088 0.4955153527
0.2924785932 0.5027536816 0.4963842285
0.2924506125 0.249466386 0.4978927957
0.3026580622 0.2542344011 0.7451385814
0.2925143055 0.2532321156 0.9969800204
0.2925257187 0.0016877553 0.4962277572
0.3026120412 0.0040501551 0.7469941466
0.3125930678 0.5023247816 0.4930817642
0.3026032052 0.2515431996 0.2452137751
0.3126092672 0.252470639 0.4967901334
0.3125930678 0.2526333477 0.9941359249
0.3225475863 0.0017811501 0.2451355395
0.3326140278 -4.2114437593e-04 0.488848756
0.3225932391 0.0021301928 0.7407159668
0.3326449538 0.0017944271 0.9877666235
0.3226867537 0.253246434 0.2464305694
0.3226226925 0.5015307632 0.745809567
0.3227309338 0.5017214578 0.24370981
0.3325448122 0.2501823042 0.4909243014
0.3226992714 0.2514553369 0.7425107843
0.3326618896 0.2518009301 0.9915587509
0.3624577022 0.2479512428 0.2370726667
0.352563195 0.5001542478 0.4926059074
0.3524464859 0.248497944 0.4894580735
0.3425600784 0.2509672108 0.737287405
0.3624982006 0.5009014061 0.7354244764
0.3525109152 0.2485721391 0.9900308549
0.3624797922 0.5015333666 0.2391067933
0.3425689144 -0.0012857783 0.2388435533
0.3425685463 0.249533422 0.2376819842
0.3624098404 0.2512229889 0.7337631196
0.3425615511 0.5006241505 0.7465173694
0.3425387247 0.5017461895 0.2425565247
0.3825081156 0.2499219703 0.2391196791
0.3926216825 0.2531605238 0.4863737485
0.3925222772 0.250632031 0.9881439954
0.3923934185 -0.0016300048 0.9879046864
0.3825927941 0.5028649744 0.7376933099
0.3926253642 0.5017084411 0.988650226
0.3724939539 0.2502135442 0.4898216391
0.3824050286 0.2533264867 0.7376730606
0.3724976356 0.2511507462 0.9861098688
0.3925333223 0.5015646066 0.4875325564
0.3724939539 2.4368327784e-04 0.4861565296
0.4126573692 0.5003338782 0.9791146824
0.4025732557 0.2500827265 0.7349854364
0.4025953457 6.0893171572e-04 0.7323732865
0.4024628053 0.2497045915 0.2341613805
0.4125506005 0.249958417 0.4817541642
0.412476967 0.2504387331 0.9823545582
0.4125027387 0.0031199822 0.481420052
0.4126205524 -5.5570520692e-05 0.9816734479
0.4425157703 -5.9934291885e-04 0.7279782845
0.4423979566 0.250249991 0.2283388082
0.4225758072 0.4999707124 0.7313203268
0.4325531521 0.5017097428 0.9817010605
0.4325494705 0.5015112382 0.480473861
0.4423648215 0.5041790097 0.7274720539
0.4425489054 0.50078751 0.225216746
0.4325641972 0.2501647316 0.478245526
0.4224948103 0.2504563056 0.7332532073
0.4325494705 0.2510550735 0.9808450706
0.4225500355 0.0030627738 0.2300848436
0.4325457888 0.0015252419 0.9795012585
0.4224138134 0.2492385939 0.2306232888
0.442416365 0.2506613185 0.7317225501
0.4724662134 0.2493726658 0.4736563155
0.46244837 0.2461894333 0.7248276893
0.4724146699 0.2505298499 0.9761325239
0.4724846217 9.0460592336e-04 0.9717697366
0.4623747365 0.2497833425 0.2212460573
0.4524415717 0.4991858058 0.9797865884
0.4523495298 0.501815178 0.4797191172
0.4623636915 0.4989144077 0.7240306062
0.4724551683 0.4993537211 0.9731595697
0.4623894632 0.4997748112 0.2243791645
0.4525004786 0.2518256618 0.4761211983
0.4524673435 0.2484497822 0.9741812351
0.4524010733 7.821188314e-04 0.4773554805
0.482605552 0.2515152137 0.7229546361
0.4824877384 5.1833552443e-04 0.7263334952
0.4924687649 0.499677186 0.9753685759
0.4924650833 0.4996094992 0.4730902576
0.4825429635 0.2488819364 0.224584418
0.4924503566 0.2520319764 0.4793840846
0.4925828969 0.2513225666 0.9778905247
0.4824067415 0.500240158 0.2236106144
0.5025639235 0.2512171314 0.7307459852
0.51252286 0.2509919426 0.4824104232
0.5125707218 0.2534885445 0.9807530287
0.5025307884 0.0014243625 0.7330893727
0.5026007403 0.2506873519 0.2330136177
0.5224744332 0.2526886686 0.2371996845
0.5224781148 0.2509346691 0.7374263883
0.5124786799 0.5003996125 0.4806128443
0.5224155263 0.5028779911 0.7311500493
0.5424180779 0.499696711 0.7323999786
0.5524101495 0.5014702356 0.9866621204
0.5424953931 0.5002668422 0.2329169737
0.5522960175 0.4995483207 0.4853447198
0.5326064085 -1.7922911513e-04 0.4863387726
0.5324591414 0.2506984161 0.483518608
0.5324260063 0.2509912917 0.9806149658
0.532326601 0.5015099365 0.9815537934
0.5525463716 -9.7858430294e-04 0.9868922252
0.5424107146 0.2505558833 0.2329979706
0.5524985098 0.2488077413 0.4857294551
0.5425432549 0.2488812856 0.7341653428
0.5524653747 0.2489222882 0.9844162974
0.572390611 0.2482011633 0.4866986565
0.5722175722 0.2499135094 0.9851802454
0.5621923655 0.498653423 0.7335081635
0.5623874944 0.499909534 0.2367818142
0.572379566 0.5004907294 0.9862111149
0.5724421545 0.4988317517 0.4887493507
0.5625458065 0.2490244692 0.2375135475
0.5625568515 0.2513062957 0.7364857198
0.6023741892 0.5002883198 0.7390049073
0.592297439 0.5006807731 0.989892792
0.5923195291 0.5001282144 0.4899173627
0.5824968146 0.2498191384 0.7377982377
0.6025509097 0.2499616712 0.2399903958
0.5923232107 0.249769675 0.4901787618
0.6024993662 0.2497377841 0.7388594811
0.5924925679 0.2500645031 0.9884661422
0.5823716376 0.4990087787 0.7382740944
0.5822611873 0.5003195598 0.237997688
0.5823937277 0.2484907848 0.2356579822
0.612432531 0.4988050675 0.9884477338
0.6123993959 0.499535304 0.4935290879
0.6225350529 0.4989404411 0.7409819679
0.6124509393 -7.332196182e-04 0.490495386
0.622568188 0.499114214 0.24061444
0.6124877561 0.2495249611 0.4929151683
0.6125503446 0.2499792438 0.9918901018
0.6223951491 -0.0013755935 0.7456751858
0.6224687827 0.2493323141 0.2422537067
0.6225092811 0.2501426033 0.7401499089
0.6423314305 -0.0017971066 0.2424138597
0.6522756403 -0.0016264903 0.4949170802
0.6326523015 0.4996745826 0.4927034719
0.6424418808 0.2488643639 0.2443568648
0.6524891776 0.2488279172 0.4913164
0.6425854663 0.2477598974 0.7422567486
0.6325234428 7.6539237942e-04 0.4935925969
0.6524229074 0.249312789 0.9910064993
0.6424381992 0.4990374155 0.7421021182
0.6523492739 0.4987198081 0.4923776434
0.6323651307 0.2496056646 0.49219448
0.6323651307 0.248922939 0.9916415886
0.6825942511 0.4997533336 0.7444326198
0.6623192554 -4.8362450785e-04 0.2426918263
0.6825832061 0.4987764307 0.2444709968
0.6625107026 -6.8206401018e-04 0.7432655281
0.6726979031 0.4997507303 0.4956773465
0.6623818439 0.2492203705 0.243716253
0.6624922942 0.2466710509 0.7477157553
0.6724917292 -0.0012587036 0.9963909521
0.6625143843 0.499748127 0.7438720844
0.6624112973 0.5007556191 0.244388159
0.6826384312 0.2483456486 0.2449081959
0.6724438674 0.2504888473 0.4925543639
0.6826347495 0.2476609705 0.7447547665
0.6725579994 0.2505116265 0.9959491508
0.7024937157 0.2478601259 0.2456012716
0.6924427373 0.249297169 0.4947385189
0.7025857576 0.2494553218 0.7462476866
0.6926157761 0.2482727552 0.9958847215
0.6926341845 0.4999401232 0.9956546167
0.6925568693 0.499582815 0.4998109495
0.7326319243 0.4992671601 0.9963633395
0.7325877442 0.4997246969 0.4958135686
0.7125373308 0.2500566931 0.4949667828
0.7125336491 0.2513850467 0.9973113713
0.7226619428 -9.6185785096e-04 0.2483238718
0.7326613777 -1.8456595973e-04 0.4996728866
0.7326098342 -1.7961961595e-04 1.0014808706
0.7124968323 0.4991799483 0.9931602804
0.7224925856 0.2484126846 0.2482925776
0.7326282426 0.2492639764 0.4953809715
0.7225735825 0.2524263823 0.7496670442
0.7325840625 0.2493746183 0.9948998729
0.7125704659 0.4988597376 0.4953938574
0.7125962376 0.0010710244 0.4982628043
0.7125483758 -6.0396384528e-04 0.9961148263
0.7525755691 0.4975762915 -0.0080487434
0.7427086745 -8.0006034266e-04 0.2487113683
0.7425982242 0.0015528373 0.7442973181
0.742657131 0.2491175386 0.246565871
0.7426129509 0.2492249263 0.7459964121
0.7625455506 5.5803644159e-04 0.245694234
0.7526013408 0.0022521592 0.4930458678
0.7626633643 0.00132101 0.7459549932
0.7526087041 7.2048478459e-04 -0.0046869323
0.762563959 0.2477598974 0.2430452673
0.7525240256 0.2489483216 0.4926169525
0.7625455506 0.2503261387 0.7470594964
0.7525866141 0.2486775743 -0.0065585773
0.782481832 -8.3474983258e-04 0.2475093008
0.7824081984 6.7011017823e-04 0.7458150895
0.7724198085 2.5523483869e-05 -0.0049547099
0.7824744686 0.2494318918 0.2447931435
0.7724676703 0.2515210712 0.497478607
0.7824155618 0.2498243451 0.745445081
0.7724897604 0.2506086009 -0.0015866657
0.7924775853 0.0010308028 0.4945995356
0.7925843539 -0.0015645959 -0.0075337725
0.8125758604 0.5015138415 -0.0066432835
0.7924775853 0.2500853298 0.493551178
0.7924149967 0.2508018988 -0.0056805157
0.8025027919 0.0021208207 0.2427654599
0.812432275 -6.0344317751e-04 0.494218482
0.8024954286 7.0011365825e-04 0.7411522455
0.8124948635 9.7867091308e-04 -0.003354607
0.8025322454 0.2501920667 0.2461148656
0.8125169536 0.251053121 0.4939800934
0.8026758308 0.2519688455 0.7461445996
0.812649494 0.2511540004 -0.0063186148
0.8325636853 -0.0015081685 0.5001211308
0.8224464367 -7.7721604443e-04 0.749475597
0.8325931387 6.5745068796e-05 -0.0010662054
0.8225752954 0.2484855781 0.2458948854
0.8325747303 0.2462987735 0.4983189498
0.8226673373 0.2486248567 0.7447529257
0.8325452769 0.2501562708 -0.0023990093
0.8225605687 -3.0008912032e-04 0.2459013283
0.8425852103 -0.0039604356 0.7486159254
0.8426588439 0.247722149 0.2459501105
0.8426441172 0.2486196501 0.7490540449
0.8625656719 -0.0014704852 0.2534257558
0.8425189401 0.4967842257 0.7460240247
0.85248524 -0.0026992871 0.5002822041
0.8625877619 -0.0037536589 0.7496523175
0.8525809636 -0.0016011728 0.0013597345
0.8624662666 0.2491494295 0.2510676417
0.8426109821 -0.0014496585 0.2463504929
0.8525073301 0.2476323338 0.4981532744
0.8625399001 0.2473811116 0.7499983951
0.8525625552 0.2490511535 -0.0021205457
0.8725356534 -0.0035791831 0.500677064
0.892538205 -0.0016463407 0.5046431506
0.8724767466 -0.0034254495 0.0041325896
0.8825755868 0.2482174342 0.252374637
0.8925713401 -5.9153290236e-04 0.004693401
0.8726166503 0.2480378038 0.5037015617
0.8926412919 0.2489053665 0.5073878409
0.8826013585 0.2498575377 0.7537408199
0.8725724702 0.2473114723 7.8854989437e-04
0.8925823851 0.2474878485 0.0097927079
0.9025339582 -4.8264825579e-04 0.2641817754
0.9126033451 -0.0018490041 0.5122274054
0.9025634117 -6.9514578781e-04 0.7621552928
0.9027585405 0.2488188055 0.2619341116
0.9125738916 0.2501426033 0.5130401356
0.9027069971 0.2492229738 0.7640209827
0.9024492797 0.4999199473 0.761475103
0.912581255 0.250159525 0.0096143306
0.9225365098 -3.4506179861e-04 0.2612465584
0.9225144198 -7.1450887557e-05 0.7642869838
0.9225990983 0.2499187161 0.2628075895
0.9226948219 0.2504400347 0.7626118208
0.9423586592 0.0021937793 0.2664662561
0.9323555426 3.6890387557e-04 0.5125679606
0.9424654279 7.2855513497e-04 0.7635110704
0.9324475845 0.0015777643 0.0151728346
0.9424507012 0.2512770082 0.2633920557
0.932602215 0.2500417239 0.5115057967
0.9424875179 0.2505565341 0.7649358794
0.9325874883 0.2508565689 0.0123778895
0.9526010849 1.8927349629e-04 0.5188424587
0.9524317277 0.0014548867 0.0211453432
0.9625489763 0.2481419374 0.2702685081
0.9524501361 0.2491448737 0.5193532914
0.9725189579 0.2498230434 0.5182248574
0.9626594267 0.247796995 0.7695655884
0.9525569047 0.2498100267 0.0189666188
0.9723753725 0.25058452 0.0194502991
0.9624753428 -7.0601472742e-04 0.2670820166
0.9824778944 0.4997923837 0.7693198364
0.9825809813 0.5006560414 0.2729819041
0.982573618 -0.0013522936 0.2716233652
0.9924994194 -0.0010951488 0.5190882107
0.9825441646 0.2496577314 0.2657345227
0.9925620079 -0.0021601942 0.0208043279
0.9925656896 0.2470888868 0.5184696889
0.9826141164 0.2479414803 0.7668807254
0.992492056 0.2472431346 0.0183886875
0.0122638311 0.7477207064 0.0200217874
0.002487469 0.4977598269 0.7693778228
0.0126430439 0.5002264905 0.0193341422
0.0225033851 0.7488661755 0.268136817
0.0023813631 0.7490158675 0.2676793687
0.0122866943 0.7506039041 0.5165045938
0.0224807796 0.7493347765 0.769797534
0.0223935974 0.4998138613 0.2645775557
0.0024792588 0.7461326697 0.7713502813
0.0125594698 0.9995677048 0.0159632907
0.052425516 0.9993399127 0.5123323332
0.0525182943 0.9992357791 0.0130092051
0.0324634629 0.7495495519 0.0197246761
0.0426201054 0.4999661566 0.7646431861
0.0423638607 0.749588602 0.2679812662
0.0324848166 0.7509228132 0.5184982219
0.042388528 0.749269693 0.765534152
0.0524538649 0.7493347765 0.0157622711
0.0524431881 0.7506624793 0.5144677059
0.0524118938 0.4988356567 0.5125937323
0.0422953815 0.9999321723 0.263673704
0.0324667764 0.9994830963 0.5142863833
0.0324557314 1.0004463317 0.0172417531
0.0722568696 0.9981814269 0.5143848682
0.0623848207 0.9991381539 0.7629256837
0.0724243859 0.9998345471 0.0161648625
0.0724667252 0.7491850845 0.0091528324
0.0624669221 0.7520682822 0.2650313224
0.0725241594 0.7489833257 0.5112140238
0.0624389413 0.7494844684 0.7642464854
0.0623122916 0.9998410554 0.2638393795
0.0823840588 1.0003421981 0.2641458791
0.1023096633 1.0003682315 0.758647575
0.0822294283 1.0003487065 0.7635966694
0.0923978523 0.9996132633 0.0098792273
0.0923260596 0.7475514894 0.0092632827
0.092482899 0.4990178904 0.0072344946
0.1025047922 0.7518730318 0.2568276255
0.0825703516 0.7504607205 0.2622332478
0.0924729585 0.7485147247 0.5071936324
0.1024344721 0.7501027614 0.756355731
0.0824149848 0.7492176262 0.7596011293
0.0924523411 0.5004627435 0.5106185125
0.1123764729 1.00124035 0.006616341
0.112343706 0.7496601938 0.0050010972
0.1224745768 0.5001093402 0.7530679934
0.1224075703 0.7463864952 0.2527833032
0.1124420068 0.7488401421 0.5055230715
0.1224583775 0.7502199117 0.7531222981
0.1125178493 1.0024378859 0.5045419045
0.1224086748 1.0019237265 0.7565978013
0.1525472516 0.9996588217 0.5046256627
0.132483216 1.0012143166 0.50426854
0.1425054773 1.0026136113 0.7537711937
0.1524927627 1.0001078976 0.0040162486
0.1325170874 1.0010060495 0.0023045449
0.1525119075 0.7507666128 0.0038745961
0.1324762208 0.7513718891 0.0019475142
0.1423368565 0.7497122606 0.2514293664
0.1524434283 0.7508382046 0.5041626918
0.132500888 0.7526345084 0.5010065741
0.1425220449 0.499153264 0.2544547846
0.1423710961 0.7475905394 0.7542838672
0.1723885457 0.7507991546 -1.490351953e-04
0.1624870434 0.4993875645 0.7520536913
0.1723668238 0.500476411 6.958084487e-04
0.1623824837 0.7493022347 0.2525255858
0.1824465193 1.0023923275 0.747194798
0.1722659458 0.750525804 0.4998477662
0.1623626027 0.4967757649 0.2503626005
0.1623298357 0.7498098858 0.754006821
0.1823393825 0.750395637 0.2489874941
0.182399762 0.751313314 0.7457911586
0.1624759983 1.0014356004 0.2525099387
0.1723856004 1.0015852924 0.4968895387
0.1724890555 1.0007457156 4.1756570329e-04
0.1924109783 1.0029390286 0.494839765
0.2026176917 1.0015267173 0.7481989754
0.1922876421 0.7520292322 -0.0032250488
0.2023213167 0.7534480518 0.2468199067
0.192410242 0.7511050469 0.4962544494
0.2024442847 0.7523806829 0.7470245204
0.2324621025 0.7500702197 0.9997412782
0.2325132778 0.4993921204 0.9989221051
0.2324731475 0.7502394367 0.5018285085
0.232522482 0.4982987181 0.499998715
0.2225749587 0.9976998092 0.2511698082
0.2124956313 0.9997759719 0.4998947076
0.2124713322 0.99966533 -0.0024288401
0.2124426152 0.752120349 -0.0015711842
0.2323464978 1.0000363058 0.9989957386
0.222386825 0.7487034668 0.2442823108
0.2124912133 0.7508121712 0.5002941696
0.2225160518 0.4999980475 0.2507611421
0.2224225372 0.748950784 0.7465385391
0.2524436685 0.7502719784 0.9975598845
0.2525865176 0.5007341416 1.0006985143
0.2425171307 0.7518925569 0.2494477038
0.2524852714 0.7507991546 0.4985987573
0.2425329619 0.5002857164 0.2509479872
0.2425362755 0.7497448023 0.7468754125
0.2525419693 0.501047193 0.5025031758
0.2624084957 0.5018184322 0.749640352
0.2625885297 0.7501287948 0.2521426914
0.2625734348 0.7526865752 0.7507678656
0.2825918176 0.5016082126 0.7500729491
0.28231606 0.7512937889 0.2523405815
0.2825667822 0.503177375 0.2485162395
0.2824865216 0.7513783974 0.7518732892
0.2725065996 0.7518339817 1.0016833629
0.272481196 0.5006508347 1.0011127029
0.2723722184 0.7522244826 0.501515566
0.2825354879 1.003283971 0.2500156024
0.2825804044 1.0017740345 0.7503094968
0.3127094088 1.0003421981 0.9971272875
0.2923556252 0.7548538548 0.9974678426
0.3024290619 0.503330972 0.7475114222
0.2925444952 0.5038230031 0.9979924816
0.302464406 0.7524522747 0.2469055057
0.2924690209 0.7518600151 0.4972540247
0.3025947373 0.5027237433 0.2443642281
0.3024934912 0.7515736479 0.7505828613
0.3025350942 1.0033360378 0.2447517246
0.3126063218 0.7541314283 0.9963173185
0.312683637 0.5024347726 0.991659997
0.3125566192 0.7528688089 0.4966198559
0.2925930934 1.0019627765 0.9998057076
0.3326791934 0.7534936102 0.9921570234
0.3324792784 0.5005837987 0.9923042905
0.3226584048 0.7518925569 0.2448980713
0.3324800147 0.7528362672 0.4936754346
0.3226642954 0.7513068056 0.7456024727
0.3325812608 0.5003787858 0.4921963208
0.352376534 1.0005569736 0.49129431
0.3424698773 1.0019042014 0.7392929986
0.3624834739 0.7510204384 0.2428538201
0.3525591452 1.0015071923 0.9872511887
0.3625386991 0.7490028508 0.7401158534
0.3624098404 0.9995546881 0.2405380452
0.3525635632 0.749887986 0.9887238596
0.3624503388 1.0000232891 0.7380393875
0.352497293 0.4988708018 0.9879691158
0.3425700189 0.750714546 0.2410019365
0.3524630534 0.7493217598 0.4916256609
0.3425818003 0.7520292322 0.7435195639
0.3924780971 1.0006415821 0.4862863087
0.3724939539 0.750525804 0.9908040071
0.372401912 0.5001913454 0.9899296088
0.3824786621 0.7505518374 0.2403410755
0.3725602241 0.7477011813 0.4889085832
0.3825044339 0.5019674733 0.2354103895
0.3825265239 0.7487229918 0.7437091702
0.3825154789 1.0004007732 0.2378495005
0.3826001575 1.0013184502 0.7386560684
0.3725896775 1.0013640086 0.9918256725
0.3724645005 0.5005330336 0.4876292004
0.3926327275 0.7507015293 0.9877021942
0.3925848657 0.7504281788 0.4840791433
0.4124511953 0.7513914141 0.9837904123
0.4126058257 0.7538580777 0.4790278823
0.4126058257 0.5011662958 0.481198231
0.4024370336 1.0021710437 0.2333753425
0.4026763426 0.5027979384 0.7346338362
0.4025585289 0.7526605418 0.2368618907
0.4027021144 0.5008571493 0.2338143825
0.4025622106 0.7492762013 0.734271191
0.4324721552 0.7526019667 0.9808726832
0.4226604858 0.7495951103 0.2280645233
0.432508972 0.7507470878 0.4797283214
0.4226457591 0.5009144228 0.231835481
0.4226089423 0.7496536855 0.7346964247
0.4424863169 0.7495365352 0.2306702302
0.442519452 0.7511310803 0.7307165318
0.4323764316 0.9992878459 0.476620986
0.4224469485 0.9996588217 0.7309429549
0.4424274101 0.9998475637 0.2270180066
0.4523826649 0.9994830963 0.9756447017
0.462334238 0.9982660354 0.2267952651
0.4725877087 1.0000688475 0.471912121
0.462312148 0.9965933902 0.7228699575
0.4523937099 0.7507470878 0.9752581256
0.4524526168 0.7505973958 0.4744248656
0.4724735767 0.7529338924 0.9726073181
0.462562502 0.7504672289 0.2251016936
0.4723999432 0.7507601045 0.4712972809
0.46242628 0.7487360085 0.7240398104
0.4725030301 0.4995144773 0.4754492922
0.4825503269 0.9969253159 0.2241674681
0.4924614016 0.9998085137 0.4775966304
0.4924834917 1.0013575003 0.9803756568
0.4823404713 0.5014415989 0.7263666303
0.4923141345 0.7501938783 0.4725978333
0.4824030598 0.7501548282 0.2235360605
0.4923693597 0.7489377673 0.9714107731
0.4823478347 0.7499530694 0.7249050045
0.5125265417 1.0020408767 0.4844279822
0.5124823616 1.0008498492 0.9817470815
0.5024866083 1.0017805428 0.2301943735
0.5223234844 0.7493217598 0.7336618735
0.5224449797 1.0021254852 0.2311488482
0.5224376164 1.0004658567 0.7301081347
0.5022988428 0.7525043415 0.2285247329
0.5025381518 0.5009183278 0.2298667042
0.5025086983 0.7516387313 0.7272677208
0.5025050167 0.5008532443 0.7274582476
0.5124050463 0.7522114659 0.9780101792
0.5124934066 0.5012613177 0.9791238866
0.5123829563 0.7521398741 0.4779454693
0.5225370217 0.5015737183 0.2315299018
0.522430253 0.7506885127 0.2288026995
0.5323413277 0.7501678449 0.4805668234
0.5323818262 0.5002004571 0.4840598145
0.5325290933 0.9983571523 0.9830816894
0.5424843481 1.0007066656 0.2320646654
0.5526089601 1.0008173075 0.483797495
0.5523733327 0.7490614259 0.9841493758
0.5425027565 1.0002575896 0.731011066
0.5424475313 0.7490093591 0.2297369251
0.5524248762 0.7507340711 0.4873015312
0.5424254413 0.7499595778 0.7334179624
0.5323928712 0.7525303749 0.9829068098
0.5625531699 1.0020473851 0.2353450397
0.5624537646 1.000752224 0.7350434228
0.562494263 0.7485342498 0.238300506
0.5623948577 0.7498814776 0.7348381693
0.572504743 1.0006480904 0.4844694011
0.5725084247 1.0008107991 0.9889447602
0.5723464309 0.7484561496 0.9846924232
0.5722322989 0.7487425169 0.4845642043
0.6025104112 1.0010646247 0.2447471225
0.5923931626 0.7497643274 0.9879507074
0.5923968443 1.0005244318 0.4895814097
0.602444141 0.9993724544 0.7396998239
0.5924373427 1.0015202089 0.9907395778
0.6024183693 0.7506169208 0.244616423
0.6024183693 0.4994780306 0.2431584789
0.5923416191 0.7507210544 0.4896421574
0.6023925976 0.7514109392 0.7445182188
0.5823790009 1.000283623 0.2389779346
0.5824194994 0.9993203876 0.7367885377
0.5824194994 0.7486774334 0.2387432276
0.5824305444 0.751163622 0.7370333693
0.6123588974 0.7501938783 0.9947065848
0.6124509393 0.748801092 0.4950339735
0.6125540263 0.9998605804 0.9936388985
0.6224614193 0.9998475637 0.2417226248
0.6224393293 0.7498554442 0.2406402118
0.622476146 0.7504542122 0.7433419229
0.6423572023 0.9986500279 0.7376159947
0.6523124571 0.9983376272 0.9928841547
0.6325492145 0.9986305028 0.9929854008
0.6322878155 0.7511375886 0.9957006376
0.6325713046 0.4968252283 0.9921754318
0.6323982658 0.7505973958 0.4905404866
0.6523860906 0.750356587 0.9935468565
0.6525039043 0.497925139 0.9963817479
0.6424234725 0.7471479718 0.2427001101
0.6424345175 0.498897486 0.2422306963
0.6524707692 0.7478313483 0.4908239757
0.6424013824 0.7473367139 0.7432655281
0.6725248643 0.7485082164 0.9953692867
0.6724990925 0.5000390501 0.9956914334
0.6826163412 0.9995221464 0.2425804556
0.6725837711 0.999007987 0.4918474819
0.6823991222 1.001220825 0.7460525577
0.6825647977 0.750675496 0.2453094987
0.6724917292 0.7502394367 0.4959847666
0.6825832061 0.7508056629 0.7480176528
0.6625107026 0.7497252773 0.2475847752
0.6624959759 0.7486644167 0.7430068903
0.7024274455 0.9992553042 0.2430691982
0.7024568989 0.5007452057 0.7459006885
0.6925347792 0.7491590511 0.9965842401
0.6925200525 0.9978885513 0.4936781959
0.7026630729 0.9995416714 0.7474966955
0.6925310975 0.9986760613 0.9967775282
0.7026299378 0.7507601045 0.2510961747
0.7025047607 0.4991070548 0.2459059304
0.6925752777 0.7495820937 0.4945084141
0.7024568989 0.7513002973 0.7489960585
0.7225846275 0.4992782243 0.7489297883
0.732657696 0.7509032881 0.9988484715
0.7226067176 0.7502654701 0.2485585787
0.7225588558 0.4985213035 0.2475746505
0.7325914259 0.7500116446 0.5007865939
0.7225330841 0.7519446236 0.7485956761
0.722499949 0.9981228518 0.7457405356
0.7125483758 0.7491134927 0.9969339994
0.7125888743 0.7526735585 0.4979719518
0.7427013111 0.5003013365 0.7444086889
0.742657131 0.7500506946 0.2467913737
0.742668176 0.4977923687 0.2430655165
0.7426644943 0.7475514894 0.7441951516
0.7527301995 0.4964789842 0.4944633135
0.7525792507 0.749588602 -0.005631485
0.7625492323 0.4989065977 0.7454312747
0.762471917 0.7480526321 0.2417796908
0.7625050521 0.5003045906 0.2416618771
0.7524908905 0.7498814776 0.4949815096
0.7625492323 0.7493282681 0.7432360747
0.7824339702 0.7516842898 0.2447544859
0.7825370571 0.5003891992 0.2469404817
0.7726186191 0.7470503466 0.4955052281
0.7824560602 0.7490549175 0.7440156698
0.7724971237 0.9988127366 0.4942276862
0.7725560306 0.4981119285 0.4943372161
0.7725228955 0.7499725945 -0.0036089004
0.7824781503 0.4989436953 0.7462706971
0.7725044871 0.499310766 -0.0024243761
0.7924223601 0.7529404007 0.4945286633
0.8125059086 0.5004113275 0.4960123791
0.8124801368 0.7489768174 -0.0083382995
0.8026463774 0.5004490759 0.7451625123
0.8024549301 0.7497643274 0.2468935403
0.8024144317 0.5003488474 0.2445832879
0.7925659455 0.500637818 0.4943878391
0.7925622638 0.7507275627 -0.0057250088
0.8125279986 0.7476816563 0.4954306742
0.792514402 0.5003045906 -0.0039100708
0.8024475668 0.7478313483 0.7445679214
0.8326262738 0.49958672 0.4996102981
0.8324790067 0.7485602832 -0.0013696124
0.8226342022 0.4991597724 0.7442963977
0.8324274633 0.4990803706 -0.0036997458
0.8225937038 0.7496341604 0.2490427193
0.8224869351 0.4974363621 0.2467297057
0.8324826884 0.7483194743 0.4977381653
0.8225752954 0.7510074217 0.7480010853
0.8624073597 0.747694673 0.7508451808
0.862484675 0.498173107 0.7481308644
0.8524815583 0.7473822723 9.5226486998e-04
0.8526140987 0.4971428356 -0.003560919
0.8624699482 0.747056855 0.2504942205
0.8624625849 0.498803115 0.2503046141
0.8525404652 0.7480070737 0.4977289611
0.8424084898 0.7504411955 0.251953085
0.8424931684 0.495987604 0.2497523625
0.8424489883 0.7490549175 0.7471211645
0.8525146934 0.4971395815 0.5011133427
0.8724325664 0.4961594244 0.5012725753
0.8823841396 0.7467054042 0.7534573307
0.8925345233 0.4989443461 0.5057651417
0.8725098816 0.7468160461 7.468917182e-04
0.8924167096 0.7480721571 0.00766792
0.8825939952 0.4989261227 0.7562369969
0.8726166503 0.4996114517 -3.7093803652e-05
0.8924682531 0.4971317714 0.0070051261
0.882402548 0.7496862272 0.2527004655
0.8825424517 0.4999062798 0.2532637621
0.8724362481 0.7485277414 0.5002012072
0.8924645714 0.7514044308 0.5104233837
0.8825719051 0.9998996305 0.2557995171
0.8824724998 0.9986825696 0.7568610412
0.9124229429 0.7494779601 0.5119917781
0.9125554833 0.9997889886 0.010603137
0.9125738916 0.5010068413 0.5135390029
0.9025928651 0.7524587831 0.7574224969
0.9126033451 0.7520357405 0.0106825692