POSCAR file written by Ovito 3.7.11
1
271.5676373832 0.0 0.0
0.0 15.3621854356 0.0
0.0 0.0 10.8627054953
Sr Ti O 
800 800 2400 
Direct
0.0225125855 0.4988445654 0.8125175437
0.012499905 0.2496202597 0.5626783115
0.0226200726 0.2483457014 0.8155839989
0.0026252379 0.2494848623 0.8137474398
0.0124014028 0.2497504495 0.0631466799
0.0224951313 0.0013737445 0.3111093077
0.0025226852 -0.0024575528 0.3139161591
0.0024454301 0.4997266014 0.3150070476
0.0123588352 0.4980028883 0.5656011561
0.0127149895 -9.6489020065e-05 0.5666506184
0.0225822183 -0.0033421991 0.8130036104
0.0024870035 -0.0025497402 0.8142519182
0.0225341271 0.2495805518 0.3093077308
0.0023499106 0.2491671991 0.3197554042
0.0326843793 0.4973695149 0.0605556127
0.0425879894 0.5000247361 0.3048778951
0.032544451 0.4997279033 0.5577937089
0.0326122057 0.2501410189 0.5606024014
0.042554112 0.2498506957 0.8083500736
0.0326810652 0.2507346845 0.0632358842
0.0527103296 0.4996868935 0.0540380835
0.0425467474 6.4539761109e-04 0.8091003471
0.0425839389 0.2526855788 0.3086651652
0.052628582 0.2517410517 0.5546149428
0.0525431521 0.250369502 0.0566933152
0.0624983147 0.2496436939 0.30537685
0.0625708565 0.4995156939 0.8012846146
0.0724358022 0.5000364531 0.0491655405
0.0626467124 0.4973239485 0.2997447356
0.0726015068 0.498939604 0.5464751658
0.0726166043 0.2491795672 0.5488972143
0.0624441845 0.2503551812 0.8025614604
0.0726755215 0.247291164 0.0485185562
0.0925457094 0.248695912 0.5407574374
0.1026036089 0.247380344 0.788618341
0.0825003299 0.2500908958 0.7939604724
0.0925589658 0.2488788287 0.0397092406
0.1023355358 -0.0020511523 0.2884105427
0.0926686991 -9.3178683976e-04 0.5416724949
0.1025936667 0.2481894737 0.2895603483
0.0825308932 0.2497237606 0.2974469655
0.1025723092 0.4991641814 0.7883891163
0.0825710305 0.4997226957 0.7930242416
0.1025811468 0.4993418905 0.2870591298
0.0825743446 0.4998619988 0.2937167714
0.1223515437 0.2495759952 0.2815117088
0.112513479 0.4985275533 0.033339833
0.1125779197 0.2488905458 0.5354852701
0.1223791612 0.500089831 0.2820447252
0.1124678182 0.498632356 0.5360661567
0.1224469159 0.2492915304 0.7834833403
0.1124442513 0.2491541802 0.0372015781
0.1224325549 3.7512356594e-04 0.2836529802
0.1523904691 0.2501839816 0.5262987926
0.1324477394 0.2511089802 0.530248085
0.1425240505 0.2488397718 0.775737572
0.1524173501 0.2514201338 0.0250493569
0.1324654146 0.252056762 0.0276169493
0.1425630831 -8.2776518172e-04 0.2761981155
0.1424253642 0.2517814105 0.2728738976
0.1423693929 0.5007707237 0.7757716335
0.1524545416 0.5022392647 0.0235654724
0.1324492123 0.5014874186 0.0278871398
0.1524574874 0.5024840216 0.5210201813
0.1324595228 0.5010747169 0.5270352574
0.1823638492 0.2506142589 0.2658526265
0.172441091 0.4989220284 0.5171316473
0.1823763691 0.5008586018 0.7646031452
0.1723795962 0.2490604435 0.5173148429
0.1625444773 0.2492238317 0.7742167723
0.1722989533 0.2506669858 0.0204787644
0.1823513293 0.4994662218 0.2635088273
0.1625411632 -0.0011600747 0.7696460877
0.1623802456 0.2487317142 0.2717452653
0.1822846792 0.2499782817 0.7662344146
0.182209928 -7.6690144564e-04 0.2649256014
0.1921904987 -0.0022619036 0.010858325
0.2023165212 0.25086878 0.2549115216
0.2024015829 0.5004589191 0.75250487
0.1923341094 0.4985158362 0.0061305893
0.2023437704 0.5027632787 0.2540995692
0.1923823478 0.5018050817 0.5066581975
0.1923197483 0.2503395584 0.508522374
0.2024597636 0.2499528947 0.756637358
0.1923705644 0.2503278413 0.0125523781
0.2023750701 -0.001199392 0.2542321329
0.2124138215 0.2507594205 0.5020129459
0.2223089623 0.2489790749 0.7534981769
0.2122967236 0.2519116003 0.004025773
0.2224087533 -9.2462640022e-04 0.7486467151
0.2224308472 0.2487408275 0.2528494202
0.2324309342 0.2487336671 0.5010997296
0.2324699669 0.2475951572 0.9991110218
0.2324438224 -0.0018069878 0.5010767151
0.2223299516 0.5009979049 0.7517453907
0.2123486444 0.4996471856 -0.002509505
0.2124753164 0.5019587057 0.5004654493
0.2425488556 0.4992898146 0.7478899976
0.2625442426 0.2491548311 0.7425469456
0.262473542 0.0025384876 0.2430875796
0.2624271447 6.4448628242e-04 0.7441082509
0.252378451 0.2494425506 0.4953672719
0.2423978803 0.2510829422 0.7467052099
0.2524020179 0.2489510841 0.9967359229
0.2624116789 0.2524616523 0.241557574
0.242482942 4.4028356575e-04 0.2458539254
0.26249269 0.5011046605 0.2436528163
0.2523640899 -4.9513021768e-04 0.492576991
0.2424910431 0.0017673083 0.7450251496
0.2524896572 -0.0011827277 0.9973343005
0.2423636347 0.2504886257 0.2482584829
0.2725461707 0.2495004851 0.4862111735
0.2724165529 0.2491873786 0.9871710865
0.2725104522 -0.0015119777 0.487176863
0.2725343873 0.0020813261 0.9858454499
0.2824994922 0.2515093138 0.7361673195
0.2725428566 0.4995742793 0.4900858988
0.2825584094 0.2490311508 0.2357441052
0.3124975438 -0.0017747659 0.4719348038
0.2925886915 0.5008722717 0.4777317022
0.292477117 0.2503096147 0.4778900421
0.3024554783 0.2469728499 0.7229486973
0.292457969 0.2491099156 0.978342715
0.292456496 6.0152364519e-04 0.4807438431
0.3025526917 -7.9892813885e-04 0.7252786877
0.3124467278 0.4987527816 0.4700043455
0.3024385396 0.2497940631 0.2257465958
0.3123808142 0.2474610617 0.4714386106
0.3124493054 0.2513296519 0.9706282464
0.3225558115 -0.0015321571 0.218625902
0.3324181796 1.5165275742e-04 0.4694731703
0.322494685 7.4720604236e-04 0.7232211892
0.3323968221 0.0016153768 0.9699378107
0.3223786918 0.2491392083 0.2202700596
0.3224070457 0.501558372 0.7188843323
0.3223809012 0.4986649035 0.2177283355
0.3323154428 0.2500570465 0.4700982448
0.3223341356 0.250995715 0.7202652037
0.3323931398 0.2503213318 0.9677836512
0.3623930326 0.2495759952 0.2050206357
0.3523826351 0.4997897435 0.4576722428
0.3523123027 0.2506363912 0.4590310203
0.3422963817 0.2474376275 0.7135670566
0.3622751982 0.5013565778 0.7067952629
0.3522640643 0.2506422497 0.958310873
0.3624482674 0.5005637219 0.2067697396
0.3423946998 -1.4016770125e-04 0.2150687771
0.3423335732 0.2506591744 0.2125914937
0.3623672563 0.2495050417 0.706619432
0.3423648729 0.5007752803 0.7097319162
0.3423298909 0.5006821946 0.2131797449
0.3824175099 0.2500791788 0.2047720789
0.3924702542 0.2518679868 0.4493934581
0.3923155966 0.2496515052 0.9507529032
0.3923818784 -2.9541904944e-04 0.9501177024
0.3824801094 0.5015915704 0.7021187116
0.3926065001 0.4975036104 0.9497034409
0.3723058485 0.2496235144 0.4546444519
0.382406463 0.2497869026 0.7016326448
0.3724641884 0.2529199204 0.9535422636
0.392525489 0.4989077075 0.4490804605
0.3723316248 3.2239669297e-04 0.4542458404
0.4123474385 0.498083606 0.9429463766
0.4024125287 0.2487453842 0.6958348259
0.4024972221 -0.00129059 0.6988073818
0.4025193161 0.2517423536 0.1974046694
0.4124505436 0.2504404555 0.4456034262
0.4125499664 0.250293992 0.9453214755
0.4125426017 7.3724652191e-04 0.4440209475
0.4124542259 0.0021852827 0.9421730886
0.4426603288 0.0011399887 0.6873286577
0.4425240829 0.2501664059 0.1925320343
0.4225327464 0.5020973578 0.6941722566
0.4324308331 0.4998203381 0.9420718247
0.4325339381 0.4993392867 0.4404205553
0.4425719531 0.5011541327 0.689140361
0.442594047 0.5000937367 0.1866845039
0.4326517725 0.2521010265 0.4420527454
0.4225032878 0.2504769086 0.6944686837
0.4326701841 0.2492733038 0.94065413
0.4227058157 -5.1257565219e-04 0.1961830584
0.4325560321 2.1577123875e-04 0.9424124396
0.4225364288 0.2481289354 0.1936569842
0.4426235056 0.2475626097 0.6875321061
0.4725239756 0.2512469814 0.4315139344
0.4624749137 0.2501227924 0.6847252547
0.472516611 0.2486008735 0.9298925384
0.4726086691 -1.2858080818e-04 0.9319822572
0.4625080546 0.24983312 0.1839927252
0.4525620978 0.5000904819 0.9371006874
0.4524589927 0.502095405 0.4373559413
0.4624712314 0.5007505443 0.678140339
0.4725423872 0.5002877195 0.9334183635
0.4625559248 0.498122012 0.1807044099
0.452609968 0.2497849498 0.4365320213
0.4526652029 0.2525365114 0.9357566392
0.4523558876 -3.5530636195e-04 0.4375078371
0.4824110153 0.2492863228 0.6800183241
0.4825656729 -0.0015628168 0.6775364378
0.492548453 0.498581582 0.9338326249
0.4924637595 0.4993451453 0.4303273055
0.4826209077 0.2483756451 0.180574608
0.4925337237 0.2482773518 0.4268042421
0.492548453 0.2509527524 0.9265140062
0.4825767198 0.5018428368 0.1791053608
0.5024796805 0.2484589666 0.6818097747
0.5124145904 0.2486881006 0.4342001897
0.5125729303 0.2491105666 0.9291284562
0.5024465396 -0.0018937984 0.6802042815
0.5025827856 0.2489979524 0.181989541
0.5225483457 0.2495714385 0.1842532496
0.5226035806 0.2505739 0.6873185313
0.5126060712 0.499220814 0.4353766922
0.522574122 0.5022275476 0.6836270016
0.5425765054 0.5018167988 0.6899311401
0.5525077329 0.4997337618 0.944667863
0.5425139059 0.5021194901 0.1907129663
0.5524930036 0.4980647285 0.4433535263
0.5325495374 -0.0011067619 0.4387432568
0.5324574793 0.2478008571 0.4366636644
0.5324574793 0.2502829258 0.9339983295
0.5325569021 0.4988738581 0.9386472634
0.552599791 -1.8150296587e-04 0.9439682215
0.5424734003 0.2494842113 0.1914190519
0.5525482385 0.2507327316 0.4448770878
0.5426317402 0.2508896103 0.6926339658
0.5525298269 0.250408559 0.9443640713
0.5727347381 0.2498142425 0.4505957368
0.5726463623 0.2517846653 0.9496850293
0.5625457479 0.4981747389 0.696069574
0.562626759 0.5021116787 0.1948362484
0.572631633 0.4981115968 0.9487920658
0.572631633 0.4992117007 0.4487628601
0.5628071929 0.2487557993 0.1996278724
0.5626562176 0.2496645242 0.6965915434
0.6025136914 0.5015499097 0.7042323655
0.592663475 0.4976155736 0.9534594113
0.5926708396 0.4980367377 0.450905052
0.582533402 0.2497816951 0.7014402434
0.6027309485 0.2493572763 0.20127203
0.5926708396 0.2508505534 0.4520088286
0.6026131141 0.2494295316 0.7081061702
0.5926892513 0.2506461554 0.9530727673
0.5826622833 0.5000631421 0.7001320978
0.5826144131 0.5007876483 0.1983068387
0.5826733303 0.2485448919 0.1986612624
0.6127431872 0.4976923856 0.9620208143
0.6125553887 0.4995514961 0.4589582944
0.6225418511 0.500358022 0.7144986845
0.612548024 0.0015450092 0.4582181473
0.6225160748 0.5018278649 0.2162038534
0.6125332947 0.2512704155 0.4607331745
0.6125848473 0.2499164415 0.9569668248
0.6225308041 -7.5127866846e-04 0.7126391109
0.6226854617 0.2497009774 0.2148257437
0.6225271218 0.2496189578 0.7149884336
0.6425700107 -0.0025052609 0.2205628043
0.6524901913 -3.3428070767e-04 0.4699389842
0.6325725013 0.499539779 0.4683178411
0.6425810577 0.2492602849 0.220394338
0.6526411666 0.2511512919 0.4716705971
0.6425773754 0.2485260143 0.7193344964
0.6325062195 -8.8810815857e-04 0.468133725
0.6524533681 0.2520736867 0.9737766334
0.6424632233 0.4982190034 0.7165856416
0.652486509 0.4989994913 0.4738183125
0.6325135842 0.2511460843 0.4663128158
0.6324104791 0.2518751472 0.9654269639
0.6824458962 0.5029084404 0.7289186649
0.6624582421 0.0010176103 0.224157673
0.682386979 0.5017289207 0.2266275918
0.6626202643 -3.5419974857e-04 0.7263870672
0.6725036217 0.5028244679 0.4729566487
0.6624840183 0.2489959995 0.2232288068
0.6625871234 0.2505322393 0.7230582464
0.6724410222 6.601741545e-04 0.9775602212
0.6624545597 0.5012283409 0.719295832
0.6625576648 0.5021936983 0.2199809971
0.6824900841 0.2506285798 0.2301930019
0.6724410222 0.2526465218 0.475091476
0.6823612027 0.2507411939 0.7315957143
0.672518351 0.2509136954 0.9762898194
0.7024519619 0.2494959284 0.2412988908
0.6924691818 0.2503297942 0.4832496645
0.7022899396 0.2490357074 0.7402556196
0.6923292535 0.2480208779 0.9829087966
0.6924397232 0.5011267928 0.9886256045
0.6923403005 0.502083037 0.4801519096
0.7324076668 0.4988719053 0.9951525236
0.7325181365 0.4996914502 0.4958330859
0.7123132253 0.2481048503 0.4899073061
0.712298496 0.2474213538 0.9893344518
0.7223512402 -0.0013526905 0.2438958497
0.7324739486 2.4753755234e-04 0.4951886792
0.7326249239 1.3882906115e-04 0.9952537875
0.7123868718 0.5002974837 0.9910743499
0.7225316741 0.2476687144 0.2444021692
0.732580736 0.2508876575 0.4965833594
0.7225316741 0.2489803768 0.7438090621
0.7325328658 0.2495857594 0.9946277924
0.7124789299 0.4996029211 0.4930188698
0.7124089657 3.3645719243e-04 0.49157724
0.7124163303 -3.2659950889e-04 0.9883034011
0.7525462961 0.498416241 8.2951586996e-04
0.7425377398 -8.8407227446e-04 0.2450005468
0.7424346347 0.0013805795 0.7480234818
0.7426703035 0.2529303356 0.2439243877
0.74258561 0.2507392411 0.7493748947
0.7625290762 1.421489013e-04 0.2511859304
0.7525720724 0.0017555261 0.4982394845
0.762481206 -2.1261833041e-04 0.7514167433
0.752612578 1.1246562467e-04 -9.0254802592e-04
0.7625180292 0.2520795452 0.2515974301
0.7525389315 0.249756308 0.4993938931
0.7625732641 0.2528769578 0.7517987844
0.7525831194 0.2481237278 8.0632453809e-05
0.7824430838 -0.0025184751 0.2564433683
0.782513048 0.0018804432 0.7585153432
0.7725229033 7.0756324527e-04 0.0052700303
0.7825535536 0.2519382893 0.2600456017
0.7726186437 0.2507809018 0.5042490371
0.782524095 0.2503011524 0.7598465033
0.772611279 0.2497270153 0.0058847022
0.7923779937 -9.4610771883e-04 0.5126327681
0.7925142397 -0.0019293597 0.0151275193
0.8128148913 0.5001575297 0.0217325036
0.7925326513 0.2498025254 0.5129430038
0.7924810988 0.2504938333 0.012745516
0.8024307379 -0.001224063 0.2688933054
0.8125055761 -0.002975194 0.5228742314
0.8024822905 -0.0018426598 0.7650754032
0.8123435539 -7.4197009706e-04 0.0167047506
0.8024786081 0.2496410901 0.2634075634
0.8124724352 0.2510191492 0.5205608114
0.8024270556 0.2495890141 0.7660714718
0.8125055761 0.2498044783 0.020318031
0.8325042772 0.0014077891 0.5268575853
0.822440486 -0.0018375173 0.7726241672
0.8324932302 -0.001293389 0.0249475406
0.8226687901 0.250817355 0.2755435824
0.8325447827 0.249488768 0.5269579286
0.8225104501 0.248300135 0.7696451671
0.8324490423 0.2501559908 0.0265546909
0.822315287 -0.0013549688 0.2704371197
0.8425165158 0.0017687404 0.7704654048
0.8424023638 0.2501774721 0.2783145311
0.8424207754 0.2503506245 0.7780592772
0.8623311007 0.0027365063 0.2867277206
0.842575433 0.5010766697 0.7775860986
0.8524698373 0.002575071 0.5316841913
0.8624526174 0.0029793754 0.7844609973
0.8524587904 0.0022223217 0.0262655364
0.8625336285 0.2504619368 0.2847714861
0.8424760103 0.0010470983 0.2758151538
0.8525434838 0.2502223876 0.5293993093
0.8623973826 0.2543096966 0.7853033289
0.8526060833 0.249858507 0.0330417488
0.8724059389 6.4129663208e-04 0.5367492278
0.8922242061 -9.9929025614e-04 0.5492323058
0.872361751 7.0756324527e-04 0.0363614559
0.8823261195 0.251302312 0.2947100783
0.8923346758 -6.0605193563e-04 0.0480023864
0.8725164086 0.2507086465 0.5417921704
0.8924672395 0.2502490765 0.5507300911
0.8824844594 0.2500785278 0.7960216532
0.8724648561 0.2525664551 0.0421284354
0.8925740269 0.2493045494 0.0491821109
0.902420561 2.0815513487e-04 0.302171387
0.9124401643 0.0016712933 0.5542982629
0.902409514 0.001557898 0.8009642524
0.9025531246 0.2512788779 0.3042960879
0.9123959764 0.2519636763 0.557362877
0.9024500195 0.2513875864 0.8006540167
0.9025383953 0.5027919205 0.802300936
0.9125764103 0.2511252539 0.0541702789
0.9224487206 0.0010115565 0.3087148766
0.9224155797 0.0018930717 0.808041679
0.9224781792 0.2509657714 0.3074656482
0.9224744969 0.2508069398 0.8080904698
0.9425431621 -1.7375667218e-04 0.310429919
0.9325088295 0.0018300598 0.5595078306
0.9425799853 0.0018889056 0.8104968684
0.9325566997 0.0017180315 0.0612337126
0.9425910323 0.2502848787 0.3111047048
0.9325677467 0.2511779808 0.5605048198
0.9425063389 0.2538911364 0.8147922993
0.9324904179 0.2496404391 0.0592431404
0.9525664477 0.0028186561 0.5631478078
0.9525590831 -3.200900184e-04 0.0658207835
0.9624350758 0.2499594041 0.3165039122
0.9525995887 0.2492687472 0.5627758931
0.9725467372 0.2498181482 0.5602498189
0.9625492278 0.2492420583 0.8150712353
0.9526658705 0.2512313586 0.0588452653
0.9725577842 0.2500297066 0.0631487052
0.9625013576 6.4298909961e-04 0.3125711903
0.98262894 0.5004699852 0.8140171701
0.9824337769 0.4994707784 0.3117233352
0.982639987 -8.872619248e-04 0.3113293266
0.9925233443 -0.001805035 0.5631588548
0.9825000587 0.2513133782 0.3126706131
0.9927626954 -0.0013838059 0.0640782158
0.9924276039 0.2490077166 0.5628753158
0.9825258349 0.2495623252 0.8137465193
0.9925491206 0.2482278797 0.0615358473
0.012443234 0.7500816056 0.0616394127
0.0024959515 0.5004133526 0.8139232708
0.0125564287 0.4980133035 0.0648556464
0.0226078473 0.7487601791 0.3125932842
0.0026018552 0.7493004668 0.3182014635
0.0125707161 0.7487341411 0.56071103
0.0227574969 0.7479920592 0.8122947631
0.0225332065 0.5003892675 0.3116036597
0.0026708251 0.7490596156 0.815847285
0.012541368 1.0005277428 0.0664470547
0.0524433611 0.9995448097 0.558221779
0.0525332098 0.9986660285 0.0546165766
0.032695058 0.7500816056 0.060386502
0.0425850436 0.4986518845 0.8067841654
0.0427555351 0.7490010302 0.3052056219
0.0326203069 0.7499123589 0.5602258838
0.0426377008 0.7502248144 0.8071358273
0.052628582 0.7494827325 0.0557762324
0.0526307914 0.7496715077 0.5544879026
0.0527246906 0.4980126526 0.5522426056
0.042612661 1.000729537 0.3098020827
0.0325635991 1.0006579326 0.5597674345
0.0326342997 0.9997335849 0.0610349592
0.0724019248 0.9971167697 0.5500101967
0.0624743796 0.9991477308 0.8023460445
0.0725304379 0.9982624401 0.0478571187
0.0725941421 0.7473280912 0.0479555288
0.0626043656 0.7490661251 0.2991040112
0.0724969288 0.7475363949 0.5462846055
0.0626647557 0.7482459293 0.8007120133
0.0626964237 1.0000785879 0.3017359522
0.0825507777 0.9987115949 0.294207441
0.1025432188 0.9999744361 0.7909161111
0.0824638749 0.9978197947 0.7945165033
0.0924772182 0.9989329176 0.0408259974
0.0925250884 0.7485909323 0.040359447
0.0926440275 0.4983570046 0.0392585242
0.1024272256 0.7488968784 0.2863521236
0.0826222148 0.7483370622 0.293899967
0.092472063 0.7469830882 0.5391666735
0.1025174426 0.7488317835 0.7889285768
0.0826435723 0.7516178454 0.7941059242
0.0926469734 0.4994714294 0.5392255906
0.1123385686 0.9975724341 0.0372852589
0.1123672907 0.7497235837 0.0341370561
0.1224605405 0.4978082546 0.781177285
0.1223699554 0.7490986726 0.2801980398
0.1124475654 0.7487666886 0.5369011237
0.1222245036 0.7483826286 0.779892154
0.1125079555 0.9975463961 0.5377710727
0.1225062013 0.9982494211 0.7826566586
0.1524895237 0.9994081104 0.5229340691
0.1323085476 1.0010094451 0.5261395321
0.1424839132 0.9991998067 0.7766719617
0.1523816316 1.0013869955 0.022892988
0.1323715153 1.0005147238 0.0317022115
0.1524026208 0.7506153839 0.0228547839
0.1323891904 0.7527765347 0.0289904561
0.1424146855 0.7492809383 0.2746929656
0.1524199277 0.7495543369 0.523705516
0.1324687286 0.7511817095 0.5257215883
0.142383754 0.4995222034 0.2764503546
0.1423218909 0.7510970862 0.7748418467
0.1723298848 0.750166229 0.0170456418
0.1624229606 0.4989031509 0.7700833637
0.1723114732 0.5009536404 0.018375421
0.1623401083 0.7495803749 0.270087299
0.1823472787 0.9978523422 0.7623320719
0.1723545564 0.7485714039 0.5170036865
0.1625268021 0.5002564739 0.2721484798
0.1625242245 0.7493134858 0.7703392852
0.1823351271 0.7500034918 0.2618140377
0.1822905709 0.749808207 0.765914973
0.1623272202 1.0009052932 0.2694364482
0.1724175241 0.9985814051 0.5190354087
0.1723950619 1.0016083182 0.0195419812
0.1923105425 1.0003194391 0.5146994723
0.2024697059 0.9997986798 0.7529743663
0.1923517845 0.7503875517 0.005512143
0.2023168894 0.7549051381 0.2521175584
0.1923481022 0.7527960632 0.5074673882
0.2023168894 0.7490531062 0.7512169772
0.232560552 0.749873302 0.9972054192
0.2323996345 0.4991732947 0.9984942325
0.2323705441 0.7504917035 0.4941447404
0.2324342483 0.4988172256 0.4987421217
0.2224492589 0.999707547 0.2488227991
0.2123961464 1.0016929416 0.502775187
0.2123681607 0.9997791514 0.0024005794
0.2122503264 0.7494957515 -0.002008847
0.2324047897 0.9974096968 1.0010442418
0.2223667748 0.7508627445 0.2495638667
0.2122985648 0.7512858614 0.4993892902
0.2223270057 0.4999895848 0.2483634291
0.2224032298 0.7484216856 0.7467521595
0.2524845019 0.7482784768 0.9947750854
0.252541578 0.4987059133 0.9931548629
0.2423293891 0.7503940612 0.2476831198
0.2525386321 0.7489489543 0.4941852459
0.2424254977 0.4991889175 0.2465121408
0.2423658441 0.7488513119 0.7440815541
0.2524962854 0.5010721131 0.4908794396
0.2625088923 0.49851844 0.7436718956
0.2625446108 0.7497626406 0.2381652331
0.2623940038 0.7489098974 0.7428525785
0.2825712975 0.5006216563 0.731563494
0.2824243728 0.7509799153 0.2320433696
0.282389759 0.4993301734 0.2342509228
0.282576821 0.7531671041 0.7316472669
0.2724460115 0.7507716116 0.9843172855
0.272571947 0.5007238553 0.9863609753
0.2724806254 0.7503159473 0.4898907357
0.2824947052 1.0004301004 0.2339931601
0.2825882362 1.0004821763 0.7348278741
0.3124688217 1.0008076509 0.9731414325
0.292524619 0.7504721751 0.9759768219
0.3024683665 0.4991921722 0.7280017662
0.2924483949 0.4994850993 0.9785912719
0.3025331754 0.751891244 0.225891127
0.2925478177 0.7496324508 0.474700229
0.3024797817 0.4998672064 0.224179767
0.302472417 0.7510450102 0.7252298969
0.3026550603 1.0009899166 0.2252448792
0.3126595661 0.7507390642 0.971861825
0.3124802369 0.4996751764 0.971714532
0.3124375219 0.74810923 0.470475683
0.2924977381 0.9987181044 0.9781678046
0.3324189161 0.7492744288 0.9710517137
0.332540801 0.4986408184 0.968860731
0.3225083096 0.7487276316 0.2206033099
0.3325190753 0.7512533139 0.4689373921
0.3224328219 0.751520203 0.7181101237
0.3324594217 0.4999453203 0.4688085108
0.3524754296 0.9999223601 0.4591599016
0.3424926496 1.0017905839 0.7130414048
0.362352527 0.7520084148 0.2076056271
0.3523763751 1.0009964261 0.9583016672
0.3623893503 0.751878225 0.7067851365
0.3625918781 1.0019077547 0.2027955915
0.3523019922 0.7503029283 0.9614684658
0.3624814084 1.0015171853 0.7053527125
0.3524463393 0.4989044528 0.9589552797
0.3424477252 0.7493655617 0.2146508333
0.3524120937 0.7485258374 0.4610719483
0.3424381512 0.7512923709 0.7124688035
0.3924813011 1.0008662363 0.4498473045
0.3724715531 0.7511556716 0.9537816146
0.3726114814 0.5010193862 0.9526677117
0.3824359215 0.7493134858 0.1999040467
0.3724200006 0.7489033879 0.4566780153
0.3824727448 0.5003092008 0.2010851521
0.3825242973 0.7523664368 0.7002858349
0.3824653801 0.9990565979 0.2027357538
0.3823917337 0.9995252812 0.7028892379
0.3724862824 1.0008467078 0.9526677117
0.3724789177 0.4985972048 0.4545597585
0.3924076547 0.7504200992 0.9519864817
0.3925033951 0.7538831481 0.4526090474
0.4125941542 0.7523208704 0.9469969329
0.4126346598 0.7517936016 0.4471886666
0.4126015189 0.4985386194 0.4449580989
0.4024751282 1.0011982203 0.1979883177
0.4023683408 0.5005760899 0.7016565799
0.4026187388 0.7516829403 0.2005070272
0.4022762827 0.5002961818 0.2013235826
0.402530363 0.7489424448 0.6975351389
0.4327291013 0.7498863209 0.9427254371
0.4225769343 0.7486039513 0.1909707289
0.4326885957 0.7506869883 0.4424347865
0.4225364288 0.5008078278 0.1956067747
0.4225437934 0.7511556716 0.6935867671
0.4424725303 0.7504135897 0.1911732567
0.4425019889 0.7493199953 0.6886865146
0.432452927 1.0030599346 0.4429604382
0.4225069702 1.0012828437 0.6935158824
0.4426308702 1.0016408656 0.1874228099
0.4524774043 1.0011135969 0.9386380576
0.4624970077 0.9985358387 0.1812144118
0.4725755282 1.000729537 0.4329500407
0.4624565021 1.0009573691 0.6818189805
0.4524994983 0.75053727 0.9360144018
0.4524921336 0.7468268604 0.4355727759
0.4724797877 0.7484477235 0.9274069697
0.46250069 0.7482329103 0.1839678695
0.4725755282 0.7490531062 0.4288378055
0.462375491 0.7485193279 0.6824495785
0.4726233984 0.4986883377 0.4314964434
0.4825656729 0.996973561 0.1806942835
0.492526359 0.9987050854 0.4328239211
0.4925005827 1.000384534 0.9317797294
0.482510438 0.501060396 0.6788040778
0.492412207 0.7492418814 0.4253313126
0.4825398966 0.7503419853 0.1821920688
0.4924232539 0.7524185127 0.9260813331
0.4824957087 0.7501271721 0.6798618254
0.5123888141 0.9983470635 0.4344515083
0.5125913419 0.9983210255 0.9322216082
0.5024796805 0.9970191274 0.179972548
0.5225262518 0.7499709443 0.6844536833
0.5225446634 0.9992453731 0.1846067527
0.5226072629 0.9991412213 0.6865691784
0.5024465396 0.7506479313 0.1821561661
0.5024612689 0.4985757235 0.1817971395
0.5024796805 0.7477577175 0.6820647756
0.5025349154 0.4970707293 0.6835091672
0.5123519909 0.7496389603 0.9298096861
0.512569248 0.4977477163 0.9335656565
0.5125029661 0.7504135897 0.4309422536
0.5224010528 0.4995931568 0.1856893559
0.5226330392 0.7486560272 0.1817253342
0.5325937253 0.747113278 0.4375142812
0.5325753137 0.498325759 0.4387662713
0.5325311258 0.9987441424 0.9369441886
0.5426096463 0.9997726419 0.1912395386
0.5525003683 0.9991216928 0.443736488
0.5526550259 0.75015321 0.9406357183
0.5425580938 0.9978523422 0.6894404704
0.5426648812 0.7481678154 0.1899728192
0.5526734375 0.7482589483 0.4447785857
0.5425544114 0.7494436756 0.6910919927
0.5325384904 0.7485583849 0.9345967071
0.5626341236 1.0008076509 0.1968642883
0.5626525352 0.9989589556 0.6977965839
0.5627151348 0.7486104608 0.1970898307
0.5626451706 0.7482264009 0.6985312075
0.5725506219 0.9976180005 0.4486035996
0.5726463623 0.9989719745 0.9471534316
0.5725763981 0.7499253779 0.9471534316
0.572506434 0.7494046186 0.4485474442
0.6026167965 0.9998312273 0.2048429636
0.5925714169 0.74951528 0.9495285305
0.5926229694 0.9985293292 0.4553615845
0.6026204788 0.9997400944 0.6997150747
0.5926266517 1.0002999106 0.9517655423
0.6027309485 0.7495413179 0.2038109923
0.6026167965 0.4999765658 0.2049985418
0.5926119225 0.7505047225 0.4499421243
0.6027346308 0.7488187645 0.7037950895
0.5827506591 1.0011982203 0.1981125961
0.5826070484 0.9995643382 0.6984649257
0.5825370843 0.7484086666 0.2006515584
0.5825444489 0.7479920592 0.7018489814
0.612422825 0.7498537735 0.9587987809
0.6124706952 0.7495217895 0.4591157137
0.6126511291 0.9995448097 0.9606767661
0.622563945 0.9987311234 0.2121137121
0.6225123925 0.7503810422 0.2134108107
0.6225492157 0.7489684828 0.7134483016
0.6423969415 0.9992974491 0.7177777939
0.6523870862 1.0001176449 0.9721564109
0.6324583493 0.9997205659 0.9658872544
0.6325356781 0.7498147165 0.9653164942
0.6324767609 0.4994811936 0.9682991766
0.6323883852 0.748122249 0.4649742911
0.652464415 0.7484867805 0.9697444887
0.6525564731 0.5000195285 0.9712174183
0.6424116708 0.7488448025 0.2178599786
0.6425074112 0.4992071441 0.2158116859
0.6525233322 0.7495999034 0.4689963093
0.6424853173 0.7484086666 0.7216921042
0.6724925747 0.7491051821 0.972101176
0.6724778454 0.4997025163 0.9736845753
0.6824311669 1.0014846379 0.2303338508
0.6724778454 1.002760498 0.4765745319
0.682364885 1.0021811533 0.7278820907
0.6824716724 0.7507585927 0.2281741678
0.6725146686 0.7506479313 0.4739628437
0.6824348492 0.7513444468 0.7278774878
0.6625097946 0.7490986726 0.2234202877
0.6624987476 0.7496194318 0.7221744887
0.7022899396 0.9989198986 0.2374287683
0.7023783154 0.5004491548 0.7371597058
0.692277701 0.7504200992 0.982310419
0.6923366182 1.0008076509 0.4834429865
0.7023193982 0.9992128257 0.7353130203
0.6923881707 1.0002478347 0.9831389419
0.7025145614 0.7485583849 0.2388308132
0.7023562215 0.4998528855 0.2363461651
0.6923439828 0.7488578214 0.4802973614
0.7024335503 0.7485323469 0.7354658368
0.7224948508 0.4981832012 0.7447591017
0.7325107718 0.748786217 0.9942227368
0.7224617099 0.7490661251 0.2424928843
0.7225464034 0.4991140583 0.2456771739
0.7326101946 0.7494566946 0.4969129273
0.7225574503 0.7505893459 0.7444571511
0.7224543453 0.9981908357 0.7423793999
0.7124310596 0.7479855497 0.9888741613
0.7123574132 0.749489242 0.4918488114
0.7425009166 0.4990834637 0.7474545628
0.742596657 0.7503810422 0.2494865379
0.7425119635 0.4981155025 0.2473931368
0.7425045989 0.7520084148 0.7480796373
0.7525315668 0.5001197746 0.4967904901
0.7525205199 0.750166229 2.4182618227e-04
0.7625290762 0.4971683716 0.7520224856
0.7624149242 0.7494501851 0.2518073226
0.7625364409 0.4991850118 0.2539338646
0.7525536608 0.7508887825 0.4996866378
0.7625290762 0.7504461371 0.7545540832
0.7825461889 0.7489749923 0.2603539963
0.7826640233 0.5006828456 0.2598605649
0.7725560442 0.7490596156 0.5052800878
0.7825167303 0.7496389603 0.7623606099
0.7725486795 1.0024740804 0.5052589145
0.7724382098 0.5012888791 0.5068874222
0.7725302679 0.7500685867 0.0081692159
0.7826051061 0.5010669055 0.7596283256
0.7726407376 0.5013728515 0.0073018445
0.7924553225 0.7493395237 0.5128362164
0.8126013165 0.4989747552 0.5217824223
0.8124319296 0.7507716116 0.0194723853
0.8024896551 0.4991811061 0.767085952
0.8026369481 0.7488513119 0.2700882195
0.8026516774 0.4993640228 0.2686033224
0.7925731569 0.5015765986 0.5130682029
0.7925252867 0.7482849863 0.015561205
0.8124098357 0.7480180972 0.5207808302
0.792643121 0.5013611345 0.0149203885
0.8025264784 0.7497496216 0.7675793834
0.8325411004 0.5002141622 0.5224433995
0.8325558297 0.7522557755 0.0225076328
0.822565685 0.4992807013 0.7749836162
0.8326699818 0.5004680324 0.0263809773
0.8226577431 0.7521646426 0.275225982
0.8226135552 0.5031147912 0.2748660348
0.8324785009 0.752236247 0.5241529184
0.8225620027 0.7502508524 0.7753555309
0.8625115346 0.7542737175 0.7854662718
0.8626146397 0.5028264208 0.7878330854
0.8525287545 0.7533558794 0.0320092252
0.8524514257 0.5016638258 0.0335426369
0.8624452528 0.7521776616 0.2854499542
0.8626256866 0.5045761718 0.2903290334
0.8524845666 0.7509343489 0.5312312655
0.8425459744 0.7510840672 0.2782482493
0.8425275628 0.5016254198 0.2764687663
0.8427190437 0.7507390642 0.7817471246
0.8525029782 0.5029722334 0.5330853155
0.8725900551 0.4987553854 0.5396251228
0.8824513185 0.7521125667 0.7939494254
0.8926366264 0.4998366118 0.5480383123
0.872361751 0.751585298 0.0352949628
0.8924819688 0.7502573619 0.0490441158
0.8825212826 0.5016827033 0.7926596915
0.8724427621 0.5015193151 0.0420853522
0.8926145324 0.4988790657 0.0491192352
0.8825507412 0.7515397315 0.2935197671
0.882366625 0.5032280563 0.2963717269
0.8722954692 0.750192267 0.5402373091
0.8924598748 0.7504266086 0.5450234096
0.8824550008 1.0013219006 0.2919041474
0.882366625 1.0024480425 0.7936290633
0.9125138108 0.7512988804 0.5552344938
0.9123112829 1.0023373811 0.0546373817
0.9125248577 0.5019795361 0.5535157691
0.9024905251 0.7497561311 0.8042645352
0.9125101284 0.7516699213 0.0568190666
0.9126942446 0.5020478857 0.0556683403
0.9024757958 0.7500555677 0.3021299609