POSCAR file written by Ovito 3.7.11
1
271.5895529514 0.0 0.0
0.0 15.3634251673 0.0
0.0 0.0 10.863582118
Sr Ti O 
800 800 2400 
Direct
0.0224830719 0.4981521048 0.7643369386
0.0124475975 0.2487604517 0.5186988083
0.0224468039 0.2490572605 0.7684608085
0.0024513367 0.2487936474 0.7668545244
0.0124861484 0.2462004756 0.0175727579
0.0223237874 -6.6192377247e-04 0.2634864879
0.0025137471 4.5410340333e-04 0.2679076815
0.0024668381 0.496666108 0.2638712597
0.0124030818 0.4962176403 0.5211501176
0.0122878344 -1.6255596116e-04 0.5183094339
0.0223860137 -0.0023451096 0.7689698487
0.0025456703 -3.1753442293e-04 0.7670275796
0.0225529568 0.2506252702 0.2666217337
0.0023698903 0.2479318604 0.2659681739
0.0323796602 0.4986187976 0.0157601881
0.0423682624 0.498333054 0.2614945114
0.0325339372 0.4986005725 0.515221134
0.0324820206 0.2482280183 0.5158958654
0.0424430076 0.2483816299 0.7640617071
0.0325803307 0.247443688 0.0178741317
0.0524422876 0.4994421817 0.0116834481
0.0423866726 -5.8160314171e-04 0.7640782762
0.0424853509 0.2510490038 0.2671289328
0.052517401 0.2489368446 0.5121935875
0.0524872083 0.2480718031 0.0138628397
0.0625107898 0.2502464484 0.2592475546
0.0624224211 0.4985517552 0.7599120629
0.0724471072 0.499817749 0.0055102541
0.0624231575 0.4976880156 0.2586059614
0.0724242786 0.4988999849 0.5055760649
0.0723962952 0.2494718816 0.5085916448
0.0624132161 0.2500550848 0.7571192456
0.0725351076 0.2496463218 0.0074292344
0.0925020023 0.2478120954 0.5038731275
0.1026040109 0.248343227 0.7518465833
0.0825178185 0.2502139036 0.7554439235
0.0924725461 0.2500596411 0.0050893984
0.102484345 9.7410463437e-04 0.2505303562
0.0923024364 -0.0015322375 0.5063989979
0.1024622529 0.250903203 0.2568100529
0.0824854167 0.2480457673 0.2563442765
0.102453416 0.4985498026 0.7536240817
0.0824828393 0.4979255928 0.7576761522
0.1024445791 0.4978852372 0.2564621013
0.0824927808 0.4997969203 0.2584826135
0.1223628711 0.2519186016 0.2505036615
0.1124051979 0.5023516891 -6.7634247693e-04
0.1126066048 0.2482560069 0.5009634059
0.1223831222 0.4994597559 0.2503821547
0.112523391 0.4997891095 0.5002352851
0.1224788549 0.2493703417 0.7508929384
0.1125429057 0.2492583875 0.0016625361
0.1224313568 -8.9460281792e-05 0.2504834104
0.1523345688 0.2492089194 0.4988241483
0.1325900686 0.249469278 0.498643729
0.1424034063 0.2484421633 0.7502826424
0.1525083605 0.2499236037 -0.0038862321
0.1324589884 0.2504085217 -0.0028692011
0.1424199754 0.0014086432 0.2466817178
0.1425495827 0.2515274128 0.2480468292
0.1424052473 0.5025196204 0.7466383565
0.1525308209 0.5009971735 -0.00753052
0.1324155405 0.4994057315 -0.0027295419
0.1525356075 0.5012549285 0.4937088927
0.1323761428 0.5016539281 0.4973191199
0.1825562762 0.2509038539 0.2442736723
0.1724664183 0.4988960795 0.4923382582
0.1824513385 0.5009040953 0.7435086337
0.172473046 0.2498096969 0.4935965909
0.1623680917 0.2515339217 0.7431800128
0.1724782008 0.2492505767 -0.0088849931
0.1824752716 0.5032915837 0.240379929
0.1624255314 -3.2938073962e-04 0.7493998765
0.1625223687 0.250381184 0.2443997817
0.182472326 0.2520800239 0.7425761605
0.182492209 -3.1493083685e-04 0.2447053899
0.1924543005 0.0012675288 -0.0076111168
0.2024675723 0.2521373028 0.2444448865
0.2024664677 0.4999707097 0.7445985136
0.192489648 0.4998607081 -0.0062421217
0.2024053461 0.5008142715 0.2454491593
0.1924955392 0.4997246708 0.4936242061
0.1925500332 0.252249257 0.495889573
0.2024841414 0.2503610062 0.7451195204
0.192328007 0.2514076478 -0.0044968226
0.2025073382 0.0015134375 0.2455025487
0.2123059478 0.2505517189 0.4951844649
0.2225327771 0.2506805964 0.7466899048
0.2123678058 0.2522167122 -0.0052260941
0.2223022822 4.533223275e-04 0.7462296515
0.2226112043 0.251444098 0.2464258169
0.2325504673 0.2514831518 0.492165203
0.2324672535 0.2503388757 0.995812153
0.232488241 0.0017877904 0.4998670824
0.2225298315 0.5026628177 0.7461836262
0.2124535971 0.5002792346 -0.0046712495
0.2124992542 0.499006081 0.4962752653
0.2424514372 0.5028665483 0.7483394528
0.262436742 0.2506434953 0.7546734594
0.2624882904 6.5802928352e-04 0.2575096379
0.2625096462 0.0016231786 0.7576246038
0.2525545504 0.249462769 0.5016473424
0.2426027685 0.2490774383 0.7484195369
0.2525707514 0.2520513845 0.9990891568
0.2625144328 0.2508992976 0.25235388
0.2425814128 7.4271092097e-04 0.2491956215
0.2624713531 0.4999655025 0.2561104678
0.2523700809 4.3008532168e-04 0.5022484332
0.2424576967 -0.0023957689 0.7529843296
0.2522791348 0.003166259 1.0002858155
0.2425004082 0.2512963445 0.2492112701
0.2725203405 0.2501722462 0.5051839291
0.272564893 0.2505517189 1.0036732801
0.2725236543 8.1229175912e-04 0.5039062658
0.2723870511 4.3646410759e-04 1.0046858375
0.2825700643 0.2504573389 0.7534639136
0.2724603235 0.5009581197 0.5047043451
0.282554968 0.2502978692 0.255652976
0.3125480216 0.0015509942 0.4997188808
0.2926175789 0.5037009976 0.5017688492
0.2926624997 0.2517506703 0.5036089421
0.3025281221 0.252067006 0.7506094223
0.2926415121 0.2520917401 1.0031946166
0.2924176449 0.0030792993 0.5006485926
0.3023760544 6.4898182187e-04 0.7527735335
0.3123922718 0.5018960616 0.4969463147
0.3026058129 0.2512709595 0.2537677783
0.3125086239 0.2516510831 0.5008280914
0.3124817451 0.2515462888 1.0007368638
0.322469979 -9.2267291899e-04 0.2535533002
0.3325683056 2.0747871132e-04 0.5026387281
0.3225344145 -8.2367155806e-04 0.7556565605
0.3324556356 0.0022811699 1.0026239025
0.3225318371 0.2545026608 0.25200869
0.3225745486 0.5010010789 0.7479592836
0.3224324224 0.5003176375 0.2473610517
0.3324604222 0.2500082203 0.5010582181
0.3224515689 0.2510965193 0.7523786362
0.3324633679 0.2534755461 1.0007828891
0.3625256435 0.2521412082 0.2384036011
0.3525771754 0.5005988248 0.4927736579
0.3524807063 0.2515957569 0.4916644473
0.3424751668 0.2510633236 0.7483863987
0.3623636343 0.5006860449 0.7426949058
0.3523617768 0.251569721 0.9938238585
0.3624409569 0.5018954107 0.2429435401
0.3424298779 -8.5048849475e-04 0.2483146966
0.3425149327 0.2514662285 0.2484288395
0.3624225467 0.2516029168 0.7433033607
0.3426165566 0.5017099052 0.7437157477
0.3424865811 0.5009177641 0.2441153451
0.3825190488 0.2529027571 0.2429628707
0.3924678851 0.2523006778 0.4908341503
0.3923942445 0.251613982 0.9900221659
0.3924862952 0.0028888469 0.9891660947
0.382544823 0.5031151908 0.7405722174
0.3925415256 0.5034927107 0.9887518667
0.3724671157 0.2523891998 0.4940494801
0.3824785465 0.2535334759 0.7404838487
0.3724523876 0.2501501157 0.9909058523
0.3925893919 0.502138846 0.4864460949
0.3724634337 0.0017096828 0.4901557369
0.4126564377 0.5023757723 0.9844070751
0.4025198181 0.2540633056 0.7386511199
0.4024424955 -2.2417940076e-05 0.7393414999
0.4024903619 0.2522661803 0.2385140619
0.4124465622 0.2507437334 0.4822237307
0.4125202028 0.2525336988 0.9842782042
0.4124355161 0.0045865803 0.4868152181
0.4125975253 0.0032652604 0.9861560378
0.4425692231 4.1628631543e-04 0.7295335012
0.4424440342 0.2501755007 0.2328363767
0.4226641865 0.5016942836 0.7318863163
0.4327271656 0.5013076511 0.9848765335
0.4326940273 0.5020236373 0.4798957693
0.4424513982 0.5030299233 0.7299900725
0.4426207715 0.4994805846 0.231637877
0.432513608 0.2505048543 0.4839285091
0.4226310482 0.2540398733 0.7370006514
0.4324473315 0.2516042186 0.9821334236
0.4225426796 0.0027483835 0.2337983062
0.4325393822 0.0018561996 0.9835325938
0.4224727211 0.2528955973 0.2371102892
0.4425324028 0.2513926772 0.7303684008
0.4724010038 0.2487370194 0.4785315784
0.462507398 0.2497289857 0.737417641
0.4725666951 0.2515339217 0.9766011784
0.472415732 4.8111560897e-04 0.9813786081
0.4625736744 0.2519199034 0.2346175571
0.4525732898 0.4987711074 0.9795652099
0.4525401515 0.5005591201 0.4803017128
0.4626730892 0.5005187645 0.7307071472
0.4726329715 0.4999733132 0.980807894
0.4625699924 0.501817954 0.2299275755
0.4525254234 0.2512481782 0.4799040539
0.4525106953 0.2487591499 0.9850606349
0.4525254234 0.0013856665 0.4806671539
0.4825192134 0.2509806597 0.7340145277
0.4823940245 0.0032763907 0.7333480809
0.4925527363 0.4997383396 0.987693284
0.4925343261 0.4997188127 0.4846704375
0.4823167019 0.2505334938 0.2340606506
0.4923649529 0.2507912488 0.482538544
0.4924385934 0.2469138582 0.9823083199
0.4826186281 0.4976782521 0.2340762992
0.5023911118 0.2519446374 0.7365542057
0.5123914964 0.2475615003 0.4853948763
0.5124577729 0.2493234772 0.9861100125
0.5023837477 -8.6897395596e-04 0.7347003052
0.502427932 0.2516614975 0.2346378083
0.5224213373 0.2497465599 0.2399334832
0.5225502082 0.2502789932 0.7359936171
0.512465137 0.500106747 0.4864553
0.5225575723 0.5000533735 0.7330305061
0.5423779223 0.4967852221 0.7342078341
0.5524077632 0.5006886485 0.9915317969
0.5424110605 0.4989585656 0.2353898622
0.5523967171 0.4990789814 0.4899559869
0.5323443994 2.052005735e-04 0.488589955
0.5323701736 0.2484350034 0.4887528847
0.532429086 0.2489121105 0.9881627424
0.5323996298 0.5018016816 0.9864782152
0.5524335374 -0.0012231268 0.9867543672
0.5423742403 0.2497231276 0.2391630191
0.5524409014 0.2497036007 0.4911839428
0.5424368347 0.2477431004 0.7383933781
0.5524409014 0.2512501309 0.9881627424
0.5723974864 0.2500088712 0.4919764991
0.5724453528 0.2489088561 0.99402637
0.5623786916 0.4984853638 0.741623436
0.5623897377 0.4990770287 0.2378015897
0.5723938044 0.498269917 0.9917066931
0.5722649335 0.4986422299 0.4926272973
0.562433922 0.247431321 0.2401046975
0.5624817884 0.249909284 0.7412589154
0.6023176358 0.4976066535 0.7485843076
0.5922067904 0.4996745517 0.9951862084
0.5923282972 0.4975116226 0.4965357687
0.5823720969 0.2478238116 0.7431487156
0.6025164653 0.2487487355 0.2445378577
0.5923835276 0.2471579444 0.4978797085
0.602483327 0.2479865357 0.7497754433
0.5923982558 0.2474775346 0.995259849
0.5822910923 0.4977179568 0.7437277143
0.582379461 0.4992872683 0.2445995316
0.5823279126 0.2483718664 0.2435547565
0.6125573522 0.4987977941 1.0000096635
0.612391661 0.4988505167 0.4982773674
0.6225945572 0.4983167816 0.750499882
0.6122701541 -4.4738827898e-04 0.4979330979
0.6223883637 0.498037547 0.2514821601
0.6124579375 0.2475673583 0.5041069362
0.6124358453 0.2485228744 1.0000280736
0.6223552254 -0.0011294627 0.750492518
0.6223846816 0.2482416871 0.2524726253
0.6224840964 0.2504671023 0.7506066608
0.6424995938 -1.3300525908e-04 0.2533691989
0.6525183886 -3.6622148274e-04 0.5001469165
0.6325360294 0.4981488503 0.4967962721
0.6426026905 0.2511551 0.2492039061
0.652709854 0.2491386225 0.5010895153
0.6426026905 0.2508146811 0.7485281567
0.6324145225 -4.7407503636e-04 0.5012441604
0.6525883471 0.2501286361 1.0021084187
0.6425511422 0.4996966822 0.7475109968
0.6526803978 0.50098741 0.4988941068
0.6323924304 0.2488769621 0.5021775542
0.6325286653 0.2494614672 1.0008197094
0.6823833076 0.5011546904 0.7446758362
0.6625813677 -0.0016958078 0.2486396355
0.6824753583 0.4988843634 0.2454666489
0.6625224553 0.0010022885 0.7500598798
0.6726075266 0.5010668194 0.4947352576
0.6626108239 0.2494686271 0.243551995
0.662618188 0.2484649446 0.7447071334
0.6724970658 -0.0017620691 0.9939803447
0.6626844645 0.4997812988 0.7456810295
0.6626329161 0.5008253368 0.2467829735
0.6825931831 0.2493169682 0.2424032027
0.6726112086 0.2496424164 0.4932863801
0.6826263214 0.2492967904 0.7417016791
0.6725707063 0.2485853605 0.995959434
0.7025534501 0.2475855834 0.2386226817
0.6925751576 0.2481381946 0.4895868637
0.702538722 0.2489765493 0.7400208339
0.6925898857 0.2485384959 0.9896447582
0.6925493835 0.5011930933 0.9880891019
0.6925088812 0.4998724243 0.4920740728
0.7325951064 0.4979509778 0.9880062563
0.7324993737 0.4987632966 0.4859582264
0.7125501528 0.2495350185 0.4888136381
0.7125501528 0.2494159045 0.9899209102
0.7225394914 -6.6778184116e-04 0.240447126
0.7325030558 -3.8429994505e-05 0.4868483563
0.7325177839 -5.3922977816e-04 0.9857326047
0.7125648809 0.4984215759 0.9888070971
0.722495307 0.2510776433 0.2386558199
0.732532512 0.2481414491 0.4891137233
0.7224474407 0.2499886934 0.7390230046
0.7325030558 0.2479305586 0.9840112572
0.7124949224 0.499465614 0.4876869379
0.7125133325 -0.0011430014 0.4901179961
0.712579609 -8.974832236e-04 0.9869844938
0.752492779 0.4967910801 -0.01645692
0.7424666202 -0.0032195956 0.2357387343
0.7425144865 -4.8806931157e-04 0.7360193913
0.74244821 0.249003887 0.2326458318
0.7424077077 0.2483803281 0.7321376146
0.7625115738 -0.0011341492 0.2374517972
0.752489097 6.6004706274e-04 0.48405738
0.7626073065 -0.0028294222 0.7349690932
0.7525406454 -0.0021670959 -0.0123989675
0.7625152558 0.2484434651 0.2307873288
0.7523860002 0.2492440678 0.4821767849
0.762537348 0.2488261922 0.7328657354
0.7524154564 0.2467244473 -0.0178305737
0.7825565274 -9.5578709095e-05 0.2366712075
0.7826080758 -1.6281631977e-04 0.7398431761
0.7726408294 -0.0014612898 -0.0139641143
0.782626486 0.2526092028 0.2393277898
0.7725230045 0.2504612443 0.4854482657
0.7825933477 0.2502054419 0.7399444318
0.7724677741 0.2480503236 -0.0134419476
0.7926452808 6.3694023622e-04 0.493409728
0.7926379167 -0.001198653 -0.0108973818
0.812638686 0.501528305 -0.0044050113
0.7925900504 0.2492037122 0.4905985006
0.7926600089 0.2493651345 -0.0089712961
0.8026235733 0.0012875113 0.2427981
0.812495087 0.0011992497 0.4935698962
0.802583071 7.6269344418e-04 0.7435877973
0.8124361746 -0.0019753809 -0.0040464003
0.8025609788 0.2505530207 0.2419245392
0.8127970132 0.2504026636 0.4958352631
0.802590435 0.2508687055 0.7404939743
0.8126755063 0.2502184599 -0.0066835967
0.8326284093 -7.1054574262e-04 0.5041179823
0.822543338 3.1019018242e-04 0.7482971095
0.8326173632 -6.0269218901e-04 4.3806725705e-05
0.8225691122 0.2506116014 0.2492039061
0.8324958563 0.2509995357 0.498705403
0.8225838403 0.2488060144 0.7448801887
0.8324074877 0.2504384629 9.5080037595e-04
0.8224660154 -6.0815971979e-04 0.2466393745
0.8424373285 8.0376501469e-04 0.7518603909
0.8426692962 0.2496931864 0.2497074233
0.8425441073 0.2521255867 0.7491448962
0.8625448766 -0.0019370691 0.2540374867
0.842499923 0.4992905228 0.7543199848
0.8525849943 2.3481636523e-04 0.5036089421
0.8625743329 -0.0018892217 0.7483145991
0.8525039897 3.7920167469e-05 -0.0019506091
0.8625632868 0.2493397496 0.2486000537
0.8425956557 0.0014950171 0.2537143889
0.852548174 0.2502516556 0.5003429844
0.8625338306 0.2487259541 0.7469430442
0.8525187178 0.2490435916 0.0033828711
0.8725931277 -5.7769776258e-04 0.5016869241
0.8926785836 0.0018198145 0.5067938953
0.8724863489 2.1366222828e-04 0.003584278
0.8826192865 0.2479429256 0.251182075
0.8926123071 0.0012885527 0.0059490596
0.8726115378 0.247991092 0.5007351202
0.892601261 0.2476265899 0.5055189935
0.8825051437 0.2490422899 0.7540926196
0.8726262659 0.2473030943 -0.0014960077
0.8925865329 0.2478010302 0.0053594751
0.9026126918 -7.8461776677e-04 0.2560110531
0.9125320719 -0.001332933 0.5076140667
0.9026163738 -3.8320988195e-04 0.7576411729
0.9026053277 0.2508608947 0.2566572487
0.9126609428 0.2486426394 0.5091549949
0.9025169591 0.251173976 0.7576807547
0.9026642402 0.4999511828 0.7596441955
0.9125688921 0.2517200781 0.0098613051
0.9226981477 7.256574321e-04 0.2587274683
0.9225766408 9.2938804334e-04 0.7587402579
0.9225287745 0.2514239202 0.2569564134
0.9223962215 0.2531084404 0.758135485
0.9425258618 -6.3745006326e-04 0.2635923461
0.9325586154 0.0010056731 0.5144515904
0.9426252765 0.0014501053 0.7596570826
0.9325880716 -0.0010916457 0.0125663061
0.9426215945 0.2517181255 0.2606273941
0.9325843896 0.2506552114 0.511994758
0.9424816775 0.2495206988 0.7594260354
0.9325843896 0.2506545605 0.0106800038
0.9526182971 -0.001687932 0.5140981158
0.9526403893 -0.0025638044 0.013260184
0.9625487233 0.2501527193 0.2629728451
0.9526477533 0.2494054901 0.5141699153
0.9726190664 0.2481818047 0.5132236345
0.9627991011 0.2495740723 0.7653844752
0.9526403893 0.2486471957 0.0114756898
0.9724423292 0.2506786437 0.0138632079
0.9623867141 6.8640837186e-04 0.2649095912
0.9827004557 0.5001379901 0.7618423654
0.9825310825 0.4995886334 0.2624435538
0.9825163544 -0.0021252303 0.2639108415
0.9924394165 1.5937745838e-04 0.5170584653
0.9824795341 0.2483568958 0.2671445814
0.9924099603 -0.0027579538 0.0165864349
0.9925461952 0.250853084 0.5137538463
0.9825531746 0.248015826 0.7653872367
0.9924688727 0.2477593728 0.0111702656
0.0123681762 0.7496708877 0.0180324589
0.0025951567 0.497779792 0.7658971974
0.0124165949 0.4980336416 0.0149923935
0.0225425366 0.7492347871 0.2671648326
0.0025171714 0.7475294382 0.2672265065
0.0125077987 0.7513436918 0.5122377718
0.0223920522 0.7503282932 0.768866752
0.0223293841 0.5000032545 0.2661596393
0.0025329673 0.7497880491 0.7685988845
0.012317217 0.9991074527 0.0215128026
0.0524047309 0.999797403 0.5111478919
0.0523800614 1.000363683 0.010918323
0.0323803966 0.7517212118 0.0159077454
0.0423170822 0.4997272744 0.7648330917
0.0425534684 0.7496839057 0.2651065796
0.0324820206 0.7493128946 0.5145537666
0.0425033928 0.7509466449 0.7632700713
0.0524603295 0.7484732381 0.012756851
0.0524824217 0.7499572822 0.5130561023
0.0525722632 0.4988212264 0.5098748311
0.0424139195 0.9974671935 0.2666300182
0.0323943883 0.9977145341 0.5166276682
0.0324172169 0.9992831948 0.0157605563
0.0724261196 0.9974346486 0.5040931286
0.0624224211 0.9995044996 0.7598494685
0.0724979191 1.0006110237 0.0101806289
0.0724953417 0.7506602504 0.0093756458
0.0624883294 0.749807576 0.2584310651
0.0725428399 0.749241296 0.5125019572
0.062540246 0.7506211966 0.7584567418
0.0623329479 0.9992050872 0.2596728287
0.082585936 1.0009104361 0.2555139794
0.1024972321 0.9988080403 0.7506821424
0.0824555923 1.0007802568 0.7552303659
0.0924143701 0.9985997534 0.007662859
0.0924777009 0.7525087966 0.0045555966
0.0926006806 0.5002408317 0.0050700678
0.1023536331 0.7513632187 0.2556851937
0.0825572162 0.7490199912 0.2593156721
0.0924309392 0.7485643636 0.5049685305
0.1025682952 0.7494040201 0.7550149673
0.082529601 0.7493910022 0.7572085348
0.0925281447 0.5010271147 0.5047945547
0.1123797919 0.9997518403 0.0025471431
0.1124177168 0.7506927953 -7.9865940568e-04
0.1223676577 0.5000956818 0.7482455611
0.1222652974 0.7487010519 0.2483045711
0.1123297164 0.7505235622 0.5035205735
0.1223860678 0.7513632187 0.7480688239
0.1122266196 0.999615152 0.5022281821
0.1225653825 1.0011317409 0.7507732725
0.1523978997 1.0002269947 0.4989972036
0.1322921926 1.0013465367 0.5017384725
0.1424321261 1.0006761133 0.7479537605
0.1523831716 1.0009429809 -0.0018620563
0.1323879253 0.9981441258 -2.7679654881e-04
0.15235482 0.7505430891 -0.0024501036
0.1323187032 0.7495081636 1.2292427558e-04
0.1423551717 0.7526780297 0.2463705865
0.1522255808 0.7497880491 0.4977572811
0.1323337995 0.7521638214 0.4984946069
0.1423360252 0.5012308453 0.2463448123
0.1422863178 0.7491892243 0.7485603744
0.1723257649 0.7504194187 -0.0060383676
0.1623791378 0.5018856472 0.740181002
0.1724347529 0.4992364984 -0.0106770861
0.162379506 0.75355674 0.2446704107
0.1824255643 0.9996672237 0.7421205096
0.1723430704 0.750185096 0.4935772602
0.1624365774 0.4998750279 0.2400522286
0.1623091793 0.752606431 0.7455273049
0.1822709192 0.7498791746 0.244371246
0.1822941159 0.7503413111 0.7425706374
0.1624498327 1.0011317409 0.2485687565
0.1723555893 1.001483225 0.4911590891
0.1724583179 1.000545934 -0.0053291908
0.1925006941 1.0036507104 0.4913174163
0.2023342829 0.9998364568 0.7417716376
0.1924086434 0.7497424863 -0.0063440034
0.2023037221 0.7530099869 0.2449502447
0.1923964927 0.7498466298 0.4930212742
0.2023983502 0.7494495829 0.745741783
0.2325084922 0.7500484077 1.0008749398
0.2324238056 0.5008891246 1.0011695019
0.2324020816 0.751864409 0.4994961182
0.2323921401 0.5013571192 0.5016482629
0.2224565591 0.9997583492 0.2449023783
0.2124620657 0.9998299478 0.4961519174
0.2124720072 1.0027785091 -0.0062738148
0.2123446091 0.750920609 -0.0023555676
0.2322997213 1.0004548085 0.9965669685
0.2224558227 0.7497620132 0.245755688
0.2125228192 0.7482128795 0.4939454629
0.2225287269 0.5024057135 0.2471613018
0.222350885 0.7502306587 0.7480071499
0.2524602906 0.7513241649 1.0042992246
0.2524161062 0.5015894893 1.0044373006
0.242398416 0.7497359774 0.2542215881
0.2524602906 0.7517212118 0.5063575751
0.2424875211 0.5006561037 0.2488485905
0.2423244073 0.747926485 0.7515649083
0.2524477717 0.5023790268 0.5031901116
0.2624805582 0.4985615187 0.756069868
0.2623332771 0.7486229443 0.2596838747
0.2624050766 0.7492738408 0.7598052841
0.2825225662 0.5005213681 0.7534804827
0.282529562 0.7496904146 0.2542970696
0.282600257 0.5012861715 0.2518503628
0.2825358215 0.7507318491 0.7549146321
0.2723944152 0.7499312463 1.0058272657
0.2724433862 0.500698412 1.0051276807
0.2724452272 0.7511809677 0.5123565172
0.2825089427 0.999979654 0.2562338157
0.2826234537 1.0012489023 0.7550922899
0.3125907331 1.0014702071 1.0034339484
0.2925026997 0.7512720932 1.0014364488
0.3025255447 0.5019162394 0.7504400491
0.2924290592 0.5018531024 1.0032038217
0.3026665664 0.7505951608 0.2491707679
0.2926076375 0.7505951608 0.4996001355
0.3024736282 0.4991863793 0.2522931265
0.3026301143 0.7499312463 0.7474530049
0.3024828332 1.0003506651 0.2540963991
0.3124983142 0.7523135276 1.001325988
0.3125027326 0.4999505319 0.999116772
0.3124309331 0.7508164656 0.4986474111
0.2924673522 1.0002204858 1.0023109302
0.3325502637 0.7521638214 0.9995586152
0.332460054 0.5011911406 0.9988037997
0.3227564407 0.7498921925 0.2487197196
0.3327292102 0.7519360076 0.4975860668
0.3225981136 0.7540904751 0.7486607097
0.3326430508 0.5004510713 0.5004709348
0.3524663464 1.0015938774 0.4929384286
0.3425186147 1.0006370595 0.7473747618
0.362599284 0.7511809677 0.2378697072
0.3525020621 1.0012749381 0.9948272108
0.3626176942 0.7475750009 0.7411751493
0.3625440536 1.0022187381 0.2406091351
0.3525904307 0.7496708877 0.9925443542
0.3624041366 1.000168414 0.7457758417
0.3526305648 0.4987222901 0.9902983179
0.3426029331 0.7500093539 0.2487491758
0.352603686 0.7503803649 0.4915484635
0.3426695778 0.7515064159 0.7450790181
0.3924936592 1.0041453918 0.4872174795
0.372507618 0.7530360227 0.9900681912
0.3725554844 0.4987431188 0.9905008294
0.3826110994 0.7532182738 0.235156974
0.3725260282 0.7509726808 0.4915622711
0.3825595511 0.5022000302 0.2398626042
0.3827289243 0.7526519938 0.7375400684
0.3824822285 1.0009885436 0.2416032824
0.3823791317 1.0024725877 0.7435113952
0.372500254 1.0026288029 0.9910347233
0.3727690419 0.5011924424 0.4921431108
0.3925672998 0.7540969841 0.9884757147
0.3925783459 0.752059678 0.4900139788
0.4125680691 0.7503217842 0.9835510039
0.4126085714 0.7516300863 0.4835391348
0.4126453917 0.5022377822 0.4868290257
0.4025419103 1.0022708098 0.2368184886
0.4023983112 0.5035968542 0.7378447561
0.4027112835 0.7541685827 0.2366896177
0.4025787305 0.5003215429 0.2360857653
0.4027149655 0.7533354351 0.7374931225
0.4325725205 0.7534786324 0.9836246444
0.42259791 0.7510898421 0.232471856
0.4326387969 0.7520206242 0.4792909964
0.4226420943 0.503088504 0.2342373878
0.422737827 0.7517602656 0.735557297
0.4425103107 0.749430056 0.2331972153
0.4425250388 0.7514999069 0.7308424617
0.4324841518 1.0024074981 0.4838162073
0.4224764031 0.9998885285 0.7319258981
0.4424293061 0.9995435534 0.2313902607
0.4525622437 0.9999275823 0.9831828012
0.4625847205 1.0003181202 0.2295197911
0.4724599163 1.0000903064 0.4823452376
0.4624705777 0.9995956251 0.7272911469
0.4526137921 0.7500028449 0.981369403
0.4525622437 0.749612307 0.4816907573
0.4726035153 0.7507774118 0.9806145875
0.4625847205 0.7506993042 0.2294792888
0.4725261928 0.7467743982 0.4820276628
0.4624668957 0.7493910022 0.73301946
0.4727066121 0.4981338797 0.4836808928
0.4825265774 0.9983849576 0.2314795498
0.4923318147 1.0013139919 0.4833439874
0.4923391787 1.0017435836 0.9840020522
0.4823977065 0.4993360855 0.7336177894
0.4923539068 0.7528863165 0.4832777109
0.4825633977 0.7501069884 0.2327277569
0.492515916 0.7511679497 0.9851158653
0.4825228954 0.7502306587 0.7350473362
0.5124577729 1.0011903216 0.4871650106
0.5124467268 1.0011252319 0.9847844828
0.5023690196 1.0012554112 0.2356660142
0.5224544755 0.7510898421 0.7392236751
0.5224287014 0.9988991658 0.236041581
0.5225796644 0.9992115961 0.7352839065
0.5023984758 0.7524567248 0.2373477799
0.5024316141 0.4989481512 0.2399583369
0.5025015726 0.7500158629 0.7369665927
0.5025126186 0.4982100346 0.7366250847
0.5123914964 0.7527756641 0.9844807156
0.512476183 0.4996563266 0.9879234107
0.512468819 0.7516951759 0.4845903534
0.5223881991 0.4972271808 0.2341508602
0.5224692036 0.7492347871 0.2353116192
0.5323407174 0.7489158478 0.4832141959
0.5325211367 0.5004601838 0.490662936
0.532425404 0.9980855452 0.987279056
0.5424552449 0.9978772583 0.2380307959
0.5524814037 0.9981766707 0.4884693686
0.5524261733 0.7478679044 0.9865794709
0.5425141573 0.9974671935 0.7360157093
0.5424368347 0.7478288506 0.2361327111
0.5524188093 0.7484732381 0.4917316443
0.5422858716 0.7483886216 0.7390202431
0.5324548602 0.7501655691 0.988383664
0.5624523322 1.0013400278 0.242996009
0.5623897377 0.9998820196 0.7380850083
0.5625001985 0.7482519333 0.2384284548
0.5623713276 0.7492803498 0.7401441818
0.5723312099 0.9990293451 0.4901805905
0.5722354772 0.9999471092 0.9884941248
0.5723533021 0.7477051802 0.9871225698
0.5723164818 0.7480957181 0.4937770102
0.6024023224 0.9981050721 0.2477771207
0.5922067904 0.7474057678 0.9916330526
0.5923246152 0.9982222334 0.4957735892
0.6024501888 0.9971287273 0.7436273791
0.5923246152 0.9989642555 0.9964933279
0.6022108571 0.7494756188 0.2434286471
0.6023618201 0.4981475485 0.2467710069
0.5922620208 0.7467678892 0.4926291383
0.6023507741 0.7485122919 0.7468316629
0.582379461 0.9983849576 0.2423065495
0.5824346914 0.9983979755 0.7402325504
0.5821990416 0.7480957181 0.2411853723
0.5822800462 0.7515715056 0.7418461986
0.61224438 0.7501916049 0.998711749
0.6123217025 0.7476465995 0.4962798679
0.6123695689 0.9998234389 1.0015653198
0.6223957277 0.9984240114 0.2529798245
0.6223994097 0.7489614105 0.2464874909
0.6223404973 0.7492868588 0.7484038883
0.6424517274 1.0013270098 0.7497312589
0.6525515268 1.0002465216 1.0019059073
0.6324992091 0.9990033093 1.0011234766
0.6325360294 0.7500093539 1.001731011
0.6324992091 0.4975890793 0.9976807816
0.6325470755 0.7480306285 0.4992402174
0.6524815683 0.7494886367 0.998987901
0.6526435775 0.5004491186 0.9980858045
0.6425437781 0.749618816 0.2491357886
0.6426026905 0.499874377 0.2483901782
0.6526398955 0.7478288506 0.5004562067
0.6425069578 0.7494170381 0.7533046659
0.6725486141 0.7480957181 0.99609751
0.6725559782 0.5021915686 0.9947903906
0.6825637269 0.9969009135 0.2423415287
0.6726480289 1.0001423782 0.4940743338
0.6825269066 0.9993547934 0.7436080485
0.6825526808 0.7488442491 0.2420064643
0.6724749736 0.7487531236 0.4940117394
0.6825453168 0.7498726656 0.743476416
0.6625776857 0.7500614256 0.2490115202
0.6626550082 0.7513697276 0.7466199463
0.7025644962 0.9990163272 0.2353208242
0.7024982197 0.4988414042 0.7403899571
0.6925309733 0.7493910022 0.9908322118
0.6926451161 0.9974802114 0.4893714652
0.7026123626 0.9987885134 0.7394979861
0.6926635263 0.9972393797 0.989764424
0.7026418188 0.7491827153 0.2405934865
0.7024429893 0.4999375139 0.2397963277
0.6925309733 0.7482063706 0.4922765843
0.7025608142 0.7491371526 0.7400502901
0.7225579015 0.4998483411 0.7417302148
0.7324956917 0.750562616 0.9900958064
0.7226057678 0.749807576 0.2390350687
0.7224474407 0.5029147146 0.2413050382
0.7324846456 0.7491371526 0.4919461224
0.7225358093 0.7508034477 0.7415571595
0.7225689476 0.9983133589 0.7392365622
0.7124912404 0.7481738257 0.9914489513
0.7126090652 0.7527821731 0.4894681184
0.7424739842 0.499792364 0.7347730253
0.742584445 0.7497880491 0.2383778269
0.7425918091 0.4979665993 0.2324414793
0.7426028551 0.7489744284 0.7362209823
0.7524817329 0.4961343256 0.4838953709
0.7525038251 0.7477181982 -0.0126059435
0.7625815323 0.4975064154 0.7323557747
0.7626036245 0.7486489802 0.2380712982
0.7625042097 0.4983011601 0.2341121989
0.752492779 0.7482909871 0.4878866879
0.7625520761 0.7482649512 0.7356465861
0.7825859837 0.7489483926 0.2434194421
0.7826228039 0.5002558023 0.2421196866
0.7725708709 0.747926485 0.4864856767
0.7826007118 0.7494691098 0.7403025089
0.7726224193 0.99736305 0.4870757215
0.7726371474 0.5007498328 0.4905423497
0.7725598248 0.7488963209 -0.0132368495
0.7825675735 0.4998307669 0.7370061745
0.772585599 0.5000475154 -0.0122471576
0.7926121425 0.7515194338 0.491898256
0.8125061331 0.4990151936 0.4948650491
0.8125650455 0.750549598 -0.0044938034
0.8024431539 0.4993478017 0.7420790868
0.8026198912 0.7485708726 0.2445535063
0.802583071 0.4989455476 0.2449401191
0.7925679582 0.4994291638 0.4913257009
0.7925826863 0.7516951759 -0.008981187
0.8125429533 0.7507188311 0.4966333424
0.7925164098 0.4994428326 -0.0084514381
0.8026051631 0.749247805 0.7423598414
0.8324995383 0.5017619769 0.498089584
0.8325326766 0.7503478201 8.302047947e-04
0.8226096145 0.4994877444 0.7501813867
0.8325510867 0.4991902847 0.0010991861
0.8225286099 0.7496383429 0.248638715
0.8225654302 0.5005252735 0.2473481646
0.8324664001 0.7504194187 0.5017136188
0.8226169785 0.7501981139 0.7485428848
0.8624454619 0.7516496131 0.7563635096
0.8625485587 0.4981742353 0.749876699
0.852548174 0.7511549318 0.0085669807
0.8526328606 0.4985205122 9.4840705856e-04
0.8624896462 0.7477702699 0.2527561414
0.8624749181 0.4978084314 0.2498031559
0.8524487593 0.7515064159 0.5046767299
0.8425109691 0.7522028752 0.2507365497
0.842503605 0.4991297514 0.2544701249
0.842496241 0.7511874766 0.7532917788
0.8525849943 0.4994109386 0.4999738612
0.8724863489 0.4984990326 0.5036144651
0.8824940976 0.7479785568 0.7598126482
0.8925055283 0.4999843785 0.5074014297
0.872508441 0.7477116892 -1.3091464883e-04
0.8926638555 0.750549598 0.0048092883
0.88255301 0.4969635677 0.750020298
0.8726152198 0.5005753925 0.0019037089
0.8924723901 0.5001620732 0.0061067424
0.8825382819 0.7487010519 0.2561031037
0.8825787842 0.4977752357 0.2562236901
0.8725489433 0.7488247222 0.5031560528
0.8925239385 0.7498791746 0.5065600866
0.8825198718 0.9987104058 0.2565679596
0.8825824662 0.99717429 0.7522377987
0.912690399 0.7513957635 0.5072605921
0.9126314866 1.0021927022 0.0098927864
0.9126278046 0.5013070002 0.5078892982
0.9027084245 0.7502501856 0.7591535654
0.9126646248 0.7519880793 0.007145074