POSCAR file written by Ovito 3.7.11
1
271.6015046831 0.0 0.0
0.0 15.3641012594 0.0
0.0 0.0 10.8640601873
Sr Ti O 
800 800 2400 
Direct
0.0224875165 0.498433361 0.7608818425
0.0126763043 0.2514986438 0.511537679
0.0226004025 0.2510951057 0.7613153821
0.0025682969 0.2499001123 0.7639994615
0.0126662896 0.2494204226 0.0119063343
0.0224819937 4.7139950159e-04 0.2628985925
0.0024891737 -5.1759424061e-04 0.262899513
0.0026048947 0.5004692757 0.2612426739
0.0124074913 0.5009626336 0.5129469127
0.0126140808 0.0018040515 0.5096350754
0.0224859701 -3.007901501e-04 0.7613061774
0.0026312568 3.3491250735e-04 0.7613236663
0.0224727522 0.2507403827 0.2603875608
0.0027048941 0.250862095 0.2643750203
0.0324035514 0.4999570427 0.0128214618
0.0424539375 0.5018601804 0.2597404731
0.0325423577 0.5003781542 0.5142576566
0.0324672477 0.2516626625 0.5091536716
0.0424797106 0.2506004461 0.759153207
0.0324031832 0.2513977593 0.0064962943
0.0524627186 0.5014690088 0.0109349664
0.0423486362 0.0011266282 0.75927747
0.0425319931 0.2516926024 0.2582198629
0.0524976963 0.2511543347 0.5122989045
0.0523614673 0.2510567045 0.0124865962
0.0623069203 0.2494933198 0.2566900482
0.0625399824 0.501911599 0.7606940674
0.072478808 0.5010622164 0.0102448008
0.0625311459 0.5008213953 0.2642185411
0.0724662897 0.5001262684 0.5086989613
0.0724169527 0.2506583734 0.5077177443
0.0623293797 0.2496612438 0.7551593043
0.0723197515 0.2498760302 0.0068756184
0.0924474014 0.2475413671 0.5029524909
0.1024447687 0.2470655827 0.7524107923
0.0825144667 0.2503700389 0.7542867023
0.0925490208 0.250655119 0.0031563828
0.1025607474 0.0015153265 0.2520564214
0.0925376071 -7.1623911729e-04 0.5062137026
0.1025044149 0.2490513806 0.2527946353
0.0824599751 0.248812512 0.2544754065
0.1025114104 0.4999629005 0.752975038
0.0825251441 0.4971928068 0.7565179124
0.1025706884 0.496492473 0.2524457786
0.0825479717 0.50133493 0.2551998134
0.1223890617 0.2493130294 0.2510669202
0.1123607667 0.4995346295 0.002422219
0.1123784397 0.2503244781 0.5001533533
0.1224453942 0.4992781875 0.2512022288
0.1124682772 0.5004165554 0.5026063956
0.122381698 0.2497211236 0.7514350981
0.1125732103 0.2498682197 0.001028357
0.1224719037 4.9951699396e-04 0.2479833585
0.1524433871 0.2497367444 0.4901018625
0.1323996837 0.2504605095 0.4984109108
0.1424596427 0.2494666343 0.7445049082
0.1524849922 0.2515357433 -0.0042979297
0.1324225113 0.2511361104 -0.0025979944
0.1424762111 0.0011220721 0.2473344299
0.1423399821 0.2509167679 0.2455873851
0.1424401288 0.5011670061 0.7497037012
0.1524595873 0.499620544 -0.0026952693
0.1324571208 0.4993530373 -5.7121130929e-05
0.1524161413 0.4990607977 0.4970219273
0.132390479 0.5003410548 0.4988334047
0.1824012476 0.2490292511 0.2455229524
0.1722930562 0.5001633678 0.4955915229
0.1823975658 0.4976926734 0.7424099272
0.1724119804 0.2503824054 0.494511816
0.1625015052 0.2485313371 0.7456913891
0.1725007134 0.2504513974 -0.0055837842
0.1823342377 0.4993699599 0.2455542483
0.1624580592 0.001067985 0.7450038009
0.1625136553 0.2490800187 0.2434426989
0.1824675212 0.249699645 0.7413559934
0.1823773155 4.2347395725e-05 0.2437611802
0.1923923558 -0.0019966199 -0.0065098192
0.2024920789 0.2488053525 0.2384915113
0.2024865561 0.4998184079 0.7408488165
0.1922126808 0.498793291 -0.0099108497
0.2024501056 0.5010505008 0.2418815882
0.1922852135 0.500251235 0.4905547319
0.1925440486 0.2496397651 0.4905593342
0.20251012 0.2494366943 0.7388118249
0.1924571566 0.2484896816 -0.0095907299
0.2025075427 -0.0014168984 0.2400351331
0.2124857643 0.2506661838 0.4879811085
0.2224971227 0.2479722416 0.7377763004
0.2124599913 0.2492101923 -0.017820029
0.2225420415 -2.1910623128e-04 0.7396825859
0.2225818056 0.2480301689 0.235681328
0.2324366847 0.2501389808 0.4867716159
0.2325022219 0.2495037337 0.9852878158
0.2324720306 -1.4887758714e-04 0.4870946995
0.2225460915 0.5014618493 0.7371255308
0.212413968 0.5000956776 -0.0148119639
0.2124964417 0.4991629839 0.4867789796
0.2423887651 0.4996068758 0.74306714
0.2624917465 0.249122976 0.7461460994
0.2624899056 -0.0012041297 0.2425516876
0.2625782703 -0.0012976594 0.7428480691
0.2524884882 0.250409091 0.4910250901
0.2424631388 0.2503915175 0.7381030659
0.2524258965 0.2496703559 0.9934707602
0.2623709813 0.2501643646 0.2428204637
0.2424568796 -0.0011237475 0.2426685868
0.2623927043 0.4995092456 0.2452790289
0.2522020391 8.2091555263e-04 0.494592817
0.242337219 7.7008277128e-04 0.7430837084
0.2524041735 -0.0024060679 0.993774514
0.2423972334 0.249546691 0.2386700817
0.2725789513 0.2490136302 0.4951303693
0.2726146654 0.2518976258 0.9985885521
0.2723852852 2.3383272574e-04 0.4969004258
0.2724533997 0.0017653899 0.9985517335
0.2825420772 0.2514342079 0.7510153655
0.2722729883 0.4995984145 0.49935715
0.2824916357 0.2496579894 0.2497055508
0.3124494962 -0.0012849675 0.4989825203
0.2924271477 0.5015308413 0.5018709431
0.2925162488 0.2505574888 0.4999849079
0.3025169298 0.2505939374 0.7523794964
0.2926094 0.2496482264 0.9987358267
0.2923634514 -6.8922810031e-04 0.4996599834
0.3024863703 0.0012079867 0.7504897793
0.3124870513 0.5013485982 0.5012597536
0.3025110388 0.2494763973 0.247656593
0.3124439734 0.2490409667 0.5021249918
0.3125732069 0.2508959401 1.002703036
0.3223890583 -8.98612297e-04 0.249929224
0.3324688993 0.0016017617 0.496703446
0.3225591604 -4.3870905367e-04 0.7511221396
0.3324755267 5.8569190115e-04 0.9966371638
0.3223776445 0.2485938204 0.2501777499
0.3225573195 0.5013219127 0.7500074551
0.3226420024 0.4995378838 0.2497626197
0.3324376035 0.2498949053 0.4968995053
0.3225830925 0.247482789 0.750757635
0.3324884132 0.2498753793 1.0000981167
0.3625169655 0.2490709066 0.2419653506
0.3526064903 0.4994662883 0.4939770252
0.352532853 0.2479689873 0.4964024536
0.3424622166 0.2500400489 0.7408073956
0.3626200578 0.4959600631 0.7418199084
0.3526606137 0.2500231263 0.9936180347
0.3626531945 0.4993009679 0.2470380398
0.34244528 0.0015158472 0.2497304034
0.3425561041 0.249467936 0.2437427708
0.3625353749 0.2483009299 0.7391284652
0.3424430709 0.4980311247 0.746496797
0.3426750283 0.4975091286 0.2474338402
0.3825757646 0.2483946549 0.2401713621
0.3927045744 0.2469282495 0.4856955909
0.3925757092 0.2468364772 0.9851957692
0.3926235734 -0.0036190838 0.9883989915
0.3826273107 0.4978632008 0.742115378
0.3925609817 0.49781764 0.988739564
0.3726089568 0.2455288836 0.4921066379
0.3826309925 0.2488365942 0.7385163552
0.3726089568 0.2488600254 0.9916114185
0.3925609817 0.4983044892 0.4878237087
0.3726752303 -0.001829425 0.490864929
0.4125277341 0.4988277869 0.982913013
0.4025609263 0.2483243611 0.7342960178
0.4025940631 -0.0014097388 0.7340263212
0.4027634289 0.2489908498 0.2343162767
0.4127044636 0.2483712236 0.4822604111
0.4126013714 0.2492101923 0.9844501916
0.4125903258 -0.0031344997 0.4795247856
0.4125240523 -0.0024480814 0.9793692182
0.4425054767 -0.0018641813 0.7303370927
0.4426122508 0.25178828 0.2310246896
0.4227522725 0.4979282875 0.7302367619
0.4325313052 0.4980291721 0.9808603735
0.432483441 0.5001464453 0.4779922095
0.4426711607 0.5019994661 0.7261112325
0.4425827959 0.5020066257 0.2233848203
0.4327153984 0.2497081062 0.4777169901
0.4225644974 0.2491503125 0.7290281898
0.4326748979 0.2502431196 0.9776387418
0.4225092694 4.5623428e-04 0.2271679363
0.4324908047 -5.6100712814e-04 0.9820109562
0.4225497699 0.2480353758 0.2313753872
0.4425643866 0.2493826723 0.7275324323
0.4725715841 0.2476162169 0.4858667976
0.4624022737 0.2498805862 0.7309399981
0.4724869012 0.2505997952 0.9856007743
0.4724574463 -5.4981220062e-04 0.982369938
0.4624427742 0.2496671016 0.2314968888
0.4525753768 0.4983454939 0.981688793
0.4523286918 0.4982341954 0.4814540828
0.4625385027 0.5012600802 0.7291690212
0.4724832194 0.4987347128 0.9845606475
0.4625053659 0.4996615487 0.2310044393
0.4526011498 0.2501851924 0.4802832498
0.4526121954 0.2497692878 0.9794520602
0.4523397374 0.0013095872 0.4823110368
0.4823579806 0.250162412 0.7382245675
0.4826046655 -0.0016752279 0.7338302619
0.492553064 0.4983155539 0.9851221319
0.4923800163 0.4982992822 0.4861585854
0.4824794821 0.2505249454 0.2355745539
0.4924536536 0.2486198552 0.4890120306
0.4925125635 0.2473806027 0.9865672638
0.4823947992 0.4991219792 0.2348409424
0.5025272355 0.2486914506 0.7424605528
0.5123983149 0.2478270981 0.4954304413
0.5125529532 0.2496039674 0.9930105271
0.5023983703 -6.1105886804e-04 0.7358295145
0.5025530086 0.2489225087 0.2391514855
0.5224792605 0.2487324553 0.2462215863
0.5224866242 0.2488450554 0.745898494
0.5124829978 0.4993009679 0.493125594
0.5223724864 0.5003807577 0.7471291573
0.5423539663 0.5005031209 0.7471926695
0.5523281378 0.5012138686 1.0032553157
0.5423907849 0.5015048065 0.2483110445
0.5524496394 0.5031853474 0.5055040232
0.5325123419 -0.0012579565 0.4971728838
0.5324681595 0.2509740443 0.4983888196
0.5324239771 0.251847509 1.0000797073
0.5325528424 0.5016213119 0.9991684458
0.5524385938 -5.7103049348e-04 1.0066978592
0.5424386492 0.2500263806 0.2505450159
0.552486458 0.2504305696 0.5056724685
0.542442331 0.2515630797 0.7526804888
0.5522729099 0.249842185 1.002620194
0.5724237555 0.2518286338 0.5111464809
0.5724348011 0.2512753961 1.012717708
0.5623685829 0.4993680073 0.7553765343
0.5623685829 0.5020873333 0.2551326194
0.5724900291 0.502960798 1.0078852606
0.5725857576 0.5000331943 0.5075971633
0.5623354462 0.2515676358 0.2565970811
0.5623575374 0.2521143648 0.7576022215
0.6025598183 0.5006098632 0.7609048542
0.5924678271 0.5018686417 1.0129018012
0.5924199629 0.500044259 0.511196186
0.5823537447 0.2505984935 0.7628074578
0.6023720432 0.2503043012 0.2691826152
0.5924346903 0.2526793181 0.5157635392
0.6023941344 0.2487910334 0.7676794853
0.5924089173 0.2512409001 1.015957749
0.5823868815 0.5021641357 0.7578323381
0.5824457913 0.5011988986 0.2596493469
0.5824237001 0.2502183867 0.2620186269
0.6126076272 0.4986195092 1.0141168166
0.6125708085 0.4998138518 0.5120384126
0.622574435 0.4991642856 0.7627918099
0.612449307 3.2788313426e-04 0.5139207659
0.6225707531 0.5009678405 0.2622275727
0.6124051246 0.2508171851 0.5134301575
0.6124272158 0.2513079395 1.0175409508
0.6224676609 -1.2199674373e-04 0.7617305123
0.6225118433 0.2491607264 0.2656112064
0.622574435 0.2495004794 0.764841688
0.6425227781 -2.3694001117e-04 0.2574862514
0.6524895859 -0.0012612759 0.5052159173
0.6325596521 0.4972136346 0.5093764244
0.6425154143 0.2503108099 0.2622607095
0.6526074056 0.2492824387 0.5059937112
0.6424749138 0.2503212238 0.758120444
0.6325780614 8.8906141957e-04 0.510080581
0.6525595413 0.2496963906 1.0069003617
0.6425043687 0.4978924898 0.7606664534
0.6525816325 0.500546729 0.504269678
0.6323608314 0.2484844746 0.5119730595
0.6325375609 0.2508529828 1.0135829462
0.6824783741 0.502876836 0.7524669407
0.6625116217 3.2039815365e-04 0.2534251546
0.6824415554 0.5008370161 0.2501409313
0.6624527118 0.0016227197 0.7539304819
0.672544703 0.5025012853 0.5011437749
0.6625742134 0.2515721919 0.2530919458
0.6626736237 0.2512617279 0.7528213202
0.6726662046 4.4692686933e-04 0.9983860496
0.6624784849 0.4998860981 0.7556940951
0.6625521222 0.5005890354 0.2539332519
0.6825777844 0.2497204727 0.2493631373
0.6723458824 0.2512981765 0.5048247191
0.6825814663 0.2517720083 0.7464342053
0.6723642917 0.2495434367 1.0052435226
0.702459854 0.2514765143 0.2434353351
0.6924267726 0.2512578227 0.4981513393
0.7024414446 0.251556571 0.7471135094
0.6924267726 0.2481974419 0.9970513736
0.6925409104 0.5019467458 0.997530016
0.6925040917 0.5037802406 0.4962570199
0.7325222795 0.5003260848 0.9874693206
0.7325995986 0.5004165554 0.4859882992
0.7123714338 0.2498799354 0.4895366963
0.7124634804 0.2494705395 0.9919611956
0.722573881 0.0013637394 0.2362879152
0.7324817789 0.00102301 0.4851773685
0.7326474629 5.4058675713e-04 0.9871471575
0.7124929353 0.4997253338 0.9895219602
0.722301423 0.2483451889 0.238404067
0.7324228691 0.2485489106 0.4855704075
0.7226070177 0.2485137637 0.7376382305
0.7324596878 0.2512682366 0.9864936265
0.7125813001 0.4990412716 0.490130397
0.7125628908 3.5001264215e-04 0.4892200559
0.712584982 0.0010128565 0.9906633383
0.752459577 0.5011591957 -0.0154170416
0.7423859951 -2.8178480804e-04 0.2333433439
0.7424890873 -6.6761928673e-04 0.7329493758
0.7425958614 0.250517135 0.234281299
0.7425553608 0.252522459 0.7330975708
0.762529477 5.4117253822e-04 0.2339048283
0.7526804888 2.4196857423e-04 0.4837396003
0.7625589319 5.1719893183e-05 0.7363090773
0.7525074412 7.9494592426e-04 -0.0167450441
0.7625221133 0.2537552027 0.2339296809
0.7525442598 0.2493273485 0.4849131947
0.7625184314 0.2527893148 0.7335090192
0.7524927137 0.2493852758 -0.0163622867
0.7826508677 0.0018833923 0.2390953371
0.7825514574 0.0022271807 0.7358460828
0.7724815573 0.0035212362 -0.0149996193
0.7824888657 0.2526324556 0.2349339095
0.7725036485 0.2507664174 0.4878448795
0.7824925475 0.2521495117 0.7348915594
0.7724999667 0.2503641811 -0.0134386468
0.7925550838 0.0024499077 0.4876442178
0.7926103118 0.0026599427 -0.0137465979
0.8124445171 0.4989579605 -0.0089398702
0.7923967637 0.2517986939 0.4860499704
0.7924814465 0.251019605 -0.0129853172
0.8026507569 7.0148129683e-04 0.242376799
0.8125181544 5.5002434137e-04 0.4897594491
0.8025182098 5.5432006938e-04 0.7393696274
0.8125733824 0.0021420472 -0.008082304
0.8024887549 0.2509206731 0.239492058
0.8124003347 0.2504403326 0.48831984
0.8024666637 0.2521449556 0.7388744166
0.8124518808 0.2522139476 -0.0078938864
0.8325143617 -5.8261594173e-04 0.4929635919
0.822462871 9.7868592651e-04 0.742699874
0.8326064083 9.5922497693e-04 -0.0051357381
0.8224702347 0.2533542681 0.23878514
0.8324738612 0.2517316545 0.4938002957
0.8224996897 0.250487846 0.7416082011
0.8325438166 0.2509968246 -0.008391394
0.8224849622 0.0016264296 0.2419984874
0.8426210804 -5.6732054657e-04 0.7425811339
0.8424627602 0.250192352 0.2407945177
0.8424774877 0.2499944881 0.7447718434
0.8626246515 -9.0147611567e-04 0.2455846237
0.8424222597 0.5005512851 0.7444073388
0.8525289784 1.4212544158e-04 0.4946011012
0.8624847406 0.0010815231 0.7476943235
0.8525768426 -4.5764930895e-04 -0.0020178338
0.8624994681 0.2480249619 0.2444036656
0.8425363975 5.6922494381e-04 0.2406279133
0.8525547514 0.2505848253 0.4961695756
0.8625436504 0.2504585569 0.747505628
0.8525694789 0.2515246785 -0.0096561291
0.8725804137 0.0011146522 0.4965129095
0.8926134397 2.1502264403e-04 0.5014852678
0.8724810033 0.002949579 -0.0032537713
0.8825509034 0.2482241275 0.2499329059
0.8925913485 8.1635947748e-04 -4.768905285e-04
0.8725251857 0.2500367945 0.4963647144
0.8927275775 0.2509818547 0.4994298668
0.8824625386 0.2485925187 0.749873067
0.8725104583 0.2502073219 -0.0018095415
0.8926392127 0.2508887806 0.001166519
0.9026281117 0.0013871055 0.2504382418
0.9125986014 -3.46546162e-04 0.5006881441
0.90256552 -4.9299143478e-04 0.7499559089
0.9024477004 0.2528088408 0.2489940304
0.9124329175 0.2508790176 0.5048587764
0.90256552 0.2489153492 0.74985926
0.9023887905 0.5006287384 0.7502569014
0.9125986014 0.2502183867 0.0029954853
0.9226169553 0.0018418669 0.2540437079
0.9225322724 1.7928999747e-04 0.7535650568
0.9225948641 0.2495759801 0.2483266924
0.9226059097 0.2508321551 0.7523307117
0.942550571 5.6974563811e-04 0.2550028336
0.9326168999 -0.0019109527 0.5044353619
0.9427788466 -2.78725729e-04 0.7561699761
0.9326242637 -0.0029708389 0.0027766905
0.9427273005 0.2502457231 0.2574577169
0.9325138077 0.2512395984 0.5057194123
0.9428046196 0.2506726924 0.7538025371
0.9326905372 0.2494750955 0.0038425903
0.9526904264 7.508605004e-05 0.5066279124
0.9525836524 -0.001920566 0.008657641
0.9626461887 0.2510306698 0.2637242507
0.9526646534 0.25128581 0.5101984007
0.9726350877 0.2497523653 0.5125244187
0.9626830073 0.2501454895 0.76067934
0.9526867446 0.2501617612 0.0087358806
0.9727124068 0.2495902992 0.0131478591
0.9627640083 -5.1570672376e-04 0.2560199488
0.9824325297 0.4992423898 0.7634858414
0.9825245763 0.5005278538 0.2627936594
0.9827197151 0.00184792 0.2617130321
0.992414065 6.4192688589e-04 0.5112596982
0.9826865784 0.2495239106 0.2646171029
0.9926128857 0.0011132854 0.0116127056
0.9925687033 0.2508705563 0.5137035359
0.982561395 0.2491021483 0.7662693311
0.9926165675 0.2498265642 0.0140376738
0.0126739847 0.7475771238 0.0142307876
0.0023713908 0.4996608978 0.761044765
0.0124236179 0.5011194928 0.0117229775
0.022526397 0.7494125712 0.263211551
0.0026013969 0.7526018239 0.2603461398
0.0126011942 0.7482279917 0.5136114893
0.0224720895 0.750187104 0.7635116144
0.0223833197 0.5018172231 0.2619633989
0.0025694015 0.7505060293 0.7611211637
0.0124090009 0.9989097553 0.012276914
0.0524954872 1.0002310171 0.5118819333
0.0525400378 1.000152913 0.0116131658
0.0323457461 0.7495883056 0.0139368827
0.0424741878 0.5019050903 0.7609554798
0.0423460589 0.7516515568 0.2580532586
0.0323682055 0.7475445804 0.5134375212
0.0425128474 0.7489699811 0.7622248027
0.0524590367 0.7482345004 0.0174055675
0.0524340001 0.7529142404 0.5152784536
0.0524608777 0.502566372 0.5118782515
0.0423795639 1.0011812842 0.2604621186
0.032396924 1.0009534805 0.5102830836
0.0324790296 0.9997949356 0.0123928927
0.0723893387 1.0000813175 0.5072059651
0.062539246 1.0017084872 0.7628369127
0.0724438303 1.0020274125 0.0105306056
0.072451194 0.7503368036 0.0106750267
0.0624534586 0.7494190799 0.2606765872
0.0726463329 0.749477658 0.5114364277
0.062560969 0.7526148412 0.7584628574
0.0623592028 1.0002179998 0.2678111206
0.0824533477 0.9994760104 0.2571107012
0.1025861523 1.0001659303 0.7520039462
0.0824610797 0.9988511772 0.7601436286
0.0924323057 1.0005629597 0.0038234446
0.0925615392 0.7499788263 0.0086796401
0.0924794336 0.4986025867 0.0053046588
0.1025228242 0.7504734859 0.2547506259
0.0824923755 0.7493539931 0.2580173604
0.0925107294 0.7504865032 0.503916219
0.1024701735 0.749295415 0.7561543282
0.0825015802 0.7486380385 0.7556388672
0.0925641165 0.5003970294 0.5060590643
0.1123920626 0.9993067847 0.0010258718
0.1124822683 0.74769428 1.2022508833e-04
0.1224770583 0.4996465787 0.7489618055
0.1225437 0.7516971175 0.2510595565
0.1124918411 0.750148052 0.5022050724
0.1224656445 0.7509876715 0.7499862843
0.1125570101 1.0010511106 0.5036308745
0.1226353785 1.0003611907 0.7468456537
0.1525026651 0.9995996753 0.4934431548
0.1324766347 1.0005043816 0.4982995344
0.1423348275 1.0011031801 0.7452753384
0.1526175393 0.9999641613 -0.0025512807
0.1324773711 1.0000878262 -0.0044728735
0.1524791012 0.7488398075 -0.0085914194
0.1324331887 0.749640375 -0.002727596
0.1423826917 0.7521917771 0.2468392191
0.1524400734 0.748748686 0.493846319
0.1325101397 0.7502912429 0.4955611475
0.1423664915 0.5011995495 0.2476179335
0.1425509529 0.7501089999 0.7482696149
0.172474204 0.7493344671 -0.008706428
0.1625467921 0.501265938 0.7445012264
0.1723902574 0.4998092957 -0.0041309756
0.1623310348 0.7499658089 0.2436249512
0.1824406436 1.0013895619 0.7472405337
0.1725121272 0.7515409092 0.4939171949
0.1624035676 0.498724299 0.2424798912
0.162418295 0.7527970842 0.7462390665
0.1822502912 0.7527970842 0.244106355
0.1823714245 0.7514628051 0.7433451208
0.1624050403 0.9996647621 0.2425019824
0.172545264 0.999462993 0.4942043803
0.1725629369 0.9973997418 -0.005915152
0.1924667294 0.9985452693 0.4916114271
0.2024644649 0.998571304 0.7394303782
0.1923883057 0.7495427448 -0.0067208268
0.202407396 0.7495102014 0.2420150558
0.1923525916 0.7464511224 0.4950438455
0.2023517999 0.7494646407 0.7401317734
0.2325059038 0.7488072641 0.9900926493
0.2324698215 0.4995495994 0.9895863929
0.2325909549 0.749659901 0.4880225294
0.2324620896 0.5005708111 0.4872217239
0.2224982273 0.9989813508 0.2392683847
0.2124636731 0.9985973387 0.4891777145
0.2125277376 0.9979594882 -0.0102115476
0.2123896677 0.7488658422 -0.0116670439
0.2325117948 1.001064128 0.9891537738
0.2224985955 0.7495036928 0.2368493996
0.2124669868 0.7486835992 0.4883087944
0.2224580949 0.5001646696 0.236157209
0.222489759 0.7483256219 0.7361857349
0.252418901 0.7484362694 0.9922649495
0.2524038053 0.5015230308 0.9960848841
0.2424822844 0.7502196474 0.2400406559
0.2525028475 0.7480327313 0.4918921693
0.2425537126 0.5017130843 0.2403665009
0.2424741843 0.7482800611 0.7424246546
0.2523923915 0.5032725637 0.4943792689
0.2623286399 0.5002863819 0.7448850607
0.2625072103 0.7489829984 0.2463872702
0.262352572 0.7479871706 0.7452026216
0.2823881753 0.5016850969 0.7473574329
0.2824761719 0.7491717501 0.2479695515
0.2823716069 0.4985427068 0.2488384716
0.282348043 0.7505646074 0.7480606691
0.2724151083 0.7503823644 0.9922465401
0.2724467723 0.5019884014 0.9990395806
0.272315698 0.7496143403 0.4940791969
0.2824953176 0.9992937674 0.2465345448
0.2824573944 1.0011943016 0.7472478974
0.3124844739 0.9982849222 0.9986805987
0.2924330386 0.7506296942 0.9980730911
0.302446238 0.4988739986 0.7526970572
0.2922588864 0.5011813252 1.0000152747
0.3023471958 0.7504083991 0.2499154171
0.2923870153 0.7503237863 0.4982295789
0.3024193603 0.4993797229 0.2510954547
0.3025022023 0.7514367704 0.7483607411
0.3025121433 0.9998535137 0.2481950658
0.3125360201 0.7518858692 0.9968672804
0.3125886707 0.5002772697 1.0014880206
0.3124204095 0.7507598678 0.4981200435
0.2923781789 0.9992742413 0.9978889978
0.3324004166 0.750167578 0.9996194742
0.3325686779 0.4995053404 0.9950355527
0.3224545954 0.7485404083 0.2482051909
0.3326309014 0.748911403 0.4957305132
0.322580147 0.7498356354 0.7489452371
0.3325392229 0.4990015687 0.4969639379
0.3525218074 0.9979594882 0.495629262
0.3425314356 1.0001268783 0.7492554342
0.3627378774 0.750148052 0.2463495311
0.3526164313 0.9991375591 0.9940966772
0.3625427386 0.7486640732 0.7439885267
0.3624286008 0.9995150624 0.2472801224
0.3525608351 0.7486575645 0.9950999853
0.3625721935 1.0007061507 0.7448850607
0.3525958128 0.4978762181 0.9921913122
0.3426672964 0.7498746874 0.2445951225
0.3524743113 0.7482345004 0.4989687133
0.3425535268 0.7484232521 0.7443244968
0.3925757092 0.9978358233 0.4886484464
0.3725390013 0.7498877048 0.9936272394
0.372439591 0.4992202603 0.9929276851
0.3826604475 0.7471150076 0.2423961288
0.3725095464 0.7485729517 0.4944206899
0.3823585346 0.4973581273 0.24004894
0.3826125832 0.7441991195 0.7423289262
0.3825794464 0.9990138942 0.2371908926
0.3826494019 0.9979009101 0.7374789899
0.3726126386 0.9987795817 0.993148597
0.3724837734 0.4985850132 0.4935388833
0.3925941185 0.7470564295 0.9878559164
0.3925057537 0.7502391735 0.4850825605
0.4125571891 0.7479676446 0.9800779772
0.4125093248 0.7484688128 0.4824601523
0.4125792802 0.5001295227 0.4837377594
0.4026345636 0.9994890277 0.230523956
0.4024541522 0.4998450934 0.7367168439
0.4026051087 0.7461452145 0.2336351317
0.4025866994 0.4975364651 0.2370721524
0.4024909709 0.7476291933 0.7354300321
0.4324723954 0.7498161093 0.9770864621
0.4224871782 0.747108499 0.2286268752
0.4325018503 0.7492368369 0.4776626826
0.422494542 0.4978749164 0.2281657216
0.4224982238 0.750187104 0.7296163677
0.4424392032 0.7492238196 0.2316220722
0.4424060664 0.7509941802 0.7248805692
0.4324944866 0.9994760104 0.4798211758
0.4225976342 1.0004913643 0.727757026
0.4425459773 1.0002505431 0.2282550069
0.4525091032 1.0000552828 0.9812561739
0.4624538198 0.9984150957 0.235600327
0.472494265 0.999462993 0.4826948712
0.4625016841 0.9998665311 0.7314674252
0.4523471012 0.7493409758 0.9792035343
0.4523986473 0.7493735192 0.482360742
0.4725163561 0.749985335 0.9847263314
0.4623728188 0.7505255553 0.2298105947
0.472358036 0.7497835659 0.4833852208
0.462313909 0.7524521242 0.7301051353
0.4724611282 0.4983598129 0.4827381331
0.4825568013 1.0012528797 0.2354079496
0.4924205169 0.9987470383 0.4898514957
0.492553064 0.9981547486 0.9877454605
0.4824500272 0.498960564 0.7353794065
0.4923542433 0.7475250544 0.4853191203
0.4825015733 0.7517231522 0.2339968749
0.4925493821 0.7465487526 0.9861346447
0.4825347101 0.7491717501 0.7384795366
0.5123872693 0.9992677327 0.4907259386
0.5123430869 0.9990008768 0.992467452
0.5023762791 0.9987860904 0.2390612798
0.5225492159 0.7456765896 0.743870707
0.522357759 0.999827479 0.2446457482
0.5224682149 1.0012593884 0.7454290563
0.5025787816 0.7465878047 0.2390999394
0.5025750998 0.4968120491 0.2403444097
0.5023946884 0.7472321639 0.7382871592
0.5024020521 0.4990367155 0.7402348656
0.5124314516 0.7494060626 0.992467452
0.5125198164 0.4992378337 0.9926147266
0.5123209957 0.7474860023 0.4902049548
0.5223467134 0.49931008 0.2439940581
0.5224903061 0.7469132386 0.243737248
0.5324313408 0.748201957 0.4994206622
0.5324607958 0.5007745328 0.4970780757
0.5325307512 0.9998014443 0.9996654976
0.5425196502 0.9988576859 0.251155285
0.5523686383 0.9994044149 0.5028549215
0.5524422756 0.7491001547 1.002077119
0.5423834212 0.9996322187 0.7494827893
0.5424865134 0.7495948143 0.2555854887
0.5524128207 0.7501024912 0.5043865772
0.5424570585 0.7522308292 0.7534858968
0.5323871585 0.7506752549 0.9988186687
0.5624164472 1.0018842215 0.2548408316
0.562339128 0.998551778 0.7566016748
0.5624311746 0.7502521908 0.2569081986
0.5624716752 0.7503823644 0.7580385225
0.5725452571 0.9996907968 0.5104736201
0.5724016643 0.9991896285 1.0111989388
0.5722322986 0.7528296276 1.0107939337
0.5723538001 0.7491392067 0.5103475162
0.60240518 1.0024700026 0.268532766
0.5925156913 0.749659901 1.0139235187
0.5925377825 0.9998730398 0.5140256991
0.6023168152 1.0026262109 0.7650625999
0.5925230551 0.9997168315 1.0148808035
0.602460408 0.7515083658 0.2628102278
0.6024162256 0.5039026038 0.262001138
0.5925377825 0.751443279 0.5099452725
0.6024567261 0.7510983191 0.763303589
0.5824089727 1.000862359 0.2627430338
0.5824310638 1.0034267784 0.7608634332
0.5823905633 0.7496273576 0.2580587814
0.5823500628 0.7524195808 0.7583385945
0.6124603526 0.7511178451 1.0100759701
0.6123977609 0.7501805953 0.5104450856
0.6125597629 1.0012528797 1.0131595318
0.6223866599 0.9999055832 0.2602246383
0.6224418878 0.7493930452 0.2582207834
0.6225265707 0.7490285592 0.7580431248
0.6424859594 1.000719168 0.7579906582
0.652404903 0.9990073855 1.0039180513
0.6324712874 0.9984606565 1.0119537211
0.6324786511 0.7506882723 1.0080969678
0.6324639236 0.4985947762 1.0085019729
0.632482333 0.7494255886 0.509290821
0.6523938574 0.7503823644 1.0068175198
0.6525816325 0.4983077435 1.0053539786
0.6425485511 0.7513912096 0.2584223655
0.6425080506 0.4980916554 0.2564470451
0.652430676 0.7496794271 0.5054451133
0.6423718216 0.7490285592 0.756609959
0.6724526564 0.7512089666 1.002077119
0.6724894751 0.5022279207 1.0021047329
0.6824452373 1.000009722 0.2521668773
0.6725888854 0.9997689009 0.4987597675
0.6824967834 1.0013570185 0.7498657033
0.6825188746 0.7506817636 0.2515492445
0.6725373393 0.7508574979 0.5053300551
0.6823936912 0.7499983523 0.7517314882
0.662419575 0.7500764565 0.2547138073
0.6623275284 0.7524716503 0.7563669559
0.7024708996 0.9986494082 0.2448933536
0.7024893089 0.4988479639 0.746238146
0.6924672731 0.7498291267 0.9989291246
0.6925740472 1.0011552495 0.4986235385
0.7025114001 0.9990138942 0.7456600933
0.6925261829 0.9998925658 0.994455659
0.702485627 0.7505580987 0.2471880758
0.702404626 0.5004940087 0.2453563481
0.6924378182 0.7530899748 0.4976211508
0.7024267172 0.7488007554 0.7443447471
0.7225959722 0.4999043224 0.73461634
0.7325480525 0.7479806619 0.9880952376
0.7224855162 0.7481563962 0.2367186934
0.7225296986 0.5000175734 0.2345316658
0.7326842815 0.7503107689 0.486892197
0.7226254271 0.7518468171 0.7394699582
0.7225370623 0.9989553161 0.7343807007
0.7125776182 0.7485338996 0.9883253542
0.712474526 0.747108499 0.492158184
0.7425111785 0.5025976137 0.737870188
0.7426216344 0.7515083658 0.2345427113
0.7425811339 0.4997071095 0.2369230369
0.7425001329 0.7495297275 0.7359869142
0.7526473521 0.5018341457 0.486442089
0.752566351 0.752517211 -0.0130703406
0.7624558397 0.5001685748 0.7375894458
0.7625994324 0.7510657757 0.2327726549
0.7624300666 0.5007400368 0.2366910794
0.7525626692 0.7539035596 0.4841547305
0.7625331589 0.7508900413 0.7362704178
0.7826619133 0.7497314965 0.2393217718
0.7825845942 0.5003469126 0.239083371
0.7725809677 0.7527775582 0.4884063638
0.7826803226 0.7514562964 0.7363900784
0.7725846496 1.0012984404 0.4849251607
0.7725331035 0.5011891356 0.4864641802
0.7726435594 0.752660402 -0.0126015196
0.7825109569 0.5013375335 0.7400084309
0.7725920133 0.5014377671 -0.011581459
0.7926287211 0.7487161426 0.4890378036
0.8123966529 0.5002479807 0.4911953764
0.8125181544 0.7496989531 -0.00794729
0.802595529 0.5004946596 0.7410724898
0.8025218917 0.7518858692 0.2419469413
0.8024335269 0.4985505172 0.2433727434
0.7926434486 0.5009977805 0.4899969294
0.7925808569 0.7529793272 -0.0098035417
0.8126249285 0.7513196141 0.4935747814
0.7925182652 0.5000631342 -0.0139718912
0.8026397113 0.7506817636 0.7427919207
0.8325548622 0.5026789722 0.4974775581
0.8325438166 0.7509290934 -0.005263913
0.8224849622 0.5010472464 0.7438578205
0.832370769 0.4996973464 -0.004162612
0.8224518254 0.7505711161 0.2443567218
0.8223340058 0.5007595628 0.2423896856
0.8325806353 0.7512870707 0.4943525754
0.822407643 0.7511243538 0.7487013135
0.8625252411 0.7519444473 0.7442462572
0.8624111033 0.5001848465 0.7462031683
0.8525216147 0.7500439131 -0.0037351107
0.8524774323 0.5005538886 -0.0051800953
0.8625399686 0.7491261894 0.2450976971
0.8625988784 0.4978794725 0.2476538316
0.8526247069 0.7506882723 0.4946959093
0.8425327156 0.7484688128 0.2459988334
0.8424296234 0.5017807745 0.244459814
0.8425953073 0.751261036 0.7445214766
0.8523927494 0.5003319426 0.4958409692
0.8724920489 0.4984008176 0.4981973626
0.8823668101 0.7500178784 0.7494201976
0.8926023941 0.4986963116 0.4986410273
0.8725877774 0.7508705153 -0.0030811379
0.8925913485 0.7499658089 -0.001849996
0.8825803583 0.5011168893 0.7482990698
0.8724920489 0.4999739653 -0.0043612026
0.8925213931 0.4994031542 -3.4640524256e-04
0.8826208588 0.7481368702 0.2483404994
0.8824846298 0.4995164052 0.2500995103
0.872462594 0.7509876715 0.4970486208
0.8926355309 0.7497575312 0.4959449819
0.88264295 0.9995996753 0.2465557155
0.882587722 0.9997819183 0.7489498394
0.9124439631 0.7499332656 0.4986566752
0.912745876 1.0006931333 -4.4361567603e-04
0.9124991911 0.4999088785 0.5026745101
0.9024992465 0.7466854348 0.7518410237
0.9124955092 0.7513261228 -8.7204666037e-04
0.9124918273 0.5006573766 8.8246313352e-04