POSCAR file written by Ovito 3.7.11
1
271.5844056254 0.0 0.0
0.0 15.3631339906 0.0
0.0 0.0 10.863376225
Sr Ti O 
800 800 2400 
Direct
0.022409548 0.500499898 0.8041905178
0.0125475311 0.2504779948 0.557427454
0.0225533707 0.2497079696 0.8075587156
0.0026142288 0.2503829621 0.8109803038
0.0124455371 0.2526220885 0.057312583
0.0223613126 0.0023868174 0.3061004316
0.0025141126 -2.197471369e-04 0.3087220844
0.0025345483 0.5003384726 0.3091133071
0.0124454266 0.5009991451 0.5564673474
0.0125455428 0.002322117 0.556262991
0.0224731379 8.6173793055e-04 0.8039069964
0.0023943709 0.0013456236 0.8097081395
0.0224387102 0.2510859436 0.3035653082
0.0025454841 0.2494788497 0.3136855505
0.0324606406 0.5004003089 0.05246004
0.0424759432 0.5019716029 0.2989755748
0.0324554857 0.5025404973 0.5502731405
0.0324764736 0.250768951 0.5489052416
0.0424428043 0.2497698059 0.7923415311
0.0324632181 0.2518136597 0.0510894716
0.0523119277 0.5010466614 0.0449095329
0.0423665849 4.6409770924e-04 0.7950257795
0.042347438 0.2516665543 0.297628848
0.0523343885 0.2516268489 0.5429540531
0.0523962477 0.2494495588 0.0433970196
0.0624767234 0.253882899 0.2924683897
0.0623658923 0.501835563 0.7906339589
0.0722438527 0.5011898614 0.042833935
0.0623526367 0.5028659517 0.2899544383
0.0722990841 0.5002512508 0.5405459619
0.0722718366 0.2503530203 0.5359046793
0.0624152324 0.2531955392 0.7920202682
0.0723845088 0.2513469581 0.0392977416
0.0924114318 0.2498713477 0.5384849084
0.1023987505 0.2495237624 0.7818033708
0.08250291 0.2517303434 0.7883777542
0.0924092226 0.2508385983 0.0403801859
0.1024694467 -6.4505374284e-05 0.2869378807
0.0925167398 0.0012319749 0.5394726308
0.1023692937 0.249183988 0.2835853318
0.0824171172 0.2488461663 0.2897500819
0.1025467708 0.4983831424 0.7851632839
0.0824384734 0.5026700281 0.7889401945
0.1025964791 0.4994669056 0.2852735731
0.0823276422 0.5007114434 0.2887568364
0.1225287723 0.2478815193 0.2744482093
0.1124899043 0.4977491572 0.0320113328
0.1125072101 0.250333493 0.5317890158
0.1224370881 0.4996830074 0.2783972578
0.1124394595 0.500499898 0.5313434822
0.1224473979 0.250033424 0.7747825333
0.1124943228 0.2489581226 0.0290674966
0.1223601322 0.0014016668 0.2766593082
0.1524682674 0.2502729585 0.5207988782
0.1323831672 0.252333085 0.5229713152
0.1425785243 0.2482160865 0.7716591949
0.1524627443 0.250519002 0.0209847424
0.1323765395 0.2510481909 0.0207577411
0.1423469205 -9.1778455432e-05 0.2737394057
0.1424824216 0.2469845669 0.2709603433
0.142426822 0.5027325154 0.7734146344
0.1524829958 0.500564338 0.0229151735
0.132488107 0.5007459416 0.02416994
0.1525065612 0.5003052763 0.5208292555
0.1323677024 0.4997409383 0.5266801069
0.182413654 0.2494944715 0.2598652659
0.1724646291 0.496786463 0.5143340372
0.1825049699 0.5009652978 0.7598497908
0.172559259 0.2492100243 0.5134374467
0.1624725237 0.2489750462 0.7662824134
0.1725279612 0.25367591 0.0139570009
0.1823952435 0.498829015 0.2626848313
0.1626349042 -3.0078528971e-04 0.7669995017
0.1624084552 0.2471661705 0.2643196822
0.1824107083 0.2516255471 0.7586319373
0.1825451048 9.1127209463e-04 0.2605400101
0.192531687 5.9597184385e-04 0.0065059103
0.202308758 0.2512584345 0.254450743
0.2023779814 0.499621171 0.7562753955
0.1923969223 0.4985771132 0.0114757281
0.2026173177 0.4996517638 0.2574047049
0.1924344797 0.499628331 0.5110100246
0.1924341115 0.2530692629 0.5070968765
0.2024516233 0.2486984099 0.7537513184
0.1924123871 0.2508815583 0.0075676429
0.2024181162 0.0019083994 0.2589649933
0.2124871774 0.248405501 0.5070305987
0.2224560856 0.2514374344 0.7530507995
0.212445938 0.2507637438 0.0056423666
0.2226195707 0.00105662 0.7538433708
0.2226085244 0.2502671003 0.2519239042
0.232539507 0.2488748062 0.5006633333
0.2324993721 0.2498576786 0.9981412709
0.2327287667 -0.0018754445 0.4953546706
0.2226431361 0.4999310037 0.7547049814
0.2125692882 0.5007752324 0.0052945926
0.2125008012 0.5004100726 0.5059563471
0.2425791114 0.4983961606 0.7450275111
0.2626075073 0.249333697 0.7365458018
0.2625611129 0.0010307139 0.2406806224
0.2624462315 -2.5164167094e-04 0.7382570561
0.2525314501 0.2468361597 0.493463914
0.2425205661 0.2506452783 0.748225412
0.2524898424 0.2464260871 0.9948457945
0.2624359216 0.2496689151 0.2419997335
0.2425581234 -0.0016043605 0.2457628362
0.2626866724 0.500199829 0.2405986958
0.2525660618 -9.2259852169e-04 0.4938597394
0.2425551778 0.001935347 0.7492324654
0.2525822631 -0.0010524548 0.9930875934
0.2425463407 0.2497665514 0.2462203367
0.2726445343 0.2486137918 0.4848027024
0.2726169185 0.248762199 0.9851250596
0.2726449025 -0.0026897119 0.4844602675
0.2725222887 3.8852719083e-04 0.9862112781
0.2824816234 0.2496311623 0.7313982308
0.272512347 0.4985087678 0.4858870799
0.2825464283 0.2483560319 0.2302547661
0.312546678 -0.0012931609 0.4783590335
0.2925377972 0.5004133271 0.481867151
0.2924921392 0.2509284237 0.4789021427
0.3024636249 0.2487270499 0.7308118569
0.2925083405 0.2508060528 0.9785064911
0.2925447932 7.5212487887e-04 0.4820236401
0.3023932968 -2.1675571433e-05 0.7289984244
0.3125551469 0.4969687174 0.4776106474
0.3025214338 0.2528876594 0.2315158841
0.3125168531 0.2495432896 0.4751077422
0.3123787744 0.2522725505 0.9760947179
0.3225034353 -7.4151567741e-04 0.2225196018
0.3325338345 2.7526904955e-04 0.4700080385
0.3224121193 0.0011943524 0.7270487543
0.3323456793 -0.0023107398 0.9726703681
0.3224824473 0.2479752502 0.2221044454
0.3225211094 0.5005747525 0.7259155891
0.3225119041 0.4992599166 0.2258123166
0.3325489311 0.2511217436 0.4741761718
0.3225571939 0.2526233904 0.7237808936
0.3324509873 0.2482271519 0.9741892329
0.3625745873 0.251683478 0.2097629783
0.3523832805 0.4997240146 0.4674020347
0.3525397696 0.2486385263 0.4680491632
0.3424872778 0.2470477051 0.7183663706
0.3623683899 0.5009802687 0.714568288
0.3524620774 0.2497912859 0.9653522012
0.3624346676 0.4988439859 0.2145055187
0.342394489 0.0023065603 0.2193631245
0.3423948572 0.2500718276 0.2185521427
0.3625672231 0.25111914 0.712811928
0.3424589257 0.4993861929 0.7217851973
0.3425388272 0.4985849241 0.2223539074
0.3825168222 0.2492809734 0.2046015995
0.3925763099 0.2485936136 0.4515901917
0.3925910383 0.2485129009 0.95519882
0.3926204951 -4.786135897e-04 0.9515627497
0.3825278684 0.5001126072 0.7041415112
0.3924327081 0.4968281211 0.9540297544
0.3725088838 0.2490499007 0.4559451913
0.3826309671 0.2486365736 0.706882832
0.3725088838 0.2504389402 0.961071764
0.3923222452 0.4997253165 0.4529562495
0.3726119825 -0.0014241238 0.458621155
0.4126916033 0.4990509749 0.9487827668
0.4025842483 0.2471440396 0.7002476941
0.4025584736 7.9677722653e-04 0.7000700329
0.4026542081 0.2483280428 0.1997890993
0.4125700941 0.2505652166 0.4504910858
0.4126842391 0.2486170463 0.9523267847
0.4125958688 -9.4915560309e-04 0.4485948061
0.412717378 -7.9007347822e-04 0.9473283387
0.4425644525 4.1130900086e-04 0.6966917093
0.4426454586 0.2529052339 0.1925841569
0.422751091 0.5011703341 0.6992378791
0.432703798 0.5021271701 0.9483225047
0.4326596128 0.5003410762 0.4446080161
0.4426380944 0.5014333013 0.6957113511
0.442546042 0.5012237087 0.1918320887
0.4326632949 0.2512890272 0.4462750853
0.4227142701 0.2495257151 0.6991633166
0.4327222085 0.2510143437 0.9463433778
0.4225927609 -2.4773621779e-04 0.198249983
0.4327074801 4.3838680935e-04 0.9428822071
0.4227032238 0.2498186241 0.1968793225
0.4425681346 0.2510377764 0.6942974261
0.4724152092 0.2501297585 0.4324414486
0.4625030053 0.2508099583 0.6910470554
0.4725698572 0.2506641547 0.9351405991
0.4724925332 7.0727725856e-04 0.9397800408
0.4624477738 0.2511874854 0.1919158564
0.4525871193 0.4994948947 0.9425047922
0.4524729743 0.5017502939 0.4429437085
0.4626208324 0.4979613535 0.684950424
0.4723967987 0.5004269962 0.9389055428
0.4625656009 0.4994590947 0.1912365096
0.4526865359 0.2515292126 0.4394668888
0.4526718075 0.2504994748 0.9422470454
0.4525097953 0.0011920091 0.4430191914
0.4824710148 0.2501089294 0.6918064878
0.4824121013 9.068459144e-04 0.6852008066
0.4923611261 0.4982848552 0.9381138921
0.4924899995 0.4996224729 0.4369372885
0.482441558 0.2501173913 0.188049655
0.4925673235 0.2514608671 0.4363950998
0.4924863174 0.2505997147 0.9334376295
0.4825483388 0.4993451857 0.1839082169
0.5025494872 0.2501850858 0.6893238342
0.5124469627 0.2509069437 0.4403340225
0.5125832003 0.2527353467 0.940286329
0.5023985213 0.001917447 0.6853250773
0.5025163484 0.2503894712 0.1877928288
0.5223702129 0.2482030683 0.1908130685
0.5224291264 0.2505606602 0.6946030401
0.5123512282 0.5005871198 0.4406534444
0.5224291264 0.49990692 0.6888875057
0.5424229106 0.5014879776 0.6971271173
0.5525229015 0.5012484432 0.9486170724
0.5423750434 0.5012861959 0.1969759776
0.5525265836 0.5001484072 0.4457135656
0.5325880308 0.0013539552 0.4497546665
0.5323339661 0.2482271519 0.4459317298
0.5324702037 0.24850509 0.9445851767
0.5323413303 0.5003352181 0.944290609
0.5523682534 0.0014974155 0.9503568631
0.5424192286 0.2498518204 0.1927848312
0.5525008089 0.2516314053 0.4472489998
0.5425333735 0.2513111581 0.6959175485
0.5525744508 0.250962271 0.9494823651
0.5724872289 0.2491586025 0.4502397827
0.5723620376 0.2506146856 0.947530854
0.5624903368 0.5000696472 0.6992498459
0.562575025 0.5011384396 0.200236474
0.5725608708 0.499606851 0.9517744702
0.572568235 0.4999323055 0.4512928624
0.5624130128 0.2510996127 0.2002014941
0.5624461516 0.2500770349 0.6986699157
0.6024999978 0.5002310726 0.710161739
0.5925067878 0.4999798218 0.9585495279
0.5924257816 0.5018980502 0.4537055561
0.5824252074 0.2516268489 0.7022259004
0.6026067786 0.2506524383 0.2084144105
0.5924441921 0.2510748782 0.4586552144
0.602470541 0.2513508635 0.7091767782
0.5925178341 0.2505853947 0.9563678857
0.5825909018 0.5009145269 0.7051301541
0.582561445 0.4990268913 0.2057586983
0.5825577629 0.2500028313 0.2025994595
0.6123790628 0.5010635851 0.9631613538
0.612349606 0.5009802687 0.4648623086
0.6223464981 0.4982802988 0.7143639317
0.6126036707 -1.9253914664e-04 0.4607162679
0.6224275042 0.4992416912 0.2189286371
0.6124821615 0.2509466491 0.4663692066
0.6124527047 0.2487986499 0.9623420873
0.6223501802 0.0010631942 0.7169073399
0.6224090938 0.248134072 0.2172716937
0.6223059951 0.2491703189 0.7177671094
0.6424249706 -0.0020358349 0.2217739772
0.6522782609 -0.0010668399 0.4770196709
0.632336026 0.4981423061 0.468883158
0.6423513286 0.2472280068 0.2230396979
0.652473412 0.2486717227 0.4737085456
0.6422997793 0.2476218067 0.7233510088
0.6324059859 -0.0021935957 0.4701820176
0.6524844583 0.2489496608 0.9755976348
0.6423439644 0.4972108555 0.7242301094
0.6522672146 0.4985491242 0.4757751222
0.632523813 0.2478112212 0.4684100086
0.6323875754 0.2491748752 0.9694393284
0.6824309494 0.5006489561 0.7283126339
0.6624187548 0.002895047 0.2228445468
0.682412539 0.5016806467 0.2266002853
0.6624739862 5.4038422739e-04 0.7261282301
0.6725187456 0.5014215849 0.4754879187
0.6624555757 0.2482245483 0.226629742
0.6623708875 0.2500282167 0.7254718964
0.6725297919 0.0018113489 0.9758737921
0.6622677888 0.4995801638 0.7257093916
0.6624224369 0.4978266153 0.2261363411
0.6825598228 0.2505984129 0.2293977581
0.6723935543 0.2505313693 0.4776134089
0.6825009093 0.2522881723 0.7292662969
0.672496653 0.2488058099 0.9774755041
0.7025609712 0.2509629219 0.2364011057
0.6926045822 0.2507077656 0.4863427393
0.7026014743 0.249797795 0.738613299
0.6924757088 0.2515708707 0.9853828064
0.6924793909 0.5002558072 0.98761968
0.6924499341 0.4988882477 0.4833215791
0.7325774222 0.5006385416 0.9974508778
0.7325921506 0.5008038724 0.4978833504
0.7126130948 0.2504187621 0.4919671418
0.7126278232 0.2484953264 0.9919093225
0.7226247153 -8.8784274685e-05 0.2444115067
0.7326031969 4.9332351696e-04 0.4963663266
0.7324780056 1.4990400352e-04 0.9972943887
0.7124547646 0.5002369308 0.9922775322
0.7225621196 0.2487758681 0.2454866789
0.7326179253 0.249340857 0.4955452191
0.7225142524 0.2503465112 0.7440600403
0.7326805209 0.2512154745 0.995858371
0.7126867367 0.5007648179 0.4920058038
0.7124584467 -0.0013307835 0.4921576903
0.7125615454 -0.0010765385 0.9929863357
0.7526595767 0.4997337783 0.0012539519
0.7426221816 1.8759162639e-04 0.2482639002
0.7426221816 0.0016887176 0.7489259308
0.7425853606 0.250947951 0.2488751283
0.7426184995 0.2496956023 0.7491717108
0.7625975553 0.0028495485 0.2534252791
0.752556478 -0.0012237741 0.5007388163
0.7626454225 9.1732554701e-04 0.7567209292
0.7525601601 5.6388203716e-04 0.0010276871
0.7625791448 0.2485330791 0.256205262
0.7524496972 0.2525459322 0.5023331641
0.7625533701 0.2491345189 0.7551965413
0.7526190737 0.2524164013 -0.0013223098
0.7825950216 -0.0010665796 0.2624013099
0.7826060679 0.0017895434 0.7610897368
0.772579719 -3.7205980966e-04 0.0076484649
0.7826907561 0.2496148896 0.2651674849
0.7726128579 0.2504246202 0.5093889816
0.7826612993 0.2496344169 0.7606156668
0.7726202221 0.2501889912 0.0083174098
0.7927244692 -4.7842107521e-05 0.5156282941
0.7926766019 0.0016240824 0.0131772249
0.8124862813 0.4991609785 0.0208744636
0.7925293181 0.2511126309 0.5161060462
0.7925845495 0.2508255801 0.0153881397
0.8025924879 5.3550241095e-04 0.2658348649
0.8126556577 0.0013316941 0.5200136711
0.8025924879 0.0013403512 0.7643520743
0.8124347319 0.0028815081 0.0188879725
0.8024857071 0.2502195839 0.266544589
0.8124862813 0.2483169774 0.5168222139
0.8025703953 0.2495576096 0.7679678931
0.8125967442 0.2486971081 0.0208326718
0.8325721179 0.003045407 0.5272812092
0.8226010005 0.0012292411 0.7710231127
0.8324763834 0.0010273291 0.0246672992
0.8224868555 0.250304853 0.2792110011
0.8326089389 0.2504643257 0.5254420019
0.8225310407 0.2501785767 0.7742366625
0.8324248341 0.2482330101 0.0265039289
0.8225862721 0.0031575586 0.273408017
0.8424732755 0.0015173984 0.7760491745
0.8425100965 0.2521195869 0.2810087848
0.8424806397 0.2500659695 0.7807070266
0.8623418684 -0.0012748704 0.2824070609
0.8423738589 0.4982835533 0.7789193687
0.8524959423 4.4281298958e-04 0.5353818215
0.8624965165 0.0015576246 0.7831206409
0.8524922602 -3.5513617935e-04 0.0282495189
0.8626364362 0.2486222536 0.283136116
0.8425505995 0.0015056821 0.2814773316
0.852448075 0.2486580536 0.5300078016
0.8624302388 0.2519399361 0.7826318426
0.8524996244 0.2493486679 0.0309220766
0.8724344951 -0.0015753299 0.529658923
0.8924466897 -0.0032890428 0.5375855563
0.8725302296 -0.0019627574 0.031509371
0.8823908841 0.2504890602 0.285538684
0.8925829273 -0.0051818662 0.0366470003
0.8725007728 0.2481425338 0.5323772308
0.892531378 0.2490720316 0.5415364459
0.8824866186 0.248934039 0.7857128368
0.8724602697 0.2501844349 0.0325028927
0.8925019212 0.2484041991 0.0400313073
0.9025429985 7.6598923755e-04 0.2906982218
0.9127019028 3.0664285651e-04 0.5430369002
0.9024951312 -0.0017856386 0.7898008845
0.9025871836 0.2491748752 0.2934883305
0.9125877578 0.2498160205 0.5449258158
0.9025614089 0.2486990609 0.7918628586
0.9025945478 0.4970266483 0.796284136
0.9126172146 0.2476829921 0.0395579737
0.922588332 -0.001730051 0.2888056242
0.9226067425 -9.5019705727e-04 0.7914265301
0.9226546097 0.2488103663 0.2946739655
0.922588332 0.2477487339 0.7963329238
0.9425784341 7.318165225e-04 0.2990722299
0.9325631315 -0.0013215406 0.5476873882
0.9424753354 -9.5657596407e-04 0.798914994
0.9327361901 4.4990789614e-04 0.0463961793
0.942688897 0.2489040971 0.299077753
0.9325999525 0.247862643 0.5447941808
0.9425416132 0.2496227005 0.8005213086
0.9325484031 0.2498153695 0.0462191625
0.9526342398 0.0012759112 0.552982243
0.9525716441 -0.0023426538 0.0554599361
0.9626826812 0.2479225266 0.3054247669
0.9524759096 0.2499240713 0.5528782238
0.972513879 0.2509023873 0.5598916972
0.9627526411 0.2499305804 0.807879058
0.9526452861 0.2490245153 0.0515952076
0.9724954685 0.2483202319 0.060609164
0.9625759004 -0.0019469403 0.3082765507
0.9824371292 0.4986409023 0.8066335889
0.9822162034 0.4993464875 0.310177433
0.9824444933 0.0029099528 0.311187248
0.9924008824 -0.0010056545 0.5607128047
0.9825107711 0.2502736094 0.3111522681
0.9924745243 5.6433491519e-05 0.0638399276
0.9924561138 0.2480748393 0.5579944969
0.9824923606 0.2489535662 0.8108449868
0.9925408021 0.2515890962 0.0582875101
0.0123388299 0.7511596919 0.0555611017
0.002573063 0.5003957526 0.8084525445
0.0126156499 0.501907163 0.0573689191
0.0223451482 0.7521100189 0.3029384312
0.0024225757 0.7499815469 0.3101995256
0.0123065379 0.7497472197 0.55891318
0.0224123464 0.7505868921 0.8010625768
0.0223960716 0.5007101416 0.3062348282
0.0022892838 0.7499424924 0.8102217919
0.0124426282 1.0027620019 0.0569938055
0.0524205495 1.0014732023 0.546821175
0.0524290183 1.0015838568 0.0468874631
0.0323726385 0.7507040557 0.051392232
0.0425153416 0.5028112754 0.7989913975
0.0422899973 0.751752019 0.2991486334
0.032408723 0.7518561644 0.5537177418
0.0422984661 0.7498123106 0.7965915911
0.0523494851 0.7527999822 0.044767588
0.0522994086 0.7514656191 0.5444885668
0.0524639983 0.502085512 0.5433517195
0.0424903034 0.9992861486 0.2943352127
0.0323560691 1.0007962571 0.5485453167
0.0323302944 0.9991299304 0.050478888
0.0724415812 1.0013495296 0.5469831872
0.0624192827 1.0010305843 0.7910159764
0.0725826055 0.9999630938 0.0404782217
0.0724548368 0.7534834365 0.043878822
0.0623298077 0.7518691826 0.2932471531
0.0722792008 0.7509644193 0.5402762484
0.0622716306 0.7525331096 0.7969533571
0.0623206025 1.0009589843 0.289179357
0.0824200629 1.0011217115 0.2923045364
0.1025850646 1.0023063657 0.7862163635
0.0824955458 1.0010891661 0.7927198666
0.0923654056 0.9998133847 0.0381970709
0.0925355185 0.7512833646 0.0413117563
0.0924453071 0.498836175 0.037147121
0.102485648 0.7517715462 0.2863533479
0.0824196947 0.7492850744 0.2908602341
0.0925774944 0.7503460558 0.5386285102
0.1024701832 0.7516674008 0.7852415285
0.0824889181 0.7533076912 0.7910546384
0.0924659269 0.4986968805 0.5354904434
0.1123706043 1.0009589843 0.0323516506
0.1124961638 0.7510425283 0.030195691
0.1225655932 0.4986617314 0.7779270437
0.1225696435 0.7535355093 0.2785141644
0.1124843811 0.7512703464 0.5339752607
0.1223630779 0.7516153281 0.7803342143
0.1125657554 1.0009915298 0.5304745074
0.1224308285 0.9996246212 0.7781037843
0.1525393319 1.0006856026 0.5204693306
0.1325304511 1.0022087293 0.5246135302
0.1423255643 1.00034713 0.7729829086
0.1524115631 0.999982621 0.0225460434
0.1325359742 1.001154257 0.0256066941
0.1525087705 0.7527023459 0.0200769215
0.1322918512 0.7525982005 0.0273247603
0.1424246127 0.7493566744 0.2786577661
0.1525003017 0.7503004922 0.5242674131
0.132428457 0.7514851463 0.5288368949
0.1424389729 0.5005226798 0.2735286056
0.1423855825 0.7506715103 0.7735876929
0.1726722993 0.7506910375 0.0148410723
0.1625115539 0.5006977743 0.765695119
0.172492613 0.4999668036 0.0150520564
0.1623985136 0.7469092571 0.2718974369
0.1826993846 0.999540003 0.7592431653
0.172629587 0.7495844925 0.5169602926
0.1625443246 0.4985693023 0.2672313
0.1625351194 0.7495324198 0.7692363754
0.1824832456 0.7505283103 0.2620763649
0.1826647729 0.7474820569 0.7621750347
0.1625395379 0.9977434946 0.2648904072
0.1724399591 0.997261822 0.5136215515
0.1725029229 0.9994423667 0.0129108252
0.1926075382 1.0010956752 0.5076942966
0.2025134825 1.0006335299 0.7563996663
0.1925147494 0.7475796932 0.0099654241
0.202538889 0.7500271105 0.2564381546
0.1926414135 0.7500466378 0.5084702985
0.2024891807 0.749402238 0.7574021171
0.2326157264 0.7473583842 1.0036183895
0.2324769113 0.5006912652 1.0004149655
0.2325847968 0.7513419464 0.501110708
0.2324901669 0.5010681414 0.5006578101
0.2224837013 0.9999891301 0.255061971
0.2125972721 1.0004057118 0.5006624128
0.2126307792 0.9999956392 0.0044296681
0.2125740749 0.7504632194 0.0043471892
0.2326775856 0.998583167 0.9925168684
0.2226549188 0.7495779834 0.2557965492
0.2124967509 0.7514786373 0.5064939331
0.2226074198 0.4984241497 0.252945686
0.222653446 0.7509383829 0.7555555457
0.2525045708 0.7480743839 0.9930139515
0.2525888908 0.4970975974 0.994597253
0.2426074635 0.7475862023 0.2491402392
0.2526025146 0.745945912 0.4952515719
0.2425235117 0.4989741676 0.2425575711
0.2426910471 0.7495910016 0.7465436144
0.2525130397 0.4965905394 0.4965808087
0.2626487468 0.4993790329 0.7383362212
0.262596461 0.7478986385 0.2406585298
0.2625301833 0.7485430383 0.7409376224
0.2827548349 0.5024357009 0.7326372563
0.282503716 0.7494217653 0.2305493338
0.2826716196 0.5000865709 0.2316861811
0.2825710983 0.7502744559 0.7340594661
0.2726246509 0.749844856 0.9836061948
0.2724254495 0.4984677605 0.9863677672
0.2726040312 0.7489986745 0.486198217
0.2825843539 0.9992796395 0.2308300937
0.2825390641 0.9998654574 0.7315869382
0.3125801851 1.0018637476 0.9768403424
0.2924501633 0.7475731841 0.9801174083
0.3025612004 0.4992540584 0.7266860678
0.2926099663 0.4997292219 0.9829250069
0.3025332165 0.7493957289 0.2312397269
0.2924394853 0.7478726022 0.4813185186
0.3024522104 0.5024233337 0.2269003761
0.3023929286 0.7477033659 0.7301582848
0.3024452144 1.0005098572 0.2296683922
0.3122985047 0.7493046017 0.9771072944
0.3125639839 0.5006977743 0.9786813907
0.3123739877 0.7469678389 0.4772277093
0.2925948697 1.0008222935 0.9798136354
0.3322683553 0.7503720922 0.9740879753
0.3324318404 0.4986376478 0.972513879
0.3224316344 0.7489856563 0.2267853106
0.3324248444 0.7505413285 0.472313031
0.3223771394 0.750359074 0.7219407658
0.3323567256 0.5007661197 0.4693075197
0.3525846912 0.9992210577 0.4654459209
0.3423606137 0.9999630938 0.7188358379
0.3624898991 0.7482110748 0.2133088373
0.3525747495 0.9994228394 0.9642843932
0.3624420318 0.7500075832 0.7136836643
0.3623647078 1.0011412388 0.2121498974
0.3523019062 0.7514135464 0.9678192059
0.3625414484 1.0015187659 0.7124722546
0.3524300431 0.5004159308 0.9688778087
0.3423908069 0.7505348194 0.2201363648
0.3523836487 0.7489335836 0.4691132891
0.3423094326 0.7489075473 0.7173648404
0.3926094488 0.9978932036 0.4501449688
0.3723100505 0.749473838 0.9584206545
0.3724978375 0.5012171996 0.9589545585
0.3823805846 0.7469873661 0.2074478601
0.3724499702 0.750066165 0.4614664951
0.3825205042 0.499200033 0.2027973722
0.3824100414 0.7503330377 0.7080178383
0.3825573252 0.9983032762 0.2055515804
0.3824174055 0.9994488758 0.7035155548
0.3724831091 0.9981145126 0.9586047593
0.3725972541 0.4985985932 0.4585134537
0.3925321247 0.7467855844 0.954931868
0.3924253439 0.7521165279 0.4527123106
0.4124854059 0.7505934012 0.9523728109
0.4124743596 0.7487513291 0.4507359453
0.4126179614 0.5021610174 0.4515386423
0.4025879304 0.9986417488 0.1995773788
0.4024921959 0.49994272 0.7028629031
0.4025179706 0.7478270386 0.2041128012
0.4025805662 0.5011006869 0.2030947015
0.4024480107 0.7476643114 0.7040881208
0.4325344215 0.7532686366 0.9452479541
0.4226222177 0.7504502013 0.1952417101
0.4325638783 0.75138751 0.4485929651
0.4226258998 0.5022339192 0.2007133055
0.4226443102 0.7506129285 0.6976251208
0.4426675512 0.7517650372 0.19527669
0.4425791809 0.7502939831 0.695856794
0.4327479831 1.0008418207 0.4457255324
0.4225780325 0.999976112 0.7001611648
0.4427006901 0.9996441484 0.1920005446
0.4525466162 0.9995139667 0.9437198841
0.462532462 1.0013885842 0.1870094627
0.4724299375 0.9992601122 0.4401738513
0.4625803293 0.9992666213 0.6869286304
0.4525834372 0.7510230011 0.9429190281
0.4526423507 0.7533272184 0.440865165
0.4724704406 0.7514135464 0.9361807914
0.4625030053 0.7512833646 0.1914951769
0.4726287708 0.7522336915 0.4349581616
0.4625287799 0.7492980926 0.6907662955
0.4724446659 0.5004719089 0.4373496833
0.482441558 0.9999565847 0.1851187062
0.4924237217 0.9990453123 0.433485323
0.4924310859 0.9996636757 0.9344225903
0.4824341938 0.5020874647 0.6881032192
0.4924237217 0.7522402006 0.4381247646
0.4824489222 0.7491418745 0.1852567848
0.4925673235 0.7515242009 0.9396235517
0.4824526043 0.749402238 0.6887116856
0.5122996789 0.9992340759 0.440619385
0.512421188 1.0016359295 0.9420445301
0.5024942558 1.0015513114 0.1881232969
0.52225975 0.7525916914 0.6946702383
0.5223554845 1.0014862205 0.1939318042
0.5223223456 1.0033543289 0.6932811674
0.5024353422 0.7512573282 0.1892997268
0.5024574348 0.5006841052 0.1858026556
0.5025347588 0.7499490014 0.6887319372
0.5024242959 0.497315001 0.6870823579
0.512343864 0.7520384189 0.9395867307
0.5122628579 0.5002193563 0.9404612286
0.512572154 0.7492069653 0.4395156766
0.5223039352 0.5007557052 0.1906759104
0.5224070339 0.7508342375 0.1927839106
0.532403926 0.7499685287 0.4459814381
0.532444429 0.5001581709 0.4432161836
0.5324002439 0.9978736763 0.9473927753
0.5424560495 1.0033022562 0.2012674611
0.5524492595 0.9997873484 0.449504284
0.5523940281 0.7514981645 0.9465827141
0.5425296914 1.0017140386 0.6990574564
0.542397136 0.7502874741 0.1930370548
0.5523682534 0.7496886379 0.446761122
0.5424192286 0.7500075832 0.6955999677
0.5322419137 0.7501572923 0.9428914123
0.5623798739 1.0013104751 0.1992027254
0.5623946023 1.0006986208 0.6977926562
0.562383556 0.7507366012 0.1971941418
0.5625013831 0.7503070013 0.7002117936
0.572527732 0.9999370574 0.4499129967
0.5725571887 1.0012193479 0.9503108369
0.5724614542 0.7505608558 0.9493166708
0.5723288987 0.7505283103 0.4524840206
0.6023453497 1.0004512754 0.2118967533
0.5925841118 0.7498839106 0.9576197985
0.5924883773 0.9983878943 0.4559332245
0.6024447663 1.0005358936 0.7085093982
0.5925399266 1.0015057478 0.9533393613
0.6025662755 0.7504502013 0.2106770588
0.6024815873 0.5004230908 0.2127022119
0.592628297 0.7496691106 0.4609510016
0.6024926336 0.7482045657 0.7090736795
0.5826129944 1.0008808753 0.2048317305
0.582406797 1.0007246571 0.7010319806
0.5824657105 0.750359074 0.2037013269
0.582484121 0.748738311 0.7016422881
0.6124711152 0.7491939472 0.9648827339
0.6125521213 0.7508472557 0.464875196
0.612386427 0.9975872764 0.9608140172
0.6224495968 0.9982316762 0.2178856833
0.6223207234 0.7482956929 0.2186267052
0.6225416492 0.74903122 0.7169726971
0.6424102422 0.9996766939 0.7215872846
0.6523629491 0.9997092393 0.9748243946
0.6324317605 0.9977565127 0.9704703154
0.6323838933 0.750430674 0.9708569355
0.6323139335 0.5018368648 0.9703966735
0.632372847 0.7513419464 0.4726352144
0.6524918225 0.7516348554 0.9773374255
0.6524071343 0.4992228148 0.9735908922
0.6423034614 0.749916456 0.2228832088
0.6422703225 0.5000969854 0.2216230113
0.6523997701 0.7522597279 0.4758441616
0.6424617915 0.7503720922 0.7257471331
0.6723972364 0.752266237 0.977319015
0.6724708783 0.4993621093 0.9773742464
0.6825340482 1.0006725844 0.2302004551
0.6725076993 1.0012909478 0.474239688
0.6824935451 1.0001323301 0.7295525799
0.6824419957 0.75138751 0.2299445494
0.6723604154 0.7524224551 0.4763486088
0.6824235853 0.7515827827 0.7294301502
0.6623672054 0.7490702745 0.2238239845
0.6622972456 0.7517259826 0.7244096116
0.7025609712 0.998876076 0.24036028
0.7024946935 0.5004601926 0.7374773722
0.6925125298 0.7513810009 0.9857694265
0.6925493507 0.9997417848 0.488312661
0.7025756996 0.9999696029 0.7393994266
0.6925456686 1.0004642936 0.9845359242
0.7023952769 0.7488489655 0.2385993174
0.7024946935 0.5007459416 0.2362455371
0.692519894 0.7500271105 0.4840754884
0.7023842306 0.750059656 0.7410416416
0.7225179345 0.4990158258 0.7421057675
0.7325442833 0.7487643473 0.994063349
0.7225437091 0.7492785653 0.242741676
0.7225989406 0.5004478253 0.2442301635
0.7325884685 0.7511401647 0.4958416279
0.7225694838 0.7501052196 0.7471824581
0.7225547554 0.9979582945 0.744813029
0.7126646441 0.7504697285 0.9912373399
0.7125357708 0.747488566 0.4899990612
0.7426221816 0.5029050062 0.7500342419
0.7426332279 0.7494998743 0.2499263668
0.7425559038 0.4985588878 0.2493657676
0.7426442741 0.7502288923 0.7475377805
0.7526264379 0.5000631382 0.5006173071
0.752515975 0.751016492 -0.001523702
0.7626270121 0.5017170976 0.7541324154
0.7626086016 0.7520514371 0.2556989737
0.7625570522 0.5028548863 0.253481431
0.7524644256 0.752123037 0.5002665874
0.7627190645 0.7523118006 0.7551514356
0.7826833919 0.7494543107 0.2585433933
0.7824882408 0.5005226798 0.2623562042
0.7726386326 0.750795183 0.5066430581
0.7825103334 0.7518822008 0.7598948964
0.7726607251 1.0012974569 0.5084215107
0.7725134413 0.5005708471 0.5068529376
0.7726312684 0.7517715462 0.006586088
0.7824551019 0.5024246355 0.7618869107
0.7726459967 0.5014704031 0.007553927
0.7925366823 0.7487513291 0.5135175323
0.8122653555 0.4993516948 0.5183355556
0.8126372473 0.7501572923 0.0204229465
0.8023862905 0.4992840003 0.7654060744
0.8026514014 0.7514395827 0.2654878273
0.8025077997 0.4990841712 0.264768898
0.792525636 0.5008390215 0.5134641419
0.7926434631 0.7508928193 0.0144551885
0.8125157381 0.7491288563 0.5199124135
0.7924593582 0.5016604685 0.0150770026
0.8025703953 0.751237801 0.766611961
0.8324874297 0.500663927 0.527960556
0.8325500253 0.7504957649 0.026351306
0.8223579821 0.4985810187 0.773322582
0.8324101057 0.5010219269 0.0309759272
0.8225199944 0.7495844925 0.2741149795
0.8225310407 0.4999225418 0.2730793899
0.8325132044 0.7480678748 0.5284024076
0.8224721271 0.7482501293 0.7735812493
0.8623345042 0.7493762016 0.7846910551
0.8623897357 0.4993165457 0.7848723983
0.8524701676 0.7501963468 0.0309687471
0.8524775318 0.4981982843 0.0347915918
0.8622903191 0.7501638014 0.2814929805
0.8624155104 0.500442618 0.2846282857
0.8525033065 0.7487773655 0.5307893266
0.8423554484 0.7491028199 0.2778062813
0.8425100965 0.4987723859 0.2777317188
0.8424732755 0.7481785294 0.7801777252
0.8525033065 0.496828772 0.5337460502
0.872471316 0.498257517 0.5323266019
0.8824792544 0.751309401 0.7822277325
0.8924430076 0.4986727968 0.5402431095
0.8724565876 0.7489986745 0.0342657884
0.8925461063 0.7486081292 0.0406331459
0.8824571618 0.4986760514 0.7878015061
0.8724897265 0.4983330224 0.0345826328
0.8924061867 0.4973950628 0.040343457
0.8824350693 0.7492850744 0.2821658836
0.8824755723 0.4986090078 0.2889391002
0.8724013562 0.7459263847 0.5349823141
0.8924430076 0.7493111108 0.5391265137
0.8825344859 1.0000672392 0.2849228534
0.8823209243 1.0002494937 0.78550756
0.9125840757 0.7491223472 0.5427248426
0.9125693473 0.9969624039 0.0436999641
0.912558301 0.4966666957 0.5469086248
0.9026129583 0.7477684568 0.7930696657
0.9124625665 0.7495389289 0.0421905807
0.912631943 0.498928604 0.0455111874
0.9024214893 0.7485755838 0.2920394255
0.9026571434 0.4988192513 0.2933594571