POSCAR file written by Ovito 3.7.11
1
271.606693839 0.0 0.0
0.0 15.3643948023 0.0
0.0 0.0 10.8642677535
Sr Ti O 
800 800 2400 
Direct
0.0226097443 0.4983962922 0.7687153985
0.0124583376 0.2471355006 0.5210033519
0.0224864042 0.2480024401 0.7670134891
0.0023859423 0.2490106152 0.7694664846
0.0126310874 0.2509072079 0.0210285609
0.022502825 -0.0017759631 0.266698132
0.0024577004 -0.0025417011 0.2698506685
0.0024372665 0.4979706327 0.2725190489
0.012479287 0.4982153544 0.5187970366
0.0125814936 -0.0024606761 0.5173160348
0.0224044106 -0.0013959286 0.7706501815
0.0025034652 -1.9264559791e-06 0.7729025192
0.0224558453 0.2506865679 0.2661872831
0.0023829232 0.2487854192 0.2695837384
0.0324960617 0.5004516937 0.0190644156
0.0423978796 0.5006827474 0.2666327802
0.0324585074 0.498703496 0.5178075544
0.0326275018 0.2486142442 0.5184638342
0.0425285833 0.2508245493 0.7671699653
0.0324875936 0.2485224736 0.0173223746
0.0524421828 0.5008610818 0.0212201983
0.0424302793 4.0433751213e-04 0.7694646437
0.04233713 0.2511089731 0.2643242951
0.0523162654 0.249114752 0.5182953921
0.0522709794 0.2482152698 0.0173837685
0.0622954009 0.2489247022 0.2670092437
0.0624297864 0.4998353336 0.769448996
0.0725278439 0.5024621861 0.016496364
0.062556072 0.5003006952 0.2689072087
0.0724346945 0.5017325772 0.5168732991
0.072450158 0.249578812 0.5171393087
0.0624183729 0.2505987024 0.7649866613
0.0725134849 0.2505726682 0.0173574437
0.0923484158 0.250060445 0.5088506691
0.1023879327 0.2496627723 0.7578090031
0.0824020483 0.2498586798 0.7623753486
0.0923716111 0.2507015376 0.0113945936
0.1024162825 -0.001789566 0.2536691822
0.0925409736 3.2968439271e-04 0.5127045874
0.102343383 0.2497005219 0.2564415733
0.0824046255 0.2514819133 0.2628009527
0.1025366772 0.4987568661 0.7587230086
0.0825511609 0.5015841822 0.764175746
0.1023989781 0.5010634978 0.2563430853
0.0824664797 0.5000331936 0.2655420486
0.1222534225 0.250015536 0.2529346642
0.1124591131 0.4987724866 0.0047892704
0.1123475547 0.2516179421 0.5026588114
0.1223771308 0.4996348701 0.2560246101
0.1124090407 0.5028852422 0.5052590787
0.122248268 0.2499966611 0.7537921654
0.1122897505 0.2485322364 0.0024950523
0.1225413388 -5.3204821507e-04 0.2530626065
0.1524931043 0.2501092591 0.502003452
0.1323315983 0.2507113004 0.5025778119
0.1423902605 0.251983072 0.7538823694
0.1524629136 0.2514096683 0.0011656483
0.1323816707 0.2496764403 9.7410299104e-04
0.1424812008 -7.5587740224e-04 0.255246831
0.1422720749 0.249407637 0.2543383483
0.142370747 0.5004946501 0.7536771094
0.1526580487 0.4990809921 0.0032658359
0.1325407242 0.4998678763 0.0051110592
0.1524953134 0.4986371087 0.5051375795
0.1324851291 0.5010771658 0.5051762383
0.1822898663 0.2492338586 0.2494608912
0.1724377527 0.4987692324 0.5029423096
0.1824481834 0.5039760759 0.7485364039
0.1724951887 0.2494082878 0.5003411218
0.1624608262 0.2500246479 0.7535611328
0.1725084431 0.2513296131 7.9192780492e-04
0.1825586372 0.5004393274 0.2524440651
0.162415172 6.1638621577e-04 0.7524556741
0.1623650996 0.2520292827 0.2499478085
0.1824330881 0.2502003789 0.750701299
0.1824481834 -6.1373057329e-04 0.2493246648
0.1925473454 0.0014261806 -3.532851337e-04
0.202499972 0.2511786146 0.2487963273
0.202499972 0.5015028252 0.7489183901
0.1924015463 0.5002219417 0.0015601526
0.2026133713 0.5019746954 0.2492132905
0.1924063327 0.5011468073 0.5008740616
0.1925009548 0.2505655088 0.4971803014
0.2025242718 0.2510263145 0.7495507383
0.1925462409 0.2502120943 9.9591762276e-04
0.2024903993 0.0011664242 0.2497756846
0.2124500213 0.2508460275 0.4987597911
0.2225370334 0.2512183168 0.7486256875
0.212461803 0.2507047919 3.1910256566e-04
0.222546606 9.9869870354e-04 0.7482998487
0.2225473424 0.2511018137 0.2509253249
0.2324926054 0.2503897778 0.4984882588
0.2324167604 0.2518418363 0.9992969763
0.2326277272 -2.605764094e-04 0.4988684041
0.2224711293 0.5005519254 0.7520571198
0.2125078255 0.5002030669 -0.0011104554
0.2124647485 0.5013589862 0.4991298115
0.2426723987 0.4989495193 0.7472625031
0.2625018069 0.2505258066 0.7497108964
0.2625290522 0.0021686764 0.24970481
0.2624174938 6.7951919383e-04 0.7525219464
0.252497267 0.2526488971 0.4968627466
0.2424676909 0.25153268 0.7493537623
0.2524170039 0.2508668549 1.0021227535
0.2625161659 0.2524425759 0.2476936299
0.2424949362 -1.3274840021e-04 0.2492215745
0.2626137334 0.5030902616 0.2474110521
0.2524847489 0.0012849449 0.4977758316
0.2425516358 0.0023767549 0.7479546804
0.2524895352 0.0014188259 1.0006132178
0.2426366853 0.2486929977 0.2477111184
0.2725442692 0.2532138396 0.4987809615
0.2724231382 0.2540671111 0.9979347124
0.2725015604 7.7838413576e-04 0.4989254719
0.2724676879 0.0020574453 0.9979347124
0.2825270865 0.2530563326 0.7473600706
0.2725247557 0.5018881316 0.4999913514
0.2823709784 0.2513764747 0.2504697028
0.3123801799 7.4968141069e-04 0.4914541906
0.2925555581 0.501026399 0.4991601863
0.292635453 0.2553876968 0.4974251407
0.3023049496 0.2497148407 0.7483652005
0.2925227901 0.2522635907 0.9996375423
0.2925813306 0.0017352718 0.4987496662
0.3025210709 -2.7652236778e-04 0.7440372512
0.3124858474 0.5009658695 0.4956136978
0.3023818991 0.2526000829 0.2469692368
0.3123706073 0.2527478271 0.4929637263
0.3124759066 0.2513575999 0.993608604
0.3225242598 -8.1526076773e-05 0.238979743
0.3324194504 0.0015826462 0.4906027757
0.3224925964 -1.8650905988e-04 0.740056311
0.3324389639 -9.54908997e-04 0.9925500881
0.3222937795 0.2506091161 0.241790793
0.3225080599 0.5008259356 0.738463935
0.3223394337 0.5012457373 0.2431328071
0.3324717319 0.2525649367 0.490946103
0.322284575 0.2524048263 0.7417121981
0.3323649599 0.2506826628 0.9926605419
0.3625895463 0.2530205355 0.2394666603
0.3525592339 0.5017865982 0.4875579317
0.3526096744 0.2531337844 0.4901324265
0.3424107358 0.2509462592 0.7428618384
0.3626226825 0.5019890142 0.7401253447
0.352489648 0.2527640985 0.9882515931
0.3625932281 0.5008819091 0.2366703375
0.3425027807 0.0019861766 0.2389732999
0.34247259 0.2519349087 0.2399996001
0.3626153189 0.2500825741 0.7419211399
0.3424718536 0.5012873921 0.7358075203
0.3425020443 0.5010277007 0.2381292485
0.3825190993 0.2506885205 0.2366648148
0.3925298982 0.2476477239 0.4881608256
0.3926624428 0.2502081892 0.9855822922
0.3925888069 0.0018710403 0.9846158212
0.3825927352 0.5001275677 0.736851309
0.3925225346 0.4988453824 0.9834100335
0.3726445268 0.2518581077 0.4854887633
0.3826884618 0.2470788762 0.7399320505
0.3726702993 0.2514233363 0.9887762488
0.3925961705 0.4985759283 0.4837261042
0.3725193458 0.0013126063 0.4918969264
0.4125367689 0.4996257581 0.9832535573
0.4025701515 0.2502517965 0.7327313811
0.4025664697 3.756998726e-04 0.7349920029
0.4025296518 0.2501665344 0.2333870973
0.4125404507 0.2503591876 0.482539646
0.4126177684 0.2498619341 0.9806486877
0.412481542 -0.0045200478 0.4825286006
0.4123637246 -8.1087468726e-04 0.9820109517
0.4424071668 0.0012703007 0.724353458
0.4425213024 0.252626768 0.2243381672
0.4225512496 0.5006586657 0.7261759462
0.4326099119 0.5009639169 0.972622376
0.4325767757 0.5005603865 0.4752938746
0.4427385282 0.4988531927 0.7226579917
0.4425765293 0.5021354567 0.2243989168
0.4323853224 0.2511109257 0.4770215567
0.4224628866 0.2508837771 0.7259090161
0.4325289124 0.2505700648 0.9750431558
0.4224592048 -0.0028778289 0.2290039211
0.4324442312 -0.0019782035 0.97622133
0.4225549314 0.251131753 0.2289836713
0.4425912565 0.2520618255 0.7236686442
0.4724432453 0.2504900096 0.4779143918
0.4625429002 0.2526189577 0.724388435
0.4725831535 0.2475910994 0.9746841808
0.4723217461 -0.0013985321 0.9743160014
0.4625539456 0.2493028492 0.2291134545
0.4527014639 0.5020098416 0.9703764814
0.452841372 0.4989722993 0.4707947219
0.4626570359 0.5007263547 0.7236548375
0.4725536992 0.4988994034 0.9738189592
0.4626680812 0.4990380357 0.2227623592
0.4524989652 0.2485999254 0.4750527171
0.4524989652 0.2522186816 0.9754665621
0.4524805562 1.3423250289e-04 0.4722011674
0.4823399086 0.2473984462 0.727047611
0.4824577261 -2.6728022047e-04 0.7233464872
0.4923764801 0.4987802969 0.9747394078
0.4924795704 0.5010088259 0.4763919698
0.4824024991 0.250717809 0.2246741309
0.4925274337 0.2489364176 0.4739564628
0.4923985709 0.2495547303 0.9754757666
0.482601316 0.4994786648 0.2275091126
0.5024130516 0.2498267879 0.7238389272
0.5124312141 0.2521932983 0.4755368731
0.5124017598 0.2500051223 0.9750983827
0.5024314606 0.0023085453 0.721335307
0.5023283704 0.2501483105 0.2234333662
0.5225524669 0.2494395289 0.2240178511
0.5224641038 0.2510250128 0.7243212423
0.5124348959 0.5018497312 0.4765070259
0.5225193308 0.5009216113 0.7272077691
0.5424047022 0.5007165918 0.7298043546
0.5525038642 0.4986657463 0.9804093711
0.5423273845 0.5003000444 0.2288548085
0.5525995909 0.5013199348 0.4815915839
0.532327631 0.0016421995 0.4758783595
0.532434403 0.2502023315 0.4767969672
0.5325006753 0.2501789007 0.9813574332
0.5325411751 0.4993602091 0.9805750518
0.5523750014 4.0811247371e-04 0.978835404
0.5424783381 0.249929623 0.2303753895
0.552275593 0.2512196185 0.4790980887
0.5423642025 0.2528448046 0.7300252622
0.5523492289 0.2507197615 0.9806302788
0.5724002811 0.2510992103 0.4864294618
0.5725475528 0.249884714 0.9869905786
0.5625036178 0.5009893003 0.7342335532
0.5623968457 0.4994786648 0.2316051089
0.5723745085 0.4980578474 0.9862910376
0.5723266452 0.5005213352 0.4829170299
0.5624078911 0.2495228384 0.2321730256
0.5623048009 0.2474101616 0.7323632017
0.6024179507 0.4997728515 0.7417812317
0.5924402879 0.4996674129 0.9889051116
0.5924586969 0.5009378827 0.4895083623
0.58241108 0.2493405989 0.7405920121
0.6023958599 0.2494102404 0.2429441151
0.5924145153 0.2507562095 0.4899271664
0.6024510868 0.250100798 0.7413780752
0.5923556066 0.2500597941 0.992301567
0.5823558531 0.5015243034 0.7377892461
0.5823300805 0.5005857699 0.2362874309
0.5824331708 0.2505947973 0.2411676493
0.6123845681 0.4996231547 0.9923936118
0.6124545222 0.4990848972 0.488278643
0.6223695944 0.49857723 0.7420785366
0.6124655676 4.8840268648e-05 0.4934037008
0.6223217311 0.4994344066 0.2391260943
0.6124177042 0.2497024745 0.4888787755
0.612402977 0.2498137708 0.9904330563
0.6225352752 0.0016813159 0.7373455899
0.6224947755 0.2482334938 0.2379184658
0.6224469121 0.2478644587 0.7425875447
0.6426231453 7.564503073e-04 0.2406614026
0.6527664889 3.6474015214e-05 0.491912574
0.6322846667 0.498131394 0.487070094
0.6426452361 0.247475898 0.2383851332
0.6525418994 0.2503461705 0.4934101439
0.6424464192 0.2484489269 0.7387032516
0.6324798018 -0.0026544357 0.4894807489
0.6525897627 0.2494102404 0.9928814496
0.6424464192 0.4995144618 0.737988063
0.6526228989 0.4999674572 0.4924666841
0.6326270736 0.2490366494 0.4878405095
0.6325792103 0.2489631027 0.9900924903
0.6824748878 0.5004263103 0.7443391583
0.6626410614 8.4106151502e-04 0.2439216315
0.6824675242 0.5009508998 0.2472729849
0.6625526983 -4.4945465923e-04 0.744631861
0.6723646804 0.5010101276 0.4931183617
0.6626999701 0.2502843393 0.2424728454
0.662630016 0.2531136079 0.7409206123
0.6725966334 6.7715076523e-05 0.9937742847
0.6625085168 0.5009268182 0.7429538832
0.6626263342 0.4999446773 0.2405859258
0.682434388 0.252617656 0.2468394536
0.672622406 0.2499947086 0.495343086
0.6824932967 0.2521529452 0.7460484314
0.6725487701 0.2497044271 0.9956059774
0.7025517125 0.251356949 0.2501631934
0.6926440038 0.2507113004 0.4983290212
0.702507531 0.2497350173 0.7505770385
0.692551959 0.250600655 0.9974836926
0.6924341416 0.5000013017 0.9967749471
0.692515141 0.5005779596 0.493533484
0.732374247 0.5006248212 0.9978794855
0.7324257922 0.4986891771 0.4973202095
0.7125772386 0.2483792854 0.5008630162
0.7125846022 0.2467456382 0.9980727797
0.7223965843 -2.2627632751e-04 0.2470005321
0.7324331558 -2.8888862121e-04 0.4961991032
0.732429474 3.7726192566e-04 0.9935993995
0.7125367389 0.5003866081 0.9996191333
0.7225659468 0.2501242288 0.2501162506
0.7325104734 0.2495221875 0.5011511166
0.7224591748 0.2479562293 0.7490095145
0.732517837 0.248889556 1.0021687759
0.7124226033 0.5008422069 0.4994565707
0.7124299669 -0.0018712484 0.4983446688
0.7124520576 -9.601809261e-04 0.9983028918
0.7524289811 0.5000930723 6.4962645199e-04
0.7423555916 -0.0015587076 0.2467805449
0.7424586819 -0.0037787039 0.7491742748
0.7424218639 0.2515574125 0.249606322
0.7424586819 0.2498131199 0.7493822962
0.7624655525 -0.0029846212 0.2464243313
0.7523516634 -0.0023114545 0.4990423689
0.7623587805 -0.0029438321 0.7484719725
0.7524252993 -0.0018412309 -0.0032387258
0.7624950069 0.2514161769 0.2495326862
0.7525247077 0.2487554798 0.5013839901
0.762564961 0.2496738368 0.7463972814
0.7524142539 0.2500252988 6.2034698215e-04
0.7825755135 5.9380153186e-04 0.2440606193
0.7826270586 -1.4264140296e-04 0.7437058897
0.7726383504 2.50189594e-05 -0.0057587208
0.7826859673 0.2510705726 0.2481446497
0.7724763515 0.2482686399 0.4969400643
0.7826491494 0.2510927017 0.7466071437
0.7725278966 0.2498541238 -0.0039348979
0.7926194485 -8.6112072753e-04 0.4934184279
0.7925126765 0.0023894466 -0.0051196441
0.812523229 0.4983364135 -6.3252162426e-04
0.7925863124 0.2505134404 0.4987993704
0.792612085 0.2502055857 -0.0028786647
0.8026192021 -0.0011699516 0.2464777173
0.8125747741 2.8809472984e-04 0.4975420377
0.8026633836 6.1866420982e-04 0.7478479084
0.8126594554 -9.3082734558e-04 -0.0051405659
0.802549248 0.2510250128 0.2449994768
0.8125563651 0.2489240514 0.4989374377
0.8024829757 0.2493633788 0.7453442882
0.8123870026 0.248448276 -0.0025743184
0.8325926902 3.4426355465e-04 0.4996489445
0.8226481635 2.3889005828e-04 0.743646981
0.832471191 -0.0015799255 -0.0026221265
0.8225340279 0.2505733191 0.249579629
0.832415964 0.2507373346 0.4973551866
0.8223978015 0.250443148 0.7507924235
0.8324638274 0.24834479 -0.003126652
0.8225708459 -7.111238967e-05 0.2472278829
0.8424930353 0.0014853433 0.7483228599
0.8424598991 0.2503279466 0.2514324921
0.8423936268 0.2492956898 0.7489312764
0.8624925424 -0.0012011276 0.2493283466
0.8423973086 0.4992332923 0.7503414036
0.8526474242 -4.3971717658e-05 0.4987726774
0.862481497 0.00112145 0.7521381193
0.8525332886 -6.5043882032e-04 2.708894682e-04
0.8625551329 0.2465451747 0.252409088
0.8425261714 -6.2260755633e-05 0.250734792
0.8525111978 0.2490822093 0.4998845793
0.862499906 0.248398811 0.7522485731
0.8523896986 0.2478651096 -2.7418717266e-05
0.8725475228 -3.5807455491e-04 0.5063967531
0.8925875297 -0.0016478748 0.5120989322
0.8727168854 -0.0013639066 0.002843258
0.8825730489 0.2476308016 0.2578673482
0.8925396663 -0.0027738222 0.0111158818
0.8723597513 0.248264084 0.5028603896
0.8924476215 0.2495898765 0.5086601362
0.8824662769 0.2455070603 0.7581155125
0.8724738869 0.2494447357 0.0061934147
0.8924549851 0.2501391985 0.0066685503
0.9025615106 7.2019765908e-04 0.2585061395
0.9124655375 8.5511999261e-04 0.5117970251
0.9025578289 -1.3365959783e-04 0.7597520701
0.9024731476 0.249682298 0.2616954939
0.9125944003 0.2502836884 0.5106869641
0.9025026019 0.2499556573 0.7566492379
0.9026204194 0.4984594252 0.7578200485
0.9126680362 0.2496087513 0.012322866
0.9225683813 -1.0452662295e-05 0.2632666997
0.9226383354 -6.4308415381e-04 0.7615644334
0.9225536542 0.2492006649 0.2604547292
0.9224395185 0.2485504604 0.7625944154
0.942737251 -0.0028599759 0.2634609143
0.9327338156 -0.0014392105 0.5139149773
0.9426930694 -0.0016813288 0.7669858756
0.9325718167 -0.0027118412 0.0120913732
0.9427887961 0.2469428474 0.26560648
0.93261968 0.2490796058 0.5134906505
0.9427335692 0.2490587785 0.7642760749
0.9326049528 0.2480571119 0.0139493907
0.9525897327 -0.0022202696 0.5168732991
0.9527222773 -0.003299401 0.0135158594
0.9625968499 0.2498684426 0.2679978054
0.9527738225 0.2506468657 0.5150416064
0.9725966034 0.2495657948 0.5243344554
0.9624937596 0.2505303626 0.7671837721
0.952656005 0.2505251558 0.0166729981
0.9727217844 0.2490301408 0.0203315051
0.962611577 3.0811572851e-05 0.2719133938
0.9826110841 0.4989234851 0.7729439394
0.9825337665 0.4972592477 0.2690811734
0.9824785395 3.8767561277e-04 0.2720440975
0.9926145195 -0.0013758823 0.5224714674
0.9826110841 0.2487379067 0.2758814477
0.9926108377 3.3072576142e-04 0.0211852212
0.9924377934 0.2504053984 0.5205928318
0.9824269944 0.2496276261 0.775842432
0.9925482472 0.251537236 0.020242958
0.0125602497 0.750533786 0.0196851661
0.0025138478 0.4992547705 0.7685487973
0.0123488042 0.4983923871 0.0198651138
0.0224271273 0.7484900999 0.2697751917
0.0026194785 0.7488220362 0.2742761853
0.0125673556 0.7471883891 0.5197892802
0.0224308827 0.748431523 0.769020067
0.0225469697 0.4991415217 0.2712939319
0.0025039806 0.7505728374 0.770372206
0.0124070134 0.9985097102 0.02211423
0.0523597106 1.0009634352 0.5220885608
0.0523394608 1.0006900759 0.0193021675
0.0323741943 0.7488480704 0.0174500408
0.0423629025 0.5002876781 0.766736434
0.0424693064 0.7493492291 0.2674197637
0.032398126 0.7482688091 0.5165456194
0.0425171697 0.7502604268 0.7700159924
0.0525662593 0.750592363 0.0158374149
0.052434451 0.7497983194 0.5194367484
0.0525736229 0.5019838074 0.520428992
0.0425576694 0.9998765066 0.2692486951
0.0323421627 1.0009178753 0.5204059808
0.0324161668 0.9989848347 0.0193496626
0.0724961805 1.0017639874 0.519005058
0.0624423045 1.0008658069 0.7702332182
0.0723768903 1.0002670199 0.0154792683
0.0725035441 0.7520893305 0.0191783671
0.0623568869 0.7480735525 0.2689799241
0.072443899 0.7525579465 0.5175433856
0.0624389909 0.7502343925 0.7697030399
0.0625726401 1.0007811957 0.2684736774
0.0825345929 1.000644516 0.2612739285
0.1025720224 0.9994209078 0.7583272157
0.0825795107 0.999388365 0.7632516156
0.0925339782 0.9999676264 0.0136580687
0.0925608553 0.7529289341 0.009706859
0.0925071011 0.5013967358 0.0105776034
0.102505382 0.7493166864 0.258837501
0.0824510161 0.7489456988 0.2636256746
0.0925023148 0.7513994238 0.5113809823
0.1025370454 0.7509568421 0.7592467438
0.0825647836 0.7512106757 0.7671193406
0.0925236692 0.5006020413 0.5086776248
0.1124797311 0.9980801456 0.0054762012
0.1124727357 0.7492255666 0.0084314855
0.1225015754 0.4993328732 0.7556579147
0.1225483342 0.7536774178 0.2575323049
0.1125257535 0.7510739961 0.5061740046
0.1225045209 0.7499024563 0.7563399671
0.1124944583 0.9987049668 0.5050317279
0.1225464933 0.9979239403 0.7520488358
0.1524106321 1.0007877042 0.5014143649
0.1324692974 0.9998114211 0.5042272558
0.1424708918 0.9981777739 0.7550522596
0.1524526046 1.0006770588 0.0013712766
0.1324689292 0.9995706046 0.0069687086
0.1524283047 0.7489847501 0.0049352535
0.1324928609 0.7481191123 0.006832114
0.1425563094 0.7496551312 0.2577329627
0.1524614409 0.7490758698 0.5062034589
0.1324807109 0.7471233035 0.5102718417
0.1423663288 0.5003072038 0.2540925885
0.1425901819 0.7519396338 0.7534967014
0.1725264839 0.7496356055 0.002147675
0.1624527263 0.5024563284 0.753423986
0.1724789888 0.500283773 0.0032690575
0.1625112668 0.7507550769 0.2528288126
0.1825199784 0.9990694459 0.7487840046
0.1726019607 0.7498503878 0.5031033881
0.162511635 0.5045208419 0.2534887742
0.1625631801 0.7502604268 0.751560998
0.1825788871 0.7506314144 0.250252477
0.1824503925 0.7493101778 0.7540848681
0.1624324764 1.000338614 0.2512530046
0.1725596201 1.0012107603 0.5031622968
0.1724149255 1.0023823001 -5.7721186813e-04
0.1925764316 0.9985682872 0.5006724833
0.2024510041 0.9999415922 0.7507215489
0.192616195 0.7486332881 0.0021061627
0.2026244166 0.7475854109 0.2524597127
0.1925742225 0.7496095713 0.5007203467
0.2024778812 0.7481060952 0.750943377
0.2325621913 0.7507811111 1.0021779804
0.232460942 0.5007055273 1.0019662772
0.2325846503 0.7510805046 0.4996783988
0.2325113825 0.5014839504 0.5002858949
0.2225083154 1.0024473856 0.2505654295
0.2125431707 1.0008072299 0.5006292222
0.2125107709 0.9997658612 8.5069844778e-04
0.212584775 0.7473511029 4.8177344603e-04
0.232686636 1.0008397727 1.0010458286
0.222558756 0.7506574486 0.2566459129
0.2125343344 0.750286461 0.5010765603
0.2225510242 0.5009111976 0.2509446543
0.2225583878 0.7508331795 0.753003341
0.2527074975 0.7510935217 1.0031812694
0.2525366622 0.4996745723 1.0003831056
0.2425427995 0.7484510486 0.2515834456
0.2525469712 0.7510609789 0.5019095662
0.2425575267 0.4994728071 0.2480526048
0.2425954492 0.7511976586 0.7525164237
0.2525734801 0.500432168 0.4992881286
0.2626560741 0.5008630343 0.7514210898
0.2625084341 0.7517443772 0.2477663453
0.262514325 0.7492906521 0.7499557357
0.2824873232 0.5012939006 0.7476472506
0.2827682441 0.7534691441 0.2464510243
0.2825351865 0.5009105468 0.2492666765
0.282573109 0.7524017412 0.7480798614
0.2725350648 0.7516207146 0.9995086795
0.2725648873 0.5018048221 0.9999504948
0.2726701866 0.751132573 0.4977021957
0.2825605909 1.0006510246 0.2489942237
0.2824994731 1.0024799284 0.7489533672
0.3123647164 1.0019722611 0.9897979468
0.2927355978 0.7500651701 0.9983857322
0.3026764427 0.5013140771 0.7445793954
0.2924358998 0.5001692224 0.9982752783
0.302570407 0.7507355512 0.2458241988
0.2925839079 0.751601189 0.4983713618
0.3025229118 0.5013336028 0.2466857387
0.3026179021 0.7515556291 0.7422488196
0.3026050158 1.0014125255 0.2460193339
0.3124910019 0.7492841436 0.9918413427
0.3123367348 0.5008747497 0.9976585778
0.3124921065 0.7505793459 0.4919880508
0.2925099038 1.0010480464 0.9950352993
0.3323771098 0.7494273318 0.991942592
0.3325405814 0.5007914402 0.9926605419
0.3223795653 0.7505858545 0.2415229425
0.3324923499 0.7493427206 0.4902281531
0.3223766199 0.7495379772 0.7389950338
0.3324651047 0.5022448004 0.4907518884
0.3526284516 1.0006510246 0.4869697651
0.3426353253 0.9992777196 0.7405966144
0.3624385927 0.750826671 0.2386557451
0.352428162 0.9999806435 0.9882515931
0.3624459563 0.7524212668 0.7392674866
0.3626742276 1.0029225101 0.2368166888
0.3524520936 0.7525449294 0.9901201038
0.3626116371 1.0025645396 0.7381012782
0.3524962752 0.5028605097 0.9913811184
0.3424394538 0.7505272775 0.2391481851
0.3525942109 0.7522064845 0.4881599051
0.342407054 0.7497397424 0.7393328384
0.3925041257 0.9991019886 0.4868832429
0.3726850265 0.7516923087 0.9851220679
0.3726923901 0.5014800453 0.9882976156
0.3824933267 0.7500781872 0.236741212
0.3725524819 0.7544974957 0.48663104
0.3827105526 0.5006065973 0.2375788202
0.3825264629 0.7521869589 0.7349588667
0.3826847801 1.0011847261 0.2370992665
0.3825190993 1.0006575331 0.7385909569
0.3724088919 1.0000977975 0.9870918279
0.3725745727 0.5012034317 0.4908338083
0.3925556708 0.7517118344 0.9843396866
0.3925667162 0.7515946804 0.4880706216
0.4126914043 0.7495379772 0.9778965464
0.4125588597 0.7471688634 0.482164103
0.4125330871 0.4976914157 0.4801786953
0.4026916507 0.9987049668 0.2356790143
0.4025848787 0.4977877423 0.7328123806
0.4024302433 0.746941064 0.2305539566
0.4025001974 0.5001887481 0.2332379847
0.40252597 0.7498959477 0.7340908837
0.432573094 0.7486072539 0.9734415752
0.4225402043 0.7495444858 0.2279380417
0.4326025483 0.7501823241 0.4737650095
0.422599113 0.4997988857 0.2233137079
0.4224812955 0.74903031 0.7246737741
0.4425986201 0.7512757612 0.2224604521
0.442635438 0.7490628527 0.7215626578
0.4324847309 1.0004883107 0.4792352355
0.4224592048 1.00076167 0.7288130314
0.4424403029 1.001054555 0.2249852426
0.4524400565 1.0013344228 0.9738097547
0.4625318549 1.001054555 0.2223048962
0.4723254279 0.9988611721 0.4757817124
0.4626165361 1.0027402706 0.7265321598
0.4526425551 0.750475209 0.9730365778
0.4526536005 0.7497267253 0.4715973531
0.4725316084 0.7456718959 0.9755494025
0.4624692644 0.7491214297 0.2225699854
0.4726346986 0.7488025106 0.4784519338
0.4625760364 0.74957052 0.7234155209
0.4725095176 0.4991506336 0.4719416009
0.4824687714 1.0023888086 0.2264671648
0.492468525 1.0006510246 0.4758746777
0.492450116 0.9998634895 0.9725763535
0.4826675883 0.4964495836 0.7239475402
0.4926342057 0.7507941282 0.4759998587
0.482512953 0.7496160799 0.225129753
0.4925568881 0.7522845872 0.9774455266
0.4825865889 0.7494273318 0.7233676575
0.5123281239 1.0009699438 0.4745096524
0.5124128052 1.0003451225 0.9777308657
0.5024020062 1.0008592983 0.2229795851
0.5224088769 0.7521088562 0.7235940879
0.5225524669 1.0009569266 0.2264653239
0.5225009218 1.0023888086 0.7295420267
0.5025161419 0.749876422 0.22573909
0.5023541429 0.5011773975 0.2257547376
0.502442506 0.7511195559 0.7271341332
0.502424097 0.5017351806 0.7241583229
0.5125343044 0.7523757069 0.9744908866
0.5124385777 0.5000344953 0.9759359909
0.5125085318 0.7519331252 0.4777846085
0.5224236041 0.5003475568 0.2266402091
0.5223941497 0.7517639028 0.2274548061
0.5324564938 0.7518745483 0.4792370764
0.5324638574 0.5000820078 0.4779097896
0.5323865397 1.0031047496 0.9797650571
0.5423457935 1.0012498116 0.230877034
0.5523455471 0.9996682329 0.4816090725
0.5522719112 0.7512432185 0.9804553935
0.5423605207 1.0011586918 0.7335680689
0.5422868848 0.7508787394 0.2313888034
0.552257184 0.7499805589 0.4764821738
0.5423494753 0.7505533117 0.7276735161
0.5324159941 0.7504882262 0.9780070003
0.5622606193 0.998132214 0.2333990632
0.562319528 0.9995315532 0.7327120517
0.5622937555 0.7500261188 0.232194196
0.5623821185 0.7493687548 0.7323530767
0.5723413724 0.997709158 0.4889597749
0.5723560995 0.9987700524 0.9843580956
0.5723413724 0.7517834285 0.9875060298
0.5724628716 0.752199976 0.4858992834
0.6023848145 0.9999350836 0.2378844092
0.5923961064 0.7514384751 0.990939303
0.5924550151 0.9995120276 0.4936282902
0.6023848145 1.0017509703 0.7414756428
0.5924402879 0.9984185904 0.9927894047
0.6024547686 0.7495509943 0.2400944063
0.6023958599 0.5000377496 0.239525569
0.5924329243 0.7519005825 0.4904665493
0.602465814 0.7493231949 0.7385274459
0.5823521713 1.0015231709 0.2368940065
0.5823006262 1.0010610635 0.7389075912
0.5823705803 0.7519266167 0.2399821115
0.5823632167 0.7494012976 0.7407926699
0.6125686578 0.7498959477 0.9892824956
0.6124250678 0.7510805046 0.4891134899
0.612439795 0.9993558223 0.9906723729
0.6225095026 1.0003581396 0.2396783635
0.6224579575 0.7489587159 0.2416186691
0.622520548 0.7478327359 0.7418410609
0.6425311005 0.9996877585 0.7431480979
0.6527296709 1.0001368488 0.9931483797
0.6324503475 0.9992581939 0.9907460088
0.6326602097 0.7476244622 0.9881319348
0.6323840752 0.4999876337 0.9891168148
0.6325644831 0.7480605354 0.4916530075
0.6525934445 0.7474487312 0.991316687
0.6525529448 0.5000527193 0.9880675034
0.6425347823 0.749993576 0.2432055225
0.6425274187 0.4990269711 0.2404174837
0.6525234904 0.7502539182 0.4924593205
0.6425605548 0.7501953412 0.7413458595
0.6725303611 0.7500196102 0.9943817808
0.6725524519 0.5007081307 0.9944370077
0.6823644339 0.9993558223 0.2479025717
0.6724530434 0.9996421987 0.4970983814
0.6825522054 0.9971429137 0.7440740692
0.6824932967 0.7482753176 0.2462540483
0.6725045886 0.748737425 0.4932435427
0.6823717975 0.7486137625 0.7424743295
0.6624790625 0.7490563442 0.2397878969
0.6625931981 0.7496681483 0.7447763714
0.7025590761 0.9990954801 0.2493016536
0.7026179848 0.4980812782 0.7469136531
0.692408369 0.7500977129 0.9950352993
0.6924709595 1.000397191 0.499863409
0.7024265315 0.9988025951 0.7460677608
0.6924893685 1.0001824087 0.99815562
0.7023933954 0.7494859088 0.2451596349
0.7025296218 0.4999199448 0.247431302
0.6923936418 0.7495965542 0.4965562372
0.7026032577 0.7484250144 0.7457713764
0.7224628566 0.499121996 0.7471078677
0.7323779288 0.7480410097 0.9967381292
0.7224223568 0.7496030628 0.2473981659
0.7224775837 0.4996146936 0.2462807413
0.7324405193 0.7493297035 0.4946232952
0.7224444476 0.7492125495 0.7452191072
0.7225549014 0.9996747414 0.7488088567
0.7124741484 0.7508071453 0.9982936873
0.7124520576 0.7471948976 0.4977592635
0.7423776824 0.4975788177 0.7484351546
0.7424218639 0.7488090191 0.2470815316
0.7423813642 0.5005812139 0.2497701619
0.7423371826 0.7516792916 0.7493638872
0.7524142539 0.5017397366 0.4975024584
0.7524105721 0.7481907064 -0.0018776401
0.7624950069 0.4994662985 0.7467645404
0.7625391884 0.7506053801 0.2477939588
0.76243978 0.4973412555 0.2493651645
0.7525136623 0.7472274404 0.4975199469
0.762546552 0.7493882805 0.7479924188
0.7826160132 0.7495575029 0.2444030261
0.782512923 0.4988265076 0.2456253819
0.7723990338 0.7509242993 0.4959726728
0.7825791953 0.7513864067 0.7435678224
0.7725242148 1.0011977432 0.4927566254
0.772520533 0.5006781914 0.4977178433
0.7724947604 0.749629097 -0.004489459
0.7825239683 0.5003319363 0.7461064197
0.7726199415 0.5002349588 -0.0038979419
0.7926010396 0.7482688091 0.4942072524
0.8125453198 0.4995762931 0.497571492
0.8125637287 0.751848514 -7.1756187004e-04
0.8024203852 0.4991141857 0.7474990584
0.8025271572 0.7513929152 0.2408298447
0.8025529298 0.4998600661 0.2471689742
0.7924721768 0.5003351906 0.496578328
0.7924795404 0.7499610332 -0.0054282429
0.8125305926 0.7520893305 0.495995684
0.7926231303 0.5008584783 -0.0030416486
0.8025602934 0.7523822155 0.7426206808
0.8324233276 0.4990334797 0.4974223793
0.8325006453 0.7504101235 -0.0049011848
0.8223388928 0.498680716 0.750397551
0.8326221445 0.4994519797 1.5099183409e-04
0.8224346195 0.7506444315 0.244942409
0.822478801 0.5012008283 0.2475307105
0.8325890084 0.7504361577 0.4961797737
0.8223425746 0.7481256209 0.7439617744
0.8625588147 0.747058218 0.7494135915
0.8624557244 0.4973874662 0.7527916378
0.8524706981 0.7497983194 -0.0027249774
0.8523786532 0.4986781126 0.0026448092
0.862463088 0.7488741047 0.2496937647
0.862499906 0.4965257336 0.25181816
0.8524338801 0.7488220362 0.500866698
0.8426550342 0.7472404575 0.2457993467
0.8424930353 0.5005480203 0.2478896854
0.8425887619 0.748255792 0.7482326559
0.8525148796 0.4987067502 0.4975935828
0.8724444326 0.4964918892 0.5024286993
0.8825104584 0.7488936303 0.7578900026
0.8925065302 0.4964704109 0.5103859774
0.8725843408 0.7491344468 0.0052906387
0.8925912115 0.7504556834 0.0109710031
0.8824000046 0.4961313152 0.7568646228
0.8723781603 0.4940414184 0.0046234976
0.8925065302 0.4981606825 0.0100491739
0.8825399128 0.7460168493 0.2571392734
0.8824515497 0.4949109613 0.2568263208
0.8725512046 0.7477351076 0.50511825
0.8925654389 0.7465700764 0.5083481042
0.8824883677 0.9970127427 0.2576685313
0.8825840943 0.9987179839 0.7583621927
0.9126238547 0.7506379229 0.5107790089
0.9125759914 0.9993428051 0.0131867991
0.9124839465 0.4982823925 0.5116442306
0.9024363296 0.7456328445 0.7629754811
0.912528128 0.748080061 0.0137872077