POSCAR file written by Ovito 3.7.11
1
271.6199586431 0.0 0.0
0.0 15.365145173 0.0
0.0 0.0 10.8647983457
Sr Ti O 
800 800 2400 
Direct
0.022259006 0.5007133027 0.7672259481
0.0125153185 0.2488185138 0.5184031063
0.0222704927 0.2524520623 0.7644840657
0.0024542758 0.2497166505 0.7656032765
0.0123825963 0.2496574255 0.0170588727
0.0224401783 -9.3656215748e-04 0.2676124415
0.0024938164 0.0012054938 0.2696603396
0.0023742375 0.5018242587 0.2703626076
0.0123081909 0.5008395625 0.518625844
0.0123649982 -9.1469448254e-04 0.5196254023
0.022536158 -0.0010950377 0.7643496867
0.0025226434 -0.0027503882 0.7651550399
0.0223516354 0.2487111279 0.2625143257
0.0024790899 0.251013742 0.2678057263
0.0324927533 0.4987751499 0.0148984092
0.0423734705 0.4987094167 0.2597687616
0.0323892999 0.5000540184 0.5161269481
0.0322707519 0.2470925295 0.511142042
0.0423480673 0.2501689729 0.7612295184
0.0323867228 0.2507072041 0.0138955374
0.0523823079 0.4989274426 0.0096291904
0.0424239086 -0.0013081174 0.7594025171
0.0424136001 0.2505946116 0.2605345375
0.0524879702 0.2501487974 0.5117421451
0.0525873738 0.2489037717 0.0112827876
0.0624364291 0.2486512521 0.2594438592
0.062488708 0.4996472536 0.7590711718
0.0722854844 0.4975210127 0.0065269699
0.0623889363 0.498789468 0.2596445072
0.0725247894 0.4993608912 0.5056509138
0.0724820827 0.2495357215 0.5109736081
0.0623749462 0.2497719705 0.759570951
0.0724489481 0.2482770285 0.0116757999
0.0924312794 0.2488438959 0.5052128017
0.1023753204 0.2498787056 0.7551152769
0.0824868703 0.2505197669 0.7575101672
0.092332244 0.2488120056 0.0050215577
0.1025413612 -0.0017752786 0.2543282557
0.092416553 3.3352021274e-04 0.507468711
0.1023646437 0.2492923134 0.2538790987
0.0823808398 0.2487104771 0.2589937818
0.1022910114 0.501000316 0.7569864576
0.0824404819 0.5002700918 0.7576104912
0.1023683253 0.498158169 0.2558837379
0.0825096963 0.5019160249 0.2571741438
0.1224161894 0.2482783302 0.2553784363
0.1123639089 0.5019843613 0.0059859566
0.1123528641 0.2485100234 0.505247777
0.122394836 0.498106754 0.25490811
0.1124485861 0.5009124548 0.5052597423
0.1222262181 0.2497993051 0.7550729384
0.1123234112 0.2507397453 0.0055116726
0.1224703091 4.8555261944e-04 0.2553646302
0.1523377756 0.2508321622 0.50035215
0.1325546196 0.249356745 0.5018054674
0.1423270973 0.2484345279 0.7501975603
0.1524088307 0.25210257 -3.7465842204e-04
0.1323521308 0.2509551679 0.0017066319
0.1424184014 -3.2387676505e-04 0.2520355302
0.1424736256 0.2517316005 0.2550277625
0.1424942426 0.5011818958 0.7529670548
0.1524412289 0.5016146935 0.0012100742
0.1324250268 0.5006072185 0.0045289577
0.1525174383 0.5010536835 0.4992734369
0.1324312855 0.4996466028 0.5073555014
0.1823595016 0.2516111981 0.2493138966
0.1725244365 0.5005655658 0.4996857778
0.1825715626 0.5013055523 0.7435402807
0.1724644261 0.2516033883 0.49873316
0.1624375488 0.250866005 0.7450773548
0.1724195104 0.2503922054 -0.0036532375
0.1825432142 0.5002082636 0.242987042
0.1624581659 4.284103022e-04 0.7516840122
0.1623488219 0.2501422891 0.2484523988
0.1824084671 0.2490144117 0.7483696386
0.1824681093 0.0017534222 0.2481063271
0.192561992 7.0416428644e-04 -0.0024283827
0.2024909383 0.2503368854 0.2496562868
0.2025321724 0.5015587227 0.7479895119
0.1924559615 0.4990667189 -0.0037730648
0.2025056648 0.4991728031 0.2487533708
0.1924699516 0.4964419471 0.4956764995
0.1924566978 0.2509441039 0.4981192508
0.2025273863 0.2538493807 0.7476701319
0.1924202498 0.2523850275 -0.0026085609
0.2026006504 -0.002241763 0.2474611241
0.2124916762 0.2534692997 0.5016526804
0.2225498472 0.2525067315 0.7541046737
0.212596234 0.2507130615 -0.0011432967
0.2226278974 0.0011176976 0.749989549
0.2225314391 0.2521168881 0.2530580987
0.2324511815 0.253043661 0.4985987811
0.2325829833 0.2508510361 0.9996959784
0.2325295999 0.0019290144 0.4969797911
0.2226080167 0.5028154631 0.748862975
0.2124489694 0.5003605563 5.1539031079e-04
0.2124158349 0.5031363192 0.4999821478
0.2425855619 0.5023774588 0.75092652
0.2626706103 0.2522034477 0.7484681218
0.2625708385 9.4223558085e-04 0.2526383946
0.2625999233 0.0034660646 0.7521801097
0.2525108267 0.2505047979 0.5001027206
0.2426823884 0.2517159807 0.7516591613
0.2526496235 0.2514185543 0.9995303057
0.2626256946 0.2495331182 0.2465793774
0.2425542682 0.0022335999 0.2504993765
0.2625645798 0.4999850311 0.2522518251
0.2525502199 -2.3874903048e-04 0.4981229324
0.2426087561 -4.2494967927e-04 0.75092652
0.2525815137 0.0011807625 0.9985546778
0.2425071435 0.2535467477 0.253795342
0.2726580943 0.2528243334 0.4983962923
0.2725969795 0.2508321622 0.998094476
0.2723996449 0.0011182183 0.4986061443
0.2725266607 0.0015083871 0.99757905
0.2823838155 0.2506531857 0.7488114324
0.2725586907 0.5012404699 0.5019021098
0.2825524335 0.2522424971 0.2476553293
0.3125123084 0.001959473 0.4937390498
0.2924684942 0.5014240022 0.4981063651
0.2925483852 0.2499145009 0.4968997159
0.3025226154 0.2528015546 0.745472208
0.2925848332 0.2530137231 0.9934188255
0.2925413902 0.0013904578 0.4952393078
0.3026017702 0.0022620409 0.7458550959
0.3125285075 0.5009436943 0.4980446981
0.3025174612 0.2510632046 0.2473543573
0.3125428658 0.2518904015 0.4975219088
0.312613921 0.2497706688 0.9969071553
0.3225310862 0.0011473101 0.2474556017
0.3325193066 1.6658394425e-04 0.4944321138
0.322640062 -7.9253488178e-04 0.7432706024
0.3325877846 1.9606625599e-04 0.9931058883
0.3226312261 0.2523082303 0.2500318115
0.3226709876 0.4988304699 0.7483558326
0.3227784907 0.5005564542 0.2479802318
0.3326945514 0.2506141363 0.4961256565
0.3226006687 0.2516723756 0.7484368281
0.3327059644 0.251069062 0.9958026709
0.3625115797 0.2500407606 0.2386344531
0.3525369814 0.5036088172 0.4991611477
0.352559071 0.2517986353 0.4898890014
0.3425520744 0.2524631263 0.7433902549
0.3623532703 0.5030549663 0.7404523265
0.3525638571 0.2499880439 0.9944680856
0.3623679968 0.5023820146 0.2378778814
0.3425587014 -4.6107039233e-04 0.2440593122
0.3426463238 0.2515090188 0.2449861587
0.3624600371 0.2513573769 0.7402074991
0.3425546516 0.5005174048 0.7483714794
0.342491696 0.5025596895 0.2472494313
0.3824917021 0.2508399721 0.2391728893
0.3926198238 0.2524507607 0.4875594598
0.3926050973 0.2505848492 0.9884486458
0.3923510659 8.7704116796e-05 0.9855401703
0.3824180698 0.5024672725 0.7410469072
0.3925130569 0.5012294059 0.9880620763
0.3725844772 0.2498787056 0.4869308241
0.3826794644 0.252626483 0.7347605503
0.3725918405 0.2527468854 0.9845829505
0.392483604 0.5012638995 0.4866841559
0.372529253 0.0010801451 0.4884320024
0.4124747712 0.4998906616 0.9862028609
0.4026080441 0.2500349032 0.7359092141
0.4024865508 -1.8570690228e-04 0.7359994136
0.4025785912 0.2500388082 0.2331221557
0.4125962645 0.24963725 0.4844724259
0.4125189506 0.2502464209 0.9830182643
0.4125557667 0.0017269987 0.4831212734
0.4125999461 8.0146242344e-04 0.9845001142
0.4425167462 7.3397201002e-04 0.7310504032
0.4425830152 0.251508368 0.2290245187
0.4224335386 0.5016075344 0.7339008933
0.4324328038 0.5020553011 0.9820518405
0.4324585751 0.5028109074 0.4845193665
0.4423105758 0.5054883959 0.7319836925
0.4424872933 0.5028890062 0.2305229358
0.4326058397 0.2506902827 0.4810788977
0.4225513503 0.2518643685 0.7351471199
0.4326095213 0.2508360672 0.9825212463
0.4225955297 0.0023034333 0.2317443115
0.4326168846 0.0017749645 0.9811958651
0.422525579 0.2494361455 0.2335989248
0.4424725668 0.2525438284 0.7295391005
0.4724814072 0.2509909632 0.4785026879
0.4625889089 0.2484182573 0.733617409
0.4724372279 0.2515213845 0.9797232193
0.4723856853 0.0037644673 0.9784162461
0.4625042317 0.2509434531 0.228854244
0.4523945181 0.5027119822 0.981177457
0.4524166078 0.5039518013 0.4765072528
0.4622980613 0.5003696678 0.7299716902
0.4722126494 0.5014552417 0.9788212237
0.4623422407 0.50005532 0.2289177519
0.4525896437 0.2532369556 0.4801308819
0.4525012849 0.2509838041 0.9814075579
0.4524755136 0.0028117265 0.479027318
0.4824475379 0.2498025592 0.7327080502
0.4825984841 0.0012515721 0.7306518685
0.4921780452 0.4982265055 0.9798796879
0.4922332695 0.5009222171 0.477273949
0.4823959953 0.2491217976 0.2345727119
0.4924247134 0.2502067207 0.4835170469
0.4925462067 0.2508100342 0.9798244637
0.4823554975 0.5012118337 0.2287042182
0.5022988037 0.2502900261 0.7311240355
0.5123717012 0.2488783896 0.4829896557
0.5122612528 0.2497765262 0.983193141
0.5024571132 3.8111353992e-05 0.7340536803
0.5023540279 0.2493326645 0.2323057577
0.5223856929 0.2512578009 0.2331497678
0.5222494731 0.2502639932 0.7341733328
0.5123680196 0.4989359033 0.4780111923
0.522422509 0.4997572428 0.7356929192
0.5423216358 0.4983065568 0.7385765439
0.5525197082 0.5005336754 0.9916792626
0.542472582 0.4986280637 0.2385654229
0.5524681656 0.4993114286 0.488779915
0.5323591868 -9.7554649464e-04 0.4883988679
0.5322892361 0.2485054676 0.4875557781
0.5322855545 0.2495532937 0.9867827152
0.5324291375 0.5005193573 0.9874177937
0.5523945333 -0.0019232694 0.9888720315
0.5423694968 0.2497641606 0.2378254183
0.5524129414 0.2505965641 0.4895613377
0.5423216358 0.2501676713 0.7369796435
0.5524276679 0.2483102205 0.9895531302
0.5724777409 0.2484221622 0.4910210979
0.5723341579 0.2512669124 0.9878411794
0.5624490227 0.4988962031 0.7386483353
0.5624637492 0.5006312989 0.2403841405
0.5724851041 0.4993081745 0.9885959104
0.5725256018 0.4982466811 0.4928434971
0.5625116102 0.2458676793 0.2377554677
0.5625005653 0.2489584409 0.7372861379
0.6024828997 0.4976036673 0.7414509644
0.5923842309 0.4973465919 0.9907036347
0.5924173654 0.4987543235 0.4919479443
0.5823665576 0.2479164722 0.7406078747
0.6025786217 0.2485204366 0.2382791773
0.5924615448 0.24958193 0.4900574352
0.6025528504 0.2476151409 0.7395696594
0.5924946793 0.2475565667 0.9876478946
0.5825101406 0.4992476479 0.7431675172
0.5824733244 0.5005108966 0.2423059433
0.5824475531 0.2474003691 0.2394453288
0.6124784833 0.4978718066 0.9897832311
0.612452712 0.4974103727 0.4907560216
0.6225808337 0.4985395517 0.7393506033
0.6123349003 -0.0016639878 0.48863173
0.6226507844 0.4984621037 0.2407734712
0.6126220662 0.2493092349 0.4884890674
0.6126736088 0.2496821568 0.9907864711
0.6224519772 -3.9325456708e-04 0.7414067851
0.6225697888 0.2500075686 0.242332635
0.6224298875 0.2508985462 0.7381439541
0.6423768753 -2.2169745061e-04 0.2454988235
0.6524019118 -0.0013262754 0.496555485
0.632616915 0.5009469484 0.4939544243
0.6424357811 0.2498774039 0.2437399322
0.652504997 0.2493294104 0.4956682159
0.6424836421 0.2481885165 0.7414702929
0.6325138298 1.0859555624e-04 0.4945195521
0.6524313647 0.2497283653 0.9959867517
0.6424799605 0.4997129868 0.7458587775
0.6523430059 0.5009684256 0.4956682159
0.6324917401 0.2502581357 0.4919258546
0.6323776101 0.2497186029 0.9926088703
0.6824696581 0.4996524602 0.7471547058
0.6623864505 -8.6340957823e-04 0.2483778461
0.6825248823 0.5000182231 0.247800753
0.6625337151 -0.0028703545 0.7471629895
0.6725145722 0.5008701512 0.4955319961
0.6622833653 0.2497322702 0.2413984253
0.6623717241 0.2481735476 0.7449116821
0.6724519848 -7.7574363138e-04 0.9983153729
0.6624784909 0.498881885 0.7467773403
0.662496899 0.5006039644 0.2474132631
0.6824402051 0.2498240364 0.244352921
0.6724004422 0.2497954001 0.495643365
0.6824291603 0.2488087515 0.741746414
0.6726066126 0.2506278036 0.9989596554
0.7023724665 0.2486837933 0.2465066655
0.6924541968 0.2477960698 0.4961698359
0.7024497804 0.2493502367 0.7468058728
0.6924726049 0.2474179413 0.9941551484
0.6926014614 0.5009938077 0.9951860005
0.6925536004 0.5003983041 0.5004147375
0.732465984 0.5010667 0.9901513926
0.7324991186 0.5000878612 0.4910303019
0.7125226779 0.2472090269 0.492581182
0.7125005882 0.2504670501 0.9954253054
0.7225550776 5.5779404557e-04 0.2406262066
0.7325580244 -1.0559050988e-04 0.4890680013
0.7325212083 0.0017862237 0.9894150696
0.712349642 0.5008890251 0.9912006527
0.7223562704 0.248714382 0.2420371854
0.7326058854 0.2492916626 0.491358886
0.7223820417 0.2522470528 0.7430358995
0.7325028002 0.2495663102 0.9909337357
0.7124195927 0.4987777532 0.4947174389
0.712415911 2.6095337478e-04 0.491450006
0.7124711353 -6.7712572934e-05 0.992019812
0.752497649 0.5007165568 -0.0093168953
0.7426419667 -9.7997209552e-04 0.2433349546
0.742601469 2.2476757935e-04 0.7414086259
0.7425720161 0.2521865262 0.2406243658
0.7424910206 0.2492064047 0.7412070575
0.7625705465 -2.2208794481e-04 0.2424090285
0.75265964 0.0038797282 0.4892539229
0.7626184075 0.0010988888 0.7417151203
0.7526375503 0.0028758978 -0.0105534944
0.7626846765 0.2497550491 0.2418512639
0.7525675997 0.2500296966 0.4903142279
0.7626147258 0.2531855406 0.7419304947
0.7524534696 0.2501507498 -0.0075773232
0.7826979334 -0.0018717567 0.2461127328
0.7826979334 4.8555261944e-04 0.7449632247
0.7726986682 7.2948132677e-04 -0.0048406318
0.7826390275 0.2498285921 0.2437160017
0.7725256323 0.2514888433 0.4949254501
0.7826979334 0.2503219165 0.743422469
0.7725919014 0.2500830642 -0.0052103671
0.7926861537 -0.0012013172 0.4953120197
0.7927855573 -0.002484748 -0.0070334843
0.8127583164 0.4983892114 -0.0037749516
0.792664064 0.2464495157 0.4941550723
0.7926382927 0.2487137312 -0.005682976
0.8028879077 -0.0015853032 0.2468739066
0.8126257783 -0.0028465929 0.4941872864
0.8028179571 -0.0011856324 0.7443714052
0.8127178187 -7.2602070385e-04 -0.0020745427
0.8026449212 0.2487026672 0.2457261632
0.8127472716 0.24857055 0.4970718314
0.8027259167 0.2499131992 0.7459186037
0.8127767245 0.248437782 -0.0019625112
0.8326279903 -3.0682518519e-04 0.4996139863
0.8227134023 -8.3125888948e-04 0.7503347004
0.8327642101 -8.2025996964e-04 -3.8931124807e-04
0.8226544964 0.2471354838 0.2500851949
0.8325175419 0.2467645143 0.4991878394
0.8227170839 0.2488113548 0.7492909627
0.8326795329 0.250825654 -1.8304879121e-04
0.8227502184 -0.0011462575 0.2464091027
0.8426346187 -1.5811197915e-04 0.7489448909
0.8426714349 0.2486492997 0.2481569493
0.8426714349 0.2499197074 0.752965214
0.8624601133 8.7461500269e-04 0.2519214002
0.8424615829 0.4992001377 0.7488887463
0.8526007494 6.5222855847e-04 0.4979222844
0.8625668801 7.0631200452e-04 0.7515487128
0.8526007494 0.0012345856 -5.3278376825e-04
0.8624306603 0.2502041174 0.2517999069
0.8426125291 0.0016927003 0.2457123572
0.8525160723 0.2492539148 0.5030820672
0.8625263823 0.249917755 0.7536739248
0.8524866194 0.25098055 0.0010559986
0.8725661453 -1.089747929e-04 0.498284003
0.8925941286 -2.7558564957e-04 0.5039003061
0.8725256475 -0.001252537 0.0023289168
0.8825838186 0.2492226753 0.2539821839
0.8926603977 4.3114376156e-04 0.0028983706
0.8724299255 0.249197944 0.5020318867
0.8924984066 0.2487000639 0.5005638429
0.8825396392 0.2499001827 0.7538368363
0.8725035578 0.250556213 0.0026839165
0.8925278595 0.2476691592 0.0016490147
0.9025418512 0.0028806488 0.255375675
0.9125889774 -0.0016411439 0.5057521582
0.9026302099 -5.0962183728e-04 0.7553306514
0.9026412548 0.2487150329 0.2530295662
0.9125632061 0.2499092943 0.5077098568
0.9025271247 0.2501012872 0.756633943
0.9025087167 0.4993290008 0.7579758915
0.9125705693 0.2495122918 0.0056701661
0.9225440632 -0.0012105589 0.2595616708
0.9225992874 -0.0016310561 0.7590049028
0.9224520228 0.2478715654 0.2557907771
0.9224851574 0.2474823728 0.752817029
0.9424284636 3.9808191969e-04 0.262544699
0.9323408396 -0.0018611092 0.5095580273
0.942491051 -0.0024545433 0.7614172807
0.9324954674 -7.0415302891e-04 0.0118038281
0.9424947326 0.247430307 0.256871331
0.9325359652 0.2488523566 0.5091392436
0.9425499568 0.24638183 0.7605023995
0.9325138755 0.2481540229 0.0083589413
0.9526633521 -0.0021071466 0.5141287518
0.9524608633 -0.002749093 0.0156649214
0.9625595321 0.2474621973 0.26804227
0.9525934014 0.2476795724 0.5171329493
0.9725661605 0.2501273202 0.5149893292
0.9625116711 0.2466864155 0.7646893157
0.9525344956 0.2490105068 0.0159993961
0.9724299408 0.2517830156 0.0151751746
0.9625263975 -7.6305257003e-04 0.2664306432
0.9824660221 0.5009905536 0.7672664459
0.9825065199 0.4994077505 0.2678710749
0.982447614 4.7657125295e-04 0.2670638809
0.9925168299 -1.7008713447e-04 0.515999012
0.9826280132 0.2511673364 0.2688080458
0.9925757358 -4.1785570139e-04 0.0181952951
0.9925057851 0.2501767828 0.5151071409
0.9825543809 0.2500876199 0.7699475817
0.9925426012 0.2501774336 0.0151060523
0.0124614933 0.7503067792 0.0191538955
0.0024308607 0.4988649635 0.7690639942
0.0123106207 0.5018457359 0.0187235147
0.0225867802 0.7488554424 0.2679235379
0.0024394021 0.7510747511 0.2703883789
0.0124200751 0.7512830147 0.5159364245
0.0225631442 0.7496624638 0.7719126435
0.0224111672 0.4991897245 0.2636372182
0.002484281 0.7475798281 0.7714156255
0.012411497 1.0000994077 0.0170392681
0.0524205967 0.9994225511 0.5090278748
0.0523436509 0.999559224 0.0098946348
0.0326241869 0.750768864 0.0152383143
0.0423940875 0.4982779206 0.7627141294
0.0424268539 0.748705753 0.2632000264
0.0326032017 0.7509641111 0.5142566879
0.0425553422 0.7484779647 0.7615093211
0.0526024684 0.748074454 0.0123960158
0.0525726473 0.7501766145 0.510104747
0.0523543276 0.4965688577 0.5102225587
0.0423211915 0.9980948708 0.2579491236
0.0323083044 0.9994290593 0.5142198717
0.0323587425 1.0001449653 0.0140394885
0.0723948284 0.9982185273 0.5078028175
0.0625093251 0.9984267909 0.7592156752
0.072421336 0.9987001368 0.0100406108
0.0726477553 0.7489335413 0.0092399517
0.0624923897 0.7519012972 0.2594521428
0.0726529096 0.7513415888 0.5102069118
0.0625303103 0.7494086425 0.758921146
0.0625247879 0.9993314358 0.2615175286
0.0825406219 1.0023122081 0.2581479308
0.1024511617 1.0002230642 0.7517484404
0.0824695667 0.9991752381 0.7547986581
0.0925133794 0.9966305176 0.0083443989
0.0924088216 0.7496429391 0.0062038162
0.0924445332 0.4982857305 0.0032487682
0.1025689733 0.7517385912 0.2586762425
0.082575229 0.7507037816 0.260462746
0.0924426924 0.7499032685 0.504292398
0.102499759 0.7496884967 0.7595994835
0.0825126416 0.7494802331 0.7558874956
0.0923532292 0.5017363975 0.5086633949
0.1123738493 0.9980297885 0.0049456244
0.1123683269 0.7480093717 0.0052772458
0.1224353338 0.4998320875 0.7556675191
0.1224835629 0.7481850941 0.2559049071
0.1124728847 0.7479117481 0.5090287952
0.1224968167 0.7518166901 0.7575626302
0.1124253919 1.0002035395 0.5047084205
0.122527006 1.0007046737 0.7540328823
0.152480254 1.0017655163 0.5018036266
0.1324618429 1.0022471258 0.5033977657
0.1425115462 1.0006005419 0.7523098866
0.1525126522 1.0015442362 -2.876342574e-04
0.132446012 1.000906429 0.0024154348
0.1525034482 0.7509315699 0.0027029689
0.1324600021 0.7506256828 0.0076757257
0.1424530086 0.7509120452 0.2542905192
0.1524644231 0.7510031605 0.5030553755
0.1325730277 0.7504629769 0.5074457009
0.1424622126 0.4992320281 0.2531206861
0.1424975561 0.7501310568 0.756132323
0.1724309234 0.7491808543 -0.0025620069
0.1624681062 0.502063111 0.7485150624
0.1723830625 0.4997097326 -9.4125890592e-04
0.1624408623 0.7505606004 0.2489935962
0.1823885864 1.0004248195 0.7475081408
0.1724040477 0.749779612 0.4977336016
0.1622843937 0.4995047232 0.246225022
0.1625214896 0.7500008921 0.7495293472
0.1823377801 0.7493761014 0.2475743338
0.1823977904 0.7502156639 0.7437906305
0.1623837973 0.9995657323 0.2501919617
0.1724066248 1.0034316248 0.4969061588
0.1724007342 1.0025790458 -0.0015660933
0.1925152355 1.00263762 0.4976047451
0.2024736347 1.001895681 0.745232903
0.1924751059 0.7509966523 -0.0055409117
0.2024073657 0.7513155559 0.2457795466
0.1925203897 0.7503328121 0.4936967113
0.2024449181 0.7514261959 0.7457151945
0.2325288635 0.752090036 1.0016840502
0.2324611218 0.502184815 1.003902223
0.2324883658 0.7516800171 0.5010185223
0.2324773209 0.5002245342 0.5010663832
0.2225645737 0.9990190404 0.2499130794
0.2125435869 1.0015767774 0.4980042003
0.2126764932 1.0005680007 -0.0018113809
0.2125826121 0.7507818805 -0.0032555586
0.2324419774 1.0021364857 1.0019785794
0.2224990409 0.7497340544 0.2495946198
0.212516343 0.7504564686 0.4998054303
0.2225399068 0.5021874183 0.2513130134
0.2224865234 0.749916285 0.7506513193
0.2525005181 0.7504694851 1.0020245996
0.252557215 0.5000754955 1.0042611804
0.2425100888 0.7517971654 0.2514234618
0.2525391751 0.750163598 0.4987534089
0.2424670139 0.5010575884 0.2509411703
0.2425266561 0.7505996498 0.7520595368
0.2525469065 0.5003110937 0.503724509
0.2625712067 0.5020644126 0.7523292151
0.2625715748 0.7487513106 0.2491261343
0.2625399129 0.7510226852 0.7513572689
0.2826934393 0.4992059951 0.7495707654
0.2824427214 0.7519208219 0.2501533048
0.2826606729 0.5013075047 0.2501100458
0.2825863043 0.7504304357 0.7469549782
0.272691597 0.7501701062 0.9979195993
0.2725793077 0.5010048717 1.0007912587
0.2725704719 0.7501245486 0.4982904459
0.2825789411 1.0031192295 0.2493755637
0.2826441057 1.0006005419 0.74992328
0.3126695134 0.999969243 0.9994658774
0.2924633399 0.750632191 0.9950295319
0.3024865356 0.5011682285 0.7475182653
0.2925056785 0.5029872806 0.998591494
0.3026566262 0.7503263039 0.2452374289
0.2926812915 0.7485820965 0.4966484458
0.3027273132 0.4997722117 0.2455908639
0.3025973522 0.7499032685 0.7487902631
0.3025520684 1.0014335962 0.2458292484
0.3126665681 0.7505801251 0.9992173685
0.3126665681 0.501000316 0.9986651263
0.3125123084 0.750300271 0.4967156352
0.2924769619 1.0001124242 0.9977999468
0.332679825 0.7520054289 0.9946521664
0.332520411 0.4992795382 1.0008188708
0.3225494943 0.7529621397 0.2465444021
0.3325686402 0.7522462337 0.4965867787
0.3225704795 0.7496884967 0.7486365557
0.3325583317 0.5010152849 0.4999996354
0.3523341244 1.0008738878 0.4931923301
0.3425240942 1.0026246035 0.7432337863
0.3623459071 0.7528905491 0.239566822
0.3524478863 1.0001970312 0.9929862358
0.3624379474 0.7495908732 0.7425591304
0.3624747636 1.0022991917 0.2378300204
0.3524269011 0.7524284643 0.9938514152
0.3624747636 1.0022991917 0.742090645
0.3524489908 0.5018906427 0.9949006754
0.3424707108 0.7524675137 0.2466088303
0.3524364733 0.7521811513 0.4924679724
0.3423919242 0.7527538761 0.7466429614
0.3924688776 1.0002490971 0.4849142197
0.3724482575 0.7514261959 0.9907956751
0.3724077597 0.5015164191 0.989010092
0.3823076213 0.7512504735 0.2421632807
0.372529253 0.7495127743 0.489443526
0.3824070249 0.5019095166 0.2397545844
0.3825616527 0.7497080214 0.741431636
0.3825506079 1.000548476 0.2398843613
0.3826426483 1.0020779116 0.7388443813
0.3725881588 1.002364274 0.9898844755
0.3724261678 0.4998887092 0.4913487616
0.392531465 0.7498251697 0.9899673118
0.3924872856 0.7515303277 0.4887624273
0.4123937757 0.7512309488 0.9862949013
0.4124747712 0.7528124503 0.4834553799
0.4124784528 0.5008655955 0.4887200888
0.4026227706 1.000795789 0.235517046
0.4024313266 0.5007172077 0.738857267
0.4024055553 0.7532289774 0.2364273252
0.4025160038 0.5008877235 0.2369758858
0.4024423715 0.7488749671 0.73569476
0.4324328038 0.7523438572 0.9827329392
0.4225513503 0.7496819885 0.2317903316
0.4325137994 0.7517125583 0.483884288
0.4224445835 0.5012508831 0.2365193656
0.4225513503 0.7489465577 0.7369262601
0.4423878897 0.7514782618 0.2318621231
0.4423768448 0.7513155559 0.7303205232
0.4325064361 1.000437836 0.4796780433
0.4224740364 0.9998651112 0.7314084403
0.4424836116 1.0009780196 0.2304529851
0.4525012849 1.0025530129 0.9779560443
0.462530003 1.0029109659 0.2299458427
0.4726691696 1.0023447493 0.4797838898
0.4626109986 1.000574509 0.7285358605
0.4523834732 0.7524284643 0.9827881634
0.4524423791 0.7511788829 0.4804622273
0.4724482727 0.7526822855 0.9799257081
0.462415873 0.7532680268 0.2302799493
0.4723709588 0.7507623557 0.479581401
0.4623459223 0.7494151508 0.729677161
0.4723267794 0.5011513071 0.4811856645
0.482580076 0.9980428049 0.2317737644
0.4924836193 0.9989930075 0.4844991176
0.4923694892 1.0006656243 0.98444489
0.4823260446 0.4994851985 0.7293752686
0.4923915789 0.7502156639 0.4788975411
0.4822708204 0.7511528499 0.2303913181
0.4924026237 0.7480093717 0.9769804164
0.4822781836 0.7499293015 0.7304337328
0.5124637416 1.0000082924 0.4843463306
0.5123790644 0.9971186353 0.9845277263
0.5025012925 0.9995982735 0.2346316177
0.5224482803 0.747111235 0.7346675896
0.5224335539 1.0000668665 0.2374931526
0.5225403207 0.9971707012 0.7364347646
0.5023429831 0.7506842569 0.2307291062
0.5023503463 0.5000117148 0.2316992117
0.5024865661 0.749063706 0.7297784054
0.5022840773 0.5010217931 0.7296688774
0.5124490151 0.7493956261 0.9817573113
0.5124637416 0.4987647367 0.9805883987
0.5125005577 0.7496299226 0.4808147418
0.5224335539 0.4984835809 0.2353992343
0.52247037 0.7482957341 0.2321060301
0.5323960029 0.7487382942 0.4895410888
0.5324254558 0.4992684742 0.487680953
0.5323702316 0.9981859861 0.9858715156
0.5424173578 0.9996438311 0.2394637368
0.5525749324 1.0008673796 0.4871167456
0.5524055782 0.7479182564 0.9927101147
0.5424210394 0.9989084004 0.7405213568
0.5425830305 0.7488619507 0.2355842355
0.5525491611 0.7503783698 0.4934647695
0.5423805417 0.749916285 0.7403915798
0.532557994 0.7502286803 0.9904275136
0.5624527044 1.0016093186 0.2398714756
0.5624821573 1.0025530129 0.7415190743
0.562570516 0.7472348915 0.2393238355
0.5624968837 0.7509380781 0.7373266357
0.5724593328 0.999201271 0.4887256112
0.5724335615 1.0003662454 0.9893322333
0.5725403283 0.7487968683 0.9911730406
0.5724777409 0.7494411837 0.4905967918
0.6024902629 0.9998390782 0.2403013041
0.59256463 0.7481395364 0.9891297445
0.5923879125 1.000548476 0.4933432763
0.6024239938 0.9983161509 0.7383087064
0.5923695044 0.998264085 0.9934740497
0.6025970297 0.7488294095 0.2429539075
0.6025049894 0.4957995841 0.2416727056
0.5925241322 0.7515563606 0.4909106494
0.6024644916 0.7491938707 0.7456406418
0.5824328267 1.0019867963 0.2407835957
0.5824070554 0.9994030264 0.7397150832
0.5824622796 0.7486862283 0.2420289018
0.5824733244 0.7496494473 0.7412586001
0.6124490304 0.750026925 0.9937317627
0.6125815685 0.7480288964 0.4913165474
0.6124158958 0.998127412 0.9934464376
0.6225292911 1.0006070501 0.2390532368
0.6224814301 0.7491418048 0.2424771384
0.6224041162 0.7505475839 0.741192331
0.6423363775 0.9985634639 0.7433396327
0.6523282795 0.9974635719 0.9930138479
0.6325064666 0.9998911441 0.9939986798
0.6324475608 0.7507493393 0.9974409894
0.6324880585 0.4985636322 0.9922407088
0.6325580092 0.7510617346 0.4933598435
0.6524902705 0.7495257908 0.9954529175
0.6524055934 0.4999498866 0.9972016845
0.6424063282 0.7487317859 0.2459019603
0.6424431443 0.4988141993 0.2444072248
0.6525933557 0.7481460446 0.4939102449
0.6423731937 0.750163598 0.7461717147
0.6725624332 0.7470656774 0.9982141285
0.6724335767 0.5015938671 0.9963917293
0.6825285639 0.9993444522 0.2441172977
0.6724078054 0.9993054028 0.4942287046
0.682307667 0.9989864992 0.74597843
0.6824696581 0.7492264119 0.243588986
0.6724667112 0.7489790989 0.499173113
0.6825506536 0.7494151508 0.7466089065
0.6625300335 0.7507623557 0.2484763293
0.6625042622 0.7481916023 0.745634199
0.7023503768 0.9997284382 0.2414103905
0.7023945562 0.5002167243 0.7471298549
0.6923511116 0.7493565766 0.9969623795
0.6924431519 0.9976523107 0.4949512214
0.7025381391 0.9986025133 0.7442535935
0.6924173806 0.9987066451 0.9959499355
0.7025160494 0.7508860122 0.2470165691
0.7024092826 0.4997741642 0.2472181375
0.692509421 0.7489790989 0.4961100096
0.7023761481 0.7497145297 0.744526033
0.7225145798 0.4982603484 0.7446659344
0.7324696657 0.7514782618 0.9884118297
0.7224446292 0.7521290854 0.239309109
0.7224593556 0.4996947637 0.2429805992
0.7325101634 0.7509120452 0.492710959
0.7223930866 0.7510226852 0.7391637614
0.7225072166 0.9973529318 0.738775351
0.7123938214 0.7509250617 0.9909705518
0.7124195927 0.7524675137 0.4937740252
0.7426272403 0.5014083824 0.7404753366
0.7425867425 0.7522982996 0.2408857605
0.7425094286 0.5010263489 0.2395649812
0.7425977874 0.749558332 0.7411987738
0.7526449136 0.5005668674 0.489849424
0.7524387431 0.7496624638 -0.0096873945
0.7625263671 0.5009593141 0.7408361348
0.7626294523 0.7494672167 0.2420325834
0.7624490532 0.5006345531 0.2409639948
0.7525013306 0.7484844729 0.4898411404
0.7626552236 0.7512309488 0.7402857334
0.7826905702 0.7513285723 0.2444652102
0.7826832069 0.4992099001 0.241721487
0.772643444 0.7477230093 0.4924983457
0.7827126598 0.7486146377 0.7426907481
0.7726839417 0.9999952759 0.4934518839
0.772613991 0.5002408048 0.4909032862
0.7726029462 0.7501115321 -0.0081370648
0.7826169379 0.4987972779 0.7421210183
0.7726728969 0.5010842722 -0.0060603231
0.792645656 0.7514652453 0.4930782
0.8126441864 0.4984237051 0.4981671118
0.8126883658 0.7484454235 -0.0044721574
0.8027921858 0.4988682177 0.7474197821
0.8026007418 0.7470852021 0.2435816227
0.8026412396 0.4984751202 0.2483263035
0.7927487412 0.500335825 0.4968813079
0.7927671493 0.7481720776 -0.0070251362
0.8128245855 0.7462196066 0.4993719201
0.7926787905 0.4994799919 -0.0039078395
0.8026228315 0.7457054559 0.7407551393
0.8327273939 0.4986384769 0.5028943049
0.8326243087 0.7499943838 -0.0013003636
0.8227354919 0.4975769835 0.7476646094
0.8325322683 0.4982232514 -2.3087296461e-04
0.822610317 0.747853174 0.2487441668
0.8226139987 0.4967914394 0.2515578407
0.8325874926 0.751126817 0.4977602934
0.8226250435 0.7485300306 0.7484285445
0.8625558352 0.7504369439 0.7517438384
0.8624785213 0.5013647772 0.7526191423
0.8524645297 0.7510747511 0.0013219952
0.8526302023 0.4983124143 -0.0021389986
0.8625447904 0.7496884967 0.2491693933
0.8624564316 0.5002896165 0.252883222
0.8525786597 0.7512895229 0.5002104079
0.8425573048 0.7508534711 0.2497308395
0.8424284483 0.4984484364 0.2521110033
0.8425609865 0.749916285 0.7453543963
0.8525749781 0.4992099001 0.5024782824
0.8725440556 0.4964627734 0.5032523419
0.8823481952 0.7473780727 0.7530434483
0.8924873618 0.4998470564 0.506900822
0.872636096 0.7487968683 0.0039288545
0.8925241779 0.7474366469 0.004094159
0.882646406 0.4982499352 0.7566799631
0.8725992798 0.4996498569 0.0048106012
0.8924247743 0.4972691439 0.0072096333
0.8824181459 0.7502482051 0.2540760651
0.8825359576 0.4993309533 0.2544248981
0.8725366924 0.7487773436 0.5004837677
0.8925278595 0.7492589531 0.5065547502
0.8824623253 1.001401055 0.2497197946
0.8824255091 1.0009584949 0.7519076702
0.9125227083 0.7495908732 0.5070830619
0.9125190267 0.9990515816 0.0053135097
0.9124159415 0.5016192493 0.5066412681
0.9025749857 0.7496299226 0.757340813
0.9126331568 0.7512439653 0.0091968768