POSCAR file written by Ovito 3.7.11
1
271.6090381662 0.0 0.0
0.0 15.3645274175 0.0
0.0 0.0 10.8643615266
Sr Ti O 
800 800 2400 
Direct
0.0225032278 0.50259624 0.7673894855
0.0125077946 0.2470628354 0.5175515182
0.0224911516 0.2506346993 0.7668013239
0.0025119564 0.2511944301 0.7672919188
0.0124788559 0.2505904415 0.0165832849
0.022451499 -7.8292621167e-04 0.2680218985
0.00236082 -0.0019806526 0.2694826378
0.0026109222 0.500394415 0.2698793477
0.0125839703 0.5004503881 0.5191834595
0.0124549245 -0.0011990145 0.5206929821
0.0225008346 0.0023686839 0.7700357524
0.0024086829 -3.4054358477e-04 0.766450636
0.0223776061 0.2498198353 0.2685714016
0.0024687693 0.249946751 0.2674309756
0.0323620308 0.5019245629 0.0189759704
0.0423918885 0.5017859319 0.2673849536
0.0325383872 0.500572097 0.5165243064
0.0325700504 0.251637008 0.5168050408
0.0423716388 0.2524349499 0.7674520755
0.0324113664 0.2521297013 0.018145917
0.052375356 0.4993042415 0.0126187629
0.0423340848 -7.9691948293e-04 0.7677567413
0.0423922567 0.2524726992 0.2663890368
0.0523447973 0.2528228564 0.5130514838
0.0523580517 0.253465896 0.0128665455
0.0624151544 0.2483814572 0.2621071469
0.0624453449 0.4997325007 0.7580810692
0.0723861039 0.5008376437 0.0074008769
0.0624026364 0.4980350844 0.2590614088
0.0724100354 0.5005668902 0.5054081447
0.0723853675 0.251012843 0.507140414
0.0623264239 0.25280268 0.7633054903
0.0723643815 0.2523483869 0.0053071506
0.0925154046 0.2518739173 0.4992237039
0.1023052114 0.2528169987 0.7518690152
0.0823769349 0.2501354975 0.7530471793
0.0924174697 0.2508195406 0.0028075099
0.1024278141 8.6587165315e-04 0.2505832299
0.0924031108 0.0012818949 0.5028649672
0.1023306155 0.2520327247 0.2494023046
0.082239237 0.2525019874 0.2539897808
0.1025857617 0.5006918534 0.7529201585
0.0825308326 0.5013596253 0.7576162467
0.1024348094 0.5030518348 0.2524388383
0.0824719244 0.4987028563 0.2513803315
0.1224142624 0.2496512652 0.2496738345
0.1124260086 0.5019818377 0.0036173136
0.1123821956 0.2508293034 0.5008795767
0.1223056504 0.5018601288 0.2494998713
0.1124127542 0.5028292442 0.5036142058
0.1222905551 0.2529016092 0.746498244
0.1123560551 0.2509171681 4.9713207348e-05
0.1224061625 0.0016908889 0.2495238027
0.1523948553 0.2492529451 0.4902438849
0.1322235825 0.2514879634 0.4982590821
0.1423933471 0.2504661292 0.7454250102
0.152417314 0.2513721121 -0.009778614
0.1323656985 0.2486743396 -0.0060548241
0.1425218406 0.0032171968 0.2473626081
0.1424043924 0.2519357481 0.2446150927
0.1423539523 0.4998066976 0.7438528976
0.1523812327 0.5031364453 -0.0069137333
0.1324216613 0.5004373711 -0.001014353
0.1524246775 0.4990634271 0.491561956
0.1322964814 0.4986735681 0.4985462596
0.1824030614 0.2526699067 0.2412140645
0.1723949261 0.5017735658 0.4904565067
0.1825514364 0.5030700586 0.7384287409
0.1723441178 0.250921724 0.492794426
0.1623624912 0.2523542445 0.741171654
0.1724630387 0.2490765648 -0.0079345415
0.182483692 0.5023528221 0.2416116949
0.1625064481 0.0016973323 0.7409562709
0.1625119707 0.2520242637 0.2407299127
0.1825061507 0.2510915959 0.7377190811
0.1824310428 0.0027067353 0.2378636605
0.1925275404 -7.6168385352e-05 -0.0149692366
0.2024682994 0.2520164535 0.236375308
0.2026071018 0.4982758988 0.7387435316
0.1925625171 0.5002245432 -0.0086265794
0.202530153 0.5012021196 0.2399015162
0.1925360084 0.5004529915 0.4907344798
0.1925529445 0.2508735612 0.4893363305
0.2026516512 0.2490941377 0.737681343
0.1923986787 0.2504589698 -0.0117514313
0.2024833946 1.7187048343e-04 0.235995166
0.212518775 0.2485090237 0.4868520611
0.2226450948 0.2499395917 0.740288031
0.2126119235 0.2489424897 -0.0110910519
0.222574405 -0.0010618804 0.7361975927
0.2225677778 0.2485148814 0.2436762433
0.2326123625 0.2481185138 0.4928597773
0.232609049 0.2477240988 0.9917266446
0.2324835009 0.0016584115 0.49083941
0.2226086454 0.4980969151 0.741171654
0.2125618516 0.4990282812 -0.0052969885
0.2127245855 0.4978704194 0.4922127075
0.24259583 0.496099457 0.7472391988
0.262456362 0.2489555067 0.7487330739
0.2624523121 -0.0018048255 0.2491933645
0.2625410426 -3.367035708e-04 0.7452620922
0.2524441768 0.2504921632 0.4959837528
0.2425177767 0.2500385208 0.7451636051
0.2525019805 0.2496291363 0.9973045149
0.2624515758 0.2490212426 0.2480520181
0.2425188812 5.1421749203e-04 0.2403451685
0.2625211611 0.4993667231 0.2471610316
0.2524732627 0.0014536541 0.4941778483
0.2425387627 6.6658143636e-04 0.7440194974
0.2525111849 3.7005425552e-04 0.9951690926
0.242480959 0.2502272673 0.2449252812
0.2723746623 0.2497540995 0.5004653784
0.2724239979 0.2499532595 0.9986207451
0.2726437992 -5.3592870261e-04 0.4979774273
0.2724217889 0.001374706 0.9977555308
0.2825160774 0.248395125 0.7558701708
0.2725819456 0.498738653 0.5020117187
0.2824037837 0.2470856152 0.251101438
0.3124532255 0.0010098396 0.5016647125
0.2924770862 0.4984718046 0.5027913319
0.2925934299 0.249413705 0.5046598264
0.3023836048 0.2475275422 0.7515560654
0.2924785589 0.2489529033 1.0019343314
0.2925069084 -9.8905035164e-04 0.4982995815
0.3024719671 -6.6414611838e-04 0.7537991793
0.3125275971 0.5001933024 0.5034448448
0.302628442 0.2490850258 0.2582366939
0.3125206018 0.2513057254 0.5043698876
0.3124749479 0.2483313417 1.0058922262
0.3225927997 -2.2143806657e-04 0.2527214135
0.3326480616 -8.2223754117e-04 0.5003816183
0.3226263038 -0.0026889464 0.7535957619
0.3325339269 -7.1055171099e-04 1.0000106104
0.3224959694 0.248564346 0.2525152348
0.3226373491 0.4968251545 0.7489539797
0.3225736546 0.5006710262 0.2503825738
0.332651007 0.2503567864 0.4991592731
0.3225442005 0.2481282766 0.7491721241
0.3327091788 0.2494638204 0.999909362
0.3625760053 0.2481946633 0.2469097513
0.3525932742 0.49878226 0.4952437186
0.3526043194 0.2486060004 0.4991491482
0.3426186429 0.2514690887 0.7487385966
0.3625502329 0.4985661778 0.7443204815
0.3526319327 0.2481406427 0.9992558491
0.3625281424 0.5002980892 0.2451056876
0.3425479531 -0.0017285459 0.2473902213
0.3425670982 0.2487101363 0.2465424955
0.3627674569 0.2493700981 0.7468259209
0.3424669543 0.501538609 0.7496461511
0.3425634165 0.5002284483 0.2449547353
0.3825495674 0.2472060224 0.2435961649
0.3926339152 0.2487849841 0.4904546659
0.3925639617 0.2501127177 0.9904564365
0.3925529164 -8.4638406973e-04 0.9882013569
0.3826121574 0.4998503045 0.7436918205
0.3926302334 0.4985310319 0.9955648821
0.3725499002 0.2488956285 0.4933862693
0.3827042014 0.2492744231 0.7448736663
0.372583036 0.2499545612 0.9952519323
0.392637597 0.4995489611 0.4906838556
0.3726198537 -0.002368839 0.4925486683
0.4125890685 0.4980305284 0.9829456408
0.4025525836 0.2486775938 0.7396161093
0.402438449 -1.4626491164e-04 0.7393685108
0.4026004466 0.248663926 0.2381131
0.4125154333 0.2511592842 0.4838403793
0.4125301603 0.2504394443 0.9868759223
0.4126111591 -0.0010866127 0.4868456181
0.4126553402 1.9647260686e-04 0.9887996433
0.4425475708 0.0019809727 0.7396299159
0.442374528 0.2514795023 0.2363927964
0.4227028704 0.5012867301 0.7364231007
0.4324632231 0.5017234503 0.9891862284
0.4325442218 0.4999108336 0.4867673806
0.442514435 0.4996882429 0.7397836295
0.4425659796 0.5018646848 0.2378351269
0.4324043149 0.2514632311 0.4854999338
0.42243042 0.2500586972 0.7349724862
0.4324816319 0.2514150682 0.9865537681
0.4227286427 2.8290546379e-04 0.2352937903
0.432371179 2.068211191e-04 0.9853940129
0.422445147 0.2516610894 0.235328767
0.442437118 0.2494931087 0.7398020383
0.4724324379 0.2487648077 0.4905154149
0.4624548612 0.2544525844 0.7432205549
0.472321985 0.2495725124 0.9891586152
0.4723183033 6.9905884269e-04 0.9938436581
0.4624659065 0.2520112467 0.2426775652
0.4525509198 0.49990042 0.9902631439
0.4525546016 0.5014579036 0.4891292313
0.462613177 0.4984503266 0.7401923051
0.4725539361 0.4994096792 0.9947364855
0.4626352676 0.4994005673 0.2407612077
0.4524625575 0.2502435385 0.4857502937
0.4525214657 0.2499246221 0.9891494108
0.4524146946 -0.0013845718 0.4868713904
0.4824173781 0.250688069 0.7421786161
0.4824136963 0.0012576832 0.740783228
0.49246859 0.4997578839 0.9925274279
0.4923839095 0.4990972713 0.4941235423
0.4823952875 0.2519279379 0.2452851735
0.4924317724 0.2502070909 0.4915720808
0.492391273 0.2495679564 0.988385445
0.4824762863 0.501941485 0.2395572713
0.5025198019 0.2478113127 0.7435270616
0.5124237433 0.2493993863 0.4929812754
0.512537878 0.2493043622 0.9936319567
0.5024645755 -0.001174868 0.7427667776
0.5025271654 0.2484634643 0.2402420792
0.5224086835 0.2474084367 0.239531499
0.5224050017 0.2490863275 0.744002009
0.5125194691 0.5012112315 0.4914505826
0.5223645024 0.4993445942 0.7454471008
0.5424558809 0.5015015105 0.7432398841
0.5524297758 0.4983813365 0.9941750167
0.5424190633 0.49921117 0.2449869508
0.5526138639 0.4988655688 0.4961466708
0.5324525319 -0.0021963442 0.4931994199
0.5324783042 0.2479167504 0.4963206341
0.5324598954 0.2479714218 0.9974057634
0.5324341231 0.5002701027 0.9921868649
0.5523377317 -8.7313399759e-04 0.9930520791
0.5424632444 0.2491338396 0.2466455848
0.5525255016 0.2513343628 0.4978669744
0.5424411538 0.2491715889 0.7451019356
0.5525255016 0.2483664876 0.9937608184
0.5724291103 0.2478425535 0.495865016
0.5723517932 0.252091952 0.9955924953
0.5624110342 0.5000585765 0.743916408
0.5624036707 0.499427903 0.2443058247
0.5724585644 0.4988401856 0.9952243191
0.5723628385 0.4999101827 0.493003366
0.5623447625 0.2506854656 0.2426407475
0.5624441701 0.2490908835 0.7455906896
0.6024612478 0.5006469447 0.7526753213
0.5923106283 0.4979654434 1.0014464979
0.5923143101 0.4992359023 0.4988987884
0.5823661875 0.2490856767 0.7450706406
0.6025017472 0.2485942851 0.2508676461
0.5924873529 0.2499773409 0.5007092952
0.6024502025 0.2500515378 0.7512863763
0.5923842636 0.2499265747 0.9976358736
0.5822925523 0.5020527804 0.7467845011
0.5823882781 0.4988232635 0.2515957146
0.5824398228 0.2499558629 0.2457941772
0.6123578257 0.5019187053 1.0006181013
0.6123762345 0.499597124 0.5018156648
0.622449537 0.5025819213 0.7523227925
0.6124903692 2.8615971292e-04 0.5042355033
0.6225047635 0.5031065062 0.2533049729
0.6124572333 0.2500957956 0.5017650406
0.6124204157 0.2501921214 1.0009678687
0.6224642641 0.001398397 0.7540329712
0.6225305358 0.2508253983 0.2517798028
0.6224237647 0.2499519578 0.7532818916
0.6424856891 0.0011802321 0.2507535114
0.652459584 4.5401388311e-04 0.4981283796
0.6325117942 0.5012489808 0.5043533197
0.6425409156 0.2482031243 0.2516803952
0.6525626734 0.2502747793 0.5001266562
0.6424488715 0.2494670747 0.7507203053
0.6324676131 3.4480128226e-04 0.5016683943
0.6524411752 0.2518361681 0.9970007695
0.6425519608 0.5039408957 0.7512909785
0.6524190846 0.4961241893 0.498051983
0.6325044307 0.2528768769 0.5020973197
0.6324013413 0.2507062928 1.0009770731
0.6825653568 0.4991350206 0.743784785
0.6625697041 0.0017300701 0.2480961993
0.6826500374 0.4966962863 0.2443895848
0.6626102035 -0.001063833 0.7461088976
0.6726025072 0.498344238 0.4939900784
0.6625439318 0.2503977899 0.2471831221
0.662462933 0.2521889287 0.7479911988
0.6725951437 8.4784311297e-04 0.9939817242
0.6625218412 0.4998932606 0.7472861412
0.6624518877 0.4994350624 0.2454306031
0.6824843581 0.2493310471 0.2449160768
0.6725546443 0.2491357921 0.4975917627
0.6825948109 0.2493512234 0.7425955757
0.6726319613 0.2493343013 0.9966417977
0.7025941454 0.251927287 0.2457453938
0.6926018417 0.2503938848 0.4964633024
0.7025278737 0.2501068601 0.7478917912
0.6925392517 0.2511599351 0.9953623851
0.692550297 0.4992658414 0.9956937438
0.6925871147 0.5013980254 0.4979636207
0.7324495584 0.5015926295 0.9879988599
0.732563693 0.4992905737 0.4861672533
0.712542268 0.250328149 0.4935961298
0.7125312227 0.2512497524 0.995132275
0.7225529805 0.0022928599 0.239725712
0.7325857836 -0.00131428 0.484558323
0.7326373283 0.0016981784 0.9856241231
0.7125091321 0.5014858902 0.992370953
0.7225051176 0.2518641546 0.2384104023
0.7324274678 0.2505227531 0.4891540832
0.722560344 0.2518576461 0.7378184887
0.7324053772 0.2511696978 0.9855044658
0.7126306303 0.502353473 0.4935059266
0.7126527208 0.0012921132 0.4929499805
0.7126379938 0.0012631504 0.9944787621
0.7525225281 0.4981203457 -0.0178711098
0.742489725 -3.512826069e-04 0.2341239102
0.7425817691 -9.8449440286e-04 0.732858234
0.7425596785 0.2516005604 0.2381453154
0.742552315 0.2481386902 0.7358791202
0.7624448783 6.0025983906e-04 0.2310836947
0.7525114828 0.0017562342 0.4827008738
0.7623822884 -0.0018297986 0.7300352426
0.7524488929 -8.8335233986e-04 -0.0203642153
0.7624559236 0.2489210117 0.2295023777
0.7523494853 0.2500124868 0.4838937649
0.7624743324 0.2479772794 0.730664824
0.7522795318 0.2510291143 -0.0150450717
0.7824957575 -1.1639090461e-04 0.2272288893
0.7825252116 -0.0012491299 0.7266406574
0.7725034538 -6.5548981569e-04 -0.024486777
0.7825841198 0.2491084564 0.2254855747
0.7724445456 0.2504426986 0.4758224208
0.7825730745 0.2503047184 0.7254109487
0.7724187732 0.2500183445 -0.0232114144
0.7925653782 -0.0037167555 0.4797306118
0.7925653782 -0.0011813114 -0.0208665919
0.8125168498 0.4984281977 -0.0162195815
0.7924586071 0.2505487871 0.4821964723
0.7925101518 0.2496799026 -0.0179978545
0.8024877284 -0.0025554116 0.2353066764
0.8124763504 -0.0024519199 0.4872957135
0.8025576819 -0.0011615906 0.7314987432
0.812513168 -8.5120035844e-04 -0.0135439158
0.8024545926 0.2479928998 0.2353526985
0.8124873957 0.2498699507 0.4895710428
0.8024950919 0.2494931087 0.7311498962
0.8123990334 0.2482135379 -0.0114574701
0.8324535943 -3.2869811793e-04 0.4896999045
0.8225275623 -0.0029401354 0.7376509685
0.8325125025 -0.0010939023 -0.0111198157
0.8224907447 0.247935625 0.2413392444
0.8324241402 0.2489529033 0.4894587491
0.8225017899 0.2495406207 0.7393712721
0.832659773 0.248282528 -0.0087103276
0.8226011975 -4.6244775723e-04 0.2360503925
0.8426668037 -0.0011347756 0.7398931619
0.8426299861 0.2502585081 0.2430153669
0.8425563509 0.2478685875 0.7466998205
0.8624894136 -2.1180548914e-04 0.2468397978
0.8425673961 0.5000338442 0.741954949
0.852526564 4.514104838e-04 0.4923820686
0.8626587747 0.0030714065 0.745125867
0.8525376093 -3.7243522626e-04 -0.008037768
0.862467323 0.2478757469 0.2452750487
0.842523215 2.7796985716e-06 0.2409949996
0.8526112445 0.2491475074 0.4991712388
0.8625998665 0.2497189536 0.7488030274
0.852589154 0.2501621823 -0.0054614344
0.8724817173 -0.0028007755 0.4970128055
0.8924957788 -6.7039427671e-04 0.5028658876
0.8725663979 -0.0011053572 -0.0022347653
0.8824519304 0.2500860329 0.2490939569
0.8925583688 -0.0017851048 9.2999503307e-04
0.8724890808 0.2506405569 0.5016085657
0.8923448266 0.2516357063 0.5050988766
0.8825439745 0.2490231951 0.7500088047
0.8725258985 0.2515387297 -7.1029463847e-04
0.8924110983 0.2497365265 0.0033979726
0.9025506725 -0.0014255753 0.2559125813
0.9125356127 -0.0012745131 0.5074653295
0.902558036 -0.0012917606 0.7569553703
0.9024586284 0.2475997865 0.2594792888
0.9124398869 0.2493069656 0.5095114691
0.9024733555 0.2471572087 0.756664511
0.9024439014 0.500065085 0.7555139602
0.912329434 0.2508585916 0.0098197029
0.9225720976 0.0021576784 0.2645941775
0.9224763717 9.1728878943e-04 0.7617729567
0.9224395541 0.2501107652 0.2598051248
0.9224947805 0.2508598933 0.7631112774
0.9425162056 -2.1167531918e-04 0.267208229
0.9325423107 4.3839348728e-04 0.5160373933
0.9424720244 0.0018929778 0.7658744402
0.932476039 0.0018767065 0.0145710175
0.9426782031 0.2507199606 0.2650728066
0.9325165384 0.248729011 0.5148757972
0.9425051603 0.2527408493 0.7667138821
0.9325349472 0.250362644 0.0152619003
0.9525784628 0.0018918713 0.5164387054
0.952497464 6.7927300797e-04 0.0194416213
0.9624014054 0.2493277928 0.2660116561
0.9525379634 0.2505949974 0.5153120861
0.9724931167 0.2515686688 0.5153424606
0.9624750407 0.2516623911 0.7666963937
0.9525379634 0.2506594316 0.0173871057
0.9726367055 0.2503229422 0.0159314288
0.9624824042 0.0022032379 0.2638320526
0.9827320985 0.4991955496 0.7648499897
0.9825774645 0.4981646035 0.2655054138
0.9823896946 0.0011569317 0.265756694
0.9924814059 2.4828025303e-04 0.5204812808
0.9823933764 0.2511345519 0.2697909854
0.9925771317 -3.5160803182e-04 0.020289163
0.9924814059 0.246514169 0.5140998657
0.9823712858 0.2495614479 0.7692487756
0.9924666789 0.2473824027 0.0145888741
0.012298155 0.7520871547 0.016635658
0.0024558095 0.4997292465 0.7680549641
0.0125300692 0.4999082302 0.0189277393
0.0224154178 0.7509091165 0.2706884151
0.0023709081 0.7502973177 0.269781781
0.0124258385 0.7490411775 0.519725599
0.022500356 0.7521717652 0.7701379213
0.0225168135 0.4983605093 0.2673729878
0.002443586 0.7504339961 0.7714974121
0.0124379147 1.0018637925 0.0189496458
0.0524180644 1.0007703648 0.5155155035
0.0523186568 1.0003798549 0.0119767556
0.0324139436 0.7497701293 0.0160847742
0.0424791463 0.4993328789 0.7660253925
0.0424946097 0.7515534578 0.2664553085
0.0325159285 0.748982601 0.5172026712
0.0424084564 0.7510783375 0.7644403937
0.0524081236 0.750928642 0.0146397744
0.0523569471 0.7485270062 0.5158330555
0.0523079797 0.4992437125 0.5152191216
0.042436806 1.0029051522 0.2675920527
0.0323244768 0.9995662926 0.5192570947
0.0324953106 0.9997875816 0.0177451571
0.0724011991 1.000223651 0.5056456184
0.0623385737 1.0018507755 0.7668050057
0.0723430273 0.9994621567 0.0080922199
0.0725006067 0.750785455 0.0099798596
0.0624409267 0.7500239608 0.263740929
0.0724207125 0.7530569209 0.5086849134
0.062456022 0.7503949452 0.7620260778
0.0623216376 1.0005100249 0.2632816291
0.0824763425 1.0004644654 0.2547436217
0.1024672089 0.9996704286 0.7490257741
0.082360367 1.0006727373 0.7541894461
0.0924513419 1.000171583 0.0017765243
0.0924686462 0.7504339961 0.0054097797
0.0924288832 0.5031123639 0.0036419814
0.1024915085 0.7494381959 0.2536225249
0.0824417339 0.7512866094 0.2564777318
0.0925879353 0.7520871547 0.5033592438
0.1023884192 0.7512540669 0.7527738084
0.0824914377 0.7478305968 0.7559990324
0.0923729204 0.5008773456 0.5047730406
0.112466508 1.0023389129 -7.8416920514e-04
0.1124116497 0.7525492581 0.0018160112
0.1222765644 0.5014598562 0.7519251621
0.1224138942 0.7520090527 0.2519869019
0.1124768169 0.7521001717 0.4989402082
0.1224499755 0.7504014537 0.7500944057
0.1125526612 1.0017856905 0.4992706464
0.1223568269 0.9996769371 0.7459763542
0.1525682663 0.9990586298 0.4924391359
0.132398098 1.0003212784 0.4977841348
0.1424309011 0.9990651383 0.7453467728
0.1524438227 1.0015448761 -0.0089231077
0.1324529563 0.9994556482 -9.6125278206e-04
0.1524324092 0.7522108162 -0.007178857
0.1324161387 0.7498482313 -0.0014898895
0.1425494539 0.7512280329 0.2482977758
0.1524872675 0.7504470131 0.4958834248
0.1324194522 0.75098071 0.5001349402
0.1423186074 0.5023645374 0.2441263387
0.142478764 0.7509872185 0.7477969858
0.1725031699 0.7499263333 -0.0105950633
0.1624125631 0.5042109984 0.737952873
0.1724935973 0.5021621231 -0.0093436137
0.1625546792 0.7493861279 0.2408873081
0.1826206535 1.0004709739 0.7376988314
0.1725234196 0.7510002355 0.4935629939
0.1623923134 0.5047303765 0.2380937707
0.1626231599 0.7504405046 0.7411652109
0.1826239671 0.7501866732 0.2397349164
0.1825654271 0.7495423319 0.7416797372
0.1624607942 1.0015058251 0.2359132468
0.1724188575 1.0028726097 0.4887362032
0.1723978715 1.0022543024 -0.0103706506
0.1924631095 0.9996118521 0.4841698971
0.2025242622 1.0005555844 0.7379593161
0.1926471976 0.7514493219 -0.0134296891
0.2025378847 0.7495162979 0.2368613007
0.1926398341 0.7504925726 0.4851740978
0.2025625525 0.7496659933 0.7362012745
0.2326226715 0.7494121619 0.9930520791
0.2325413045 0.4977630291 0.9929232174
0.2325365182 0.7493405684 0.4922219119
0.2325460908 0.4983338244 0.4947844187
0.2224948789 0.9989479853 0.237461428
0.2126730408 0.9973599117 0.4841468861
0.212679668 0.9993710377 -0.0145539982
0.2126413776 0.7497961633 -0.0120194728
0.2325376228 0.999911243 0.9886063508
0.2225710914 0.7466069992 0.2378240816
0.2125375519 0.7487613121 0.485598421
0.2225604143 0.4969104159 0.2418252371
0.2226237406 0.749229924 0.741908927
0.2525767203 0.7507138616 0.9964024831
0.2524334997 0.4997272939 0.9989981257
0.2424268371 0.7497961633 0.2445635481
0.2524666356 0.7499198248 0.498223185
0.2426127661 0.4998079993 0.2459101527
0.2425439172 0.7497050443 0.7419623125
0.2524809944 0.5000357967 0.4991850454
0.2624714573 0.4995502628 0.7449160066
0.2623676316 0.7502843007 0.2494069068
0.2623823586 0.7499914183 0.743598856
0.2826883839 0.4996596055 0.7504174803
0.2825484769 0.7504730471 0.2526238468
0.2825547359 0.4995138152 0.2517945298
0.2825425861 0.749177856 0.7502186652
0.2725123603 0.7515013899 0.9971848576
0.2725333463 0.4995789002 1.0035266937
0.272568323 0.7499458588 0.4964504163
0.2825458997 1.0004839909 0.2492182164
0.2825595222 0.9978415406 0.7495927655
0.3126343682 0.9997224966 1.0046220181
0.2925868027 0.7493926364 1.0027351148
0.3025710065 0.5001184547 0.7512007753
0.2925960071 0.4990432508 1.0057817733
0.3025124665 0.7478891733 0.2560524883
0.29258533 0.7499653843 0.5017254616
0.30251983 0.4999010708 0.2513048554
0.3024484038 0.7501085712 0.753213779
0.3025566476 0.9995988351 0.2557910831
0.3126325274 0.7470821195 1.0061039276
0.3126373137 0.498678124 1.0022104636
0.3126336319 0.7511043715 0.5024342009
0.2926155204 0.9993710377 1.0016213816
0.3326053531 0.7501020627 0.9997160694
0.3324886413 0.5005903208 0.996512936
0.3225357324 0.7496790103 0.2493203853
0.332588417 0.7503103347 0.4983336378
0.3225291052 0.7460863193 0.7488278793
0.3325052092 0.4986768223 0.4982820932
0.352511539 1.0010957897 0.4944512192
0.3426628241 0.999976328 0.7490552282
0.3626790946 0.749177856 0.2412913815
0.3526610186 0.9979977446 0.9909718832
0.362704867 0.7477394779 0.7456035757
0.3624986883 0.9988633748 0.2473359153
0.3525932742 0.7484163617 0.9954912468
0.3626643676 0.9963120435 0.7456937789
0.3527298675 0.5004015743 0.9936779788
0.3425715163 0.7504665386 0.2452667647
0.3525295797 0.7503363687 0.4942965851
0.3426477288 0.7507138616 0.7468903518
0.3924903264 0.9992994442 0.4866164283
0.3726088084 0.7500109438 0.9923341354
0.3727155795 0.5001093428 0.9960987377
0.3825827033 0.7470300516 0.2419945982
0.3725204461 0.7493080259 0.4926278262
0.3825937486 0.4986963478 0.2404261673
0.3826563385 0.7514297964 0.7409894067
0.382634248 0.99801727 0.2427475186
0.3826011121 0.9997224966 0.741528785
0.3726898072 0.9990195788 0.9933926422
0.3726345807 0.4971531829 0.4966740833
0.3926191881 0.747062594 0.9897753104
0.3925934158 0.749047686 0.4911008152
0.4126774308 0.7517682383 0.987253303
0.4125522509 0.7493991449 0.4874991309
0.412644295 0.4986188967 0.4878930795
0.402515766 0.9972167248 0.2397478026
0.4026372642 0.5000937224 0.7385060579
0.4025967648 0.7503884367 0.2355662407
0.4026483095 0.5006918534 0.2385144121
0.4026483095 0.7485855826 0.7326861116
0.4326546747 0.7507398956 0.9858174156
0.4226181898 0.7511954904 0.2384288111
0.43272831 0.750863557 0.4843769962
0.4225408728 0.5015418632 0.2335440326
0.4227433698 0.7502973177 0.7395249857
0.4424665721 0.7498156888 0.2385558319
0.4425549344 0.7481625302 0.73727819
0.4325147677 0.9987722558 0.4861368788
0.4226586892 0.9997615476 0.7344772891
0.4425365255 1.0005751099 0.2339002431
0.4524183764 0.9990846638 0.9866274034
0.4624953606 1.0019939625 0.240523734
0.4723367121 1.0013951806 0.4947107834
0.4624254071 1.0004774824 0.7391255144
0.4525766922 0.7485920911 0.9865353593
0.4525730104 0.7507008446 0.486413011
0.4725539361 0.7505836916 0.9894531562
0.4624732701 0.7503103347 0.2403718613
0.4725870719 0.7493926364 0.4890933341
0.4624548612 0.7501606392 0.740357064
0.4725833902 0.4984835199 0.4912683354
0.4824836498 1.0003538209 0.2411367475
0.4925090894 0.9993384952 0.4995992437
0.4925716794 0.99814744 0.996807477
0.4824873316 0.5010765056 0.7402208388
0.4925348617 0.7499849098 0.4906939804
0.4823842422 0.7511304055 0.2413042677
0.4924354541 0.7479607668 0.9926010632
0.4823547881 0.751071829 0.7412609367
0.5124311068 0.9987982898 0.4911514394
0.5123316993 0.9978220151 0.9929048086
0.502409349 1.002013488 0.2462433522
0.5224675917 0.7486962271 0.742481441
0.5224418194 0.9945352235 0.2469576142
0.5224197288 0.9993515122 0.7443085157
0.5025234837 0.7473554765 0.2444218002
0.5024535302 0.5016837485 0.2424023534
0.5025971189 0.7493861279 0.7438179209
0.5023909402 0.497811192 0.7404316197
0.512397971 0.7500239608 0.9914781256
0.5125194691 0.4991909937 0.9901342822
0.5126004679 0.7497701293 0.4918887124
0.5224749552 0.4978268124 0.2458853008
0.5224344558 0.7474270699 0.244068351
0.5323604878 0.750889591 0.4936982987
0.5323825784 0.4981040745 0.4928100735
0.5324009872 0.9988308323 0.9906681378
0.542422745 0.9986746284 0.2449860303
0.552348777 1.000067447 0.4951829695
0.5524408211 0.7496464679 0.9923893618
0.5424411538 0.9996248691 0.7471710862
0.5425258344 0.7525362411 0.2447586815
0.5524297758 0.7540331957 0.4946141372
0.5424301086 0.7485009722 0.7438234435
0.5323531243 0.7503363687 0.9904380277
0.5623300354 1.0004579569 0.2436072102
0.5624036707 0.9994556482 0.7437148315
0.5624883512 0.7499588758 0.2412333938
0.5624846695 0.7505706746 0.7459910812
0.5722892033 0.9995467671 0.4925302595
0.5722965668 1.0016359951 0.9934386642
0.5723922926 0.7506487766 0.9927943557
0.5723738838 0.7497701293 0.4932031016
0.6024207484 0.9988113068 0.2517972911
0.5923769001 0.7509742015 0.9950494353
0.5922959013 1.0018898265 0.5026560271
0.6024649296 1.0012389767 0.7488831058
0.5923769001 0.9988373408 0.9982433644
0.6024833384 0.7521066802 0.2490184808
0.6024538843 0.5010517733 0.2516408162
0.592299583 0.7511694564 0.4976856476
0.6023912943 0.7506292511 0.7509329271
0.5823551422 1.0023128789 0.2482425493
0.5824030052 1.0005555844 0.7501800066
0.5823882781 0.7494707384 0.2470938394
0.5824287775 0.7491322965 0.7479175635
0.612368871 0.7499002993 1.0001118589
0.6124277792 0.7502517582 0.4995053588
0.6124498698 1.0006597203 1.0048429239
0.6224716276 1.0012519937 0.2550519693
0.6223611747 0.7494447044 0.2524682924
0.6224200829 0.7502192157 0.7535386946
0.6425225067 1.0013235872 0.752586959
0.6525295375 1.0008289413 1.0000658369
0.6324786584 1.0012194512 1.0059198394
0.6325707024 0.7482601577 1.0026522751
0.6325228395 0.5007087755 1.001925127
0.6325228395 0.7515209154 0.5013443992
0.6526547174 0.7512866094 0.9985379054
0.6525295375 0.4985433981 0.9998081135
0.6425887785 0.7507789465 0.2516942018
0.6425298703 0.5015503243 0.2498827746
0.6526473539 0.7517682383 0.496880262
0.6425630061 0.7515729833 0.7528308757
0.672528872 0.7485139892 0.9942854696
0.6725693714 0.4984171332 0.9941197903
0.6825690386 0.9989610023 0.2436826863
0.6725178267 0.9995597841 0.4958898679
0.6825543116 0.9985249329 0.7463003493
0.6825506298 0.7499653843 0.2435372567
0.6725583261 0.7502712837 0.4948856671
0.6827273544 0.7494316874 0.7463012697
0.66260284 0.7514363049 0.2466087672
0.6625586588 0.7504665386 0.7461926577
0.7025794184 1.0035104426 0.242393149
0.7026015089 0.5000670375 0.7459892404
0.6925576605 0.7508049805 0.9939449065
0.6924840253 1.0024039979 0.4964255644
0.7025315554 1.0007443308 0.7465516296
0.6926055235 1.0010372132 0.9956385173
0.7025831001 0.7530699379 0.2479406448
0.7025757366 0.5029678752 0.2449768259
0.6925650241 0.7506552851 0.4944641053
0.7026383266 0.748982601 0.7449362563
0.7225235264 0.5000637833 0.7400045352
0.7325121483 0.7494577214 0.9851362895
0.7226045252 0.75275753 0.2376068576
0.7226118887 0.4982069087 0.239236958
0.73264101 0.7517422043 0.4843926437
0.7225971616 0.7525102071 0.7396584496
0.7225272082 1.0023258959 0.7360705719
0.7125164956 0.7523995626 0.9922052737
0.7125533133 0.7504079621 0.4932067834
0.7424455439 0.4979921283 0.7370683296
0.7425559967 0.749216907 0.2354539469
0.7423682268 0.4991272104 0.2364710338
0.742552315 0.750993727 0.7359518351
0.7524562564 0.5002824688 0.482728487
0.752493074 0.7462164893 -0.0168530012
0.7624890595 0.5002141296 0.7331481728
0.762559013 0.7502712837 0.2299202577
0.7624559236 0.5004282592 0.2325895356
0.7525151646 0.7475312059 0.4829282226
0.7625148318 0.7496009084 0.7315613332
0.7824663034 0.7500760287 0.2280379566
0.7826025286 0.4973464853 0.2281962724
0.7726175884 0.7486767016 0.4778648786
0.7824957575 0.7491453135 0.7295050687
0.7725881343 1.0004774824 0.4746893584
0.7724482273 0.4997923789 0.4757423425
0.7726286337 0.7492364325 -0.0189287882
0.7824736669 0.4979446162 0.7265661017
0.7724813632 0.4996771785 -0.0220403378
0.7926169229 0.7500760287 0.4806317232
0.8125536674 0.5002050177 0.4854419461
0.8125021227 0.7481950727 -0.0162075146
0.8024656378 0.4999036742 0.7354179795
0.8026165901 0.749008635 0.2328748722
0.8024730014 0.4993511027 0.230908811
0.7925727417 0.5009482882 0.4827616229
0.79244388 0.7476809014 -0.0193875358
0.8125058045 0.7496920273 0.486047596
0.7926353317 0.4984067196 -0.0182142501
0.8025981813 0.7494902639 0.7328278595
0.8325493201 0.4969956772 0.4885594786
0.8326450459 0.748995618 -0.0132906934
0.8224870629 0.497512452 0.7367857543
0.8325014572 0.4985616219 -0.0122109244
0.8226858781 0.7501996902 0.2359758368
0.8225422893 0.4990777458 0.2382557683
0.8324204584 0.7501671477 0.4894946463
0.8225975158 0.7486897186 0.7347635462
0.8625704124 0.7479607668 0.7459045598
0.862467323 0.4991252578 0.744793588
0.8525449728 0.7516706108 -0.0075670013
0.8524676558 0.5000292882 -0.0078983507
0.86254464 0.7504470131 0.2452888553
0.8624341872 0.4975632183 0.2476092862
0.852603881 0.7511043715 0.4907372411
0.8425600326 0.7499133163 0.242121619
0.8425931685 0.500143187 0.243239034
0.8425011244 0.7502061987 0.7389239379
0.8525560181 0.5000514171 0.4919614272
0.8724853991 0.5003130588 0.5012477529
0.8824703393 0.7495683659 0.7509356884
0.8925031424 0.5004438796 0.5032432683
0.8725406255 0.750811489 -0.0035129628
0.8925915047 0.7485009722 0.0034100303
0.8825329292 0.4994266013 0.7475871253
0.8725443073 0.5012515842 -8.0849645156e-04
0.8923890077 0.4986091339 0.0055090952
0.8825292475 0.749190873 0.249814662
0.8824187946 0.4981633018 0.2504120279
0.8724596267 0.7505251151 0.5003089035
0.8924442342 0.7490411775 0.5036206489
0.8824887481 0.9988829003 0.250069624
0.8825697468 0.9990846638 0.7498790226
0.9126423838 0.7502452497 0.5081676257
0.9125172039 0.9989610023 0.0087886253
0.9125761121 0.4977832055 0.5109915377
0.9026611254 0.7482211067 0.753276369
0.9124582957 0.7477069354 0.0071481239
0.9124214781 0.4991369731 0.009918098