POSCAR file written by Ovito 3.7.11
1
271.6195014551 0.0 0.0
0.0 15.3651193105 0.0
0.0 0.0 10.8647800582
Sr Ti O 
800 800 2400 
Direct
0.0222642397 0.5002349477 0.7673865484
0.0124141002 0.2492274598 0.516580735
0.022451082 0.2513517518 0.7663989536
0.002571287 0.2501496785 0.7690828552
0.0123158377 0.2476095095 0.0190511973
0.0223392712 -0.0014294939 0.2666944064
0.0024957402 0.0017648841 0.2712430488
0.0024010857 0.5006905251 0.2678642414
0.0123687058 0.4998991222 0.520240266
0.0123696998 -0.0012319035 0.5171431026
0.0224669866 -0.0016063881 0.7681210318
0.0025117184 -3.4476430907e-04 0.7685867568
0.0224825967 0.2497181817 0.2657951705
0.002518419 0.2507816293 0.2702536133
0.0324080254 0.4991825641 0.0137131233
0.0424592183 0.4986326172 0.2611968262
0.0324113389 0.4995092781 0.5144352705
0.0322430888 0.2508955236 0.5135249898
0.0423171077 0.2494266122 0.7602911448
0.0324308514 0.2505427766 0.0147525368
0.0524150572 0.4977227642 0.0110272889
0.0424997161 -1.8785046081e-04 0.7581751332
0.0424201931 0.2493797528 0.2625222096
0.0524993663 0.2492997013 0.5096022228
0.0525457547 0.249921239 0.0109924975
0.0625174246 0.2501555359 0.2619129014
0.062540987 0.5002212804 0.7592556889
0.0724029445 0.4985057064 0.0092483297
0.0624364289 0.4992775845 0.257373463
0.0724003674 0.499357636 0.5089800289
0.072474368 0.2510074655 0.5062501071
0.0624058715 0.249768946 0.7594986759
0.0723694418 0.2499563835 0.007206963
0.0924375885 0.2500338317 0.5072680752
0.1024118355 0.2496062398 0.7533126326
0.0825325559 0.250715896 0.7562367599
0.092438693 0.2488200435 0.0060384166
0.1025296474 2.2249454678e-04 0.2581309565
0.0924593101 -0.0012294955 0.5052155717
0.1024365024 0.2506735924 0.2567347018
0.0824419881 0.2477897879 0.2575161258
0.1023831189 0.5014702131 0.7556246904
0.0824427244 0.500657333 0.7556688699
0.1024284028 0.4995183897 0.2591765368
0.0824460379 0.5017754499 0.2556863603
0.1222936922 0.2520201488 0.2565644268
0.1123404304 0.4996498563 0.0084239228
0.1124247395 0.2497702476 0.5069422518
0.1224240216 0.4998965189 0.2551037438
0.1124784912 0.4995366128 0.5075267091
0.1223132048 0.2504679318 0.7558400652
0.1123437439 0.2493036063 0.0079685063
0.122345603 -7.1195963544e-04 0.2568423892
0.1523390312 0.2502941616 0.4996185877
0.1324052636 0.2512925267 0.5050471375
0.1423386447 0.2496622107 0.7535022361
0.1523563348 0.250931319 -6.1683089103e-04
0.1322484266 0.2519576696 0.00427446
0.1423386447 0.0022533932 0.2536467423
0.1424163269 0.2510849136 0.2513061519
0.1425669052 0.5010914331 0.7537397006
0.1523029513 0.4994305283 4.4121169598e-04
0.1322981285 0.4981074016 0.0055067905
0.1523983053 0.499027017 0.4995201043
0.1323794923 0.4992281218 0.5071005615
0.1824716246 0.2492814783 0.2505863951
0.1724366308 0.4996921599 0.5013995717
0.1826188894 0.497649221 0.7472618888
0.1723515854 0.2504789958 0.4990148019
0.1623372087 0.2524236602 0.7463985488
0.1723622621 0.2500273234 -0.0041481219
0.1824999731 0.4996960648 0.2440386325
0.1624693789 0.001606148 0.7504777846
0.1623254275 0.250489409 0.2490226266
0.1823626486 0.2507002762 0.7495233244
0.182495187 -8.1635860904e-05 0.2498169363
0.1924495532 3.3560788908e-04 -0.0028550814
0.2023689441 0.2495971283 0.2491146672
0.2024948555 0.5007966095 0.7468348208
0.1924569165 0.4992691238 -0.0028601805
0.2024786564 0.4987823069 0.2471293532
0.1924131052 0.4991038143 0.4964045327
0.192403533 0.2506456069 0.5014179798
0.2021970124 0.2503579424 0.749697281
0.1923674531 0.249936208 -0.0031771496
0.2025360897 8.8679137349e-04 0.2480856542
0.212429341 0.2507510405 0.4998348829
0.2224300957 0.2513055432 0.7520498367
0.2125574614 0.2500201643 -9.9740003075e-04
0.2225549026 0.0013237551 0.7493539698
0.222273995 0.2513569584 0.2522440448
0.2325597071 0.2525818106 0.4990589813
0.2325644932 0.2501119306 1.0003042869
0.232448154 0.0040304051 0.499503537
0.2226616696 0.5029274097 0.7515933157
0.2123965746 0.5001269108 -0.0016660008
0.2123347234 0.4999342667 0.5004285442
0.24242461 0.5033244128 0.7531607657
0.2624772939 0.2521503138 0.7485265256
0.2625454038 2.6095828976e-04 0.2509968958
0.2625682299 0.0017212138 0.7483028671
0.2525634254 0.2497149275 0.5002683937
0.2425637752 0.25003253 0.7510447542
0.2525280819 0.2526553538 0.9984910886
0.262598051 0.2496804338 0.2498215384
0.2426399848 5.1517043879e-04 0.2490244675
0.2624931248 0.4990973061 0.252946314
0.2525542214 0.00168275 0.4989899509
0.2425659842 -0.0015953892 0.7523434459
0.2524956836 0.0030166805 0.9983346197
0.2423771171 0.251804075 0.2520572026
0.27253585 0.2509020319 0.497304689
0.2725991739 0.2516374639 0.9983254157
0.2725579397 0.0029924698 0.4952926833
0.2725634621 0.0028060736 0.9986291494
0.2825701074 0.249505362 0.7472140278
0.2726219999 0.5015834566 0.4969954329
0.2826245954 0.2505512373 0.2458582736
0.3126128693 0.0027889569 0.4974298641
0.2925583446 0.5016667622 0.4989558959
0.2925079064 0.2495470148 0.4983097715
0.3026327317 0.2522206028 0.7476042796
0.2925163741 0.2510764529 0.9971933173
0.2924283834 0.0018842454 0.4952834792
0.3025333279 0.0013885122 0.7479429887
0.312489535 0.5012046766 0.4981091232
0.3025922338 0.2515456976 0.2467022852
0.312675825 0.2514311524 0.4984570363
0.312584889 0.2518678558 0.996613462
0.322475195 0.0029712529 0.2477073676
0.3325466368 2.4221453683e-04 0.4961311724
0.3225385189 0.0010780037 0.7462291942
0.3325245471 0.0014655047 0.9953985272
0.3226585397 0.2536986259 0.2495417352
0.3226622213 0.4997077797 0.747827938
0.3226854156 0.4994943092 0.2475398539
0.3325819804 0.2518216473 0.4971068019
0.3226449177 0.250415215 0.7477902014
0.3326640805 0.2515945094 0.9984266603
0.3625481645 0.2503182421 0.2381047802
0.3525345242 0.5029976988 0.4939709814
0.3526895204 0.2512333017 0.4909253606
0.3426486361 0.2504139133 0.7443948267
0.3624892586 0.5012879822 0.7375230815
0.3526243557 0.2506989746 0.9942204085
0.3624229894 0.5028493108 0.2405300479
0.3426247055 5.8995020305e-04 0.2444390088
0.3426699895 0.2516953873 0.2446028409
0.3625150299 0.2516634969 0.740095614
0.3425794216 0.5016732704 0.7474809453
0.3426305961 0.5018587555 0.2461969827
0.382513594 0.2488844752 0.2400661637
0.3926343695 0.2509710193 0.4851231263
0.3925570555 0.251120709 0.9871516966
0.3924466069 -0.0014162822 0.9882377748
0.3826093161 0.5013797485 0.7320779643
0.3924281987 0.5016478883 0.9887071814
0.372562173 0.2506983237 0.4911609843
0.3825283205 0.2522082372 0.7347591047
0.3726394871 0.2500650713 0.9861760671
0.3923251134 0.4995333587 0.4872557051
0.3724038633 8.4064789841e-04 0.4883739974
0.4123604936 0.502265521 0.9849611323
0.4024790235 0.2494305171 0.7354089107
0.4025195213 0.0012688906 0.7369183753
0.4025747456 0.2490107352 0.2339114142
0.4125224849 0.250121693 0.4830411697
0.4125261666 0.2526514488 0.9885231004
0.4124562158 0.0015642349 0.4823407414
0.4126513417 -9.0753247411e-04 0.9835253002
0.442579237 -2.7291993921e-05 0.7304709369
0.442443017 0.25053757 0.2297585459
0.4224223632 0.5021086722 0.7346173623
0.4324695063 0.502165294 0.9840407271
0.4324290085 0.5025310575 0.4816504375
0.4423178419 0.5057383219 0.7284230353
0.4425166494 0.501682382 0.2255789859
0.4325762733 0.251729881 0.4806232653
0.4225180854 0.2511382813 0.7359344621
0.4324842328 0.2520162439 0.9831571381
0.422521767 0.001164238 0.2346689076
0.4324547798 0.0010691525 0.9806444319
0.4223045514 0.2500130053 0.2368364619
0.4425019229 0.2512996858 0.7311575592
0.4725365852 0.2505642538 0.4801262465
0.4624305362 0.2497630886 0.7290562741
0.4724298182 0.253939431 0.9803683104
0.4725108139 0.0015159437 0.9780120731
0.4624452627 0.2543214652 0.223471258
0.452394438 0.4991376572 0.9802118415
0.4522766261 0.5017591793 0.4791828311
0.4623679486 0.5005733766 0.731018578
0.4723635491 0.5015717418 0.9775978907
0.4623532222 0.5045909178 0.2289900076
0.4525822006 0.2535092359 0.4774874448
0.4525085682 0.2513218139 0.9792822322
0.4525601109 0.0030713497 0.4770999542
0.4826720872 0.25110574 0.7270691193
0.4826279078 4.0700336462e-04 0.7320678399
0.4923547499 0.4994721811 0.9776807272
0.4923657947 0.4998769941 0.4777028196
0.4824659165 0.2497865183 0.2291630438
0.4924651985 0.25231302 0.4820683014
0.4924357455 0.2477396744 0.9792085998
0.4823370597 0.5011161645 0.2302408383
0.5023540319 0.2504028493 0.7290360252
0.5123312242 0.2492866849 0.4810199599
0.5123533139 0.2491389476 0.981537225
0.502479207 -3.2478398911e-04 0.7312127835
0.5023834849 0.248506346 0.2297327746
0.5222642371 0.2482180306 0.2366109626
0.5222531922 0.2485519037 0.7344480077
0.5123349058 0.4976212355 0.4800562957
0.52242991 0.4984900866 0.7357623463
0.5424726535 0.4982766161 0.7382906994
0.5525897474 0.5003449371 0.9895631582
0.5426125551 0.4997097322 0.239155883
0.5523762134 0.4991871199 0.4859929092
0.5324328737 4.4475120037e-04 0.4900160003
0.5322856088 0.2507634062 0.488479844
0.5323113802 0.2512899234 0.9855501916
0.5323997391 0.4994975633 0.9853661106
0.5525492496 2.070700001e-04 0.989866892
0.5424395189 0.251183839 0.2372037035
0.552379895 0.2496739256 0.4895852506
0.5424689719 0.2484425651 0.7378120887
0.5524277561 0.2508252346 0.9867006981
0.5724042304 0.2494982029 0.4882856385
0.572223831 0.247503425 0.9875842871
0.5623681322 0.4987543214 0.7390500337
0.562467536 0.4992593614 0.2372561666
0.5725367688 0.4990328744 0.9869307994
0.572544132 0.4998574694 0.4879819048
0.5624601727 0.2478372981 0.2383137122
0.5626148008 0.2503247503 0.7395240424
0.602446256 0.4982811718 0.7376813912
0.592358615 0.4994624188 0.9902994824
0.5924138394 0.49854801 0.4894867673
0.5825470957 0.2480637851 0.7398176516
0.6025567046 0.2471819176 0.2374328844
0.5923549334 0.2493075112 0.4905829699
0.6023578971 0.2466007311 0.7410206212
0.5924285658 0.2482069666 0.9874646344
0.5824587368 0.5005180565 0.7375304447
0.5824476919 0.501545058 0.2400578801
0.5825323692 0.2481119462 0.239446731
0.6125007623 0.4969814748 0.9900601771
0.6124823542 0.4989254883 0.4919240002
0.6225442238 0.4995750114 0.7405061147
0.612445538 -5.2243946699e-04 0.4874002087
0.6225699951 0.498432814 0.2433170348
0.6125449418 0.2479817812 0.4922581073
0.6125191704 0.2474669788 0.9897840555
0.6223012368 -0.0015567302 0.7401324302
0.6224816362 0.2473185908 0.2438812432
0.6224485017 0.2491571707 0.7422364765
0.6425096533 -7.8680448218e-04 0.2428798424
0.6523395807 -4.7584041458e-04 0.496445951
0.6326245015 0.4996557137 0.4963262983
0.6423550252 0.2498965076 0.2445835124
0.6525015721 0.2492964472 0.4927532853
0.6424728371 0.2489586692 0.7449627167
0.6325287793 1.87480175e-04 0.4951270103
0.6524316213 0.2500689762 0.9941743883
0.6424470657 0.5002056606 0.7458113302
0.6523579888 0.4994240201 0.4952107672
0.6323446983 0.2488076778 0.4942820784
0.6323594248 0.2486631947 0.991827355
0.6825067814 0.49867427 0.746046954
0.6625045357 -2.5156620425e-04 0.2458518308
0.6825362344 0.4984503863 0.245329961
0.6624898092 6.5633432799e-04 0.7461951392
0.6725185442 0.4987211294 0.4948821825
0.6624345849 0.2501581392 0.2454330464
0.6623314995 0.2474214211 0.7455333679
0.672511181 -0.0016437454 0.9970184403
0.6624014503 0.4984653552 0.7467096457
0.6623535893 0.5002570758 0.2481390377
0.6824846917 0.2483247659 0.2449332664
0.6723234183 0.2502987173 0.4947109872
0.6824257857 0.247912143 0.7451385141
0.6724007324 0.2493569739 0.9978652131
0.7024538028 0.2483560055 0.2462706151
0.6924802921 0.2490217992 0.4951113634
0.7025274352 0.2486417175 0.7447593071
0.6924361126 0.2495860642 0.993953491
0.6925023818 0.5005766307 0.9954629555
0.6925023818 0.4980468749 0.4986365153
0.7325841872 0.5013276825 0.9940639396
0.7325105548 0.5006840168 0.4917399192
0.7125561702 0.2486677505 0.4930809496
0.7125377621 0.2504607727 0.9951408137
0.7225407257 3.6261711638e-04 0.2408724387
0.732624685 4.9167566516e-04 0.4920298468
0.7324847834 0.0016344589 0.9933736358
0.7124420399 0.4990348269 0.9946161828
0.7224781382 0.2511968555 0.243989851
0.7326283666 0.2493354967 0.4921531811
0.7225407257 0.2504998222 0.7437928817
0.7326320483 0.2506007 0.9891121597
0.712489901 0.4987458607 0.4942378989
0.7124015421 8.8945975498e-04 0.4948168338
0.7124751745 7.6059645363e-04 0.9920298442
0.7525606615 0.4995867263 -0.0088831657
0.7426092406 3.7322555987e-04 0.2412341579
0.7426092406 0.002434713 0.7408917645
0.7426791914 0.2513283221 0.2434191998
0.7426166038 0.2508187263 0.7441564417
0.7626556657 6.5646449294e-04 0.2446764733
0.7526931999 0.0021299317 0.4911250885
0.7626814371 9.3625405482e-04 0.7422199092
0.7525974777 0.0018317889 -0.0065286763
0.7626814371 0.2494669633 0.240296265
0.7525238453 0.2507634062 0.4928039076
0.7625415355 0.2517318335 0.7457045632
0.752468621 0.2504106592 -0.0087996611
0.7826652746 -0.0017241874 0.2449259031
0.7826763195 -4.2716540597e-05 0.7465043954
0.7726586294 0.0017773149 -0.0068135141
0.7826505481 0.2494318188 0.2443506499
0.7726218131 0.2509820833 0.4953267383
0.782691046 0.2499453195 0.7447132869
0.7726107683 0.2510133229 -0.0018116825
0.7927050545 2.521070731e-04 0.4947229524
0.7928523193 -0.0026686708 -0.005668935
0.812641031 0.5010491295 -0.0018114248
0.792613014 0.247670687 0.4944302636
0.792613014 0.248171822 -0.0053956391
0.8027816506 -2.4850732791e-04 0.2448660768
0.8126925737 -0.0018075971 0.4953497484
0.8028111035 -0.0023745826 0.7453805806
0.8126226229 -0.002935932 -0.0014806036
0.8027116998 0.2486007156 0.2480828929
0.8126999369 0.2492756208 0.4970451347
0.802748516 0.2490393714 0.7472048237
0.812718345 0.2498151546 -0.0043395294
0.8326506399 -0.0014710816 0.496979786
0.8226366314 -0.0021215159 0.7498629539
0.832698501 3.8715320962e-04 -0.0014469167
0.822699219 0.2490159418 0.2512573705
0.8325070567 0.2481946009 0.4983870855
0.8226513579 0.2474370409 0.7461279496
0.832484967 0.2503494817 -0.0016601838
0.8227618065 -0.001570788 0.246883605
0.842620469 -6.8872519171e-04 0.745940187
0.8426131057 0.2484074206 0.2500534805
0.842697783 0.2494864881 0.753065964
0.862512266 7.8233400042e-04 0.2519393907
0.8425394733 0.4977891483 0.7485872723
0.8525718899 -5.1215643587e-04 0.5030747092
0.8626374411 -9.3369562923e-04 0.7508477875
0.8525976613 4.2392480823e-04 -0.0028167466
0.8625674904 0.2496133989 0.2531736541
0.8426904198 0.0011577297 0.2455039176
0.852483531 0.2509820833 0.5019812678
0.8626227147 0.2480761508 0.7542339582
0.8524945759 0.2506911647 6.4729155319e-05
0.8725336378 -6.9764149085e-04 0.4989706224
0.8926389689 -0.0011597921 0.5013406658
0.8725078665 4.6245363369e-04 0.0041433023
0.8825402831 0.2471318041 0.2524925542
0.8925763813 6.9160234666e-05 1.3798420473e-04
0.87249314 0.2522414292 0.5047829812
0.8924401613 0.2497930265 0.5029265239
0.8824740139 0.2488018204 0.7538271391
0.872541001 0.2500507531 0.0040002713
0.8924843408 0.2484907262 0.0057345908
0.9024873044 -9.9109837256e-04 0.2562938277
0.9125749454 -8.2552855507e-04 0.5073417077
0.9025646185 3.8630713743e-04 0.7559164589
0.9026124795 0.2492795258 0.2553237206
0.9124644967 0.2498008364 0.5048446484
0.9026529774 0.2487009426 0.7571709712
0.9025241206 0.4994123052 0.7572943055
0.912549174 0.2511408846 0.0053447992
0.9226552231 5.5597715088e-04 0.2603822676
0.9225595009 -8.9641005382e-05 0.760789084
0.9225742274 0.2493856102 0.25784379
0.9225852723 0.2498437908 0.7572556484
0.942392392 -0.0012885904 0.2633837089
0.9325109219 -5.9839071582e-04 0.5116510448
0.9425654282 -0.0010019021 0.7622249161
0.9325330116 -0.0022133277 0.0115533004
0.9425028407 0.2498834912 0.2608314253
0.9325514197 0.2476791477 0.5112939276
0.9424402531 0.2474383425 0.7635088813
0.9325366932 0.2475880322 0.009848802
0.9525941632 -0.0013694879 0.5134467553
0.9523953557 -0.0011386403 0.0134118746
0.9625492658 0.2472281262 0.2647293413
0.9524873962 0.2488050745 0.5162033689
0.9724380992 0.2485850958 0.5155452792
0.9625529474 0.2491955694 0.7633321635
0.9524542616 0.2475288072 0.0129687916
0.972294516 0.2519661304 0.0192190792
0.9625382209 -0.0016065833 0.263261295
0.9824705158 0.5008044194 0.7684643429
0.9825331034 0.5015444071 0.2709310315
0.982614099 -9.592079596e-04 0.2667312226
0.9925066141 -4.5475369254e-04 0.5172185758
0.9823784753 0.2484067698 0.2646805598
0.9925581567 -2.8235021513e-04 0.0196447666
0.9924734795 0.2478848083 0.5195472009
0.9825220585 0.2487556119 0.7666189305
0.9924035287 0.2491252803 0.0180554109
0.0123612321 0.7492203232 0.0205613061
0.0023686138 0.5001054336 0.7689457148
0.0125483321 0.5025818218 0.0181977055
0.0226046792 0.7481009046 0.2663069158
0.0024149654 0.7497084417 0.2696884845
0.0124188863 0.7503006923 0.5164491171
0.0225694461 0.7488233201 0.7676157293
0.0222265768 0.500330619 0.2656911647
0.0025317096 0.7493830294 0.7700299521
0.0124580587 1.0003020051 0.0187447023
0.0524338334 0.9998594443 0.5094678437
0.0524816945 0.9984276298 0.007999616
0.0327021869 0.7501184613 0.0142520205
0.04244486 0.50037878 0.7651269537
0.0425100246 0.7493179469 0.2633708232
0.0326731021 0.7494090623 0.5150316931
0.042479099 0.7489665015 0.7636543053
0.0525840436 0.7487777623 0.0110511273
0.0526863926 0.7509385005 0.5108180781
0.0523502607 0.4979811416 0.5113436294
0.0423344113 0.999377834 0.2621540476
0.0324430008 0.9977898216 0.5119317684
0.032413916 1.0002824804 0.0127582029
0.0724688456 0.99727567 0.5066219508
0.0625881117 0.9987530422 0.7566932809
0.0725067662 0.9993583092 0.012928938
0.0725214927 0.7481985283 0.0062405376
0.0625148475 0.7497474912 0.2616450635
0.0726208965 0.7485174324 0.5082980087
0.0625107977 0.7485955314 0.7599910927
0.0623565378 0.9987335175 0.2585782734
0.0825156205 0.9988441577 0.2580858566
0.1024180943 0.9981022175 0.7571700508
0.0824732819 1.0006794835 0.757502317
0.092516007 0.998063168 0.0046506296
0.0924515786 0.7473784891 0.0075371124
0.0924699868 0.4993036175 0.0068465323
0.102546951 0.750294184 0.2584724268
0.0824721774 0.7491877819 0.2592455671
0.0924486334 0.7484328252 0.5076141476
0.1025973892 0.7491877819 0.7574655008
0.0825678995 0.7489469768 0.7565736282
0.0924331705 0.5017741483 0.5071143676
0.1125322429 0.9994429164 0.0051264791
0.1125020536 0.7487972871 0.0081612391
0.122413713 0.5007373844 0.7535648236
0.1224770369 0.7457253942 0.2583444905
0.1124151673 0.7490380922 0.511615149
0.1225399926 0.7502356098 0.7591433995
0.112437257 1.0016687371 0.5043457888
0.12245237 1.0012912587 0.7582625717
0.1525941675 0.9997422958 0.4984395486
0.1324225673 1.0017208031 0.5065335919
0.1424638198 1.0035496206 0.7532343981
0.1523832106 1.0016687371 5.3969505176e-04
0.1324490749 1.0007315495 0.0023824751
0.1525742867 0.751556784 7.7150830399e-04
0.1325175531 0.7504308572 0.0079142024
0.1424071228 0.750372283 0.2535998017
0.1525706051 0.7500338541 0.4995569205
0.1325451652 0.7529820902 0.5068520521
0.1425028449 0.4995294537 0.2541474428
0.1424251628 0.7479967726 0.7572758973
0.1725349301 0.7524679387 -0.0050761664
0.1625481656 0.4997552899 0.7486793128
0.172302988 0.5009430451 7.2974031627e-04
0.1625485338 0.7514136026 0.2469241028
0.1824723609 1.001401899 0.7484446095
0.1725713782 0.7505610222 0.494794744
0.1624189407 0.4983670807 0.2482319986
0.1625606831 0.75160885 0.7485789887
0.1824609479 0.7486020396 0.247140398
0.1825949589 0.7508538933 0.7443396023
0.1623685025 1.0023000371 0.2502311187
0.1724034963 1.0001197742 0.4953663157
0.1725312485 0.9996316556 -4.1955124169e-04
0.1924108962 1.0038034423 0.4967266746
0.2024871241 1.0020657402 0.745483666
0.1925924001 0.751686949 -0.0052774407
0.2023218193 0.7519602954 0.2462678539
0.1925029367 0.7504503819 0.4962140089
0.2024514124 0.7521295098 0.7463847427
0.2326557974 0.7500533788 1.001206284
0.2324687711 0.5003084909 1.0028538093
0.2325803242 0.7515372593 0.5031952823
0.2324783433 0.5012970937 0.5050949986
0.2225243452 0.9991695701 0.2492858625
0.212374853 1.0018835093 0.4989061941
0.212536108 1.0018054103 -0.0031896487
0.2125037098 0.7526306449 5.8082795989e-04
0.2323557453 1.0014084072 0.9967239107
0.2225350219 0.7493569964 0.2462512866
0.2125975911 0.7512118469 0.4984966137
0.2224374589 0.5023969876 0.2527916859
0.2225884054 0.7509450088 0.7490806095
0.2524850069 0.7505545139 0.9988776588
0.2525884605 0.5015125167 1.0040135198
0.2426031686 0.7498581314 0.2513438885
0.2525972963 0.7495912933 0.4991077628
0.2425343223 0.5006039654 0.252314916
0.2426072184 0.7481920201 0.7505274865
0.2525383904 0.5006755561 0.5018073112
0.2624518907 0.5010927348 0.7496659872
0.2626319219 0.7496433593 0.2518611563
0.262643335 0.7519798201 0.7497764358
0.2825888837 0.5020422881 0.7491984214
0.282573789 0.7507367448 0.2455554603
0.2826636206 0.503234599 0.2460782504
0.2826580981 0.7510361242 0.7477331363
0.272651821 0.7523117407 0.9967147066
0.2725111831 0.5020605112 0.9989236791
0.2725708254 0.7527868428 0.4993903272
0.282512306 1.0017728691 0.2479365485
0.2825748935 1.0009658464 0.7488514286
0.3126047697 1.0001262824 0.9978928253
0.2925896384 0.7519147376 0.9965030134
0.3025568903 0.4994142577 0.7487299351
0.2925152696 0.5015509154 0.9995955749
0.302590393 0.7520644273 0.2478721202
0.2928263666 0.7512834376 0.4958817426
0.3026360451 0.5001737702 0.2447970464
0.3025521042 0.7485825149 0.750440048
0.302542532 1.0027230732 0.2455066788
0.3126437949 0.7533465521 0.9963373405
0.3126541034 0.4988753748 0.9952052421
0.312657785 0.7533335356 0.4973939683
0.2924585727 1.0004647113 0.9983438238
0.3325234426 0.7520188696 0.9977547645
0.33250393 0.5004145754 0.9963557486
0.3225882208 0.7506391211 0.2500875355
0.332492517 0.753658948 0.4951426572
0.3226036836 0.7520709356 0.747391666
0.3326545083 0.5001256092 0.4966097831
0.3524756182 1.0014344402 0.4923179337
0.3423898181 1.0010309288 0.7450335879
0.3624745321 0.7527543016 0.2422558077
0.3525168524 1.0011415691 0.995186834
0.3625408013 0.7508148438 0.7427160076
0.3624892586 1.0004582031 0.2390840914
0.3525694996 0.7504568902 0.9911554592
0.3625812991 0.9997878536 0.7416004765
0.3525054394 0.499212502 0.9929042291
0.3425448144 0.7526957274 0.247494754
0.3525153797 0.7517585397 0.491426061
0.3425249336 0.7536654562 0.7475389308
0.392465015 0.9997878536 0.485499572
0.3724922222 0.7525590542 0.9851176012
0.3722823699 0.4986163466 0.9904283391
0.3823037416 0.751530751 0.2382492838
0.3725842628 0.7495912933 0.4846003361
0.3824510064 0.5003208566 0.2335128787
0.3824325983 0.7506976954 0.7394384447
0.3824657329 1.0000612 0.2371567629
0.3826829486 1.0021047897 0.7345179585
0.3725032671 1.0009528299 0.9903086865
0.3724811774 0.5002297411 0.4900988367
0.3925386474 0.7529170078 0.9865902495
0.3924834231 0.7507172201 0.4837351552
0.4123384039 0.7520318861 0.9855409875
0.4123936282 0.7541405583 0.4834424664
0.4122721347 0.5020917508 0.4871406545
0.4025379294 1.0024952845 0.233093174
0.402328077 0.5029235048 0.7411826125
0.4024495705 0.7521815758 0.2376050002
0.402541611 0.5004184803 0.237136514
0.4023391219 0.7507172201 0.7386027168
0.4324253269 0.7519537871 0.98173051
0.4224518162 0.7489599933 0.2304967109
0.4324106004 0.7511727974 0.4826279078
0.4223524124 0.503327667 0.2370545979
0.4225180854 0.7500143294 0.736620164
0.4425166494 0.7503918077 0.2286761494
0.4425166494 0.7525134964 0.729862549
0.4324290085 0.9992671938 0.4797847761
0.4225475383 0.9984341381 0.7336693449
0.4424945597 0.999377834 0.2289623954
0.452501205 1.002033199 0.979070539
0.4624489443 1.0015646051 0.2324682188
0.472713303 1.0015060309 0.4777074216
0.4624894421 0.9971715381 0.7277088009
0.4523797115 0.7500663953 0.9784814797
0.4523981196 0.7510621572 0.4787815345
0.4723635491 0.7538086377 0.9794663133
0.4624047649 0.752396348 0.2273157905
0.4723966836 0.7504959397 0.477349384
0.4623384957 0.7496563757 0.7279830816
0.4724666344 0.5008493263 0.4779651351
0.48258741 0.9985057288 0.2318276168
0.4925056963 0.9996641969 0.482126287
0.4924136558 0.998772567 0.9802302496
0.4823002435 0.5026091564 0.7312983811
0.4923400234 0.7523312655 0.4792214882
0.4823407414 0.750951517 0.2311796516
0.4924026109 0.7497474912 0.9763921599
0.4823886024 0.7504373655 0.7310406677
0.5125189869 0.999351801 0.4850292449
0.5124453545 0.9981087257 0.9798436794
0.5025049784 1.0000026257 0.2323660538
0.52242991 0.747664852 0.7368640714
0.5223894122 0.9984211216 0.236568624
0.5223268246 0.999403867 0.7354705779
0.5023761216 0.7497605077 0.2327102854
0.5023798033 0.4991662935 0.2308418628
0.5024423908 0.7490511087 0.7287387343
0.50237244 0.5001919933 0.7301966561
0.5124748074 0.7493700129 0.9849887444
0.5123459507 0.4976609358 0.9810586143
0.5124748074 0.7501119531 0.4813089671
0.522507224 0.496976919 0.2356684677
0.5224998608 0.7453544241 0.2333877036
0.5323003353 0.7492333397 0.4874315025
0.5325175509 0.4979329806 0.4886013375
0.5324917796 0.9977312473 0.9894527096
0.5424137476 0.9995795896 0.2402088265
0.5524829804 1.0004972525 0.4875493144
0.5525087518 0.7490446005 0.9884218558
0.5424358373 1.0006599587 0.7383339584
0.5424432005 0.7489339603 0.2342446008
0.5523835766 0.7508408768 0.4923013664
0.5424027027 0.749610818 0.7378074867
0.5323592412 0.7501314778 0.9920206401
0.5624528095 1.0008812392 0.2407767165
0.5623644506 0.9991370288 0.7373500453
0.5626332089 0.7493439799 0.2382354778
0.5625006705 0.7497019335 0.7395728238
0.5725183607 1.0001458072 0.4878705358
0.5724226385 0.9980045937 0.9882469788
0.5723674142 0.7481855118 0.9854765592
0.5724115937 0.7493635046 0.4904679192
0.6024793906 1.0009072721 0.237927142
0.5925353328 0.7488688778 0.9885875287
0.5924396107 0.9986033525 0.4891655459
0.6025125251 0.9992606855 0.7357927197
0.592465382 0.9995145072 0.9902718702
0.6025272516 0.748927452 0.2405834314
0.6025603862 0.4989437114 0.236850268
0.5925463777 0.7494090623 0.4897141074
0.6024830722 0.7486996634 0.7439401465
0.5824329654 0.9995210154 0.2397440219
0.5824440103 0.9991565536 0.7363983463
0.5825618222 0.748296152 0.2401011391
0.5825139611 0.7511727974 0.7387785142
0.6123129997 0.7499882964 0.9910173985
0.6125375785 0.7498125737 0.4896993809
0.6124381748 0.9996576886 0.9902534621
0.6225368606 0.9992281443 0.241257168
0.6225442238 0.749688917 0.243844427
0.6223490979 0.7502225933 0.7442052232
0.6424912452 0.9998854773 0.7407776342
0.6524684375 0.9998594443 0.9976259077
0.6325361426 0.9977768051 0.9957758933
0.6323741513 0.7506586459 0.9975154591
0.6324441021 0.4975171036 0.9949383246
0.6325177345 0.7507107119 0.4947119076
0.6523616705 0.7505480057 0.9953340988
0.6524389845 0.4989827609 0.9965950539
0.6424875635 0.7494611283 0.2454505341
0.6424617922 0.5001347207 0.2449277439
0.6525199802 0.7491357159 0.4970377715
0.6424691554 0.7487777623 0.7479908497
0.6725627237 0.7468448128 0.9979020293
0.6725038177 0.4998874073 0.997138093
0.6825215079 0.9982844484 0.2464206412
0.6725479972 0.9998399195 0.4938384431
0.6823779247 1.0003670876 0.7476558223
0.6824883733 0.7498646397 0.2452885428
0.672374961 0.7472808654 0.4951675082
0.6825583241 0.749057617 0.7472858194
0.6625413519 0.7495001778 0.248548618
0.6624382665 0.7495066861 0.7458407832
0.7023580806 0.9991240123 0.2442760971
0.7024243498 0.4994604663 0.7463055878
0.6924250678 0.7486606139 0.9943768774
0.6924213861 0.9981217422 0.4963539104
0.7024280314 0.9990784546 0.7464307629
0.6922998927 0.9992411608 0.9953156907
0.7024795741 0.7514331273 0.2491634486
0.7024943006 0.4993550327 0.2450455558
0.6924582024 0.7479056572 0.4949042723
0.7023396725 0.750847385 0.7478638338
0.7225591338 0.4988545484 0.7451808527
0.7324811018 0.7529690737 0.9871516966
0.7224597301 0.75287145 0.2377292549
0.7224486852 0.5013328891 0.2464114371
0.7324295591 0.7499232139 0.4898613722
0.7224855014 0.7519733119 0.7382207486
0.7224744565 0.9982584154 0.738401148
0.7123904972 0.7484848912 0.9934564722
0.7125119907 0.7514721768 0.493926802
0.7425503346 0.5013940666 0.7436805922
0.7425208817 0.7525850871 0.2407325371
0.742576106 0.501403829 0.2420017758
0.7426497384 0.7496043098 0.7384563723
0.7526711102 0.4973283644 0.4936902578
0.7525164821 0.7513485201 -0.0089180224
0.7625562619 0.5011239744 0.7422033419
0.7626630289 0.7491357159 0.2384370465
0.7625893965 0.5015281365 0.2406653475
0.7525201637 0.7507432531 0.4926216674
0.762526809 0.7507757943 0.7388070467
0.7825916422 0.7492788974 0.2418922476
0.78263214 0.4996251249 0.2452084675
0.7726770375 0.7470205355 0.4899258006
0.782661593 0.7498581314 0.7409773622
0.7726291764 0.9997748371 0.4921669872
0.7726512661 0.4988207055 0.4908572506
0.7726770375 0.7500273459 -0.0072595793
0.7826505481 0.5002206296 0.7418075677
0.7727064904 0.4999713637 -0.0076134962
0.7927308258 0.7501575108 0.4928821421
0.8125673986 0.4979245199 0.5012283764
0.8127404348 0.7468968788 -0.0066576895
0.8026675203 0.4989918725 0.7444610958
0.8027080181 0.7482310695 0.2463654169
0.8025570717 0.4986274106 0.2462393213
0.7927860501 0.497708446 0.4950460147
0.7928081399 0.7494350953 -0.0068354473
0.8126668023 0.7472483242 0.4943225762
0.7926571934 0.4982961408 -0.0053412984
0.8026454306 0.7470010108 0.7436999207
0.8326506399 0.500742591 0.5013691984
0.8327021826 0.7482571025 -0.0046360103
0.8226844925 0.4977097477 0.7480957759
0.8325254648 0.4998073559 -0.0017208477
0.8227176271 0.7488168118 0.2467437034
0.8226844925 0.4975392316 0.2513724211
0.8325659626 0.7480618551 0.494960417
0.8226660844 0.7495392273 0.7453437644
0.8625233109 0.7509319923 0.7526858366
0.8625269925 0.5005701225 0.7517764763
0.8526234326 0.7486996634 -8.5293323146e-04
0.852619751 0.497760512 -0.0016086963
0.8625196293 0.747534687 0.248971084
0.8624018174 0.5004646889 0.2517700362
0.8527044283 0.7507107119 0.4986586051
0.8425210652 0.753001615 0.2480902562
0.8425100204 0.497192342 0.2506204501
0.8425762895 0.7512639129 0.7477138078
0.8525829348 0.4977722269 0.5045252678
0.8724268708 0.4972899657 0.5041672301
0.882521875 0.7474891293 0.7530990986
0.8924364797 0.498536946 0.5034677222
0.8725851805 0.7488363366 0.0028467275
0.8925542916 0.7494416036 0.0053916478
0.8824408793 0.4990113972 0.7541778135
0.8726993107 0.4991357047 0.0045115564
0.8924622511 0.4971467843 0.0051732357
0.882569736 0.7479121654 0.2513678191
0.8824482425 0.5001574996 0.2564254456
0.8725814989 0.7506586459 0.5024304255
0.8924880224 0.7510361242 0.5077448451
0.8825955074 1.0014669814 0.2553338451
0.8825881441 1.0000677082 0.7537249741
0.9124829048 0.7489209438 0.5088171172
0.9125859902 1.0014344402 0.0075848814
0.9125270843 0.5003761767 0.5084719652
0.9026051163 0.7512248634 0.7534598974
0.9125418108 0.7505089562 0.0082015529
0.91260808 0.4973459367 0.0088022093