POSCAR file written by Ovito 3.7.11
1
271.6002203489 0.0 0.0
0.0 15.3640286064 0.0
0.0 0.0 10.8640088139
Sr Ti O 
800 800 2400 
Direct
0.0224341907 0.5000305909 0.7975132011
0.0125808114 0.2496581074 0.5469997814
0.0224526001 0.2500863804 0.8014785882
0.002347425 0.2513588332 0.7961297339
0.0125102297 0.2524366755 0.0487003881
0.0225801037 0.0017476733 0.2986172509
0.0026284999 -0.0016007974 0.297021155
0.002554715 0.4987268964 0.2964725546
0.0124707231 0.4995632656 0.5464014755
0.0125983372 8.2675602512e-04 0.5473762538
0.0226282259 0.0016150258 0.7974156312
0.0025348696 9.9546177714e-04 0.7974745413
0.0224761642 0.2522869751 0.2967919578
0.0024271378 0.2495526663 0.2978790335
0.0324805007 0.5015920304 0.0482974982
0.042379609 0.5011631064 0.2962903014
0.032539779 0.5022370435 0.5489999638
0.0323516348 0.2522609403 0.5449093928
0.0424503012 0.2511115022 0.7948668483
0.0324503093 0.2515833836 0.0453712303
0.052477539 0.500176386 0.0418257619
0.0424904337 0.0018525287 0.7974275973
0.0423637769 0.2512390729 0.2982407785
0.0524101605 0.2518984052 0.5436501891
0.0523483049 0.24986183 0.0436646779
0.0623365148 0.2528434698 0.2923065049
0.0625463821 0.5010531092 0.7902009832
0.0724116171 0.4998887011 0.0357923537
0.0624918902 0.5009808625 0.2915102979
0.0724013078 0.5017807829 0.5347713303
0.0724823092 0.2505790898 0.5362109462
0.0624819491 0.2507671915 0.7905949446
0.0724834138 0.2505556584 0.038831011
0.0925780219 0.2499041366 0.5303797654
0.1024933305 0.2515475857 0.7812650552
0.0825441567 0.2514187133 0.7855240724
0.0925658717 0.2504033546 0.032238601
0.1025294129 1.1086305969e-04 0.2801802261
0.0925776537 0.0016586993 0.5334219205
0.1024697665 0.2512670604 0.2806496661
0.0824852466 0.2508264207 0.2862488883
0.1025400904 0.5008298605 0.7785303373
0.0825655116 0.5015178311 0.7838460546
0.1026048915 0.5013043454 0.2786025396
0.0824447459 0.5009366033 0.2850329468
0.1224579682 0.2486232225 0.277341495
0.1124936906 0.4985166651 0.0303052447
0.1124487716 0.2500850787 0.5300566802
0.1223997945 0.4992658176 0.2770717971
0.1124535581 0.5009060124 0.5288131245
0.1224325632 0.250214602 0.7736233088
0.1124189484 0.2492044503 0.0263656308
0.1223924307 -0.0014776526 0.2747439271
0.1524251751 0.2511251705 0.5193295166
0.1323283578 0.2515026756 0.5233574957
0.1424763614 0.2489428002 0.7718817786
0.1523832017 0.249882007 0.020111862
0.132354131 0.2486479556 0.0229495806
0.1424439608 1.7334667155e-04 0.2719153212
0.1424505882 0.2478096338 0.2700808234
0.1425058164 0.5005818786 0.7717446285
0.1525728186 0.5031437067 0.0174056786
0.1324384461 0.5018907801 0.0236097421
0.1526306241 0.5041903072 0.5183041124
0.1323662812 0.5001959122 0.5235912952
0.1825330299 0.250260163 0.2612111693
0.1725547611 0.5005656069 0.5136216788
0.1824822199 0.5008103343 0.7640292445
0.1724877509 0.2488861744 0.5139125475
0.1624785543 0.2511987189 0.764435172
0.1724829644 0.2527712231 0.0153160264
0.1823861228 0.5003814104 0.2633282516
0.1626210431 2.495636606e-04 0.7662218053
0.1624767134 0.2503968459 0.2661034702
0.1823912775 0.2532060049 0.7610045783
0.1825002612 7.0595437553e-04 0.2590830415
0.1924752163 -4.2532443455e-04 0.0098492599
0.2024100388 0.2499334258 0.2536504244
0.2023827929 0.5000338453 0.7534337081
0.1925584268 0.4999466286 0.008666087
0.2025562096 0.4995495973 0.2527879435
0.1925249217 0.5005688612 0.5089668593
0.1924608569 0.2522902295 0.5068313677
0.2025540004 0.2486525117 0.7544986925
0.1924667479 0.2499640167 0.0067316262
0.2023805838 0.0012733186 0.2535767867
0.212520119 0.2471450946 0.499153723
0.2225444113 0.250340871 0.7482579023
0.2124118717 0.2487384267 -0.0027577163
0.2225017015 -0.0019926673 0.7462374695
0.2225580343 0.2470461622 0.2477032642
0.2325105299 0.2484806818 0.4951423124
0.2325031661 0.2488523291 0.9900213292
0.2324586153 -0.0023605916 0.4965570756
0.222547725 0.49900612 0.7471054732
0.2126526668 0.4989234594 7.671335743e-04
0.2125790291 0.4978794624 0.5025254065
0.2424733348 0.5004731832 0.7438939515
0.2626128619 0.2512657586 0.7386353034
0.2625999753 6.9690726923e-04 0.2437222292
0.2625082964 -6.7402222716e-04 0.7426862942
0.2525381278 0.2493417841 0.4908612039
0.2425532316 0.2494908335 0.743380329
0.2525164047 0.2496008307 0.9946052724
0.2626242757 0.2502028863 0.2397457965
0.2426117735 -0.001343443 0.2435316918
0.2624998281 0.5018601892 0.2451241058
0.2525396005 8.4159710883e-06 0.4902251588
0.2425075763 0.0012211187 0.7445769407
0.2523735476 -0.0010000435 0.9931233149
0.242509049 0.249029366 0.2441318386
0.2724954017 0.2494140307 0.489859732
0.2726533545 0.2499594606 0.9895795033
0.2726776549 -7.8642764141e-04 0.4882231354
0.2725425298 3.4465590739e-04 0.9899108727
0.2825204304 0.2488646957 0.7343587973
0.2724722058 0.5005792752 0.4922732057
0.282631255 0.2499933059 0.232184131
0.3126801997 -0.0012092985 0.479395823
0.2925878007 0.4990028657 0.4855731007
0.2926360334 0.2499880989 0.4852582998
0.3026897807 0.2487123919 0.7318293442
0.2926441335 0.2493736767 0.9847010095
0.2925826461 -7.4522750984e-04 0.486453991
0.3026698986 -1.441481812e-04 0.7321137696
0.3126971364 0.4966818599 0.4766150815
0.3026599575 0.2505667232 0.231421061
0.3128477254 0.2496405338 0.4743396783
0.3126419082 0.2503525867 0.9774477017
0.3227107512 8.8474862738e-04 0.2218573721
0.3325686225 8.7121051148e-04 0.4722097095
0.3226628868 0.0010647795 0.7249055649
0.3325244399 -0.0023659808 0.9718972643
0.3227103831 0.2486082525 0.2192505995
0.3226768779 0.49939469 0.7243505211
0.322655523 0.4989852922 0.2234626727
0.3327309935 0.2508322786 0.4707562865
0.322767084 0.2502777365 0.7237006689
0.3327519802 0.2472407726 0.9679576504
0.3625384067 0.2513080652 0.2142809791
0.35257597 0.5004015874 0.4658492581
0.3526948948 0.2474425426 0.4677804053
0.3427085259 0.2487032797 0.7185589205
0.3624942241 0.4987718065 0.7160322289
0.3526282527 0.2475857342 0.9664020552
0.3625347248 0.4968191936 0.2152879739
0.3426242108 0.0019257516 0.2185860198
0.3425100724 0.2502093951 0.2214983886
0.3624242684 0.249781122 0.7175123455
0.3426337837 0.4980109384 0.7177314175
0.3427405583 0.4975514235 0.2188741271
0.3824794804 0.2496457408 0.2128339994
0.392549428 0.249977685 0.4609587981
0.3925604737 0.2504020529 0.96500294
0.392519973 0.0017506673 0.961910159
0.3825899368 0.4999524864 0.7117161426
0.3924463353 0.4999030202 0.9609252556
0.3725936268 0.2474523057 0.4641031255
0.3825310267 0.249836446 0.7150786214
0.3726783101 0.2482496226 0.9662363705
0.3923542883 0.5008266061 0.4597483794
0.3725420805 -0.0028341002 0.4670753248
0.4125788669 0.4992918524 0.9583755522
0.4024352816 0.249034573 0.7112108042
0.4024389634 0.0029416961 0.7067400789
0.4024794641 0.2497062718 0.2116327854
0.4124684104 0.249957508 0.4553973152
0.4125052292 0.2496978105 0.9576759946
0.4123137713 -3.9199984156e-04 0.4578420849
0.4125310024 -0.0016630857 0.9564977923
0.4424499766 -0.0021325004 0.6976053293
0.442313747 0.2502367316 0.195682872
0.4224720842 0.4983552491 0.70562723
0.4323984384 0.5016532122 0.9533221689
0.4322732544 0.4986064853 0.450451627
0.442501523 0.4977518917 0.6994959758
0.4423616115 0.4982328854 0.1964505444
0.432472076 0.2484618065 0.4462570428
0.4223800371 0.2490710218 0.7046404856
0.4324941673 0.2499243136 0.9458203341
0.4224058103 -2.692455791e-04 0.200182132
0.4324131659 -7.4309727526e-05 0.9485633363
0.4223579458 0.25051205 0.2027382786
0.4424094759 0.2506558925 0.6941784175
0.4722695401 0.2511974172 0.4473781759
0.4623505496 0.2505335288 0.6944619224
0.4724389067 0.2532144663 0.9474403622
0.4725125443 5.8918812588e-04 0.9438137083
0.4623358221 0.2505947107 0.1921040825
0.4523358302 0.4981710526 0.9456270353
0.4523137389 0.4996010161 0.445142353
0.4623947322 0.4984704533 0.6961252127
0.4724020878 0.5013180137 0.9430957413
0.4624830973 0.501603746 0.1972034893
0.4525420156 0.2516146255 0.4415166195
0.4524610142 0.2493665172 0.94532328
0.4523431939 -2.5199749874e-04 0.4458142964
0.482549355 0.2509917419 0.6976890921
0.4825861738 5.8053154215e-04 0.6945392419
0.4924978005 0.5019890616 0.9480386681
0.4926892584 0.5021394128 0.4474766662
0.4824904449 0.2505836459 0.1971473406
0.4925493469 0.2515677627 0.4490635574
0.4923247521 0.2489584211 0.9464922776
0.4825198999 0.4987360086 0.194059162
0.5025346112 0.2509520388 0.6940090509
0.5124499198 0.2510288416 0.4495237927
0.5125125118 0.2513210826 0.9498243809
0.5024020635 0.0012243731 0.6954578715
0.5024646555 0.2515456331 0.1914413438
0.5223762741 0.2498299373 0.1972623994
0.5224462299 0.2516230868 0.7021478514
0.5125272394 0.5004172083 0.4468562691
0.5225309131 0.4992117953 0.6962568399
0.5424093948 0.5033936412 0.6970898658
0.5524130686 0.5009769573 0.9530184137
0.5422952565 0.4998249157 0.1984718977
0.5524204323 0.5007608681 0.4509127827
0.5325529963 0.0019628513 0.4518157643
0.5322989465 0.2511713823 0.4491684911
0.5323909935 0.2493958064 0.9489683433
0.5324167667 0.4995925548 0.9519874867
0.5523247034 6.9508483056e-04 0.9536719477
0.5423173477 0.2521548483 0.2020313573
0.5524462055 0.2528708064 0.4492669814
0.5423909854 0.2529085569 0.7028050673
0.5525713895 0.2517298296 0.9518310067
0.5724498712 0.2513165266 0.4599343144
0.5723173234 0.250926004 0.9594064792
0.5623504685 0.5021927843 0.7016903775
0.5624940619 0.5011429294 0.2033494711
0.5724977356 0.5007153072 0.9597838721
0.5724719625 0.5011624555 0.4592099041
0.5622547395 0.252670989 0.2056405222
0.5623615141 0.2508680765 0.7062025241
0.6025161207 0.4996439736 0.7114004212
0.5925382201 0.5000598801 0.9654355612
0.5925198107 0.5025331898 0.4607673403
0.5823025878 0.2507177253 0.7123503468
0.6024608925 0.2505146535 0.2119669162
0.5924056724 0.2497062718 0.4646821015
0.6024608925 0.2502432403 0.7154504915
0.5923762173 0.2499379819 0.9639904224
0.5823909529 0.5008812793 0.7079698275
0.5824682725 0.4998105966 0.2083761606
0.5824167261 0.2498689895 0.2113345529
0.6125234764 0.5012822158 0.9637050766
0.6125234764 0.5016707857 0.4659523508
0.6224277393 0.4999550899 0.7113718866
0.6124866575 7.0113793045e-04 0.4663757672
0.6225161045 0.5009255385 0.2153984304
0.6122804721 0.2511082478 0.4637708356
0.6123430641 0.2489759946 0.9618917496
0.6223725111 0.0024990388 0.7156962572
0.6223982843 0.2493105423 0.2187019991
0.6222988734 0.2500356125 0.7164961461
0.6423798586 -7.171749716e-04 0.2221675707
0.6523393498 -1.877565353e-04 0.4770302137
0.6326375985 0.4996706593 0.4700650131
0.6424534963 0.2488959375 0.2233319659
0.6523577592 0.2492779987 0.4749517912
0.6423319941 0.2481279097 0.7224746022
0.6324277312 6.0227063211e-04 0.4683934387
0.6523798505 0.2487696685 0.9757356265
0.6424498144 0.4983877926 0.7240605729
0.6525970815 0.4994929715 0.4797713749
0.6323246385 0.2489499598 0.4664705757
0.6323209566 0.2501937742 0.9673869587
0.6825676022 0.49939469 0.7375427048
0.6624645257 0.0019878447 0.2270773605
0.6825197377 0.5004966145 0.2333531286
0.6625307996 4.5283066042e-04 0.7290734554
0.672637566 0.500438687 0.4858492419
0.6623798424 0.2498878648 0.2296436324
0.6623651149 0.2492552182 0.7285773218
0.6725013364 -3.0647539783e-04 0.981810732
0.6625713003 0.4987802678 0.7309677838
0.6626228466 0.4962939408 0.2333347192
0.6823025066 0.2499210592 0.2352732301
0.6723061966 0.2498325408 0.483533338
0.6822767335 0.2506467803 0.7343983775
0.6724350625 0.248267847 0.9812768591
0.7023908556 0.2517591188 0.239650988
0.6923871818 0.2508973657 0.4849269304
0.7025123577 0.2500408195 0.7376752526
0.692412955 0.2524334211 0.9862289906
0.6925933672 0.500882581 0.9915769244
0.6925896853 0.4987991431 0.4892733923
0.7324018769 0.5016590701 0.9950470983
0.7323797856 0.5027603437 0.4967190784
0.7125086677 0.2516946826 0.4914954081
0.7124350301 0.2511909085 0.9879410657
0.7224423857 0.0015567078 0.2423580918
0.7325491522 0.0030339245 0.4942236828
0.7325528341 0.0029638908 0.9951207359
0.7124387119 0.5020235578 0.9946420912
0.7225012958 0.2516035606 0.2456515354
0.7324092407 0.248323171 0.4953282474
0.7224423857 0.2509884876 0.7434392391
0.7324902421 0.2516745056 0.9967775829
0.7125823053 0.5024173347 0.4935333299
0.7125086677 0.0015109516 0.4924784707
0.7125491684 0.003549154 0.9927643313
0.7525417722 0.5009808625 0.0028230321
0.7424386876 6.4249445724e-04 0.2463869914
0.7424202782 3.0059194361e-04 0.7484419964
0.7425601897 0.2519003578 0.2479425866
0.7425233709 0.2531728105 0.7489307663
0.762545446 2.2880087707e-04 0.2561964459
0.752578591 7.0769408754e-05 0.5009118217
0.7625601735 -0.0011336673 0.7555268581
0.7524828621 0.0027019803 0.0026774137
0.7625491278 0.2497297032 0.2591419516
0.7524276338 0.2509845824 0.5014521379
0.7624681264 0.2492233256 0.7556253485
0.7524975896 0.2499509993 9.1903882661e-04
0.7825307022 -0.0018786867 0.2622080389
0.782504929 -8.5997605953e-04 0.7625730601
0.7724312995 -0.0012588298 0.008376507
0.7826153855 0.2493092405 0.2636089951
0.7726485305 0.2474542583 0.5109679623
0.7826853413 0.250033009 0.7628455194
0.7725675291 0.2485334023 0.0093575445
0.7925122847 -4.0755565743e-04 0.5135139838
0.7926116955 0.0011820014 0.0147147751
0.8127258176 0.4993706078 0.0184039289
0.7926227411 0.2508973657 0.5168378029
0.7925601491 0.2496568056 0.0164135955
0.8024386389 -3.265222233e-04 0.2683632254
0.812681635 -0.0018084903 0.5217043306
0.8025012309 -5.4462908094e-04 0.7656391474
0.8125196322 -7.2505051018e-04 0.0193683059
0.8025675048 0.2490527974 0.2648323004
0.812619043 0.2469348633 0.5193295166
0.8026190511 0.24824767 0.7630213292
0.8126889988 0.2483954177 0.0212326269
0.8326632094 -0.0025319204 0.5236815013
0.8225453973 -0.0023419376 0.7698503001
0.8326374362 -0.0041161923 0.0226027473
0.822523306 0.2486870079 0.2738280589
0.8327258014 0.2509390214 0.5210314666
0.8225453973 0.2477966164 0.7701402483
0.8325895718 0.246250147 0.0231539251
0.8225822161 6.4455960472e-05 0.2701535406
0.8425748361 -0.0015980637 0.7718569259
0.8426816107 0.249775915 0.2710767725
0.8426263825 0.2477777412 0.772526108
0.8626558213 -0.0028458094 0.2803054101
0.8425674723 0.4991044016 0.7743560034
0.8527147395 -0.0022209798 0.5313398162
0.8627110495 6.4392637335e-04 0.7796496294
0.8527368308 -0.0029522984 0.0250339861
0.8627736415 0.2487189006 0.2801747033
0.8426263825 -0.0014434168 0.276230487
0.8526852845 0.2494218412 0.5279607688
0.8625821836 0.2496730774 0.7767860456
0.8527368308 0.2487182497 0.0304729545
0.8726116306 -0.003390686 0.5328521492
0.8925416586 -0.0030488421 0.5348937529
0.8726779045 -0.0021403824 0.0353907524
0.8824422559 0.2500974453 0.2826314391
0.8926042506 -0.0043547105 0.0353174829
0.8726447675 0.2469355141 0.5352232813
0.8923980652 0.2497980446 0.5373155109
0.8824569834 0.2491927346 0.7832210551
0.8726263581 0.2485366567 0.0323796171
0.8923244276 0.2499907024 0.0371399225
0.902431194 5.0756890789e-04 0.2879434746
0.9125379605 7.8575115484e-04 0.5368037292
0.9025011498 -0.0011895771 0.7867611848
0.9024790585 0.2499483958 0.2866787481
0.9124422316 0.250814705 0.5409909497
0.9024054209 0.2483928142 0.787268364
0.9023796477 0.4972149232 0.7869802568
0.9124716866 0.2480699822 0.0411696505
0.9224790423 -0.0023404602 0.2900504316
0.9225784531 -6.8176759155e-04 0.7927249134
0.922423814 0.2483563654 0.2931238828
0.9222765388 0.2482157773 0.7932293312
0.9423464783 -9.0221758463e-04 0.295552084
0.9322986219 -9.0579737489e-04 0.5442494154
0.9424569348 -0.0021297862 0.7954421424
0.9324385335 3.2693457778e-05 0.0413064324
0.9423170232 0.2479632394 0.2949942789
0.9323980328 0.2475779238 0.5485802293
0.942261795 0.2475629537 0.7968605875
0.9322912582 0.2490365256 0.04978774
0.9524127441 -5.5003130988e-04 0.5430132235
0.9524090622 -0.0026670542 0.0449493787
0.962317007 0.2465261163 0.2931597811
0.9522986057 0.2492402482 0.545322684
0.9722764982 0.2516198324 0.5437919415
0.9622507331 0.2494726091 0.7957412953
0.9523980165 0.247526505 0.0437639047
0.9722175881 0.2486173647 0.0441581422
0.9625563293 -0.0018136973 0.2951857368
0.9823464458 0.498436608 0.793831319
0.9822543988 0.50020177 0.2957693151
0.9824679479 0.0016184755 0.296021524
0.9925931238 -0.0015694254 0.5422170165
0.9823022632 0.2499405853 0.2927731835
0.9925968057 -8.5699969271e-05 0.0466394546
0.9923280283 0.2475889886 0.5461685965
0.9822323075 0.2515566979 0.793017623
0.9924421667 0.2519908289 0.0453759247
0.0125541546 0.7511385587 0.0477127232
0.0025820714 0.4988453549 0.7952755372
0.0124570265 0.5011136402 0.0475019355
0.0226223717 0.7516267119 0.2973552858
0.0025532422 0.7490687891 0.2970229959
0.0124713859 0.7510669629 0.5464659085
0.0225949785 0.7494202594 0.7965973329
0.022342291 0.4998268683 0.2999878315
0.0023683749 0.7502468655 0.797125683
0.0124466804 1.0014765461 0.0490151891
0.0524477157 1.0022445738 0.5457866012
0.0525025758 1.0019191384 0.0431967107
0.0326263032 0.7512817503 0.0463412222
0.0425232024 0.5019161641 0.7969498731
0.0425213615 0.7514314506 0.2933392729
0.0325773342 0.7518219732 0.5480067761
0.0426115676 0.7497261687 0.7924763863
0.052458025 0.7516267119 0.0398273283
0.0526167141 0.7504356181 0.5423845421
0.0525555949 0.5014670631 0.5462937805
0.0425699623 1.0019777168 0.2938998394
0.0325077466 1.0004351526 0.5464428967
0.0324392636 1.0004546787 0.0477478852
0.0725253872 1.0032599325 0.5404211784
0.0626016103 1.0033575632 0.7907652316
0.0726700852 0.9992180239 0.0342608748
0.0725773018 0.7520367606 0.0374378789
0.0625320227 0.7499865171 0.2883705729
0.0726200116 0.7506373881 0.5362781406
0.0625695779 0.7524403006 0.7874368102
0.0624502849 1.0019972429 0.2903633916
0.082621108 1.0012422326 0.2842422626
0.1025758047 1.0004546787 0.7790264709
0.0825445249 1.0007540794 0.7843246993
0.092544885 1.0006629574 0.0323493337
0.0925894357 0.7492705591 0.0322320657
0.0925732355 0.5007712821 0.034750381
0.1026446559 0.7510799803 0.2781726799
0.0825905484 0.749875869 0.2831229704
0.092685901 0.7515160639 0.5301459659
0.1025422995 0.7512296806 0.7797812567
0.0826255263 0.7518414993 0.7814638769
0.0925518805 0.5001731317 0.5326063836
0.1123788159 1.0027457445 0.027897662
0.112494427 0.7508651929 0.0257328074
0.1225036235 0.4991714413 0.7758149492
0.1224697502 0.7521669348 0.278763622
0.1125901559 0.7513728722 0.5280169175
0.1223924307 0.7514835203 0.7770621868
0.1125176228 1.0021664693 0.5271489138
0.1224568636 0.9993937591 0.7761481595
0.1525021265 1.0039693819 0.5176855562
0.1324693739 1.0008191665 0.5239659267
0.1424192922 0.9994718636 0.7713184506
0.1524410072 1.0018735774 0.0192972456
0.1324410234 1.0004221352 0.0238820173
0.1526276786 0.7533645374 0.0167981681
0.132455751 0.7492380155 0.0244720389
0.1425080256 0.7506373881 0.2737783535
0.1525941735 0.7499800084 0.5203208634
0.1325905078 0.7500450955 0.524721633
0.142381737 0.5005154898 0.2726682661
0.1424505882 0.7504160919 0.7702948874
0.1727049819 0.7534361332 0.0138681263
0.1625135322 0.5020053334 0.7678445948
0.1725794298 0.5035316258 0.0147286742
0.1624943864 0.7516592555 0.2674261864
0.1825705851 1.0003114871 0.7617925011
0.1726497537 0.7515420987 0.5150299988
0.1624733997 0.4998704767 0.2680843228
0.1625960063 0.75335152 0.7657127851
0.1825440756 0.7520562867 0.2627732078
0.1825775807 0.7496350468 0.7644222854
0.1624704542 0.9985996965 0.2637240539
0.1723791354 0.9985346094 0.5154405286
0.1724317863 1.0005262745 0.0158314899
0.1925241853 1.0002594174 0.509273376
0.2024656353 0.9995044071 0.7529099604
0.1925540085 0.7487043013 0.0104499589
0.2025834555 0.7478321342 0.2534460799
0.1925668951 0.7513533461 0.5085673751
0.2025760917 0.7489776671 0.7588083356
0.2325720173 0.7471357023 0.9970077005
0.2324939614 0.4984177327 0.993399456
0.2325418259 0.7511515761 0.4985738265
0.232457879 0.4997136168 0.4954617157
0.222485133 0.9971742891 0.2473019391
0.2124332266 0.9987363794 0.5028779468
0.2124387494 0.9982221913 0.0052119293
0.2124520042 0.7502143219 -5.3769662501e-05
0.2324862295 0.9979227907 0.9921107973
0.2224704055 0.7487238274 0.2524372442
0.2125576742 0.7506569142 0.5014751497
0.2225749709 0.4965022195 0.2453394959
0.2225355748 0.7519586561 0.7515246522
0.2524946816 0.7517048164 0.9976980534
0.2525351823 0.4982608728 0.9978637381
0.2424589754 0.7500190607 0.2477023438
0.2525204547 0.7492770678 0.4958897345
0.2425554407 0.5018087704 0.2431635036
0.2425219356 0.7515746422 0.7432735544
0.2525731056 0.4969793079 0.4936714005
0.2624751595 0.5019753934 0.7434420005
0.2625848796 0.7508261406 0.2424575027
0.2624184585 0.7513533461 0.7457302902
0.2825675585 0.5012386074 0.7408398303
0.2824847161 0.7508586842 0.2378026832
0.2824895026 0.498950796 0.2406533804
0.2825406807 0.7510929977 0.7403151621
0.2726522499 0.7505202313 0.9900489433
0.2724147685 0.5003703456 0.9931693384
0.2725149157 0.7499084126 0.4935802739
0.2826706512 0.9986647836 0.2353965732
0.2826157911 0.998274261 0.7345290843
0.3126566357 1.0007801142 0.9785522663
0.2925056948 0.7466800926 0.9890456304
0.3026422845 0.4969005525 0.7337466843
0.2926080511 0.4983747752 0.988465734
0.3026305024 0.7494267681 0.2322200294
0.2926224104 0.7474806639 0.4872594027
0.302580797 0.5005389212 0.2359930381
0.3025657013 0.7478126081 0.7330250354
0.3026573802 0.9989446581 0.2316254054
0.3124747507 0.7482031307 0.9774108828
0.3126176077 0.498880502 0.9781656687
0.3126695223 0.7486522316 0.478083232
0.2926632793 0.9994783723 0.9869929811
0.3325973412 0.7495569423 0.9679024222
0.3326304781 0.50021674 0.9688689163
0.3226503684 0.7495309074 0.225593562
0.3326076504 0.7503640223 0.4681228203
0.3226256998 0.7506438968 0.7216019961
0.3325340128 0.5009567803 0.4719455344
0.3526665443 0.9992440587 0.4665313268
0.3425722963 0.9985866791 0.7188442664
0.3626893639 0.7477410123 0.2161384887
0.3524968096 0.9988925884 0.9689333492
0.3625457705 0.7490557716 0.7177277356
0.3625126335 0.99964109 0.21770605
0.3525542469 0.7488084407 0.9680312881
0.3626746364 0.9991789716 0.718278177
0.3524191218 0.5017723216 0.9705533773
0.3425630915 0.7508717016 0.22142291
0.352663967 0.7482291655 0.4667697286
0.3425468913 0.7491859458 0.716762162
0.3924721085 0.9996215639 0.4617706532
0.3725641718 0.7502468655 0.9611645779
0.3724684428 0.5014481879 0.9635209825
0.382586255 0.7497456948 0.2132077105
0.3725788993 0.7506894577 0.4653788977
0.3825310267 0.500075501 0.2117607308
0.3825715274 0.7506764403 0.7136960747
0.3826009825 1.0013528806 0.2141640794
0.3825383905 1.0011901629 0.7110957454
0.3723874414 0.9973825678 0.9667242199
0.3726525369 0.4995430886 0.464305629
0.3925383824 0.7504095832 0.9646715706
0.3923395607 0.7527917709 0.4613122588
0.4123064076 0.7495894858 0.9581546392
0.4123984546 0.7479818346 0.4567550092
0.4124058184 0.5015243398 0.4608290118
0.4025126011 1.0004221352 0.20747502
0.4023763714 0.49937972 0.7119085209
0.4025052373 0.7483593397 0.2109976607
0.4024757823 0.5001470968 0.212099464
0.4024352816 0.749159911 0.7100915121
0.432409484 0.7516202032 0.9477072987
0.422413174 0.7504876877 0.2027870636
0.4325088949 0.7484114094 0.4507581437
0.4224058103 0.4994727945 0.2069687612
0.4224168559 0.7505657923 0.7030278212
0.4423984303 0.7493812071 0.19918066
0.4424794317 0.7490883152 0.6958140936
0.4323947565 0.9971417455 0.4525631864
0.4224352653 0.9991854803 0.7014961582
0.4425677969 0.996861871 0.1947936974
0.4522990114 0.9977210207 0.9465659152
0.462556735 1.0025830267 0.1952870696
0.4725162262 0.9996280726 0.4450595106
0.4624094597 0.9996801423 0.6981585321
0.4524867873 0.7495113813 0.9472102446
0.4525714706 0.7527787535 0.4466629703
0.4723910422 0.7511645935 0.9484068563
0.4624610061 0.7497391861 0.1942211648
0.4724425885 0.7518414993 0.4484330351
0.4623947322 0.7497587123 0.6964630253
0.4724609979 0.5020814853 0.4442577808
0.4824720355 1.0011120584 0.1975891665
0.4926193026 1.0015416332 0.4435241658
0.4926193026 1.0001487694 0.9448814541
0.4825088543 0.5026184539 0.6962605218
0.4923762984 0.7523817222 0.4474941552
0.4824573079 0.7507024752 0.196479079
0.4924499361 0.749472329 0.9477165034
0.4824978087 0.7514835203 0.6977654912
0.5124720111 1.0017759468 0.4473892215
0.5125493307 1.0035788593 0.9491708468
0.5024757011 1.0026741487 0.1968601538
0.5224351842 0.7529284538 0.7025316876
0.5224572755 1.0004091177 0.199227604
0.5224057291 1.0036048941 0.6988369189
0.50251252 0.7518545167 0.1974556982
0.5024904287 0.5007289755 0.1957022019
0.5025603844 0.7512166632 0.6971202413
0.5024609736 0.4968803755 0.6980324276
0.5124609655 0.7511711022 0.9483608328
0.5124793749 0.4996836767 0.9466487576
0.5126524234 0.7501036739 0.4477997514
0.5224756849 0.5008637058 0.1980540041
0.5226524153 0.7510929977 0.1985915589
0.5326155883 0.7502729003 0.4507296091
0.5324867224 0.5001620669 0.4500245287
0.5323320834 0.9995890203 0.9513891808
0.542339439 1.0010469713 0.2043343745
0.5523615222 0.9997257032 0.4533787233
0.5525824352 0.7512557155 0.9521439667
0.5425235331 1.0030321277 0.6996036708
0.5424498955 0.7517829209 0.2035593383
0.5524277961 0.7515941684 0.4533050857
0.5425308969 0.7515681335 0.7035911492
0.5324020392 0.7485480923 0.9503398444
0.5623872873 1.0005718355 0.2058273777
0.5624056967 1.0006173965 0.7045640865
0.5624314699 0.7507350187 0.2034479614
0.5625161532 0.7498433255 0.70863993
0.5724351436 0.9995760029 0.4584008105
0.5724977356 0.9983718917 0.9606491144
0.5724682806 0.75193913 0.9560099429
0.5723835973 0.7533450112 0.458401731
0.6022657527 0.9998949297 0.2132077105
0.5924314455 0.7484114094 0.959130338
0.5924756281 0.9969920452 0.4639466455
0.6024388012 1.0000381213 0.713062791
0.5924719462 0.9987168533 0.9620758437
0.6025787127 0.7487173187 0.2130935721
0.602350436 0.5008936458 0.2095865794
0.5925529476 0.7476889426 0.4627923755
0.6024719381 0.7468037581 0.7144711109
0.5825050913 0.9999404907 0.2138317895
0.5823725435 1.0010339539 0.7099028156
0.5824609087 0.7495829771 0.2126600305
0.5824866819 0.7477149775 0.7140007504
0.6125566133 0.7481640784 0.9612842391
0.6124903394 0.7507675623 0.4594713178
0.6123025634 0.9987103446 0.9645795236
0.6224976951 1.0001292432 0.2160068614
0.6223982843 0.7487628797 0.2158641884
0.6225345139 0.7495243987 0.7155259701
0.6424129956 1.0014700374 0.7219803095
0.652427715 1.00105348 0.9741984407
0.6323982761 0.9995044071 0.9684362951
0.6325197783 0.7508326493 0.966190347
0.6325970978 0.5039716146 0.9712253208
0.6325418695 0.7510734716 0.4670412674
0.6526633554 0.7511190326 0.976904624
0.652678083 0.5007797434 0.9800434286
0.6425529071 0.7497261687 0.2226360902
0.6424645419 0.5009066632 0.2222853909
0.6525713084 0.7510929977 0.4766528208
0.6425602708 0.7493551723 0.723106045
0.6725528827 0.7511125239 0.9812584497
0.6726743848 0.4980662624 0.9869561623
0.6825528746 1.0007736055 0.2335243361
0.6724240169 0.9993481981 0.479270639
0.6825602384 0.999328672 0.735958575
0.6825749659 0.7514705029 0.2371187736
0.6725271096 0.7517438687 0.481782603
0.6825896934 0.7497131513 0.7352534946
0.6625676184 0.7477865733 0.2299722403
0.662516072 0.7504551442 0.7291553773
0.7025565403 1.0006694661 0.2419236298
0.7024755389 0.4999986983 0.7397325042
0.6926338679 0.7502663916 0.9896991645
0.6925565484 1.0003895916 0.4923348773
0.7024534476 1.0009102884 0.7367244065
0.692505002 1.0007866229 0.9874808305
0.7025528584 0.7523621961 0.2397798539
0.7024608113 0.5015145767 0.2423203526
0.6925123658 0.7494528029 0.4884118318
0.7025160396 0.7526615967 0.7415936957
0.7223797937 0.5000084613 0.7456235157
0.7324423776 0.7498563429 0.9981398793
0.7225123415 0.7521083564 0.2415591234
0.7223466568 0.5014644597 0.2472218581
0.7324276501 0.7508391581 0.5001818886
0.7225565241 0.7509693322 0.7454136484
0.7224607951 0.9997907903 0.7436141285
0.7124755308 0.7517048164 0.9922672773
0.7124828945 0.7479232562 0.4939438598
0.7425049615 0.5015158785 0.7529891209
0.7425270528 0.7514379593 0.2470902309
0.7424865521 0.4980408784 0.2510998005
0.7424939158 0.7507545448 0.7474350017
0.7524570889 0.4999778704 0.5024600531
0.7524975896 0.74830727 0.0028319607
0.7626043561 0.4992964085 0.7551439424
0.7624975815 0.74992143 0.2586927619
0.7627037669 0.5001152042 0.2565259743
0.7525049534 0.7500320781 0.5024370414
0.762545446 0.75032497 0.755718316
0.782567521 0.7477540297 0.2593601031
0.7825564754 0.4987470734 0.2616575975
0.7726522124 0.7490557716 0.5089898711
0.7825086109 0.7512622242 0.7639905847
0.7724681183 1.0001682955 0.5104027934
0.7724718002 0.4996576419 0.5087496283
0.7725785748 0.7508131232 0.0087192902
0.7825196566 0.5001698773 0.7611951157
0.7725564835 0.5003065602 0.0102277573
0.792471784 0.7484699878 0.5135020177
0.8124717677 0.4994988294 0.5183271242
0.8125454054 0.7501882871 0.017993215
0.8025417316 0.4998958606 0.7677037628
0.8026632337 0.7520042171 0.2673562306
0.8025564592 0.4993836252 0.2677437487
0.7925527854 0.4985446525 0.5129193598
0.7925049209 0.7507350187 0.0142522386
0.8125932699 0.749361681 0.5206881311
0.7926374687 0.5004946619 0.0173241249
0.8025343679 0.751379381 0.7664822984
0.8326926645 0.5009958326 0.5212533
0.8325711623 0.7495309074 0.021354129
0.8225785342 0.4996563401 0.7744738236
0.8326632094 0.5006996863 0.0224623755
0.8227074001 0.7484309355 0.2716474643
0.8226705813 0.4996342105 0.273294186
0.8325417073 0.7474155768 0.5211336389
0.8226337624 0.7473830333 0.7738617107
0.86263373 0.7497782384 0.7819738175
0.8625821836 0.5010570144 0.7768790131
0.8526447838 0.7504616529 0.0240268993
0.8526816026 0.4995658691 0.0250732902
0.8626779126 0.7505592835 0.2814431117
0.8625159098 0.5007836486 0.2779775401
0.8526521475 0.7515095551 0.5219942788
0.8426558375 0.7495894858 0.2720138115
0.8427442027 0.5000924237 0.271764364
0.8427294752 0.7487824058 0.7751135506
0.8525969193 0.4978013579 0.5229064651
0.8724643553 0.498365663 0.530938491
0.8826042587 0.7508326493 0.7852267604
0.8923317913 0.49939469 0.5353650338
0.8726779045 0.7502208306 0.0298177635
0.8925122035 0.7478126081 0.0318598274
0.8823870277 0.5006801601 0.7818348265
0.8725748118 0.4988290831 0.0300042509
0.8922839269 0.4991349925 0.0363972869
0.8826005768 0.7506634229 0.2832407906
0.882375982 0.4998691749 0.2800219052
0.8726042668 0.7468948801 0.5321802058
0.8923796558 0.7491403849 0.5323827093
0.8825784855 0.9995239332 0.2845487793
0.8825306211 0.9995760029 0.7863165975
0.9124495953 0.7480404129 0.53752906
0.9124495953 0.9973370068 0.0391920196
0.9122544556 0.4979165621 0.5367475805
0.9024606491 0.7482421829 0.7858913401
0.9124348678 0.7480078694 0.0383620313
0.9123943671 0.4994994802 0.0392324282