POSCAR file written by Ovito 3.7.11
1
271.5937407888 0.0 0.0
0.0 15.3636620672 0.0
0.0 0.0 10.8637496315
Sr Ti O 
800 800 2400 
Direct
0.0123525725 0.2502118972 0.5461816643
0.0226221759 0.2509447954 0.791816007
0.002622525 0.2495278155 0.7912609501
0.0124950279 0.250436453 1.0450600612
0.0224387033 9.2797104776e-04 0.2934862237
0.0023868421 1.0006879197 0.2896652594
0.0125792714 -3.4978421099e-04 0.5421830449
0.0224479082 -3.3845878615e-04 0.7940592472
0.0024719692 -7.4849759719e-05 0.7947376502
0.012633249 1.0016317051 1.0427220103
0.0224552353 0.2518065691 0.2938525797
0.0026159342 0.2505633759 0.2900767195
0.0324947524 0.2504781098 0.5429544177
0.0424935101 0.2495597089 0.790163723
0.032475238 0.2498298268 1.0445077657
0.0424187661 1.0009417655 0.2907956242
0.0325002754 7.8581743943e-04 0.5413960239
0.042411034 0.9994837797 0.7890600525
0.0325017482 0.0015852362 1.0424734773
0.0426724538 0.2511081679 0.2884124691
0.0724231395 0.2517688177 0.5287116373
0.0525438154 0.251142014 0.5357580073
0.0625952252 0.2511094697 0.7839872184
0.0725140841 0.2515787588 1.0246619475
0.0524675986 0.2516796462 1.0353856851
0.062426591 0.9997766787 0.2817867641
0.072575573 1.0013192796 0.5304716189
0.0524248877 0.0017344194 0.5366076219
0.0624556785 1.0005577424 0.7798753784
0.0725074566 0.0015319937 1.0315012067
0.0524790127 1.0008311148 1.0383588758
0.0624906573 0.2494490582 0.2841699192
0.0925509966 0.2526553251 0.5275232815
0.102384802 0.2473161032 0.7778852736
0.0825415612 0.250327755 0.7771755739
0.0924898759 0.2504820151 1.0244318244
0.1025331854 1.0007464995 0.2751555362
0.0823471532 1.0013388062 0.2772561
0.092495767 3.7818690839e-05 0.5294296214
0.1024831106 -3.0318073867e-04 0.7791960549
0.0824657126 1.0012737176 0.7760194353
0.0924258096 1.0030050756 1.0265397522
0.1024098394 0.2500491756 0.2760898361
0.0825470841 0.2512272801 0.2805744755
0.1125046965 0.2505829025 0.5271293107
0.1225145 0.2496104781 0.7740293306
0.1125591896 0.249066337 1.0278376466
0.1225487424 5.7883553719e-04 0.2759876614
0.112541148 1.0001411751 0.5274929052
0.1226643562 0.9997831875 0.7754211152
0.1124977007 -0.0016369773 1.0257757434
0.122448961 0.2508920736 0.2742147928
0.1525453836 0.2509194108 0.5189139152
0.1325662781 0.2503036722 0.5235927785
0.142505756 0.2511309489 0.7728299288
0.1525943538 0.2507898844 1.0185682872
0.1325670145 0.2521137875 1.0254167514
0.1425908095 0.0017753602 0.2726830933
0.1525085639 1.0004210563 0.519057512
0.1325637007 -0.001535439 0.5246412195
0.1426401479 5.8697161825e-04 0.7707100346
0.1524503888 1.0005382158 1.0198477718
0.1325662781 -4.9323959229e-04 1.0268251049
0.1425687177 0.2521756217 0.2723839333
0.1725590996 0.2481238533 0.5118868755
0.1625993708 0.2496254485 0.7650278345
0.172563518 0.2497653891 1.0076972708
0.1623950215 0.0025204299 0.2627721506
0.1725428989 -4.5874260859e-04 0.5106663024
0.1624797068 1.0018855509 0.7671081475
0.1724302307 0.0017873365 1.0096947395
0.1624944347 0.2504885239 0.2652160582
0.1924929169 0.2483028471 0.5073755417
0.2024408634 0.2484636161 0.7577568642
0.1826326013 0.2477437356 0.7577679102
0.1924111771 0.248854148 1.0082219516
0.2024010981 -0.0017492552 0.257634882
0.1823737588 -0.00167935 0.2594132735
0.1925658199 -0.0012859542 0.5059248456
0.2024762103 0.998364255 0.7587703265
0.1825409202 0.9978695813 0.7602771727
0.1922841492 -0.0016195987 1.0084612796
0.2025402765 0.2486595329 0.2564317983
0.1824904772 0.2516484037 0.2602094995
0.2125905818 0.2489276982 0.5063289418
0.2224081866 0.2483503618 0.7533596716
0.2125552349 0.2479533211 1.0084336648
0.2225164365 0.9966263881 0.2537614496
0.2123681908 0.9995879216 0.5032425304
0.2226011218 0.9971275707 0.7532998396
0.212400224 0.9984879234 1.0073382788
0.2224446381 0.2492140882 0.2538452144
0.2523779494 0.2491678753 0.4975787401
0.2326017204 0.2488274616 0.5043471214
0.242394656 0.2487317813 0.7496206311
0.2524063006 0.2503557431 0.9984002966
0.2324573872 0.2464269923 1.0028923
0.2425176338 0.9988394021 0.2490761428
0.2523654307 -0.0017092257 0.4981107848
0.23241394 -4.254823092e-04 0.5008354426
0.2425110062 0.9973358543 0.7499639748
0.2525278056 6.0897158145e-04 0.9984647311
0.2324397138 -0.0036623864 1.0036010792
0.2423375855 0.2480965161 0.2508085097
0.2724774553 0.2488508935 0.4947417823
0.2623807572 0.2472119614 0.7486679214
0.2724932878 0.2503583466 0.9900422248
0.2624006399 1.0011500491 0.2437050691
0.2724008703 -0.00241616 0.4934751846
0.2623737615 0.9998482762 0.7445045338
0.2724167028 -0.0020865772 0.9916991113
0.2625265632 0.2485742668 0.2448814585
0.292455088 0.2491223132 0.4853527588
0.3022944164 0.2482878767 0.738230457
0.2824883635 0.2487285269 0.7400539526
0.2924561926 0.2488411303 0.9897844869
0.3024299129 -0.0016686755 0.2359489993
0.2823429257 0.9988524199 0.2423372173
0.2924410965 -0.0019503857 0.4878675443
0.3024011935 -0.002151835 0.7363756646
0.282351026 0.9983837816 0.7388158902
0.2922555252 -0.0022175095 0.9883669284
0.3023327089 0.2493078159 0.2376242957
0.2822821732 0.2485547402 0.2429125251
0.3324810473 0.2487649765 0.4796134881
0.3124076833 0.2488066333 0.4859906601
0.3224436289 0.2489647987 0.7308794039
0.3324324453 0.2510313633 0.9778364943
0.3124341935 0.2479949778 0.9825862356
0.3223585754 -0.002455031 0.2333173113
0.3325156578 -0.0012300431 0.4784665545
0.3123141613 -0.0010451913 0.4872986799
0.3225459877 -3.1385527702e-04 0.7317115291
0.3324928296 0.0017296028 0.9796038399
0.3124062105 0.9979021256 0.9864246893
0.3223287514 0.2499307142 0.2312075425
0.3525400515 0.2499105367 0.4742414939
0.3424021154 0.2473200085 0.7249219765
0.3525941765 0.2508823103 0.9762440423
0.3425118381 -8.1777159373e-04 0.2242440168
0.3527399825 8.4700076902e-04 0.4737011648
0.3426377615 1.0004601095 0.7230846734
0.352582026 0.0032362098 0.9731051629
0.3424919554 0.249421721 0.2261687666
0.3726458168 0.251158937 0.4711578441
0.3827822801 0.2491288221 0.7187657227
0.3626014027 0.2486692962 0.725042561
0.3726752725 0.2518573382 0.9732432368
0.382679185 1.0014689835 0.2164943905
0.3627155437 1.0015340722 0.2169261015
0.3726863184 0.0013554733 0.4712185966
0.3826423653 -8.7196928401e-06 0.7127549067
0.3626198125 1.000290879 0.7195260495
0.372737866 6.3058101275e-04 0.9673060602
0.3826902309 0.2482455691 0.2214346737
0.3627302716 0.248332137 0.2226294729
0.3927015073 0.2500914832 0.4643977472
0.4025949606 0.2490324909 0.7095773666
0.3926904613 0.2496527857 0.962915311
0.4026280983 1.000388512 0.2103445801
0.3926389138 1.0027707565 0.462700359
0.402547095 -6.1586660607e-04 0.7095644797
0.3925431825 0.9992950227 0.9623077859
0.4026023245 0.2502555066 0.211153693
0.4325367405 0.2491092955 0.4571461073
0.4126283288 0.2501292346 0.4572602484
0.422532828 0.2511368069 0.704311229
0.4325404224 0.2480789422 0.9544928046
0.4126246468 0.2522895268 0.958865144
0.4224518247 1.0001086308 0.2086287821
0.4324815109 0.999132301 0.4526946056
0.4125767812 -0.0016753145 0.4556585914
0.4224739165 0.9997376255 0.7082923591
0.4325514683 0.9976547887 0.9520627045
0.4125289156 -0.0010962859 0.9570793886
0.4226764248 0.2496534366 0.2027808933
0.452585067 0.249060479 0.4539648852
0.442529607 0.2489250946 0.6998753757
0.4526071588 0.2492557449 0.9527898935
0.4425369709 1.000193246 0.2061738286
0.4524009685 -0.0018167522 0.4552305624
0.4424486036 -0.0029516639 0.7046711416
0.4525335194 0.9997376255 0.9562509453
0.4425369709 0.2499639094 0.2016643359
0.4724014294 0.249748466 0.4490153971
0.4825636666 0.2501734949 0.7012045668
0.4625926614 0.2477085878 0.702847646
0.4725008426 0.2496345609 0.9525689753
0.4824053418 -9.4157020318e-04 0.2014894423
0.4624748383 -0.0010642623 0.2032328551
0.4724824328 0.9989825971 0.4507569689
0.4824679353 1.0015470899 0.7036088932
0.4625484777 -0.0011513509 0.7022557693
0.4725082065 -0.0021933421 0.9534986727
0.4824900272 0.2480808948 0.1977310715
0.4625558417 0.2494308334 0.2012142151
0.5125017644 -0.0016395158 0.453497275
0.5124133972 1.1327610899e-05 0.9516024582
0.4925197134 0.2478914869 0.4503418268
0.5023358453 0.2502691752 0.6986814969
0.4926375364 0.2492824313 0.9496233993
0.5124612628 0.247701428 0.4505756319
0.5124723087 0.2485527875 0.9537011811
0.5025457176 6.2888870789e-04 0.2019800648
0.4923282509 3.3247500261e-04 0.4493256031
0.5024315766 -5.4309749704e-04 0.7028485664
0.4925491691 -8.6476559794e-04 0.9488778004
0.5024242126 0.2501422523 0.2009049296
0.5225056769 0.9982340777 0.202759722
0.5324801336 4.5770556233e-04 0.4536252235
0.5225461786 0.9971731327 0.7042928192
0.5325059073 1.0013583328 0.9509673184
0.5225461786 0.2501025483 0.2018511959
0.5324911795 0.2508823103 0.4573035115
0.5225351326 0.2492876384 0.6988085249
0.5324506778 0.250666216 0.9549806657
0.5424656361 -6.7945821566e-04 0.2076070354
0.5625544643 0.0017749696 0.209497727
0.5524805945 -9.471027383e-04 0.4530333468
0.5424730001 1.0010654339 0.7064071904
0.5624108675 1.0008050793 0.7070791499
0.5524548207 0.0011945091 0.9584417174
0.5424914099 0.2497113655 0.2024200602
0.5624660971 0.2491281712 0.2082642671
0.5524842764 0.2510424283 0.4545273062
0.5425392755 0.2480561611 0.7050338156
0.5625471004 0.2498571641 0.7078155439
0.5525947355 0.2510222509 0.9546492884
0.5824996957 6.6136794349e-04 0.2097784772
0.5724295078 -4.0426340979e-04 0.4581825818
0.5825254695 0.9996985723 0.7119770905
0.5723595504 0.0012202842 0.9588007095
0.5825659712 0.2488020771 0.2102460874
0.5725620587 0.2497269868 0.4582083556
0.5824371022 0.2479032028 0.7130991709
0.5724847374 0.2503778732 0.9602458827
0.6025553862 0.9987092248 0.2191610572
0.592393149 1.0018530065 0.460128503
0.6124451576 4.6213159043e-04 0.468464483
0.6024044254 3.8916721546e-04 0.7190630417
0.5924189228 0.0015107097 0.9606140797
0.6123715182 4.6401916123e-04 0.9700767426
0.6026106157 0.2503570449 0.2172620812
0.5925330639 0.2491769877 0.4663132921
0.6124856592 0.2491952125 0.4722863679
0.6023860156 0.2498063949 0.7174052348
0.5925662016 0.2503993525 0.9668274041
0.6125556167 0.250826334 0.9725436625
0.6225595291 -6.6787243622e-04 0.2241823438
0.6325818514 -0.0022904999 0.4743050079
0.6224637979 3.8454592141e-04 0.7268007016
0.6324308906 0.9996074482 0.9743018031
0.62244907 0.2499905958 0.2226294729
0.632508212 0.2518371607 0.4783091502
0.6223680666 0.2502086428 0.7226060173
0.6325266218 0.2500843234 0.9794473562
0.6424090292 1.0004991627 0.2308338226
0.6626119985 -0.001507516 0.2393354912
0.652493945 -0.0010081559 0.481222509
0.6426078556 0.9985139589 0.7318624899
0.6625899067 1.0010524162 0.7359780118
0.6524313515 0.9999198737 0.9825494159
0.6425231703 0.2510105349 0.2274786274
0.6624610377 0.2501194713 0.2366817114
0.6524828991 0.2500901814 0.4810190801
0.6424973965 0.2497582293 0.7297830973
0.6624168541 0.2517147941 0.7339694972
0.6525712664 0.249828525 0.9824389568
0.682671371 0.9989825971 0.2377191064
0.6724170846 1.0011760846 0.4872084717
0.6827081907 8.7676595592e-05 0.7404746177
0.6724097206 -2.3750629233e-04 0.9855134017
0.6825314561 0.2513782858 0.2380569272
0.6726453667 0.2496013657 0.489066946
0.6825682758 0.2490494139 0.7389309517
0.6725349076 0.2490708932 0.9856514756
0.7026423761 2.3249883851e-04 0.2415953003
0.6924543652 0.9998287496 0.489014478
0.7124585081 1.000870168 0.4928400448
0.7023772743 0.9997962053 0.7413960306
0.6925611423 1.0005967956 0.9907970286
0.712344367 -0.0014072144 0.9925183496
0.7025981925 0.2500992938 0.24243571
0.6925390505 0.2495903006 0.488822095
0.7124990098 0.2492616029 0.4886278711
0.7024619596 0.2515071613 0.7389797378
0.6925316866 0.2489257455 0.9888824042
0.7124769179 0.2500257437 0.9896556179
0.7223740532 0.0013859348 0.2419211547
0.7423487404 1.0013648417 0.2466552476
0.7322417328 -3.9026935036e-04 0.494223545
0.7224219188 1.0018204622 0.7413122658
0.7423156026 0.0017416442 0.7454959042
0.7323632378 0.9990411769 0.9957308684
0.7224771484 0.2509923101 0.2436194633
0.7423340125 0.2528662123 0.2471817693
0.7324258313 0.2532163892 0.494900107
0.7225397419 0.2494946203 0.7425171905
0.7422640551 0.2524021302 0.7466235075
0.7324405592 0.2523760948 0.9948840153
0.7624044308 5.9484734472e-04 0.2470547413
0.7523011052 0.0020063598 0.4997207262
0.7623970669 0.0017048041 0.7498691641
0.7523747446 1.0007269729 0.9999743388
0.762260834 0.2505536126 0.2508545343
0.7524226102 0.2528805318 0.4986593983
0.7622718799 0.2511309489 0.7502005414
0.7523011052 0.2503088793 1.0010052904
0.7824085737 4.1103700135e-04 0.2536721618
0.7723715236 0.9990672124 0.5030059639
0.7925744929 1.0020873257 0.5098047214
0.7823496622 0.0014049407 0.7540712123
0.7724304351 1.0001867371 1.0007567574
0.7924566698 7.2313707092e-04 1.0089215259
0.7823165245 0.2501891162 0.2517280817
0.7722905202 0.2487662783 0.5024840446
0.7922394336 0.2508491151 0.5041041114
0.7823349343 0.250860831 0.7542019222
0.7724009793 0.2496033183 1.0013550775
0.7924088042 0.2503440271 1.0083692304
0.8024311265 1.002263065 0.2609909977
0.8123650815 8.5513685008e-04 0.51525956
0.8023353953 0.0027362639 0.7617610066
0.8124424029 1.0007204641 1.0145917596
0.8025710413 0.2511211856 0.2598044828
0.8124534488 0.2518827228 0.5118555787
0.8024016707 0.2498825486 0.7603710629
0.8124608127 0.249622194 1.0124470121
0.8225199547 1.0003820031 0.2660132047
0.8424210024 1.0009547832 0.2719494608
0.8324281359 -2.0645900699e-04 0.5198159978
0.8224279054 3.9814944895e-04 0.7661867345
0.8424946418 -0.0011141853 0.7703234278
0.8325054573 -6.391486677e-05 1.019571624
0.8224315874 0.2504702991 0.2687875691
0.8425830091 0.2525778696 0.2728533844
0.8325606868 0.2494698866 0.5202642777
0.8225052268 0.2505132576 0.7687364987
0.8424983238 0.2534474539 0.7743708333
0.832534913 0.2518124271 1.0216519371
0.8625356044 0.0011878049 0.274439393
0.8524654165 1.0012476821 0.5221577307
0.8625429684 1.0003104056 0.7753732496
0.8525501018 0.00128329 1.0221950276
0.8626166078 0.2502698261 0.2727843475
0.8525501018 0.2530953243 0.5272397698
0.8626202897 0.2516444983 0.7749691534
0.8526016494 0.2516458001 1.025462776
0.8826722982 0.9998873294 0.2740932878
0.8725358349 0.0011717931 0.5244000504
0.8925657516 5.9946863877e-04 0.5267675571
0.8826244326 1.002074308 0.778151296
0.8725468808 0.0015940883 1.0234653073
0.8826023408 0.2504299442 0.277014931
0.8925289319 0.0010901069 1.0273681954
0.8727162514 0.253280827 0.5255138464
0.892639391 0.2524118935 0.5319002233
0.8825986588 0.2491756859 0.7751679798
0.8726683858 0.2541373936 1.0284819914
0.8926172991 0.2493969873 1.0284911963
0.9025991198 -0.0018020421 0.2822957965
0.9224081182 -3.3546470832e-04 0.2870851189
0.912507301 -0.0021814178 0.5341204512
0.9024334311 0.9998808205 0.7831468087
0.9223970723 0.9997441343 0.7844097244
0.9125772584 0.9994837797 1.0359287756
0.9026764411 0.2476779961 0.2810135504
0.9224891216 0.2504598849 0.286827381
0.9125183469 0.2473525529 0.5340679831
0.9025954378 0.2489875797 0.7785572331
0.9225148954 0.250465092 0.7863114619
0.9125220289 0.2509864521 1.0303597961
0.9423864873 1.0003169144 0.2931668128
0.9324525323 0.9987743135 0.5401736098
0.9424674907 1.0007790438 0.7896859874
0.9324120307 0.9991908808 1.0384693349
0.9424895825 0.2498571641 0.2867031145
0.9324304405 0.2516379895 0.5349636223
0.9425779498 0.252024616 0.787225511
0.9326439948 0.2485352136 1.0376224818
0.962541591 -0.0021252333 0.2925187861
0.9524677212 1.0004666183 0.5393285977
0.9725786412 1.0005967956 0.5408805481
0.9624900434 0.9995228329 0.7907997833
0.9523903998 1.000434074 1.0397027949
0.9626115484 0.2491717806 0.2899828293
0.9724939559 1.3883627331e-04 1.0420592557
0.9525634524 0.2503726662 0.5405556142
0.9725050018 0.2497237323 0.5386906964
0.9626005025 0.250321897 0.7922569229
0.9525266327 0.252191243 1.0404483938
0.9725528674 0.250734559 1.0399421229
0.9825125962 -0.0019007295 0.2891138844
0.9924281413 1.0017293381 0.5396249963
0.9824831404 1.0007660261 0.7908522514
0.9825530978 0.2499899449 0.2912724393
0.9923913216 -9.3792523886e-04 1.0437621668
0.9924281413 0.2488287634 0.5420293227
0.982534688 0.2487727872 0.7893223929
0.9924796889 0.2466990628 1.0413965011
0.0124979367 0.7516196974 1.044710274
0.0226927224 0.5015347903 0.7934728935
0.0025675532 0.500458875 0.795256808
0.012611415 0.5008728388 1.041405706
0.0225289116 0.7522770927 0.2942704833
0.0024893481 0.7505131904 0.2904485985
0.0124685545 0.750096623 0.5459239264
0.0224878576 0.7531883338 0.7935732272
0.0224527316 0.5036273904 0.2956595065
0.002459966 0.5018817128 0.2924147704
0.002456284 0.7499339014 0.789117123
0.0125552281 0.5011761519 0.5437092215
0.032549982 0.7491853819 1.0415437799
0.0425877685 0.5001295264 0.7850872069
0.0325978476 0.5011488146 1.0407613612
0.042502715 0.7502137826 0.2896229167
0.0324634557 0.7489640805 0.5419197841
0.042433494 0.7506173322 0.790842126
0.0426761358 0.5008539631 0.2883241018
0.0326111027 0.5005552062 0.5438178396
0.0724780008 0.7509232488 1.0289238278
0.0625469914 0.5005187565 0.777039341
0.0525423426 0.7500575698 1.0353120457
0.0724993562 0.5019461506 1.0280217451
0.0526111954 0.4985374581 1.0358735461
0.0624048674 0.7498362684 0.283025747
0.0724669549 0.7515350821 0.5258903278
0.0524340927 0.7504546106 0.5324690876
0.0625329999 0.4996595864 0.2808754765
0.0724643775 0.501812068 0.5280654516
0.0624575195 0.7500770964 0.7839918208
0.0525850534 0.4992625456 0.5358675459
0.0924070315 0.752888926 1.0274510398
0.1025600637 0.4993816578 0.776241274
0.0824299975 0.5012464476 0.7751495699
0.0925123359 0.5017521864 1.0268251049
0.1025460723 0.7495628961 0.2760042303
0.0824005417 0.7518019456 0.2790924826
0.0924464286 0.7484173359 0.5264619536
0.102554909 0.7492374528 0.7766021071
0.1024175715 0.5008389927 0.2747947031
0.0825139464 0.5008292294 0.2769173588
0.0824086421 0.7510078641 0.7781117148
0.0925708792 0.5007934306 0.5270262155
0.1124947551 0.7493611213 1.024229316
0.1225804073 0.5004849104 0.7765128193
0.1125613988 0.499942722 1.0224803803
0.1225303325 0.7504871549 0.2739607369
0.1126556572 0.7484824245 0.5244736898
0.1226083903 0.5000136686 0.2738033327
0.1226253273 0.7515090467 0.7711270177
0.112541148 0.4985595882 0.522059238
0.1526065043 0.7501421851 1.014794268
0.1424921328 0.5030656753 0.7690614326
0.1325290902 0.7496605291 1.0234284876
0.1526101863 0.4995098825 1.0159172688
0.1325706964 0.4998815387 1.0197649274
0.1426372024 0.7512617098 0.2694484827
0.1526271233 0.7519516495 0.5148214055
0.1326866785 0.7487167437 0.5221595717
0.1427049506 0.5019734878 0.2684221336
0.1426151106 0.7515090467 0.7689555759
0.1525961948 0.4993992318 0.5151316115
0.132556705 0.4997370419 0.5183459713
0.172535535 0.7504871549 1.0084244599
0.1626383997 0.5002141417 0.7613974121
0.1726180111 0.5009320694 1.008286386
0.1625423003 0.7520557913 0.2618838754
0.1725708819 0.7489966248 0.5100044683
0.1626512866 0.5006281055 0.2589116051
0.1625202085 0.7510729527 0.7638127844
0.1725502629 0.4985628426 0.5115205195
0.1924822392 0.7484498802 1.0025977424
0.2025586864 0.4994011844 0.753124946
0.1826333377 0.4992729598 0.7541595796
0.1924167001 0.4984385233 1.0043558831
0.2024574322 0.7512421832 0.2538847956
0.182445189 0.7483262118 0.2597326844
0.1924881303 0.7490161514 0.5047558201
0.2024206125 0.5008669808 0.2575953009
0.2024220853 0.7483197029 0.7523729036
0.1825972544 0.5004731945 0.258189939
0.1825711124 0.7499859723 0.7582649761
0.1926803291 0.4973430814 0.5034836995
0.212419002 0.7487297614 1.0049357934
0.2225425785 0.497734915 0.7521308141
0.2123792367 0.499019765 1.0063165321
0.222545524 0.7503244333 0.2491626691
0.2126016277 0.7487102348 0.5039402638
0.2224888217 0.4983897068 0.2514197167
0.2224597341 0.7474800593 0.7489385461
0.2124606083 0.4990412442 0.5016335096
0.25252486 0.7507410006 0.993208719
0.2423898694 0.4972903596 0.7516862162
0.2324062078 0.7502723624 0.9988697478
0.2525237554 0.4998288169 0.9979676652
0.2324271951 0.4985791148 1.0018245287
0.2424804459 0.7481634901 0.2453914114
0.2524917223 0.7511901123 0.4959927316
0.2325383906 0.7491723642 0.5007139376
0.2423489996 0.4965613667 0.250523157
0.2424933328 0.748267632 0.7510768502
0.2524578481 0.5003215379 0.4976321287
0.2324415547 0.4994701784 0.5029976794
0.2724682504 0.7504481017 0.9909535124
0.2624507147 0.4971575787 0.7459625939
0.2724745097 0.5001842009 0.9918647999
0.2625678013 0.7487688146 0.2444856467
0.2724266441 0.7509818286 0.4906971382
0.2624352504 0.4971940284 0.2459160921
0.2625725879 0.7487362703 0.7424573585
0.272495497 0.4987678719 0.4940836301
0.2924016995 0.7492504706 0.9861025169
0.3023886748 0.4974062174 0.7345981936
0.2825104553 0.4975090574 0.7417448973
0.292363407 0.5001724849 0.9891861668
0.3023621646 0.7477534317 0.2324658557
0.2823797454 0.7503309421 0.2380854624
0.2924690795 0.7487102348 0.481525351
0.3025654094 0.4974524303 0.2348361239
0.302445009 0.7490291692 0.7353502359
0.2825388065 0.497792193 0.2412271033
0.2825056687 0.7486972171 0.734980198
0.2924738661 0.4986005941 0.4885026841
0.3324335499 0.749569405 0.9755628778
0.3225327326 0.4994526045 0.7301991599
0.3125140923 0.7484694068 0.9807820703
0.3323514419 0.4989937295 0.9800917009
0.3125015736 0.4985394107 0.9834699084
0.3223968679 0.7485735486 0.2263611495
0.332493566 0.750962302 0.4787887268
0.3124327207 0.7479486976 0.482693456
0.3224414197 0.4975240278 0.2304601026
0.3224554112 0.7500120078 0.7302276952
0.332385316 0.5002265085 0.4750717781
0.3124172565 0.4986969253 0.4843079998
0.3524664121 0.7493025415 0.9752407055
0.3425574945 0.4999518344 0.7283646184
0.3525426289 0.4985908308 0.9747436395
0.3425597037 0.7495628961 0.2267514383
0.3525341604 0.7483001763 0.4730549791
0.3425486578 0.5001633725 0.2273902601
0.3424242072 0.7509883375 0.7240668389
0.3525396833 0.4990334336 0.4717193445
0.3725279937 0.7492895238 0.970518579
0.3825797718 0.4998515979 0.7138659411
0.3625203993 0.4997559176 0.7239784717
0.3728004595 0.4992391137 0.9684474709
0.3825282242 0.7508516513 0.2191095096
0.362678724 0.7503765042 0.2218986019
0.3725684954 0.7489770983 0.4710252931
0.3826165915 0.4991929008 0.2165201643
0.3826975948 0.7502593446 0.7168925204
0.3625682649 0.4997110064 0.2206145149
0.3625940387 0.7501617117 0.7222194105
0.3727489119 0.5001210649 0.4700072284
0.3925468645 0.7507475095 0.9672232158
0.4027532853 0.5005949102 0.7111569317
0.392609458 0.4973502411 0.9625010893
0.4025986426 0.7508125981 0.2098198994
0.3927235991 0.7524853764 0.4639457854
0.4026317803 0.4992859775 0.2114813883
0.4025360491 0.7511445502 0.7118160043
0.3926389138 0.4993471609 0.4613822138
0.4324778289 0.7470504743 0.9549254361
0.4225806936 0.5011449093 0.7081506032
0.4125804632 0.7502853801 0.9614609328
0.4325551503 0.4979913643 0.9509397036
0.4125399615 0.4998307695 0.9564902734
0.4225438739 0.7478250292 0.2046725054
0.4325036027 0.7477143785 0.4549544147
0.4125399615 0.750819107 0.4592733655
0.4226911527 0.4991727233 0.2044635536
0.4224297329 0.748365265 0.7051295468
0.4325146486 0.4989709485 0.4531612953
0.4126504206 0.4993328414 0.4550455434
0.452585067 0.7486386373 0.9524493113
0.4425480168 0.4988420729 0.7037230343
0.4526329326 0.49879586 0.9519614503
0.4424927873 0.7486321284 0.20251303
0.4526255687 0.7472131959 0.4528823861
0.4425774726 0.4982497662 0.2058120751
0.4425480168 0.7486841993 0.703335507
0.4525703391 0.5003872775 0.4530103345
0.4725450262 0.7493806479 0.9528359182
0.4824679353 0.5004152656 0.7027012876
0.4626000253 0.4997370419 0.7022686562
0.4725523902 0.4991531967 0.9513999499
0.4824679353 0.7498167418 0.2011866003
0.4626515729 0.7499664457 0.2037216366
0.4726186656 0.7485930752 0.453999864
0.4824716173 0.5005532535 0.2007484459
0.4824679353 0.7517694013 0.7026248868
0.4626110712 0.4988355641 0.1990326478
0.4625816155 0.7486451461 0.7033060512
0.4726775772 0.4983740856 0.4488110478
0.4925160314 0.4988550907 0.9495865796
0.5024610323 0.7513593428 0.2013771422
0.4924129362 0.7501096407 0.4539658057
0.5025751734 0.4991421316 0.2025388038
0.5024315766 0.75091674 0.7002021505
0.4925454872 0.7507084563 0.9525137458
0.4923945264 0.4989501201 0.4506557147
0.5023616191 0.4991063329 0.7020873191
0.5124097152 0.7501356762 0.9542626815
0.5123471217 0.5009607085 0.9524769261
0.512560676 0.7498037241 0.4486748149
0.5123029381 0.5002271594 0.4485477869
0.522365762 0.5002948516 0.700758128
0.5325279992 0.7495498784 0.9553580676
0.5323402187 0.4998613612 0.9535631072
0.5223768079 0.499168818 0.2015354669
0.5223988998 0.749855795 0.2013173102
0.5325279992 0.7493676301 0.454973745
0.5323659925 0.4992228415 0.4532100814
0.5225351326 0.7495433695 0.7039108148
0.5424509083 0.4993048532 0.7047880441
0.5524916404 0.7511120059 0.959481874
0.5623740478 0.500481656 0.7072724534
0.5523885452 0.4992996461 0.9564626586
0.5424472263 0.5023145523 0.2059639563
0.5425429575 0.7485865664 0.2026796391
0.5625471004 0.5012080453 0.2105314401
0.5624550512 0.7479486976 0.2095437516
0.5524290469 0.4995202967 0.4563609272
0.5525100502 0.7504611194 0.4580518719
0.5425024558 0.7492634883 0.7067321243
0.5624292774 0.7480333128 0.7094107574
0.5825033777 0.499065327 0.7116880559
0.5723006389 0.7499599368 0.9613412688
0.5724884193 0.4972239691 0.9633111227
0.5825254695 0.5005415376 0.2150989238
0.5823929186 0.7489836071 0.2133711594
0.5725178751 0.4991408298 0.461593927
0.5724700095 0.7484433713 0.4616721689
0.5824812859 0.7489836071 0.7145471056
0.6024633369 0.500240828 0.7193916576
0.5924778344 0.750096623 0.9676834621
0.6124746133 0.7511185148 0.9732616466
0.5924925622 0.4986077538 0.9661830593
0.612515115 0.4995925451 0.974191344
0.6024633369 0.7489575717 0.2184283452
0.6024817468 0.5002512422 0.2181162982
0.5924594245 0.7487362703 0.4660233369
0.5924704704 0.4982862159 0.4689173653
0.612389928 0.7506694031 0.4717046166
0.6124709313 0.499403788 0.4754758743
0.6024301992 0.7470765097 0.7173343568
0.6225337553 0.5015510625 0.7265374408
0.6323646151 0.7512096389 0.9784440194
0.632375661 0.4971400048 0.9772381742
0.6225190274 0.7491463287 0.2270239041
0.6223717486 0.5013968024 0.2255124554
0.6323903889 0.7511510591 0.4796972529
0.6323903889 0.500281183 0.4775433005
0.6225079815 0.7490747312 0.7231592333
0.6424090292 0.5007010047 0.7301604993
0.6525234008 0.7492049085 0.9836724167
0.6624941755 0.5005408867 0.7366067082
0.65237244 0.4987242625 0.9811318574
0.6424237571 0.7490812401 0.2293601141
0.6424053473 0.5001334317 0.2299326604
0.662435264 0.7497060911 0.2370195321
0.662549405 0.5018270384 0.2346225697
0.6524276696 0.7485279866 0.4862916612
0.6522619809 0.4991981079 0.4811507106
0.6423648456 0.7500315344 0.7310257622
0.6625015394 0.7491528376 0.7346837994
0.6824283609 0.5001184613 0.738168784
0.6725349076 0.7507475095 0.9892874209
0.6724428584 0.4999251481 0.9869217552
0.6824504528 0.7487232525 0.2432834835
0.6825240922 0.4998828404 0.2389129852
0.6724391764 0.7508256159 0.4908867597
0.6724060387 0.4990672797 0.4885220145
0.6824357249 0.7497907064 0.740559303
0.7024398678 0.5012464476 0.7419243933
0.6924985488 0.7496800557 0.9889836584
0.7124327343 0.7496410025 0.9908246434
0.6925206407 0.5005369814 0.9920028738
0.7125063737 0.4998971599 0.990879873
0.7024656416 0.7507084563 0.2447875683
0.7024950973 0.4986624283 0.2415216609
0.692472775 0.7482350877 0.4925151109
0.6924654111 0.5019663281 0.4922767034
0.712469554 0.5004556205 0.4913663363
0.7124585081 0.7522445484 0.4917004751
0.7023809563 0.7497191088 0.7421766083
0.7223004138 0.5006808273 0.7396250031
0.7323779657 0.7519125963 0.9942396706
0.7423045567 0.5008643773 0.7460343923
0.7323227361 0.5022201738 0.9921225378
0.7223445975 0.751443958 0.2436406346
0.722403509 0.4994428412 0.2419533719
0.7424260617 0.7512682187 0.2446817116
0.7423229666 0.5024531912 0.2491534642
0.7324258313 0.5030728351 0.4938369381
0.7323706017 0.7517303481 0.4979266863
0.7223666893 0.7509492843 0.7431072262
0.7424886552 0.7520167381 0.7455308829
0.7523673807 0.5033462074 0.4973228432
0.7524594299 0.7502853801 0.9962003196
0.7624559784 0.50235686 0.7502566914
0.7524778398 0.5015862104 0.9993023793
0.7625332998 0.7505717701 0.2507367113
0.7624117948 0.5017697604 0.2490126288
0.7524410201 0.7525960271 0.4988729526
0.7625259359 0.7510534261 0.7485767926
0.7724267531 0.5026790488 0.5025429562
0.7725040745 0.750337451 1.0031592428
0.7924124862 0.5021720082 0.5071288498
0.7925008535 0.7498688127 1.0083140008
0.7824564394 0.5007342 0.757167749
0.7723972974 0.5019259731 1.0050554574
0.7925339912 0.5021479254 1.0080838777
0.7825227148 0.7490486958 0.2553778344
0.7825448066 0.5019311802 0.2555840248
0.7725372122 0.7503765042 0.5034551642
0.7924198501 0.7480984015 0.5090324282
0.7824895771 0.7508776868 0.7557244168
0.8125565439 0.5001868044 0.5182907418
0.8125307701 0.750051061 1.0126771352
0.8024532183 0.4990444986 0.7637115302
0.8124976324 0.5012874535 1.0164879742
0.8023795789 0.7513398162 0.260458953
0.8025968151 0.50065349 0.2616574342
0.812427675 0.7500836053 0.5136919612
0.8024348085 0.750435084 0.7623031767
0.8324760015 0.5014267432 0.5225655089
0.8323765883 0.7503895219 1.018347369
0.8225457285 0.5004269815 0.7670934196
0.8424136385 0.5008064484 0.7737495008
0.8325717327 0.5014866247 1.0214310189
0.8225641383 0.749517334 0.2689293249
0.8225530924 0.5001783429 0.2679213857
0.8424909599 0.7497907064 0.2702796874
0.8425609173 0.5019162098 0.2728128828
0.8324944114 0.7515611176 0.5165869101
0.8223910857 0.7494327188 0.7676650455
0.8425351435 0.749810233 0.7720521127
0.8525096002 0.5020932509 0.5242619766
0.8624987847 0.7501682205 0.7738912567
0.8626571094 0.5029517702 0.7755656325
0.8524764624 0.7535463214 1.0257297188
0.8524911903 0.5005818925 1.0244134145
0.8625466503 0.7504090485 0.277198109
0.8626313356 0.5020131919 0.2770701606
0.8524543706 0.7519060874 0.52224978
0.8725468808 0.5006730166 0.5236111884
0.8825544752 0.7503634865 0.7755564276
0.8926798926 0.5010459746 0.5250342698
0.8726021103 0.7521859686 1.0243213653
0.8925731155 0.7517889279 1.0269539738
0.8827496196 0.5000956803 0.7771019345
0.872517425 0.503537568 1.0268343098
0.8926246631 0.4999459764 1.0279849254
0.8826023408 0.7507865627 0.2706902271
0.8826354785 0.5013226013 0.2781508188
0.8725652906 0.7530451388 0.5273014428
0.8925547057 0.7516522417 0.5262088182
0.9126030322 0.4990230194 0.5366122244
0.9024665688 0.7500575698 0.7806854118
0.9225112134 0.7474735505 0.7875983104
0.9124778452 0.7501421851 1.0342810941
0.9025254804 0.4996016575 0.778637316