STO_huge_hardwall_phi1smallnegative     
   1.00000000000000     
   227.5094862798837880    0.0000000000000000    0.0005312012141840
     0.0000000000000000    7.7082088696978923    0.0000000000000000
     0.0000181375040858    0.0000000000000000    7.7535450429560724
   Sr   Ti   O 
   236   236   708
Selective dynamics
Direct
  0.0000407400000029  0.0000000000000000  0.0000529100000008   F   F   F
  0.0000407400000029  0.0000000000000000  0.4999470899999992   F   F   F
  0.0000407400000029  0.5000000000000000  0.9999470899999992   F   F   F
  0.0000407400000029  0.5000000000000000  0.5000529100000008   F   F   F
  0.0169881699999976  0.0000000000000000  0.9999714300000022   F   F   F
  0.0169881699999976  0.0000000000000000  0.5000285699999978   F   F   F
  0.0169881699999976  0.5000000000000000  0.0000285699999978   F   F   F
  0.0169881699999976  0.5000000000000000  0.4999714300000022   F   F   F
  0.0339329082327536 -0.0000000000000000 -0.0000309592739705   T   T   T
  0.0339329662432230  0.0000000000000000  0.5000190816928083   T   T   T
  0.0339329662432230  0.5000000000000000  0.0000190816928081   T   T   T
  0.0339329082327536  0.5000000000000000  0.4999690407260294   T   T   T
  0.0508722151902265 -0.0000000000000000 -0.0000155650796597   T   T   T
  0.0508721658512683  0.0000000000000000  0.4999762358746143   T   T   T
  0.0508721658512683  0.5000000000000000 -0.0000237641253854   T   T   T
  0.0508722151902265  0.5000000000000000  0.4999844349203405   T   T   T
  0.0678122504678694  0.0000000000000000 -0.0000389833071591   T   T   T
  0.0678122897212183  0.0000000000000000  0.4999697382502544   T   T   T
  0.0678122897212183  0.5000000000000000 -0.0000302617497455   T   T   T
  0.0678122504678694  0.5000000000000000  0.4999610166928480   T   T   T
  0.0847521567924168  0.0000000000000000 -0.0000470404489053   T   T   T
  0.0847521731398009  0.0000000000000000  0.4999438238045538   T   T   T
  0.0847521731398009  0.5000000000000000 -0.0000561761954465   T   T   T
  0.0847521567924168  0.5000000000000000  0.4999529595510943   T   T   T
  0.1016920352662053  0.0000000000000000 -0.0000721940610891   T   T   T
  0.1016919116260540 -0.0000000000000000  0.4999357580005185   T   T   T
  0.1016919116260540  0.5000000000000000 -0.0000642419994811   T   T   T
  0.1016920352662053  0.5000000000000000  0.4999278059389111   T   T   T
  0.1186315959974903 -0.0000000000000000 -0.0000787200969613   T   T   T
  0.1186318581621072  0.0000000000000000  0.4999146135327162   T   T   T
  0.1186318581621072  0.5000000000000000 -0.0000853864672831   T   T   T
  0.1186315959974903  0.5000000000000000  0.4999212799030388   T   T   T
  0.1355719736354854 -0.0000000000000000 -0.0000953813128878   T   T   T
  0.1355715991054908 -0.0000000000000000  0.4999041919037081   T   T   T
  0.1355715991054908  0.5000000000000000 -0.0000958080962922   T   T   T
  0.1355719736354854  0.5000000000000000  0.4999046186871121   T   T   T
  0.1525121644588184  0.0000000000000000 -0.0001131797591850   T   T   T
  0.1525126124790532 -0.0000000000000000  0.4998845767230320   T   T   T
  0.1525126124790532  0.5000000000000000 -0.0001154232769677   T   T   T
  0.1525121644588184  0.5000000000000000  0.4998868202408147   T   T   T
  0.1694535411283952  0.0000000000000000 -0.0001363310534812   T   T   T
  0.1694529560490233  0.0000000000000000  0.4998610633009511   T   T   T
  0.1694529560490233  0.5000000000000000 -0.0001389366990482   T   T   T
  0.1694535411283952  0.5000000000000000  0.4998636689465186   T   T   T
  0.1863939282512053 -0.0000000000000000 -0.0001644827847913   T   T   T
  0.1863947320388190 -0.0000000000000000  0.4998454557971130   T   T   T
  0.1863947320388190  0.5000000000000000 -0.0001545442028871   T   T   T
  0.1863939282512053  0.5000000000000000  0.4998355172152085   T   T   T
  0.2033354028053440  0.0000000000000000  0.9998182758886756   T   T   T
  0.2033344445826749 -0.0000000000000000  0.4998158963097767   T   T   T
  0.2033344445826749  0.5000000000000000  0.9998158963097767   T   T   T
  0.2033354028053440  0.5000000000000000  0.4998182758886822   T   T   T
  0.2202747522556214  0.0000000000000000  0.9997767860152389   T   T   T
  0.2202757144647432 -0.0000000000000000  0.4997765443972502   T   T   T
  0.2202757144647432  0.5000000000000000  0.9997765443972504   T   T   T
  0.2202747522556214  0.5000000000000000  0.4997767860152391   T   T   T
  0.2372160879886115 -0.0000000000000000  0.9997141737307915   T   T   T
  0.2372150170648610 -0.0000000000000000  0.4997171825644992   T   T   T
  0.2372150170648610  0.5000000000000000  0.9997171825644999   T   T   T
  0.2372160879886115  0.5000000000000000  0.4997141737307916   T   T   T
  0.2541554219137997 -0.0000000000000000  0.9996458205390948   T   T   T
  0.2541568516812441 -0.0000000000000000  0.4996476978907785   T   T   T
  0.2541568516812441  0.5000000000000000  0.9996476978907782   T   T   T
  0.2541554219137997  0.5000000000000000  0.4996458205390947   T   T   T
  0.2710973671785518 -0.0000000000000000  0.9995630310891652   T   T   T
  0.2710958293243795  0.0000000000000000  0.4995648563374707   T   T   T
  0.2710958293243795  0.5000000000000000  0.9995648563374712   T   T   T
  0.2710973671785518  0.5000000000000000  0.4995630310891653   T   T   T
  0.2880359966388485  0.0000000000000000  0.9994599646629442   T   T   T
  0.2880373657110319  0.0000000000000000  0.4994545129902893   T   T   T
  0.2880373657110319  0.5000000000000000  0.9994545129902900   T   T   T
  0.2880359966388485  0.5000000000000000  0.4994599646629440   T   T   T
  0.3049773280334085 -0.0000000000000000  0.9993499226756952   T   T   T
  0.3049755042407822 -0.0000000000000000  0.4993591591632282   T   T   T
  0.3049755042407822  0.5000000000000000  0.9993591591632274   T   T   T
  0.3049773280334085  0.5000000000000000  0.4993499226756961   T   T   T
  0.3219143308256762  0.0000000000000000  0.9992661503262655   T   T   T
  0.3219182285336941 -0.0000000000000000  0.4992669057625761   T   T   T
  0.3219182285336941  0.5000000000000000  0.9992669057625752   T   T   T
  0.3219143308256762  0.5000000000000000  0.4992661503262658   T   T   T
  0.3388599980109054 -0.0000000000000000  0.9990231685605481   T   T   T
  0.3388518859031074 -0.0000000000000000  0.4990393719169142   T   T   T
  0.3388518859031074  0.5000000000000000  0.9990393719169142   T   T   T
  0.3388599980109054  0.5000000000000000  0.4990231685605476   T   T   T
  0.3557908552550576 -0.0000000000000000  0.9983456219903436   T   T   T
  0.3558015410110647 -0.0000000000000000  0.4983135045680606   T   T   T
  0.3558015410110647  0.5000000000000000  0.9983135045680606   T   T   T
  0.3557908552550576  0.5000000000000000  0.4983456219903436   T   T   T
  0.3727376869449218 -0.0000000000000000  0.9974213119551910   T   T   T
  0.3727363604317606  0.0000000000000000  0.4973869378477369   T   T   T
  0.3727363604317606  0.5000000000000000  0.9973869378477365   T   T   T
  0.3727376869449218  0.5000000000000000  0.4974213119551911   T   T   T
  0.3896863063209957 -0.0000000000000000  0.9974954080393502   T   T   T
  0.3896706626024449  0.0000000000000000  0.4974797532722884   T   T   T
  0.3896706626024449  0.5000000000000000  0.9974797532722879   T   T   T
  0.3896863063209957  0.5000000000000000  0.4974954080393504   T   T   T
  0.4066129226274876  0.0000000000000000  0.9983131005269453   T   T   T
  0.4066395791473825 -0.0000000000000000  0.4985649637395662   T   T   T
  0.4066395791473825  0.5000000000000000  0.9985649637395656   T   T   T
  0.4066129226274876  0.5000000000000000  0.4983131005269451   T   T   T
  0.4235968462770223 -0.0000000000000000  0.0003264437922205   T   T   T
  0.4235693320168039 -0.0000000000000000  0.4997580317224010   T   T   T
  0.4235693320168039  0.5000000000000000  0.9997580317224010   T   T   T
  0.4235968462770223  0.5000000000000000  0.5003264437922214   T   T   T
  0.4405386408089161  0.0000000000000000  0.0016282517525869   T   T   T
  0.4405580211916040  0.0000000000000000  0.5025131883116111   T   T   T
  0.4405580211916040  0.5000000000000000  0.0025131883116107   T   T   T
  0.4405386408089161  0.5000000000000000  0.5016282517525861   T   T   T
  0.4575299878660065  0.0000000000000000  0.0050113554583086   T   T   T
  0.4575268454144653  0.0000000000000000  0.5039572185277865   T   T   T
  0.4575268454144653  0.5000000000000000  0.0039572185277868   T   T   T
  0.4575299878660065  0.5000000000000000  0.5050113554583084   T   T   T
  0.4745352251763935  0.0000000000000000  0.0061862753338640   T   T   T
  0.4745235974944869  0.0000000000000000  0.5069629849652916   T   T   T
  0.4745235974944869  0.5000000000000000  0.0069629849652912   T   T   T
  0.4745352251763935  0.5000000000000000  0.5061862753338640   T   T   T
  0.4915383662630539 -0.0000000000000000  0.0074376376034331   T   T   T
  0.4915554885659307  0.0000000000000000  0.5074305288714461   T   T   T
  0.4915554885659307  0.5000000000000000  0.0074305288714459   T   T   T
  0.4915383662630539  0.5000000000000000  0.5074376376034329   T   T   T
  0.5085706274556235  0.0000000000000000  0.0069883629608053   T   T   T
  0.5085589437089341  0.0000000000000000  0.5062282341485694   T   T   T
  0.5085589437089341  0.5000000000000000  0.0062282341485695   T   T   T
  0.5085706274556235  0.5000000000000000  0.5069883629608052   T   T   T
  0.5255678558619471 -0.0000000000000000  0.0039973275843742   T   T   T
  0.5255653450459867  0.0000000000000000  0.5050458022105799   T   T   T
  0.5255653450459867  0.5000000000000000  0.0050458022105801   T   T   T
  0.5255678558619471  0.5000000000000000  0.5039973275843745   T   T   T
  0.5425383544319348 -0.0000000000000000  0.0025332145967111   T   T   T
  0.5425575913067963  0.0000000000000000  0.5016436004400351   T   T   T
  0.5425575913067963  0.5000000000000000  0.0016436004400349   T   T   T
  0.5425383544319348  0.5000000000000000  0.5025332145967105   T   T   T
  0.5595278510655602 -0.0000000000000000  0.9997287198047802   T   T   T
  0.5595007542707234 -0.0000000000000000  0.5002999206314209   T   T   T
  0.5595007542707234  0.5000000000000000  0.0002999206314202   T   T   T
  0.5595278510655602  0.5000000000000000  0.4997287198047801   T   T   T
  0.5764579240268823  0.0000000000000000  0.9985663277951891   T   T   T
  0.5764845962220349 -0.0000000000000000  0.4982994768960240   T   T   T
  0.5764845962220349  0.5000000000000000  0.9982994768960237   T   T   T
  0.5764579240268823  0.5000000000000000  0.4985663277951884   T   T   T
  0.5934275004065390  0.0000000000000000  0.9974158987424037   T   T   T
  0.5934117257964641  0.0000000000000000  0.4974246458409338   T   T   T
  0.5934117257964641  0.5000000000000000  0.9974246458409329   T   T   T
  0.5934275004065390  0.5000000000000000  0.4974158987424031   T   T   T
  0.6103623947880609 -0.0000000000000000  0.9973606656886932   T   T   T
  0.6103599978707926 -0.0000000000000000  0.4974108492626448   T   T   T
  0.6103599978707926  0.5000000000000000  0.9974108492626441   T   T   T
  0.6103623947880609  0.5000000000000000  0.4973606656886933   T   T   T
  0.6272974626471485  0.0000000000000000  0.9983428454272155   T   T   T
  0.6273091062302188 -0.0000000000000000  0.4983820868190325   T   T   T
  0.6273091062302188  0.5000000000000000  0.9983820868190321   T   T   T
  0.6272974626471485  0.5000000000000000  0.4983428454272152   T   T   T
  0.6442486509539711  0.0000000000000000  0.9990812206358761   T   T   T
  0.6442404326495674  0.0000000000000000  0.4990662204900732   T   T   T
  0.6442404326495674  0.5000000000000000  0.9990662204900732   T   T   T
  0.6442486509539711  0.5000000000000000  0.4990812206358757   T   T   T
  0.6611828759591343 -0.0000000000000000  0.9992973659039299   T   T   T
  0.6611868327489668  0.0000000000000000  0.4992935192224526   T   T   T
  0.6611868327489668  0.5000000000000000  0.9992935192224518   T   T   T
  0.6611828759591343  0.5000000000000000  0.4992973659039300   T   T   T
  0.6781266885085958 -0.0000000000000000  0.9993668929349756   T   T   T
  0.6781246359680986 -0.0000000000000000  0.4993755382244721   T   T   T
  0.6781246359680986  0.5000000000000000  0.9993755382244719   T   T   T
  0.6781266885085958  0.5000000000000000  0.4993668929349757   T   T   T
  0.6950660605347156  0.0000000000000000  0.9994733961411054   T   T   T
  0.6950675652518102 -0.0000000000000000  0.4994703455079701   T   T   T
  0.6950675652518102  0.5000000000000000  0.9994703455079699   T   T   T
  0.6950660605347156  0.5000000000000000  0.4994733961411054   T   T   T
  0.7120085707517450 -0.0000000000000000  0.9995774723054994   T   T   T
  0.7120069294617928  0.0000000000000000  0.4995805553093292   T   T   T
  0.7120069294617928  0.5000000000000000  0.9995805553093289   T   T   T
  0.7120085707517450  0.5000000000000000  0.4995774723054998   T   T   T
  0.7289479932724114 -0.0000000000000000  0.9996633429838131   T   T   T
  0.7289495583904728 -0.0000000000000000  0.4996587834794140   T   T   T
  0.7289495583904728  0.5000000000000000  0.9996587834794146   T   T   T
  0.7289479932724114  0.5000000000000000  0.4996633429838129   T   T   T
  0.7458910283570779  0.0000000000000000  0.9997194518114437   T   T   T
  0.7458898311725340 -0.0000000000000000  0.4997341929556844   T   T   T
  0.7458898311725340  0.5000000000000000  0.9997341929556849   T   T   T
  0.7458910283570779  0.5000000000000000  0.4997194518114434   T   T   T
  0.7628320907914983 -0.0000000000000000  0.9997909187692627   T   T   T
  0.7628331192702404  0.0000000000000000  0.4997812614650941   T   T   T
  0.7628331192702404  0.5000000000000000  0.9997812614650937   T   T   T
  0.7628320907914983  0.5000000000000000  0.4997909187692620   T   T   T
  0.7797750488861506  0.0000000000000000  0.9998219598650303   T   T   T
  0.7797740046390560  0.0000000000000000  0.4998298701453316   T   T   T
  0.7797740046390560  0.5000000000000000 -0.0001701298546684   T   T   T
  0.7797750488861506  0.5000000000000000  0.4998219598650299   T   T   T
  0.7967159528920371 -0.0000000000000000 -0.0001481662555659   T   T   T
  0.7967168600779811 -0.0000000000000000  0.4998420261814865   T   T   T
  0.7967168600779811  0.5000000000000000  0.9998420261814864   T   T   T
  0.7967159528920371  0.5000000000000000  0.4998518337444342   T   T   T
  0.8136590920734618  0.0000000000000000  0.9998557969937319   T   T   T
  0.8136584330704625 -0.0000000000000000  0.4998758411061993   T   T   T
  0.8136584330704625  0.5000000000000000 -0.0001241588938008   T   T   T
  0.8136590920734618  0.5000000000000000  0.4998557969937317   T   T   T
  0.8306015197846923  0.0000000000000000 -0.0001048291078887   T   T   T
  0.8306020324748752 -0.0000000000000000  0.4998804430223110   T   T   T
  0.8306020324748752  0.5000000000000000 -0.0001195569776889   T   T   T
  0.8306015197846923  0.5000000000000000  0.4998951708921113   T   T   T
  0.8475444840257177 -0.0000000000000000 -0.0000982782550193   T   T   T
  0.8475440522689943 -0.0000000000000000  0.4999108335425061   T   T   T
  0.8475440522689943  0.5000000000000000 -0.0000891664574941   T   T   T
  0.8475444840257177  0.5000000000000000  0.4999017217449805   T   T   T
  0.8644861459567701  0.0000000000000000 -0.0000753529682956   T   T   T
  0.8644864704695592  0.0000000000000000  0.4999141140379680   T   T   T
  0.8644864704695592  0.5000000000000000  0.9999141140379687   T   T   T
  0.8644861459567701  0.5000000000000000  0.4999246470317045   T   T   T
  0.8814281121120807  0.0000000000000000  0.9999276734099706   T   T   T
  0.8814279265865007 -0.0000000000000000  0.4999375659190687   T   T   T
  0.8814279265865007  0.5000000000000000 -0.0000624340809314   T   T   T
  0.8814281121120807  0.5000000000000000  0.4999276734099709   T   T   T
  0.8983696984177288  0.0000000000000000 -0.0000464649195038   T   T   T
  0.8983697756059964 -0.0000000000000000  0.4999443868406107   T   T   T
  0.8983697756059964  0.5000000000000000  0.9999443868406116   T   T   T
  0.8983696984177288  0.5000000000000000  0.4999535350804966   T   T   T
  0.9153113838016373 -0.0000000000000000 -0.0000305222189512   T   T   T
  0.9153113587117186  0.0000000000000000  0.4999626020971664   T   T   T
  0.9153113587117186  0.5000000000000000 -0.0000373979028337   T   T   T
  0.9153113838016373  0.5000000000000000  0.4999694777810491   T   T   T
  0.9322531108485045 -0.0000000000000000 -0.0000181781476835   T   T   T
  0.9322531157354358 -0.0000000000000000  0.4999797790591574   T   T   T
  0.9322531157354358  0.5000000000000000 -0.0000202209408422   T   T   T
  0.9322531108485045  0.5000000000000000  0.4999818218523164   T   T   T
  0.9491954825549155  0.0000000000000000  0.9999778841975349   T   T   T
  0.9491954981956643 -0.0000000000000000  0.5000065860933022   T   T   T
  0.9491954981956643  0.5000000000000000  0.0000065860933018   T   T   T
  0.9491954825549155  0.5000000000000000  0.4999778841975354   T   T   T
  0.9661409699999979  0.0000000000000000  0.9999782000000010   F   F   F
  0.9661409699999979  0.0000000000000000  0.5000217999999990   F   F   F
  0.9661409699999979  0.5000000000000000  0.0000217999999990   F   F   F
  0.9661409699999979  0.5000000000000000  0.4999782000000010   F   F   F
  0.9830907600000032  0.0000000000000000  0.9999435300000030   F   F   F
  0.9830907600000032  0.0000000000000000  0.5000564699999970   F   F   F
  0.9830907600000032  0.5000000000000000  0.0000564699999970   F   F   F
  0.9830907600000032  0.5000000000000000  0.4999435300000030   F   F   F
  0.0085142300000030  0.2500044900000020  0.2500000000000000   F   F   F
  0.0085142300000030  0.2499955099999980  0.7500000000000000   F   F   F
  0.0085142300000030  0.7499955099999980  0.2500000000000000   F   F   F
  0.0085142300000030  0.7500044900000020  0.7500000000000000   F   F   F
  0.0254625700000020  0.2499928900000015  0.2500000000000000   F   F   F
  0.0254625700000020  0.2500071099999985  0.7500000000000000   F   F   F
  0.0254625700000020  0.7500071099999985  0.2500000000000000   F   F   F
  0.0254625700000020  0.7499928900000015  0.7500000000000000   F   F   F
  0.0424015660871566  0.2499986293596968  0.2499876875785230   T   T   T
  0.0424015660871566  0.2500013706403032  0.7499876875785233   T   T   T
  0.0424015660871566  0.7500013706403028  0.2499876875785230   T   T   T
  0.0424015660871566  0.7499986293596972  0.7499876875785233   T   T   T
  0.0593416495102262  0.2499961993964289  0.2499733601301015   T   T   T
  0.0593416495102262  0.2500038006035715  0.7499733601301022   T   T   T
  0.0593416495102262  0.7500038006035714  0.2499733601301015   T   T   T
  0.0593416495102262  0.7499961993964286  0.7499733601301022   T   T   T
  0.0762815215767674  0.2500048088550714  0.2499569286084792   T   T   T
  0.0762815215767674  0.2499951911449290  0.7499569286084795   T   T   T
  0.0762815215767674  0.7499951911449291  0.2499569286084792   T   T   T
  0.0762815215767674  0.7500048088550709  0.7499569286084795   T   T   T
  0.0932213479479309  0.2499942350615433  0.2499393733795254   T   T   T
  0.0932213479479309  0.2500057649384499  0.7499393733795185   T   T   T
  0.0932213479479309  0.7500057649384568  0.2499393733795254   T   T   T
  0.0932213479479309  0.7499942350615432  0.7499393733795185   T   T   T
  0.1101611842672546  0.2500048282529315  0.2499240561501662   T   T   T
  0.1101611842672546  0.2499951717470681  0.7499240561501656   T   T   T
  0.1101611842672546  0.7499951717470678  0.2499240561501662   T   T   T
  0.1101611842672546  0.7500048282529322  0.7499240561501656   T   T   T
  0.1271011361407217  0.2499949982246323  0.2499114479717456   T   T   T
  0.1271011361407217  0.2500050017753680  0.7499114479717452   T   T   T
  0.1271011361407217  0.7500050017753683  0.2499114479717456   T   T   T
  0.1271011361407217  0.7499949982246317  0.7499114479717452   T   T   T
  0.1440415812473646  0.2500047142119982  0.2498960040692221   T   T   T
  0.1440415812473646  0.2499952857880088  0.7498960040692215   T   T   T
  0.1440415812473646  0.7499952857880084  0.2498960040692221   T   T   T
  0.1440415812473646  0.7500047142119916  0.7498960040692215   T   T   T
  0.1609824301897090  0.2499968592312080  0.2498738989571805   T   T   T
  0.1609824301897090  0.2500031407687919  0.7498738989571807   T   T   T
  0.1609824301897090  0.7500031407687918  0.2498738989571805   T   T   T
  0.1609824301897090  0.7499968592312082  0.7498738989571807   T   T   T
  0.1779232773952026  0.2500028129354725  0.2498506739612840   T   T   T
  0.1779232773952026  0.2499971870645270  0.7498506739612838   T   T   T
  0.1779232773952026  0.7499971870645267  0.2498506739612840   T   T   T
  0.1779232773952026  0.7500028129354733  0.7498506739612838   T   T   T
  0.1948641085441614  0.2499966333058628  0.2498304084580743   T   T   T
  0.1948641085441614  0.2500033666941371  0.7498304084580750   T   T   T
  0.1948641085441614  0.7500033666941373  0.2498304084580743   T   T   T
  0.1948641085441614  0.7499966333058627  0.7498304084580750   T   T   T
  0.2118049056593983  0.2500010023331240  0.2498011474191469   T   T   T
  0.2118049056593983  0.2499989976668764  0.7498011474191474   T   T   T
  0.2118049056593983  0.7499989976668766  0.2498011474191469   T   T   T
  0.2118049056593983  0.7500010023331234  0.7498011474191474   T   T   T
  0.2287451668319580  0.2499983462050347  0.2497486592553832   T   T   T
  0.2287451668319580  0.2500016537949653  0.7497486592553831   T   T   T
  0.2287451668319580  0.7500016537949651  0.2497486592553832   T   T   T
  0.2287451668319580  0.7499983462050349  0.7497486592553831   T   T   T
  0.2456854107117419  0.2500040463574556  0.2496823655027647   T   T   T
  0.2456854107117419  0.2499959536425443  0.7496823655027650   T   T   T
  0.2456854107117419  0.7499959536425442  0.2496823655027647   T   T   T
  0.2456854107117419  0.7500040463574558  0.7496823655027650   T   T   T
  0.2626258940062676  0.2499970081281405  0.2496106436264713   T   T   T
  0.2626258940062676  0.2500029918718594  0.7496106436264711   T   T   T
  0.2626258940062676  0.7500029918718598  0.2496106436264713   T   T   T
  0.2626258940062676  0.7499970081281402  0.7496106436264711   T   T   T
  0.2795661123448511  0.2500048246185119  0.2495172778187960   T   T   T
  0.2795661123448511  0.2499951753814880  0.7495172778187961   T   T   T
  0.2795661123448511  0.7499951753814887  0.2495172778187960   T   T   T
  0.2795661123448511  0.7500048246185113  0.7495172778187961   T   T   T
  0.2965058750381930  0.2499944076398683  0.2494107753330508   T   T   T
  0.2965058750381930  0.2500055923601316  0.7494107753330513   T   T   T
  0.2965058750381930  0.7500055923601311  0.2494107753330508   T   T   T
  0.2965058750381930  0.7499944076398689  0.7494107753330513   T   T   T
  0.3134454286473135  0.2500051967543188  0.2493126931251689   T   T   T
  0.3134454286473135  0.2499948032456742  0.7493126931251695   T   T   T
  0.3134454286473135  0.7499948032456816  0.2493126931251689   T   T   T
  0.3134454286473135  0.7500051967543255  0.7493126931251695   T   T   T
  0.3303851201341992  0.2499867429519277  0.2491427640553144   T   T   T
  0.3303851201341992  0.2500132570480725  0.7491427640553142   T   T   T
  0.3303851201341992  0.7500132570480720  0.2491427640553144   T   T   T
  0.3303851201341992  0.7499867429519280  0.7491427640553142   T   T   T
  0.3473247926376823  0.2500186699588917  0.2486710018474150   T   T   T
  0.3473247926376823  0.2499813300411081  0.7486710018474148   T   T   T
  0.3473247926376823  0.7499813300411080  0.2486710018474150   T   T   T
  0.3473247926376823  0.7500186699588920  0.7486710018474148   T   T   T
  0.3642642440181281  0.2499791121714967  0.2478493853843704   T   T   T
  0.3642642440181281  0.2500208878285029  0.7478493853843706   T   T   T
  0.3642642440181281  0.7500208878285027  0.2478493853843704   T   T   T
  0.3642642440181281  0.7499791121714973  0.7478493853843706   T   T   T
  0.3812047129345318  0.2500798902659389  0.2473931769297125   T   T   T
  0.3812047129345318  0.2499201097340613  0.7473931769297123   T   T   T
  0.3812047129345318  0.7499201097340614  0.2473931769297125   T   T   T
  0.3812047129345318  0.7500798902659386  0.7473931769297123   T   T   T
  0.3981489416081069  0.2498251684928930  0.2478659899360699   T   T   T
  0.3981489416081069  0.2501748315071066  0.7478659899360699   T   T   T
  0.3981489416081069  0.7501748315071073  0.2478659899360699   T   T   T
  0.3981489416081069  0.7498251684928927  0.7478659899360699   T   T   T
  0.4151009866521461  0.2502439872516321  0.2491341290903613   T   T   T
  0.4151009866521461  0.2497560127483679  0.7491341290903614   T   T   T
  0.4151009866521461  0.7497560127483673  0.2491341290903613   T   T   T
  0.4151009866521461  0.7502439872516327  0.7491341290903614   T   T   T
  0.4320639806207672  0.2497092003884518  0.2511190556087486   T   T   T
  0.4320639806207672  0.2502907996115487  0.7511190556087486   T   T   T
  0.4320639806207672  0.7502907996115482  0.2511190556087486   T   T   T
  0.4320639806207672  0.7497092003884518  0.7511190556087486   T   T   T
  0.4490408772002971  0.2502987421457917  0.2537547206563807   T   T   T
  0.4490408772002971  0.2497012578542082  0.7537547206563808   T   T   T
  0.4490408772002971  0.7497012578542083  0.2537547206563807   T   T   T
  0.4490408772002971  0.7502987421457917  0.7537547206563808   T   T   T
  0.4660336611002671  0.2497251863324066  0.2564333125398138   T   T   T
  0.4660336611002671  0.2502748136675935  0.7564333125398137   T   T   T
  0.4660336611002671  0.7502748136675931  0.2564333125398138   T   T   T
  0.4660336611002671  0.7497251863324069  0.7564333125398137   T   T   T
  0.4830406516975879  0.2502609569423856  0.2580421736751497   T   T   T
  0.4830406516975879  0.2497390430576141  0.7580421736751494   T   T   T
  0.4830406516975879  0.7497390430576140  0.2580421736751497   T   T   T
  0.4830406516975879  0.7502609569423860  0.7580421736751494   T   T   T
  0.5000536648662247  0.2497389305448110  0.2580631195292879   T   T   T
  0.5000536648662247  0.2502610694551891  0.7580631195292881   T   T   T
  0.5000536648662247  0.7502610694551894  0.2580631195292879   T   T   T
  0.5000536648662247  0.7497389305448106  0.7580631195292881   T   T   T
  0.5170611256271307  0.2502721464732309  0.2564784283214427   T   T   T
  0.5170611256271307  0.2497278535267692  0.7564784283214425   T   T   T
  0.5170611256271307  0.7497278535267687  0.2564784283214427   T   T   T
  0.5170611256271307  0.7502721464732313  0.7564784283214425   T   T   T
  0.5340548524245785  0.2497048186195649  0.2537980925832383   T   T   T
  0.5340548524245785  0.2502951813804349  0.7537980925832376   T   T   T
  0.5340548524245785  0.7502951813804349  0.2537980925832383   T   T   T
  0.5340548524245785  0.7497048186195651  0.7537980925832376   T   T   T
  0.5510328423361839  0.2502954456272054  0.2511042200105713   T   T   T
  0.5510328423361839  0.2497045543727947  0.7511042200105713   T   T   T
  0.5510328423361839  0.7497045543727949  0.2511042200105713   T   T   T
  0.5510328423361839  0.7502954456272051  0.7511042200105713   T   T   T
  0.5679964493503034  0.2497530400583030  0.2491149922401664   T   T   T
  0.5679964493503034  0.2502469599416972  0.7491149922401660   T   T   T
  0.5679964493503034  0.7502469599416979  0.2491149922401664   T   T   T
  0.5679964493503034  0.7497530400583021  0.7491149922401660   T   T   T
  0.5849489910247143  0.2501778874976509  0.2478226973293489   T   T   T
  0.5849489910247143  0.2498221125023491  0.7478226973293489   T   T   T
  0.5849489910247143  0.7498221125023561  0.2478226973293489   T   T   T
  0.5849489910247143  0.7501778874976439  0.7478226973293489   T   T   T
  0.6018934788563155  0.2499166200517366  0.2473528181438503   T   T   T
  0.6018934788563155  0.2500833799482631  0.7473528181438502   T   T   T
  0.6018934788563155  0.7500833799482631  0.2473528181438503   T   T   T
  0.6018934788563155  0.7499166200517369  0.7473528181438502   T   T   T
  0.6188345541588520  0.2500165841777282  0.2478525899304369   T   T   T
  0.6188345541588520  0.2499834158222720  0.7478525899304372   T   T   T
  0.6188345541588520  0.7499834158222720  0.2478525899304369   T   T   T
  0.6188345541588520  0.7500165841777280  0.7478525899304372   T   T   T
  0.6357752111777760  0.2499805069123285  0.2487102667927200   T   T   T
  0.6357752111777760  0.2500194930876714  0.7487102667927201   T   T   T
  0.6357752111777760  0.7500194930876712  0.2487102667927200   T   T   T
  0.6357752111777760  0.7499805069123288  0.7487102667927201   T   T   T
  0.6527155737784441  0.2500157239801577  0.2491813963429539   T   T   T
  0.6527155737784441  0.2499842760198426  0.7491813963429540   T   T   T
  0.6527155737784441  0.7499842760198421  0.2491813963429539   T   T   T
  0.6527155737784441  0.7500157239801579  0.7491813963429540   T   T   T
  0.6696560503565158  0.2499910701511554  0.2493349936530483   T   T   T
  0.6696560503565158  0.2500089298488447  0.7493349936530481   T   T   T
  0.6696560503565158  0.7500089298488444  0.2493349936530483   T   T   T
  0.6696560503565158  0.7499910701511556  0.7493349936530481   T   T   T
  0.6865968826575887  0.2500029129790697  0.2494267792168885   T   T   T
  0.6865968826575887  0.2499970870209301  0.7494267792168884   T   T   T
  0.6865968826575887  0.7499970870209294  0.2494267792168885   T   T   T
  0.6865968826575887  0.7500029129790706  0.7494267792168884   T   T   T
  0.7035377742730680  0.2499963429000940  0.2495315266918923   T   T   T
  0.7035377742730680  0.2500036570999058  0.7495315266918922   T   T   T
  0.7035377742730680  0.7500036570999061  0.2495315266918923   T   T   T
  0.7035377742730680  0.7499963429000939  0.7495315266918922   T   T   T
  0.7204787635907054  0.2500038401474078  0.2496256918270695   T   T   T
  0.7204787635907054  0.2499961598525852  0.7496256918270697   T   T   T