STO_huge_hardwall_phi1smallnegative     
   1.00000000000000     
   227.4891268373856690    0.0000000000000000    0.0000957981828540
     0.0000000000000000    7.7080510788448651    0.0000000000000000
     0.0000032957177992    0.0000000000000000    7.7543466873951985
   Sr   Ti   O 
   236   236   708
Selective dynamics
Direct
  0.0000407400000029  0.0000000000000000  0.0000529100000008   F   F   F
  0.0000407400000029  0.0000000000000000  0.4999470899999992   F   F   F
  0.0000407400000029  0.5000000000000000  0.9999470899999992   F   F   F
  0.0000407400000029  0.5000000000000000  0.5000529100000008   F   F   F
  0.0169881699999976  0.0000000000000000  0.9999714300000022   F   F   F
  0.0169881699999976  0.0000000000000000  0.5000285699999978   F   F   F
  0.0169881699999976  0.5000000000000000  0.0000285699999978   F   F   F
  0.0169881699999976  0.5000000000000000  0.4999714300000022   F   F   F
  0.0339341128831570 -0.0000000000000000 -0.0000182163106048   T   T   T
  0.0339341081645226 -0.0000000000000000  0.5000182496512754   T   T   T
  0.0339341081645226  0.5000000000000000  0.0000182496512758   T   T   T
  0.0339341128831570  0.5000000000000000  0.4999817836893954   T   T   T
  0.0508762769975664  0.0000000000000000  0.0000047366329342   T   T   T
  0.0508762835727588 -0.0000000000000000  0.4999955640381945   T   T   T
  0.0508762835727588  0.5000000000000000 -0.0000044359618055   T   T   T
  0.0508762769975664  0.5000000000000000  0.5000047366329340   T   T   T
  0.0678196487758600 -0.0000000000000000  0.0000016226303177   T   T   T
  0.0678196403293410 -0.0000000000000000  0.4999985924251089   T   T   T
  0.0678196403293410  0.5000000000000000 -0.0000014075748907   T   T   T
  0.0678196487758600  0.5000000000000000  0.5000016226303184   T   T   T
  0.0847618861792456 -0.0000000000000000  0.0000081662351996   T   T   T
  0.0847618940313971 -0.0000000000000000  0.4999919362991135   T   T   T
  0.0847618940313971  0.5000000000000000 -0.0000080637008863   T   T   T
  0.0847618861792456  0.5000000000000000  0.5000081662351997   T   T   T
  0.1017039939247488 -0.0000000000000000 -0.0000098664356341   T   T   T
  0.1017039865782888  0.0000000000000000  0.5000099023041136   T   T   T
  0.1017039865782888  0.5000000000000000  0.0000099023041135   T   T   T
  0.1017039939247488  0.5000000000000000  0.4999901335643662   T   T   T
  0.1186454544230175  0.0000000000000000  0.0000042515237173   T   T   T
  0.1186454614698556 -0.0000000000000000  0.4999957020606726   T   T   T
  0.1186454614698556  0.5000000000000000 -0.0000042979393270   T   T   T
  0.1186454544230175  0.5000000000000000  0.5000042515237172   T   T   T
  0.1355867862938797  0.0000000000000000 -0.0000059568232877   T   T   T
  0.1355867801131230  0.0000000000000000  0.5000056601988305   T   T   T
  0.1355867801131230  0.5000000000000000  0.0000056601988305   T   T   T
  0.1355867862938797  0.5000000000000000  0.4999940431767125   T   T   T
  0.1525287228689365  0.0000000000000000 -0.0000104466972878   T   T   T
  0.1525287263811283 -0.0000000000000000  0.5000093261239522   T   T   T
  0.1525287263811283  0.5000000000000000  0.0000093261239526   T   T   T
  0.1525287228689365  0.5000000000000000  0.4999895533027122   T   T   T
  0.1694695319559998 -0.0000000000000000  0.0000138741698529   T   T   T
  0.1694695349217017  0.0000000000000000  0.4999825244645424   T   T   T
  0.1694695349217017  0.5000000000000000 -0.0000174755354580   T   T   T
  0.1694695319559998  0.5000000000000000  0.5000138741698529   T   T   T
  0.1864110772160656  0.0000000000000000  0.0000001667816693   T   T   T
  0.1864110607452922  0.0000000000000000  0.4999897545103310   T   T   T
  0.1864110607452922  0.5000000000000000 -0.0000102454896687   T   T   T
  0.1864110772160656  0.5000000000000000  0.5000001667816688   T   T   T
  0.2033524812264068 -0.0000000000000000 -0.0000114983739120   T   T   T
  0.2033525208634084 -0.0000000000000000  0.4999868073186760   T   T   T
  0.2033525208634084  0.5000000000000000 -0.0000131926813243   T   T   T
  0.2033524812264068  0.5000000000000000  0.4999885016260883   T   T   T
  0.2202952290343165 -0.0000000000000000 -0.0000331195807865   T   T   T
  0.2202951552459173 -0.0000000000000000  0.4999790035650822   T   T   T
  0.2202951552459173  0.5000000000000000 -0.0000209964349179   T   T   T
  0.2202952290343165  0.5000000000000000  0.4999668804192136   T   T   T
  0.2372386082469528 -0.0000000000000000 -0.0000473229672636   T   T   T
  0.2372387283571064 -0.0000000000000000  0.4999374337139572   T   T   T
  0.2372387283571064  0.5000000000000000 -0.0000625662860425   T   T   T
  0.2372386082469528  0.5000000000000000  0.4999526770327360   T   T   T
  0.2541814459462193 -0.0000000000000000 -0.0001055689916542   T   T   T
  0.2541812724607210  0.0000000000000000  0.4998950051950865   T   T   T
  0.2541812724607210  0.5000000000000000 -0.0001049948049137   T   T   T
  0.2541814459462193  0.5000000000000000  0.4998944310083456   T   T   T
  0.2711227754028002  0.0000000000000000 -0.0001842176437375   T   T   T
  0.2711229450807668  0.0000000000000000  0.4998128666970710   T   T   T
  0.2711229450807668  0.5000000000000000 -0.0001871333029284   T   T   T
  0.2711227754028002  0.5000000000000000  0.4998157823562624   T   T   T
  0.2880630617039205  0.0000000000000000 -0.0002790948343491   T   T   T
  0.2880631747186227  0.0000000000000000  0.4997107590560656   T   T   T
  0.2880631747186227  0.5000000000000000 -0.0002892409439341   T   T   T
  0.2880630617039205  0.5000000000000000  0.4997209051656511   T   T   T
  0.3050025044926853  0.0000000000000000 -0.0003772025948253   T   T   T
  0.3050016795381844  0.0000000000000000  0.4996464153141718   T   T   T
  0.3050016795381844  0.5000000000000000 -0.0003535846858278   T   T   T
  0.3050025044926853  0.5000000000000000  0.4996227974051745   T   T   T
  0.3219393224486992 -0.0000000000000000 -0.0004078528065933   T   T   T
  0.3219408401225604 -0.0000000000000000  0.4995675946872205   T   T   T
  0.3219408401225604  0.5000000000000000 -0.0004324053127793   T   T   T
  0.3219393224486992  0.5000000000000000  0.4995921471934063   T   T   T
  0.3388787952880271 -0.0000000000000000 -0.0005214707269716   T   T   T
  0.3388771400513674 -0.0000000000000000  0.4995261223519352   T   T   T
  0.3388771400513674  0.5000000000000000 -0.0004738776480648   T   T   T
  0.3388787952880271  0.5000000000000000  0.4994785292730287   T   T   T
  0.3558150446466894 -0.0000000000000000 -0.0006241527454602   T   T   T
  0.3558175374498835  0.0000000000000000  0.4993553403525950   T   T   T
  0.3558175374498835  0.5000000000000000 -0.0006446596474043   T   T   T
  0.3558150446466894  0.5000000000000000  0.4993758472545401   T   T   T
  0.3727589002595583 -0.0000000000000000 -0.0008843429633738   T   T   T
  0.3727518274652671 -0.0000000000000000  0.4991309798974737   T   T   T
  0.3727518274652671  0.5000000000000000 -0.0008690201025263   T   T   T
  0.3727589002595583  0.5000000000000000  0.4991156570366262   T   T   T
  0.3896909608478104  0.0000000000000000 -0.0015863728265242   T   T   T
  0.3897010875300644  0.0000000000000000  0.4983797705720779   T   T   T
  0.3897010875300644  0.5000000000000000 -0.0016202294279222   T   T   T
  0.3896909608478104  0.5000000000000000  0.4984136271734759   T   T   T
  0.4066328358550564  0.0000000000000000 -0.0027718583311199   T   T   T
  0.4066422820114544 -0.0000000000000000  0.4971522801173365   T   T   T
  0.4066422820114544  0.5000000000000000 -0.0028477198826637   T   T   T
  0.4066328358550564  0.5000000000000000  0.4972281416688799   T   T   T
  0.4236006571291069 -0.0000000000000000 -0.0011517118672241   T   T   T
  0.4235723878224496  0.0000000000000000  0.4985296808141150   T   T   T
  0.4235723878224496  0.5000000000000000  0.9985296808141145   T   T   T
  0.4236006571291069  0.5000000000000000  0.4988482881327759   T   T   T
  0.4405267456287716 -0.0000000000000000  0.0000559830319374   T   T   T
  0.4405475671225901 -0.0000000000000000  0.5008842760674026   T   T   T
  0.4405475671225901  0.5000000000000000  0.0008842760674028   T   T   T
  0.4405267456287716  0.5000000000000000  0.5000559830319378   T   T   T
  0.4575237303555382  0.0000000000000000  0.0041315986110956   T   T   T
  0.4575184951874621  0.0000000000000000  0.5029890721658332   T   T   T
  0.4575184951874621  0.5000000000000000  0.0029890721658325   T   T   T
  0.4575237303555382  0.5000000000000000  0.5041315986110957   T   T   T
  0.4745212551398217  0.0000000000000000  0.0053176128030627   T   T   T
  0.4745096078840303 -0.0000000000000000  0.5060849080653606   T   T   T
  0.4745096078840303  0.5000000000000000  0.0060849080653607   T   T   T
  0.4745212551398217  0.5000000000000000  0.5053176128030618   T   T   T
  0.4915256037141890  0.0000000000000000  0.0065789280791669   T   T   T
  0.4915425487443130 -0.0000000000000000  0.5065959355106414   T   T   T
  0.4915425487443130  0.5000000000000000  0.0065959355106419   T   T   T
  0.4915256037141890  0.5000000000000000  0.5065789280791664   T   T   T
  0.5085588347263986 -0.0000000000000000  0.0060233442418396   T   T   T
  0.5085467562515287  0.0000000000000000  0.5052377668830015   T   T   T
  0.5085467562515287  0.5000000000000000  0.0052377668830010   T   T   T
  0.5085588347263986  0.5000000000000000  0.5060233442418395   T   T   T
  0.5255520291631860 -0.0000000000000000  0.0028839473322463   T   T   T
  0.5255459267182271 -0.0000000000000000  0.5040091791192925   T   T   T
  0.5255459267182271  0.5000000000000000  0.0040091791192925   T   T   T
  0.5255520291631860  0.5000000000000000  0.5028839473322460   T   T   T
  0.5425209052376804 -0.0000000000000000  0.0008652333062081   T   T   T
  0.5425417769807657 -0.0000000000000000  0.5000561638896158   T   T   T
  0.5425417769807657  0.5000000000000000  0.0000561638896161   T   T   T
  0.5425209052376804  0.5000000000000000  0.5008652333062082   T   T   T
  0.5594986431734873 -0.0000000000000000  0.9983711353606775   T   T   T
  0.5594712094890477  0.0000000000000000  0.4986746153422623   T   T   T
  0.5594712094890477  0.5000000000000000 -0.0013253846577376   T   T   T
  0.5594986431734873  0.5000000000000000  0.4983711353606768   T   T   T
  0.5764293085190699 -0.0000000000000000 -0.0028521132261015   T   T   T
  0.5764376283722580  0.0000000000000000  0.4972439560464851   T   T   T
  0.5764376283722580  0.5000000000000000 -0.0027560439535150   T   T   T
  0.5764293085190699  0.5000000000000000  0.4971478867738983   T   T   T
  0.5933704994395516  0.0000000000000000 -0.0015615866670284   T   T   T
  0.5933809987556496 -0.0000000000000000  0.4984648562162746   T   T   T
  0.5933809987556496  0.5000000000000000 -0.0015351437837253   T   T   T
  0.5933704994395516  0.5000000000000000  0.4984384133329713   T   T   T
  0.6103218582712087  0.0000000000000000 -0.0008480877691273   T   T   T
  0.6103147549192247  0.0000000000000000  0.4991373537430584   T   T   T
  0.6103147549192247  0.5000000000000000 -0.0008626462569416   T   T   T
  0.6103218582712087  0.5000000000000000  0.4991519122308727   T   T   T
  0.6272576876801006 -0.0000000000000000 -0.0006349529497416   T   T   T
  0.6272602047912316 -0.0000000000000000  0.4993640381036878   T   T   T
  0.6272602047912316  0.5000000000000000 -0.0006359618963122   T   T   T
  0.6272576876801006  0.5000000000000000  0.4993650470502585   T   T   T
  0.6441992472663494  0.0000000000000000 -0.0004902364762618   T   T   T
  0.6441977385608995 -0.0000000000000000  0.4994980606340824   T   T   T
  0.6441977385608995  0.5000000000000000 -0.0005019393659177   T   T   T
  0.6441992472663494  0.5000000000000000  0.4995097635237384   T   T   T
  0.6611369406795949 -0.0000000000000000 -0.0004311423008404   T   T   T
  0.6611384836388774 -0.0000000000000000  0.4996060886459542   T   T   T
  0.6611384836388774  0.5000000000000000 -0.0003939113540458   T   T   T
  0.6611369406795949  0.5000000000000000  0.4995688576991597   T   T   T
  0.6780771851967908 -0.0000000000000000 -0.0003496253686683   T   T   T
  0.6780763507389740 -0.0000000000000000  0.4996280063832164   T   T   T
  0.6780763507389740  0.5000000000000000 -0.0003719936167829   T   T   T
  0.6780771851967908  0.5000000000000000  0.4996503746313313   T   T   T
  0.6950166493291698 -0.0000000000000000 -0.0002930828612935   T   T   T
  0.6950167350805091 -0.0000000000000000  0.4997265017049672   T   T   T
  0.6950167350805091  0.5000000000000000 -0.0002734982950324   T   T   T
  0.6950166493291698  0.5000000000000000  0.4997069171387067   T   T   T
  0.7119587907521793 -0.0000000000000000 -0.0001883723434259   T   T   T
  0.7119589938067894 -0.0000000000000000  0.4998210455510999   T   T   T
  0.7119589938067894  0.5000000000000000 -0.0001789544489001   T   T   T
  0.7119587907521793  0.5000000000000000  0.4998116276565736   T   T   T
  0.7289036080180479  0.0000000000000000 -0.0000837620129088   T   T   T
  0.7289034105553599 -0.0000000000000000  0.4998792044997879   T   T   T
  0.7289034105553599  0.5000000000000000 -0.0001207955002120   T   T   T
  0.7289036080180479  0.5000000000000000  0.4999162379870908   T   T   T
  0.7458499060349217 -0.0000000000000000 -0.0000731318388133   T   T   T
  0.7458500374749449 -0.0000000000000000  0.4999681771338208   T   T   T
  0.7458500374749449  0.5000000000000000 -0.0000318228661788   T   T   T
  0.7458499060349217  0.5000000000000000  0.4999268681611866   T   T   T
  0.7627968479054876 -0.0000000000000000 -0.0000021838351170   T   T   T
  0.7627967638708948  0.0000000000000000  0.4999508607380139   T   T   T
  0.7627967638708948  0.5000000000000000 -0.0000491392619858   T   T   T
  0.7627968479054876  0.5000000000000000  0.4999978161648829   T   T   T
  0.7797431301968946  0.0000000000000000 -0.0000262204247385   T   T   T
  0.7797431820993980  0.0000000000000000  0.5000027099227659   T   T   T
  0.7797431820993980  0.5000000000000000  0.0000027099227659   T   T   T
  0.7797431301968946  0.5000000000000000  0.4999737795752616   T   T   T
  0.7966881119470101 -0.0000000000000000  0.0000035325768929   T   T   T
  0.7966880822951704  0.0000000000000000  0.4999867601801078   T   T   T
  0.7966880822951704  0.5000000000000000 -0.0000132398198920   T   T   T
  0.7966881119470101  0.5000000000000000  0.5000035325768929   T   T   T
  0.8136315696198886  0.0000000000000000 -0.0000011441524427   T   T   T
  0.8136315867325205 -0.0000000000000000  0.4999976304102146   T   T   T
  0.8136315867325205  0.5000000000000000 -0.0000023695897861   T   T   T
  0.8136315696198886  0.5000000000000000  0.4999988558475571   T   T   T
  0.8305752997751666 -0.0000000000000000  0.0000171599759107   T   T   T
  0.8305752884716096 -0.0000000000000000  0.4999817375175027   T   T   T
  0.8305752884716096  0.5000000000000000 -0.0000182624824975   T   T   T
  0.8305752997751666  0.5000000000000000  0.5000171599759106   T   T   T
  0.8475187780093528 -0.0000000000000000 -0.0000178051802303   T   T   T
  0.8475187868667762 -0.0000000000000000  0.5000175087446419   T   T   T
  0.8475187868667762  0.5000000000000000  0.0000175087446418   T   T   T
  0.8475187780093528  0.5000000000000000  0.4999821948197696   T   T   T
  0.8644639632976323  0.0000000000000000  0.0000077887269085   T   T   T
  0.8644639553255128 -0.0000000000000000  0.4999921406372823   T   T   T
  0.8644639553255128  0.5000000000000000 -0.0000078593627173   T   T   T
  0.8644639632976323  0.5000000000000000  0.5000077887269083   T   T   T
  0.8814079631101136  0.0000000000000000 -0.0000049553096845   T   T   T
  0.8814079707794762  0.0000000000000000  0.5000049288265953   T   T   T
  0.8814079707794762  0.5000000000000000  0.0000049288265959   T   T   T
  0.8814079631101136  0.5000000000000000  0.4999950446903156   T   T   T
  0.8983523436575412 -0.0000000000000000  0.0000008461288146   T   T   T
  0.8983523358044890 -0.0000000000000000  0.4999991184274369   T   T   T
  0.8983523358044890  0.5000000000000000 -0.0000008815725633   T   T   T
  0.8983523436575412  0.5000000000000000  0.5000008461288145   T   T   T
  0.9152975453494608  0.0000000000000000 -0.0000198411791877   T   T   T
  0.9152975540549764 -0.0000000000000000  0.5000197388802711   T   T   T
  0.9152975540549764  0.5000000000000000  0.0000197388802712   T   T   T
  0.9152975453494608  0.5000000000000000  0.4999801588208120   T   T   T
  0.9322435757587034  0.0000000000000000  0.0000126653096247   T   T   T
  0.9322435679266345 -0.0000000000000000  0.4999870824839729   T   T   T
  0.9322435679266345  0.5000000000000000 -0.0000129175160269   T   T   T
  0.9322435757587034  0.5000000000000000  0.5000126653096248   T   T   T
  0.9491907732964038 -0.0000000000000000 -0.0000176681043046   T   T   T
  0.9491907778543900  0.0000000000000000  0.5000173294068161   T   T   T
  0.9491907778543900  0.5000000000000000  0.0000173294068165   T   T   T
  0.9491907732964038  0.5000000000000000  0.4999823318956955   T   T   T
  0.9661409699999979  0.0000000000000000  0.9999782000000010   F   F   F
  0.9661409699999979  0.0000000000000000  0.5000217999999990   F   F   F
  0.9661409699999979  0.5000000000000000  0.0000217999999990   F   F   F
  0.9661409699999979  0.5000000000000000  0.4999782000000010   F   F   F
  0.9830907600000032  0.0000000000000000  0.9999435300000030   F   F   F
  0.9830907600000032  0.0000000000000000  0.5000564699999970   F   F   F
  0.9830907600000032  0.5000000000000000  0.0000564699999970   F   F   F
  0.9830907600000032  0.5000000000000000  0.4999435300000030   F   F   F
  0.0085142300000030  0.2500044900000020  0.2500000000000000   F   F   F
  0.0085142300000030  0.2499955099999980  0.7500000000000000   F   F   F
  0.0085142300000030  0.7499955099999980  0.2500000000000000   F   F   F
  0.0085142300000030  0.7500044900000020  0.7500000000000000   F   F   F
  0.0254625700000020  0.2499928900000015  0.2500000000000000   F   F   F
  0.0254625700000020  0.2500071099999985  0.7500000000000000   F   F   F
  0.0254625700000020  0.7500071099999985  0.2500000000000000   F   F   F
  0.0254625700000020  0.7499928900000015  0.7500000000000000   F   F   F
  0.0424043696967763  0.2500027344044980  0.2500000914334666   T   T   T
  0.0424043696967763  0.2499972655955018  0.7500000914334666   T   T   T
  0.0424043696967763  0.7499972655955027  0.2500000914334666   T   T   T
  0.0424043696967763  0.7500027344044973  0.7500000914334666   T   T   T
  0.0593473803339636  0.2499949652051983  0.2500001377462761   T   T   T
  0.0593473803339636  0.2500050347948015  0.7500001377462761   T   T   T
  0.0593473803339636  0.7500050347948017  0.2500001377462761   T   T   T
  0.0593473803339636  0.7499949652051983  0.7500001377462761   T   T   T
  0.0762902221385734  0.2500045773678948  0.2500000812158781   T   T   T
  0.0762902221385734  0.2499954226321053  0.7500000812158782   T   T   T
  0.0762902221385734  0.7499954226321044  0.2500000812158781   T   T   T
  0.0762902221385734  0.7500045773678956  0.7500000812158782   T   T   T
  0.0932321276014032  0.2499981571473774  0.2500000368249610   T   T   T
  0.0932321276014032  0.2500018428526223  0.7500000368249603   T   T   T
  0.0932321276014032  0.7500018428526235  0.2500000368249610   T   T   T
  0.0932321276014032  0.7499981571473765  0.7500000368249603   T   T   T
  0.1101737877695804  0.2500036777760663  0.2500000081721842   T   T   T
  0.1101737877695804  0.2499963222239338  0.7500000081721835   T   T   T
  0.1101737877695804  0.7499963222239329  0.2500000081721842   T   T   T
  0.1101737877695804  0.7500036777760671  0.7500000081721835   T   T   T
  0.1271151553331148  0.2499965327421776  0.2499999522791164   T   T   T
  0.1271151553331148  0.2500034672578222  0.7499999522791166   T   T   T
  0.1271151553331148  0.7500034672578222  0.2499999522791164   T   T   T
  0.1271151553331148  0.7499965327421778  0.7499999522791166   T   T   T
  0.1440563310429767  0.2500035476402654  0.2499997659505291   T   T   T
  0.1440563310429767  0.2499964523597351  0.7499997659505290   T   T   T
  0.1440563310429767  0.7499964523597349  0.2499997659505291   T   T   T
  0.1440563310429767  0.7500035476402651  0.7499997659505290   T   T   T
  0.1609978678661099  0.2499893559268380  0.2499991328259306   T   T   T
  0.1609978678661099  0.2500106440731619  0.7499991328259313   T   T   T
  0.1609978678661099  0.7500106440731614  0.2499991328259306   T   T   T
  0.1609978678661099  0.7499893559268386  0.7499991328259313   T   T   T
  0.1779395958082833  0.2500090566028382  0.2499972637793466   T   T   T
  0.1779395958082833  0.2499909433971621  0.7499972637793466   T   T   T
  0.1779395958082833  0.7499909433971617  0.2499972637793466   T   T   T
  0.1779395958082833  0.7500090566028383  0.7499972637793466   T   T   T
  0.1948815262129561  0.2500017601414224  0.2499925960425604   T   T   T
  0.1948815262129561  0.2499982398585778  0.7499925960425603   T   T   T
  0.1948815262129561  0.7499982398585773  0.2499925960425604   T   T   T
  0.1948815262129561  0.7500017601414227  0.7499925960425603   T   T   T
  0.2118236595691313  0.2499984963602492  0.2499825722901320   T   T   T
  0.2118236595691313  0.2500015036397513  0.7499825722901318   T   T   T
  0.2118236595691313  0.7500015036397515  0.2499825722901320   T   T   T
  0.2118236595691313  0.7499984963602485  0.7499825722901318   T   T   T
  0.2287665371207697  0.2500016446776319  0.2499629365982217   T   T   T
  0.2287665371207697  0.2499983553223683  0.7499629365982213   T   T   T
  0.2287665371207697  0.7499983553223680  0.2499629365982217   T   T   T
  0.2287665371207697  0.7500016446776320  0.7499629365982213   T   T   T
  0.2457091582499832  0.2500040775537658  0.2499258845695656   T   T   T
  0.2457091582499832  0.2499959224462343  0.7499258845695660   T   T   T
  0.2457091582499832  0.7499959224462344  0.2499258845695656   T   T   T
  0.2457091582499832  0.7500040775537656  0.7499258845695660   T   T   T
  0.2626507703445071  0.2499951364017479  0.2498603298474533   T   T   T
  0.2626507703445071  0.2500048635982522  0.7498603298474527   T   T   T
  0.2626507703445071  0.7500048635982520  0.2498603298474533   T   T   T
  0.2626507703445071  0.7499951364017480  0.7498603298474527   T   T   T
  0.2795915669194640  0.2500094002625898  0.2497644826453233   T   T   T
  0.2795915669194640  0.2499905997374104  0.7497644826453230   T   T   T
  0.2795915669194640  0.7499905997374107  0.2497644826453233   T   T   T
  0.2795915669194640  0.7500094002625893  0.7497644826453230   T   T   T
  0.2965313050539481  0.2499892103874849  0.2496681500614689   T   T   T
  0.2965313050539481  0.2500107896125152  0.7496681500614690   T   T   T
  0.2965313050539481  0.7500107896125151  0.2496681500614689   T   T   T
  0.2965313050539481  0.7499892103874849  0.7496681500614690   T   T   T
  0.3134704431566726  0.2500070835557330  0.2496080972131134   T   T   T
  0.3134704431566726  0.2499929164442668  0.7496080972131126   T   T   T
  0.3134704431566726  0.7499929164442669  0.2496080972131134   T   T   T
  0.3134704431566726  0.7500070835557332  0.7496080972131126   T   T   T
  0.3304086345542407  0.2499958060415636  0.2495557509238249   T   T   T
  0.3304086345542407  0.2500041939584365  0.7495557509238254   T   T   T
  0.3304086345542407  0.7500041939584368  0.2495557509238249   T   T   T
  0.3304086345542407  0.7499958060415632  0.7495557509238254   T   T   T
  0.3473464666505988  0.2500037245771298  0.2494442564771842   T   T   T
  0.3473464666505988  0.2499962754228703  0.7494442564771838   T   T   T
  0.3473464666505988  0.7499962754228700  0.2494442564771842   T   T   T
  0.3473464666505988  0.7500037245771300  0.7494442564771838   T   T   T
  0.3642846808841999  0.2499836374929359  0.2492300992596413   T   T   T
  0.3642846808841999  0.2500163625070643  0.7492300992596413   T   T   T
  0.3642846808841999  0.7500163625070642  0.2492300992596413   T   T   T
  0.3642846808841999  0.7499836374929358  0.7492300992596413   T   T   T
  0.3812234417824781  0.2500326676169345  0.2487333013916890   T   T   T
  0.3812234417824781  0.2499673323830654  0.7487333013916888   T   T   T
  0.3812234417824781  0.7499673323830653  0.2487333013916890   T   T   T
  0.3812234417824781  0.7500326676169347  0.7487333013916888   T   T   T
  0.3981630407477734  0.2499275579588427  0.2477865618735062   T   T   T
  0.3981630407477734  0.2500724420411575  0.7477865618735062   T   T   T
  0.3981630407477734  0.7500724420411575  0.2477865618735062   T   T   T
  0.3981630407477734  0.7499275579588425  0.7477865618735062   T   T   T
  0.4151075374755214  0.2502376706437897  0.2478396101462967   T   T   T
  0.4151075374755214  0.2497623293562102  0.7478396101462961   T   T   T
  0.4151075374755214  0.7497623293562095  0.2478396101462967   T   T   T
  0.4151075374755214  0.7502376706437905  0.7478396101462961   T   T   T
  0.4320612404200768  0.2496443202813242  0.2495143598802499   T   T   T
  0.4320612404200768  0.2503556797186756  0.7495143598802502   T   T   T
  0.4320612404200768  0.7503556797186760  0.2495143598802499   T   T   T
  0.4320612404200768  0.7496443202813240  0.7495143598802502   T   T   T
  0.4490320707640285  0.2503675602439667  0.2525547810394314   T   T   T
  0.4490320707640285  0.2496324397560332  0.7525547810394310   T   T   T
  0.4490320707640285  0.7496324397560341  0.2525547810394314   T   T   T
  0.4490320707640285  0.7503675602439659  0.7525547810394310   T   T   T
  0.4660222962068898  0.2497096333479860  0.2555925910133660   T   T   T
  0.4660222962068898  0.2502903666520137  0.7555925910133664   T   T   T
  0.4660222962068898  0.7502903666520142  0.2555925910133660   T   T   T
  0.4660222962068898  0.7497096333479858  0.7555925910133664   T   T   T
  0.4830275963111635  0.2502655967112583  0.2572507714780284   T   T   T
  0.4830275963111635  0.2497344032887417  0.7572507714780284   T   T   T
  0.4830275963111635  0.7497344032887422  0.2572507714780284   T   T   T
  0.4830275963111635  0.7502655967112578  0.7572507714780284   T   T   T
  0.5000402733967729  0.2497329527539295  0.2572034075808025   T   T   T
  0.5000402733967729  0.2502670472460707  0.7572034075808031   T   T   T
  0.5000402733967729  0.7502670472460702  0.2572034075808025   T   T   T
  0.5000402733967729  0.7497329527539298  0.7572034075808031   T   T   T
  0.5170465314124459  0.2502908755072292  0.2554747386354584   T   T   T
  0.5170465314124459  0.2497091244927702  0.7554747386354582   T   T   T
  0.5170465314124459  0.7497091244927705  0.2554747386354584   T   T   T
  0.5170465314124459  0.7502908755072295  0.7554747386354582   T   T   T
  0.5340374514496279  0.2496304110973535  0.2524629201468329   T   T   T
  0.5340374514496279  0.2503695889026464  0.7524629201468325   T   T   T
  0.5340374514496279  0.7503695889026466  0.2524629201468329   T   T   T
  0.5340374514496279  0.7496304110973534  0.7524629201468325   T   T   T
  0.5510097070541248  0.2503603732411550  0.2494300698695029   T   T   T
  0.5510097070541248  0.2496396267588454  0.7494300698695029   T   T   T
  0.5510097070541248  0.7496396267588457  0.2494300698695029   T   T   T
  0.5510097070541248  0.7503603732411543  0.7494300698695029   T   T   T
  0.5679635922174124  0.2497582674855103  0.2477481429351562   T   T   T
  0.5679635922174124  0.2502417325144897  0.7477481429351563   T   T   T
  0.5679635922174124  0.7502417325144894  0.2477481429351562   T   T   T
  0.5679635922174124  0.7497582674855106  0.7477481429351563   T   T   T
  0.5849083339786200  0.2500695511091392  0.2478144724156678   T   T   T
  0.5849083339786200  0.2499304488908610  0.7478144724156672   T   T   T
  0.5849083339786200  0.7499304488908614  0.2478144724156678   T   T   T
  0.5849083339786200  0.7500695511091386  0.7478144724156672   T   T   T
  0.6018492781276242  0.2499681640772960  0.2487808830908305   T   T   T
  0.6018492781276242  0.2500318359227042  0.7487808830908306   T   T   T
  0.6018492781276242  0.7500318359227041  0.2487808830908305   T   T   T
  0.6018492781276242  0.7499681640772959  0.7487808830908306   T   T   T
  0.6187894902585181  0.2500140400153495  0.2492383097927857   T   T   T
  0.6187894902585181  0.2499859599846508  0.7492383097927855   T   T   T
  0.6187894902585181  0.7499859599846502  0.2492383097927857   T   T   T
  0.6187894902585181  0.7500140400153498  0.7492383097927855   T   T   T
  0.6357293215093299  0.2499942992699248  0.2494408954772332   T   T   T
  0.6357293215093299  0.2500057007300757  0.7494408954772335   T   T   T
  0.6357293215093299  0.7500057007300748  0.2494408954772332   T   T   T
  0.6357293215093299  0.7499942992699252  0.7494408954772335   T   T   T
  0.6526691184842444  0.2500045670714025  0.2495615543298608   T   T   T
  0.6526691184842444  0.2499954329285972  0.7495615543298604   T   T   T
  0.6526691184842444  0.7499954329285980  0.2495615543298608   T   T   T
  0.6526691184842444  0.7500045670714020  0.7495615543298604   T   T   T
  0.6696084400394978  0.2499895621337963  0.2496157369668896   T   T   T
  0.6696084400394978  0.2500104378662039  0.7496157369668904   T   T   T
  0.6696084400394978  0.7500104378662034  0.2496157369668896   T   T   T
  0.6696084400394978  0.7499895621337966  0.7496157369668904   T   T   T
  0.6865481461168642  0.2500109222973809  0.2496698087856847   T   T   T
  0.6865481461168642  0.2499890777026190  0.7496698087856848   T   T   T
  0.6865481461168642  0.7499890777026190  0.2496698087856847   T   T   T
  0.6865481461168642  0.7500109222973810  0.7496698087856848   T   T   T
  0.7034888339802510  0.2499941848447541  0.2497654302474083   T   T   T
  0.7034888339802510  0.2500058151552454  0.7497654302474082   T   T   T
  0.7034888339802510  0.7500058151552451  0.2497654302474083   T   T   T
  0.7034888339802510  0.7499941848447549  0.7497654302474082   T   T   T
  0.7204317736213876  0.2500023993433834  0.2498631527070588   T   T   T
  0.7204317736213876  0.2499976006566164  0.7498631527070587   T   T   T