STO_huge_hardwall_phi1smallnegative     
   1.00000000000000     
   227.4239940832268871    0.0000000000000000    0.0000039162199359
     0.0000000000000000    7.7094158084476092    0.0000000000000000
     0.0000001689205231    0.0000000000000000    7.7562850327685142
   Sr   Ti   O 
   236   236   708
Direct
  0.0000407363423270 -0.0000000000000000  0.0000529084536019
  0.0000407359799559  0.0000000000000000  0.4999470940855256
  0.0000407359799559  0.5000000000000000 -0.0000529059144744
  0.0000407363423270  0.5000000000000000  0.5000529084536018
  0.0169881710090688  0.0000000000000000 -0.0000285722724018
  0.0169881713995740 -0.0000000000000000  0.5000285742806639
  0.0169881713995740  0.5000000000000000  0.0000285742806638
  0.0169881710090688  0.5000000000000000  0.4999714277275982
  0.0339353406445315 -0.0000000000000000 -0.0000313691368185
  0.0339353402525820 -0.0000000000000000  0.5000313701932386
  0.0339353402525820  0.5000000000000000  0.0000313701932385
  0.0339353406445315  0.5000000000000000  0.4999686308631814
  0.0508768574372233 -0.0000000000000000  0.0000501323709075
  0.0508768578254435  0.0000000000000000  0.4999498681091711
  0.0508768578254435  0.5000000000000000 -0.0000501318908290
  0.0508768574372233  0.5000000000000000  0.5000501323709076
  0.0678235274284320 -0.0000000000000000 -0.0000128462927182
  0.0678235270431573  0.0000000000000000  0.5000128465542407
  0.0678235270431573  0.5000000000000000  0.0000128465542407
  0.0678235274284320  0.5000000000000000  0.4999871537072818
  0.0847699629783135 -0.0000000000000000 -0.0000157579067306
  0.0847699633327290 -0.0000000000000000  0.5000157588427714
  0.0847699633327290  0.5000000000000000  0.0000157588427711
  0.0847699629783135  0.5000000000000000  0.4999842420932694
  0.1017145081148172 -0.0000000000000000 -0.0000793843682142
  0.1017145077856640  0.0000000000000000  0.5000793868208750
  0.1017145077856640  0.5000000000000000  0.0000793868208751
  0.1017145081148172  0.5000000000000000  0.4999206156317856
  0.1186443013664768 -0.0000000000000000  0.0001111553659217
  0.1186443017073453 -0.0000000000000000  0.4998888471823520
  0.1186443017073453  0.5000000000000000 -0.0001111528176480
  0.1186443013664768  0.5000000000000000  0.5001111553659219
  0.1355803577732164 -0.0000000000000000 -0.0000219788678548
  0.1355803574110798  0.0000000000000000  0.5000219817922422
  0.1355803574110798  0.5000000000000000  0.0000219817922418
  0.1355803577732164  0.5000000000000000  0.4999780211321453
  0.1525326611472340 -0.0000000000000000  0.0000152514431048
  0.1525326615610383 -0.0000000000000000  0.4999847492874107
  0.1525326615610383  0.5000000000000000 -0.0000152507125895
  0.1525326611472340  0.5000000000000000  0.5000152514431048
  0.1694764054385109  0.0000000000000000 -0.0000163073153294
  0.1694764050272431  0.0000000000000000  0.5000163078961308
  0.1694764050272431  0.5000000000000000  0.0000163078961307
  0.1694764054385109  0.5000000000000000  0.4999836926846708
  0.1864269214835724  0.0000000000000000  0.0000265814993483
  0.1864269218529419 -0.0000000000000000  0.4999734170189298
  0.1864269218529419  0.5000000000000000 -0.0000265829810701
  0.1864269214835724  0.5000000000000000  0.5000265814993482
  0.2033636264888561 -0.0000000000000000 -0.0001006173073616
  0.2033636261642949  0.0000000000000000  0.5001006158513737
  0.2033636261642949  0.5000000000000000  0.0001006158513734
  0.2033636264888561  0.5000000000000000  0.4998993826926383
  0.2203034437436268 -0.0000000000000000  0.0000195860805178
  0.2203034440257278 -0.0000000000000000  0.4999804139457290
  0.2203034440257278  0.5000000000000000 -0.0000195860542710
  0.2203034437436268  0.5000000000000000  0.5000195860805178
  0.2372600230389436  0.0000000000000000 -0.0000027801768129
  0.2372600227191282  0.0000000000000000  0.5000027803302852
  0.2372600227191282  0.5000000000000000  0.0000027803302852
  0.2372600230389436  0.5000000000000000  0.4999972198231872
  0.2542334970260349  0.0000000000000000 -0.0001276678075810
  0.2542334973740615 -0.0000000000000000  0.5001276697584294
  0.2542334973740615  0.5000000000000000  0.0001276697584294
  0.2542334970260349  0.5000000000000000  0.4998723321924189
  0.2712005566543448 -0.0000000000000000  0.0000506131739120
  0.2712005562909280  0.0000000000000000  0.4999493892801891
  0.2712005562909280  0.5000000000000000 -0.0000506107198108
  0.2712005566543448  0.5000000000000000  0.5000506131739119
  0.2881523494412040  0.0000000000000000  0.0000463552008111
  0.2881523498157346  0.0000000000000000  0.4999536469812786
  0.2881523498157346  0.5000000000000000 -0.0000463530187214
  0.2881523494412040  0.5000000000000000  0.5000463552008110
  0.3050963885523787 -0.0000000000000000 -0.0000407366952296
  0.3050963881696121 -0.0000000000000000  0.5000407386037578
  0.3050963881696121  0.5000000000000000  0.0000407386037576
  0.3050963885523787  0.5000000000000000  0.4999592633047706
  0.3220455705585718  0.0000000000000000 -0.0000880185023545
  0.3220455709676020 -0.0000000000000000  0.5000880188589762
  0.3220455709676020  0.5000000000000000  0.0000880188589760
  0.3220455705585718  0.5000000000000000  0.4999119814976455
  0.3389993418316296 -0.0000000000000000  0.0000932490555754
  0.3389993414906729  0.0000000000000000  0.4999067511979858
  0.3389993414906729  0.5000000000000000 -0.0000932488020145
  0.3389993418316296  0.5000000000000000  0.5000932490555753
  0.3559509837436608  0.0000000000000000 -0.0000721431365059
  0.3559509841863018 -0.0000000000000000  0.5000721433074177
  0.3559509841863018  0.5000000000000000  0.0000721433074175
  0.3559509837436608  0.5000000000000000  0.4999278568634942
  0.3728975433911164  0.0000000000000000 -0.0000721454320645
  0.3728975431682328  0.0000000000000000  0.5000721439329766
  0.3728975431682328  0.5000000000000000  0.0000721439329769
  0.3728975433911164  0.5000000000000000  0.4999278545679355
  0.3898421994636146  0.0000000000000000  0.0000362997238593
  0.3898422008913759  0.0000000000000000  0.4999637080514095
  0.3898422008913759  0.5000000000000000 -0.0000362919485904
  0.3898421994636146  0.5000000000000000  0.5000362997238595
  0.4067918265955634  0.0000000000000000  0.0000790732361811
  0.4067918129464106  0.0000000000000000  0.4999205190967305
  0.4067918129464106  0.5000000000000000 -0.0000794809032696
  0.4067918265955634  0.5000000000000000  0.5000790732361814
  0.4237453778634839  0.0000000000000000  0.0000469734504240
  0.4237453439269350  0.0000000000000000  0.4999357786513211
  0.4237453439269350  0.5000000000000000 -0.0000642213486788
  0.4237453778634839  0.5000000000000000  0.5000469734504237
  0.4406856253636748 -0.0000000000000000 -0.0001932729000401
  0.4406854828622837  0.0000000000000000  0.5000480964399016
  0.4406854828622837  0.5000000000000000  0.0000480964399015
  0.4406856253636748  0.5000000000000000  0.4998067270999599
  0.4576164929080864 -0.0000000000000000 -0.0002319719921621
  0.4576150820200340 -0.0000000000000000  0.4997054367560474
  0.4576150820200340  0.5000000000000000 -0.0002945632439525
  0.4576164929080864  0.5000000000000000  0.4997680280078379
  0.4745591859005746 -0.0000000000000000 -0.0001884644262728
  0.4745605188415524 -0.0000000000000000  0.5001013138455167
  0.4745605188415524  0.5000000000000000  0.0001013138455168
  0.4745591859005746  0.5000000000000000  0.4998115355737274
  0.4915263253426011  0.0000000000000000  0.0004491093760809
  0.4915276468520537 -0.0000000000000000  0.5004955597849037
  0.4915276468520537  0.5000000000000000  0.0004955597849036
  0.4915263253426011  0.5000000000000000  0.5004491093760811
  0.5084872418008058  0.0000000000000000  0.0001001228525977
  0.5084888128665634 -0.0000000000000000  0.4998357687266127
  0.5084888128665634  0.5000000000000000 -0.0001642312733871
  0.5084872418008058  0.5000000000000000  0.5001001228525976
  0.5254465735889506 -0.0000000000000000 -0.0001912824096217
  0.5254449965004521 -0.0000000000000000  0.4996977713898451
  0.5254449965004521  0.5000000000000000 -0.0003022286101549
  0.5254465735889506  0.5000000000000000  0.4998087175903783
  0.5423761727135373 -0.0000000000000000  0.0001206168152377
  0.5423760389407524  0.0000000000000000  0.4997397866330267
  0.5423760389407524  0.5000000000000000 -0.0002602133669733
  0.5423761727135373  0.5000000000000000  0.5001206168152377
  0.5593035468707626 -0.0000000000000000 -0.0000662623228914
  0.5593035119642455  0.0000000000000000  0.5000491972719773
  0.5593035119642455  0.5000000000000000  0.0000491972719773
  0.5593035468707626  0.5000000000000000  0.4999337376771084
  0.5762480470772842 -0.0000000000000000  0.0000186907626800
  0.5762480344953743 -0.0000000000000000  0.4999809074651745
  0.5762480344953743  0.5000000000000000 -0.0000190925348255
  0.5762480470772842  0.5000000000000000  0.5000186907626800
  0.5932080082208269 -0.0000000000000000  0.0000736024626937
  0.5932080088583310 -0.0000000000000000  0.4999264071670315
  0.5932080088583310  0.5000000000000000 -0.0000735928329684
  0.5932080082208269  0.5000000000000000  0.5000736024626939
  0.6101588181710591 -0.0000000000000000  0.0000404593824928
  0.6101588187367805  0.0000000000000000  0.4999595426302086
  0.6101588187367805  0.5000000000000000 -0.0000404573697914
  0.6101588181710591  0.5000000000000000  0.5000404593824926
  0.6271034437387152  0.0000000000000000 -0.0000731402765527
  0.6271034433753154 -0.0000000000000000  0.5000731419431157
  0.6271034433753154  0.5000000000000000  0.0000731419431159
  0.6271034437387152  0.5000000000000000  0.4999268597234471
  0.6440496895035299 -0.0000000000000000 -0.0000708020314072
  0.6440496899174459  0.0000000000000000  0.5000708020257011
  0.6440496899174459  0.5000000000000000  0.0000708020257013
  0.6440496895035299  0.5000000000000000  0.4999291979685929
  0.6610017912219025  0.0000000000000000  0.0000897484273449
  0.6610017908778997  0.0000000000000000  0.4999102514089483
  0.6610017908778997  0.5000000000000000 -0.0000897485910518
  0.6610017912219025  0.5000000000000000  0.5000897484273450
  0.6779562421768021 -0.0000000000000000 -0.0000849482091517
  0.6779562425853192 -0.0000000000000000  0.5000849479258339
  0.6779562425853192  0.5000000000000000  0.0000849479258338
  0.6779562421768021  0.5000000000000000  0.4999150517908483
  0.6949053329406132  0.0000000000000000 -0.0000413106445835
  0.6949053325581883  0.0000000000000000  0.5000413088102490
  0.6949053325581883  0.5000000000000000  0.0000413088102490
  0.6949053329406132  0.5000000000000000  0.4999586893554164
  0.7118493049117307  0.0000000000000000  0.0000460288130253
  0.7118493052860611 -0.0000000000000000  0.4999539690851015
  0.7118493052860611  0.5000000000000000 -0.0000460309148983
  0.7118493049117307  0.5000000000000000  0.5000460288130251
  0.7288011521150042  0.0000000000000000  0.0000522290599496
  0.7288011517516827  0.0000000000000000  0.4999477686106049
  0.7288011517516827  0.5000000000000000 -0.0000522313893952
  0.7288011521150042  0.5000000000000000  0.5000522290599498
  0.7457683409615082  0.0000000000000000 -0.0001310735336373
  0.7457683413091775 -0.0000000000000000  0.5001310717851086
  0.7457683413091775  0.5000000000000000  0.0001310717851088
  0.7457683409615082  0.5000000000000000  0.4998689264663627
  0.7627416662070858  0.0000000000000000 -0.0000019816885446
  0.7627416658872180  0.0000000000000000  0.5000019818383257
  0.7627416658872180  0.5000000000000000  0.0000019818383254
  0.7627416662070858  0.5000000000000000  0.4999980183114555
  0.7796986742715721  0.0000000000000000  0.0000226475298858
  0.7796986745544422  0.0000000000000000  0.4999773527841381
  0.7796986745544422  0.5000000000000000 -0.0000226472158618
  0.7796986742715721  0.5000000000000000  0.5000226475298858
  0.7966389193264768  0.0000000000000000 -0.0001046176994537
  0.7966389190008711  0.0000000000000000  0.5001046195122425
  0.7966389190008711  0.5000000000000000  0.0001046195122424
  0.7966389193264768  0.5000000000000000  0.4998953823005464
  0.8135766811272233 -0.0000000000000000  0.0000280914463986
  0.8135766814987704 -0.0000000000000000  0.4999719104421338
  0.8135766814987704  0.5000000000000000 -0.0000280895578665
  0.8135766811272233  0.5000000000000000  0.5000280914463987
  0.8305286591304016  0.0000000000000000 -0.0000126330793572
  0.8305286587213809  0.0000000000000000  0.5000126330030915
  0.8305286587213809  0.5000000000000000  0.0000126330030916
  0.8305286591304016  0.5000000000000000  0.4999873669206429
  0.8474734628176811  0.0000000000000000  0.0000076304485325
  0.8474734632266542  0.0000000000000000  0.4999923697864609
  0.8474734632266542  0.5000000000000000 -0.0000076302135390
  0.8474734628176811  0.5000000000000000  0.5000076304485324
  0.8644252159146574 -0.0000000000000000 -0.0000187662368281
  0.8644252155424260  0.0000000000000000  0.5000187645821041
  0.8644252155424260  0.5000000000000000  0.0000187645821043
  0.8644252159146574  0.5000000000000000  0.4999812337631718
  0.8813621291554482  0.0000000000000000  0.0000979336695096
  0.8813621294813825 -0.0000000000000000  0.4999020648228366
  0.8813621294813825  0.5000000000000000 -0.0000979351771635
  0.8813621291554482  0.5000000000000000  0.5000979336695096
  0.8983010312685664 -0.0000000000000000 -0.0000238221815621
  0.8983010309849405 -0.0000000000000000  0.5000238223061709
  0.8983010309849405  0.5000000000000000  0.0000238223061709
  0.8983010312685664  0.5000000000000000  0.4999761778184381
  0.9152560174510460 -0.0000000000000000  0.0000133970697283
  0.9152560177757061 -0.0000000000000000  0.4999866033025144
  0.9152560177757061  0.5000000000000000 -0.0000133966974855
  0.9152560174510460  0.5000000000000000  0.5000133970697285
  0.9322247146333611  0.0000000000000000  0.0001068685613524
  0.9322247142747343  0.0000000000000000  0.4998931336397031
  0.9322247142747343  0.5000000000000000 -0.0001068663602969
  0.9322247146333611  0.5000000000000000  0.5001068685613522
  0.9491871261081301 -0.0000000000000000 -0.0000245180609705
  0.9491871264850895 -0.0000000000000000  0.5000245207306676
  0.9491871264850895  0.5000000000000000  0.0000245207306673
  0.9491871261081301  0.5000000000000000  0.4999754819390296
  0.9661409696240643  0.0000000000000000 -0.0000218025748486
  0.9661409692409142 -0.0000000000000000  0.5000218049089497
  0.9661409692409142  0.5000000000000000  0.0000218049089498
  0.9661409696240643  0.5000000000000000  0.4999781974251514
  0.9830907594725335  0.0000000000000000 -0.0000564715608774
  0.9830907598696635 -0.0000000000000000  0.5000564734028913
  0.9830907598696635  0.5000000000000000  0.0000564734028912
  0.9830907594725335  0.5000000000000000  0.4999435284391227
  0.0085142262739368  0.2500044887235942  0.2500000016578158
  0.0085142262739368  0.2499955112764058  0.7500000016578156
  0.0085142262739368  0.7499955112764060  0.2500000016578158
  0.0085142262739368  0.7500044887235940  0.7500000016578156
  0.0254625689496250  0.2499928947717254  0.2500000015564776
  0.0254625689496250  0.2500071052282746  0.7500000015564774
  0.0254625689496250  0.7500071052282747  0.2500000015564776
  0.0254625689496250  0.7499928947717253  0.7500000015564774
  0.0424065870593101  0.2500299676150837  0.2500000016504989
  0.0424065870593101  0.2499700323849162  0.7500000016504992
  0.0424065870593101  0.7499700323849160  0.2500000016504989
  0.0424065870593101  0.7500299676150840  0.7500000016504992
  0.0593497354895271  0.2499788745894788  0.2500000018989147
  0.0593497354895271  0.2500211254105211  0.7500000018989148
  0.0593497354895271  0.7500211254105213  0.2500000018989147
  0.0593497354895271  0.7499788745894787  0.7500000018989148
  0.0762952240712026  0.2500048743865340  0.2500000009713568
  0.0762952240712026  0.2499951256134658  0.7500000009713568
  0.0762952240712026  0.7499951256134660  0.2500000009713568
  0.0762952240712026  0.7500048743865340  0.7500000009713568
  0.0932420210934961  0.2499744286605608  0.2500000009435738
  0.0932420210934961  0.2500255713394393  0.7500000009435739
  0.0932420210934961  0.7500255713394396  0.2500000009435738
  0.0932420210934961  0.7499744286605604  0.7500000009435739
  0.1101801972218792  0.2500197685644719  0.2500000013150058
  0.1101801972218792  0.2499802314355281  0.7500000013150060
  0.1101801972218792  0.7499802314355279  0.2500000013150058
  0.1101801972218792  0.7500197685644721  0.7500000013150060
  0.1271160951038048  0.2500308923251843  0.2500000003674603
  0.1271160951038048  0.2499691076748155  0.7500000003674608
  0.1271160951038048  0.7499691076748157  0.2500000003674603
  0.1271160951038048  0.7500308923251843  0.7500000003674608
  0.1440577936822159  0.2499812811909060  0.2500000009324230
  0.1440577936822159  0.2500187188090940  0.7500000009324234
  0.1440577936822159  0.7500187188090940  0.2500000009324230
  0.1440577936822159  0.7499812811909060  0.7500000009324234
  0.1610050301570490  0.2500166710562419  0.2500000006145652
  0.1610050301570490  0.2499833289437583  0.7500000006145653
  0.1610050301570490  0.7499833289437583  0.2500000006145652
  0.1610050301570490  0.7500166710562417  0.7500000006145653
  0.1779503737434401  0.2499959185289529  0.2500000003749877
  0.1779503737434401  0.2500040814710471  0.7500000003749876
  0.1779503737434401  0.7500040814710471  0.2500000003749877
  0.1779503737434401  0.7499959185289529  0.7500000003749876
  0.1948917950921630  0.2499388530550713  0.2500000007961127
  0.1948917950921630  0.2500611469449288  0.7500000007961128
  0.1948917950921630  0.7500611469449288  0.2500000007961127
  0.1948917950921630  0.7499388530550712  0.7500000007961128
  0.2118311280877554  0.2500138460877817  0.2500000009268131
  0.2118311280877554  0.2499861539122183  0.7500000009268130
  0.2118311280877554  0.7499861539122182  0.2500000009268131
  0.2118311280877554  0.7500138460877818  0.7500000009268130
  0.2287805433385112  0.2500291728380890  0.2500000001735587
  0.2287805433385112  0.2499708271619111  0.7500000001735583
  0.2287805433385112  0.7499708271619111  0.2500000001735587
  0.2287805433385112  0.7500291728380889  0.7500000001735583
  0.2457478024336874  0.2499466838074409  0.2499999994903890
  0.2457478024336874  0.2500533161925591  0.7499999994903888
  0.2457478024336874  0.7500533161925592  0.2499999994903890
  0.2457478024336874  0.7499466838074408  0.7499999994903888
  0.2627149525799087  0.2499867811352406  0.2499999994829317
  0.2627149525799087  0.2500132188647593  0.7499999994829317
  0.2627149525799087  0.7500132188647589  0.2499999994829317
  0.2627149525799087  0.7499867811352411  0.7499999994829317
  0.2796739539558868  0.2500185752685679  0.2499999990120897
  0.2796739539558868  0.2499814247314322  0.7499999990120896
  0.2796739539558868  0.7499814247314323  0.2499999990120897
  0.2796739539558868  0.7500185752685677  0.7499999990120896
  0.2966210000868317  0.2500413945291690  0.2499999993935030
  0.2966210000868317  0.2499586054708310  0.7499999993935028
  0.2966210000868317  0.7499586054708309  0.2499999993935030
  0.2966210000868317  0.7500413945291691  0.7499999993935028
  0.3135675092355018  0.2499769067123313  0.2499999993281237
  0.3135675092355018  0.2500230932876686  0.7499999993281240
  0.3135675092355018  0.7500230932876685  0.2499999993281237
  0.3135675092355018  0.7499769067123315  0.7499999993281240
  0.3305239657527033  0.2500098220686490  0.2499999983511705
  0.3305239657527033  0.2499901779313511  0.7499999983511704
  0.3305239657527033  0.7499901779313510  0.2499999983511705
  0.3305239657527033  0.7500098220686490  0.7499999983511704
  0.3474769159009614  0.2499973371071304  0.2500000022650062
  0.3474769159009614  0.2500026628928696  0.7500000022650064
  0.3474769159009614  0.7500026628928694  0.2500000022650062
  0.3474769159009614  0.7499973371071306  0.7500000022650064
  0.3644285798259803  0.2499927194311630  0.2500000002252175
  0.3644285798259803  0.2500072805688369  0.7500000002252174
  0.3644285798259803  0.7500072805688371  0.2500000002252175
  0.3644285798259803  0.7499927194311629  0.7500000002252174
  0.3813738607975296  0.2500048795589005  0.2499999889925274
  0.3813738607975296  0.2499951204410996  0.7499999889925273
  0.3813738607975296  0.7499951204410995  0.2499999889925274
  0.3813738607975296  0.7500048795589005  0.7499999889925273
  0.3983176326460867  0.2499892859658396  0.2499998746176772
  0.3983176326460867  0.2500107140341603  0.7499998746176771
  0.3983176326460867  0.7500107140341605  0.2499998746176772
  0.3983176326460867  0.7499892859658395  0.7499998746176771
  0.4152622930374170  0.2500901764382385  0.2499973942064461
  0.4152622930374170  0.2499098235617614  0.7499973942064463
  0.4152622930374170  0.7499098235617615  0.2499973942064461
  0.4152622930374170  0.7500901764382385  0.7499973942064463
  0.4322083650317605  0.2498775002789153  0.2499650383181571
  0.4322083650317605  0.2501224997210849  0.7499650383181572
  0.4322083650317605  0.7501224997210847  0.2499650383181571
  0.4322083650317605  0.7498775002789153  0.7499650383181572
  0.4491436374862405  0.2501938010606828  0.2498437442267917
  0.4491436374862405  0.2498061989393172  0.7498437442267918
  0.4491436374862405  0.7498061989393173  0.2498437442267917
  0.4491436374862405  0.7501938010606827  0.7498437442267918
  0.4660771590729604  0.2494242154776024  0.2498365391804847
  0.4660771590729604  0.2505757845223975  0.7498365391804849
  0.4660771590729604  0.7505757845223975  0.2498365391804847
  0.4660771590729604  0.7494242154776025  0.7498365391804849
  0.4830339914942725  0.2511424544307211  0.2501660714004256
  0.4830339914942725  0.2488575455692790  0.7501660714004256
  0.4830339914942725  0.7488575455692787  0.2501660714004256
  0.4830339914942725  0.7511424544307213  0.7501660714004256
  0.5000184786517374  0.2488220238062923  0.2501728886989811
  0.5000184786517374  0.2511779761937078  0.7501728886989809
  0.5000184786517374  0.7511779761937077  0.2501728886989811
  0.5000184786517374  0.7488220238062923  0.7501728886989809
  0.5169829762064820  0.2505906799086966  0.2498542348271909
  0.5169829762064820  0.2494093200913033  0.7498542348271907
  0.5169829762064820  0.7494093200913033  0.2498542348271909
  0.5169829762064820  0.7505906799086967  0.7498542348271907
  0.5339157301287171  0.2498631470050600  0.2498532680663614
  0.5339157301287171  0.2501368529949400  0.7498532680663612
  0.5339157301287171  0.7501368529949395  0.2498532680663614
  0.5339157301287171  0.7498631470050605  0.7498532680663612
  0.5508411597769337  0.2500986233233030  0.2499661600375848
  0.5508411597769337  0.2499013766766968  0.7499661600375847
  0.5508411597769337  0.7499013766766969  0.2499661600375848
  0.5508411597769337  0.7500986233233031  0.7499661600375847
  0.5677802913302379  0.2499432825916026  0.2499974436535461
  0.5677802913302379  0.2500567174083974  0.7499974436535465
  0.5677802913302379  0.7500567174083970  0.2499974436535461
  0.5677802913302379  0.7499432825916030  0.7499974436535465
  0.5847320564552873  0.2500488401673110  0.2499998747305220
  0.5847320564552873  0.2499511598326891  0.7499998747305219
  0.5847320564552873  0.7499511598326889  0.2499998747305220
  0.5847320564552873  0.7500488401673111  0.7499998747305219
  0.6016806771435909  0.2499992505635054  0.2499999872746078
  0.6016806771435909  0.2500007494364948  0.7499999872746078
  0.6016806771435909  0.7500007494364949  0.2499999872746078
  0.6016806771435909  0.7499992505635051  0.7499999872746078
  0.6186273709676960  0.2500005649338783  0.2499999980768326
  0.6186273709676960  0.2499994350661215  0.7499999980768327
  0.6186273709676960  0.7499994350661217  0.2499999980768326
  0.6186273709676960  0.7500005649338783  0.7499999980768327
  0.6355727619718123  0.2499894230783281  0.2499999987827897
  0.6355727619718123  0.2500105769216720  0.7499999987827898
  0.6355727619718123  0.7500105769216717  0.2499999987827897
  0.6355727619718123  0.7499894230783283  0.7499999987827898
  0.6525245030936758  0.2500058059779405  0.2499999977232874
  0.6525245030936758  0.2499941940220596  0.7499999977232875
  0.6525245030936758  0.7499941940220594  0.2499999977232874
  0.6525245030936758  0.7500058059779406  0.7499999977232875
  0.6694783796243552  0.2500043025683702  0.2500000016930872
  0.6694783796243552  0.2499956974316296  0.7500000016930876
  0.6694783796243552  0.7499956974316299  0.2500000016930872
  0.6694783796243552  0.7500043025683701  0.7500000016930876
  0.6864348679099174  0.2499808723121689  0.2500000007410644
  0.6864348679099174  0.2500191276878310  0.7500000007410638
  0.6864348679099174  0.7500191276878313  0.2500000007410644
  0.6864348679099174  0.7499808723121687  0.7500000007410638
  0.7033804193192743  0.2500334618911263  0.2500000007021703
  0.7033804193192743  0.2499665381088738  0.7500000007021703
  0.7033804193192743  0.7499665381088737  0.2500000007021703
  0.7033804193192743  0.7500334618911263  0.7500000007021703
  0.7203275559785818  0.2500250871072836  0.2500000010966587
  0.7203275559785818  0.2499749128927165  0.7500000010966587
  0.7203275559785818  0.7499749128927164  0.2500000010966587
  0.7203275559785818  0.7500250871072836  0.7500000010966587
  0.7372881510755196  0.2499835525738688  0.2500000006478856
  0.7372881510755196  0.2500164474261311  0.7500000006478859
  0.7372881510755196  0.7500164474261310  0.2500000006478856
  0.7372881510755196  0.7499835525738690  0.7500000006478859
  0.7542560922800290  0.2499570321520215  0.2500000007065229
  0.7542560922800290  0.2500429678479784  0.7500000007065231
  0.7542560922800290  0.7500429678479781  0.2500000007065229
  0.7542560922800290  0.7499570321520219  0.7500000007065231
  0.7712227879331724  0.2500125380906705  0.2500000001121758
  0.7712227879331724  0.2499874619093296  0.7500000001121758
  0.7712227879331724  0.7499874619093297  0.2500000001121758
  0.7712227879331724  0.7500125380906703  0.7500000001121758
  0.7881726043556698  0.2500233673475626  0.2499999994583419
  0.7881726043556698  0.2499766326524374  0.7499999994583417
  0.7881726043556698  0.7499766326524376  0.2499999994583419
  0.7881726043556698  0.7500233673475624  0.7499999994583417
  0.8051128312308874  0.2499345483710025  0.2499999996566425
  0.8051128312308874  0.2500654516289975  0.7499999996566427
  0.8051128312308874  0.7500654516289974  0.2499999996566425
  0.8051128312308874  0.7499345483710026  0.7499999996566427
  0.8220540009978519  0.2500047838100701  0.2500000001593266
  0.8220540009978519  0.2499952161899299  0.7500000001593266
  0.8220540009978519  0.7499952161899296  0.2500000001593266
  0.8220540009978519  0.7500047838100704  0.7500000001593266
  0.8389998418618859  0.2500012960174389  0.2500000000589001
  0.8389998418618859  0.2499987039825612  0.7500000000588998
  0.8389998418618859  0.7499987039825611  0.2500000000589001
  0.8389998418618859  0.7500012960174389  0.7500000000588998
  0.8559479426667349  0.2499982438030717  0.2499999999245166
  0.8559479426667349  0.2500017561969283  0.7499999999245165
  0.8559479426667349  0.7500017561969282  0.2499999999245166
  0.8559479426667349  0.7499982438030718  0.7499999999245165
  0.8728897347379265  0.2500529709101323  0.2500000004213198
  0.8728897347379265  0.2499470290898680  0.7500000004213198
  0.8728897347379265  0.7499470290898678  0.2500000004213198
  0.8728897347379265  0.7500529709101322  0.7500000004213198
  0.8898289439992346  0.2499879709862307  0.2500000006990981
  0.8898289439992346  0.2500120290137692  0.7500000006990981
  0.8898289439992346  0.7500120290137691  0.2500000006990981
  0.8898289439992346  0.7499879709862309  0.7500000006990981
  0.9067788649376501  0.2499880041829906  0.2500000001780537
  0.9067788649376501  0.2500119958170095  0.7500000001780537
  0.9067788649376501  0.7500119958170096  0.2500000001780537
  0.9067788649376501  0.7499880041829904  0.7500000001780537
  0.9237408361469772  0.2500479981722972  0.2499999998783796
  0.9237408361469772  0.2499520018277028  0.7499999998783794
  0.9237408361469772  0.7499520018277032  0.2499999998783796
  0.9237408361469772  0.7500479981722968  0.7499999998783794
  0.9407016471412465  0.2500020373913559  0.2500000000925137
  0.9407016471412465  0.2499979626086439  0.7500000000925137
  0.9407016471412465  0.7499979626086439  0.2500000000925137
  0.9407016471412465  0.7500020373913561  0.7500000000925137
  0.9576588396516447  0.2499952656742989  0.2499999996741963
  0.9576588396516447  0.2500047343257010  0.7499999996741964
  0.9576588396516447  0.7500047343257010  0.2499999996741963
  0.9576588396516447  0.7499952656742990  0.7499999996741964
  0.9746102447894321  0.2499953098312896  0.2499999994843602
  0.9746102447894321  0.2500046901687106  0.7499999994843599
  0.9746102447894321  0.7500046901687104  0.2499999994843602
  0.9746102447894321  0.7499953098312896  0.7499999994843599
  0.9915623602968752  0.2499893805615124  0.2499999995580127
  0.9915623602968752  0.2500106194384876  0.7499999995580129
  0.9915623602968752  0.7500106194384879  0.2499999995580127
  0.9915623602968752  0.7499893805615121  0.7499999995580129
  0.0000401792435535  0.2737253941936977  0.2499999997198117
  0.0077134699495079  0.0000000000000000  0.2499999590245727
  0.0085178042702940  0.2500000350305689 -0.0000000010982528
  0.0000401792435535  0.2262746058063023  0.7499999997198117
  0.0093232552469965 -0.0000000000000000  0.7500000377544321
  0.0085178042702940  0.2499999649694309  0.4999999989017472
  0.0000401792435535  0.7262746058063023  0.2499999997198117
  0.0093232552469965  0.5000000000000000  0.2500000377544321
  0.0085178042702940  0.7499999649694310 -0.0000000010982528
  0.0000401792435535  0.7737253941936977  0.7499999997198117
  0.0077134699495079  0.5000000000000000  0.7499999590245726
  0.0085178042702940  0.7500000350305690  0.4999999989017472
  0.0169921542567376  0.2262322393023335  0.2499999987987664
  0.0262808348781389  0.0000000000000000  0.2500000395410464