Tetragonal STO                          
   1.00000000000000     
     5.4796160616298595    0.0000000000000000   -0.0000000000233365
     0.0000000000000000    5.4796160616298142   -0.0000000000233334
    -2.7398080310802904   -2.7398080310802491    3.8958081963770739
   Sr   Ti   O 
     2     2     6
Direct
  0.2500000000000000  0.7500000000000000  0.5000000000000000
  0.7500000000000000  0.2500000000000000  0.5000000000000000
 -0.0000000000000000  0.0000000000000000 -0.0000000000000000
  0.5000000000000000  0.5000000000000000 -0.0000000000000000
  0.2500000000000000  0.2500000000000000  0.5000000000000000
  0.7500000000000000  0.7500000000000000  0.5000000000000000
  0.7273635449750436  0.2273635449750506  0.0000000000000000
  0.2726364550249636  0.7726364550249564 -0.0000000000000000
  0.2273635449750506  0.2726364550249636 -0.0000000000000000
  0.7726364550249564  0.7273635449750436  0.0000000000000000
 
  0.00000000E+00  0.00000000E+00  0.00000000E+00
  0.00000000E+00  0.00000000E+00  0.00000000E+00
  0.00000000E+00  0.00000000E+00  0.00000000E+00
  0.00000000E+00  0.00000000E+00  0.00000000E+00
  0.00000000E+00  0.00000000E+00  0.00000000E+00
  0.00000000E+00  0.00000000E+00  0.00000000E+00
  0.00000000E+00  0.00000000E+00  0.00000000E+00
  0.00000000E+00  0.00000000E+00  0.00000000E+00
  0.00000000E+00  0.00000000E+00  0.00000000E+00
  0.00000000E+00  0.00000000E+00  0.00000000E+00
