Tetragonal STO                          
   1.00000000000000     
     5.4695984449111670    0.0000000000000000   -0.0000000002641663
     0.0000000000000000    5.4695984449111643   -0.0000000002641712
    -2.7347992228917719   -2.7347992228917750    3.8902813335248561
   Sr   Ti   O 
     2     2     6
Direct
  0.2500000000000000  0.7500000000000000  0.5000000000000000
  0.7500000000000000  0.2500000000000000  0.5000000000000000
  0.0000000000000000 -0.0000000000000000 -0.0000000000000000
  0.5000000000000000  0.5000000000000000 -0.0000000000000000
  0.2500000000000000  0.2500000000000000  0.5000000000000000
  0.7500000000000000  0.7500000000000000  0.5000000000000000
  0.7266358884339827  0.2266358884339892  0.0000000000000000
  0.2733641115660143  0.7733641115660173  0.0000000000000000
  0.2266358884339892  0.2733641115660143  0.0000000000000000
  0.7733641115660173  0.7266358884339827 -0.0000000000000000
 
  0.00000000E+00  0.00000000E+00  0.00000000E+00
  0.00000000E+00  0.00000000E+00  0.00000000E+00
  0.00000000E+00  0.00000000E+00  0.00000000E+00
  0.00000000E+00  0.00000000E+00  0.00000000E+00
  0.00000000E+00  0.00000000E+00  0.00000000E+00
  0.00000000E+00  0.00000000E+00  0.00000000E+00
  0.00000000E+00  0.00000000E+00  0.00000000E+00
  0.00000000E+00  0.00000000E+00  0.00000000E+00
  0.00000000E+00  0.00000000E+00  0.00000000E+00
  0.00000000E+00  0.00000000E+00  0.00000000E+00
