Tetragonal STO                          
   1.00000000000000     
     5.4112505849409587    0.0000000000000068   -0.0000001935976865
     0.0000000000000069    5.4112505849941028   -0.0000001935777828
    -2.7056254306144250   -2.7056254306268044    3.8583481895221325
   Sr   Ti   O 
     2     2     6
Direct
  0.2500000000000000  0.7500000000000000  0.5000000000000000
  0.7500000000000000  0.2500000000000000  0.5000000000000000
  0.0000000000000000  0.0000000000000000  0.0000000000000000
  0.5000000000000000  0.5000000000000000  0.0000000000000000
  0.2500000000000000  0.2500000000000000  0.5000000000000000
  0.7500000000000000  0.7500000000000000  0.5000000000000000
  0.7229793361912795  0.2229793361912724 -0.0000000000000000
  0.2770206638087347  0.7770206638087205 -0.0000000000000000
  0.2229793361912724  0.2770206638087347  0.0000000000000000
  0.7770206638087205  0.7229793361912795 -0.0000000000000000
 
  0.00000000E+00  0.00000000E+00  0.00000000E+00
  0.00000000E+00  0.00000000E+00  0.00000000E+00
  0.00000000E+00  0.00000000E+00  0.00000000E+00
  0.00000000E+00  0.00000000E+00  0.00000000E+00
  0.00000000E+00  0.00000000E+00  0.00000000E+00
  0.00000000E+00  0.00000000E+00  0.00000000E+00
  0.00000000E+00  0.00000000E+00  0.00000000E+00
  0.00000000E+00  0.00000000E+00  0.00000000E+00
  0.00000000E+00  0.00000000E+00  0.00000000E+00
  0.00000000E+00  0.00000000E+00  0.00000000E+00
