STO
   1.00000000000000     
     5.4938971522212476    0.0000000000000000    0.0000000000484736
     0.0000000000000000    5.4938971522212805    0.0000000000484711
    -2.7469485763255714   -2.7469485763255692    3.9039782326651014
   Sr   Ti   O 
     2     2     6
Direct
  0.2500000000000000  0.7500000000000000  0.5000000000000000
  0.7500000000000000  0.2500000000000000  0.5000000000000000
 -0.0000000000000000  0.0000000000000000 -0.0000000000000000
  0.5000000000000000  0.5000000000000000 -0.0000000000000000
  0.2500000000000000  0.2500000000000000  0.5000000000000000
  0.7500000000000000  0.7500000000000000  0.5000000000000000
  0.7282593257610406  0.2282593257610466  0.0000000000000000
  0.2717406742389611  0.7717406742389594  0.0000000000000000
  0.2282593257610466  0.2717406742389611  0.0000000000000000
  0.7717406742389594  0.7282593257610406 -0.0000000000000000
