POSCAR file written by Ovito 3.7.11
1
270.087792885 0.0 0.0
0.0 15.2784727892 0.0
0.0 0.0 10.8035117154
Sr Ti O 
800 800 2400 
Direct
0.0223985222 0.4980547794 0.7776010355
0.0125042579 0.4982164448 0.0229324412
0.0124486463 0.2510353258 0.5274379338
0.0226117491 0.2465257128 0.7791699698
0.0023876585 0.248160693 0.7770354786
0.0124137318 0.2501118042 0.0243550341
0.0026451303 -0.0027673974 0.273429786
0.0224754601 0.497328267 0.2772165177
0.0125334706 -9.3573524065e-04 0.5258486357
0.002413502 0.0022815366 0.7751897825
0.0124656038 -4.9891147612e-04 0.0275863908
0.0225659492 0.2474099635 0.2790733213
0.0024761112 0.2498493434 0.2752292009
0.0425568934 0.4984173811 0.2741962035
0.0324879452 0.246929549 0.527410165
0.0425576339 0.248724231 0.7740420075
0.0523970271 0.4983552021 0.0279055463
0.0325153437 0.2464903689 0.0300062521
0.032471284 -0.0010459557 0.5306026455
0.0323846455 -0.0027984214 0.0278168715
0.0424680334 0.248559293 0.2773970146
0.0523459326 0.2501353668 0.5244740827
0.0523651856 0.2481502207 0.0243003297
0.0624296909 0.2503317215 0.2721718617
0.0623315746 0.4988585247 0.770445029
0.0624211751 0.4998782601 0.270663093
0.0724253296 0.5001714831 0.5161119869
0.0723631276 0.2474518525 0.5187620511
0.0623574921 0.2528882597 0.7680152635
0.0722068821 0.2487896825 0.019638142
0.0624718994 0.0014770714 0.271899728
0.0625055921 0.0022309425 0.7670498367
0.1024159482 -4.6651294999e-04 0.2566796769
0.092284798 0.249351257 0.5085320442
0.0823946806 -0.0012662657 0.2622889641
0.1023511545 0.2486712152 0.7599225245
0.0823010073 0.2522487979 0.7642377881
0.092293684 0.2488878599 0.0114347908
0.0824424428 2.3355702085e-04 0.7664953873
0.09215447 -6.5835149566e-04 0.0136895206
0.102397806 0.2497793102 0.2594907999
0.0822606501 0.2526526341 0.2702354543
0.102405211 0.5030808053 0.2614160998
0.092351443 0.501232453 0.5101093091
0.1123060657 -5.7450803711e-04 0.0051298965
0.1224301812 0.250564729 0.2526883821
0.1123964067 0.2493178767 0.5042834256
0.1223827892 0.4992401073 0.7517946118
0.112509333 0.5012769601 0.0070792626
0.1223261409 0.2470807421 0.7523823837
0.112461941 0.2502741241 0.0072978027
0.1125619084 0.4982112086 0.508490391
0.1525389096 0.2508710424 0.5000468402
0.1324221174 0.2521545476 0.4994127871
0.1424136834 0.2489461118 0.7511429719
0.1522245673 0.2534118722 0.0012922554
0.1324798764 0.2501366758 0.0035918781
0.1423670319 0.2470198721 0.2523246115
0.1423503706 0.4989828826 0.749306532
0.1524792993 0.4998978956 -6.1045922291e-04
0.1325676256 0.5016821053 1.9983931084e-05
0.1323799089 0.5009889732 0.5076054936
0.1524493091 0.003473606 0.5001625433
0.1825221232 0.2495135769 0.7527193112
0.1825709962 0.2524477707 0.2535381058
0.162455685 0.499981019 0.7514567587
0.162479381 0.5028805235 0.249502381
0.1725253738 0.2503670653 0.5020313801
0.1823866117 0.5000863961 0.7475635802
0.1623716383 0.2481351668 0.7528414937
0.1725705443 0.2502760876 -0.0028261647
0.162436432 -3.8136046008e-04 0.249665291
0.1622875916 0.249270097 0.2538287521
0.1724779818 -0.0015294464 0.5020804382
0.1825298985 2.2295386685e-04 0.2484156974
0.2025622737 0.2494690698 0.2455083094
0.1925492332 0.4993965365 0.0019392673
0.2024578632 0.5019380209 0.2497597048
0.1927939684 0.2515288306 0.5015796751
0.2026274377 0.2497524751 0.7479384583
0.1925770019 0.2498329805 -0.0019989059
0.1925925524 0.0010562178 0.5032707919
0.2024049174 -0.0034589586 0.7478412677
0.1925477522 -5.3294629146e-04 -1.495905599e-04
0.2025048849 -0.0012167188 0.247935298
0.2126778734 0.2484257718 0.4969089716
0.2226009431 0.2476959868 0.7460594397
0.2125649471 0.2491117042 -0.0020136048
0.2226172341 -4.2429668865e-04 0.2469485818
0.2124890459 -0.0026973642 0.4982927809
0.2125353271 -0.0022573333 -0.0013376302
0.2226509268 -0.0020761634 0.7465879715
0.2325910281 -0.0039946797 0.4972431223
0.2225342981 0.247475415 0.243438612
0.2325362311 0.2516551522 0.4959981567
0.2326969196 0.2507185402 -0.0018835638
0.2326987708 7.1351336866e-04 0.9937279821
0.252383111 0.2539885006 0.5000209227
0.242475962 0.2500286807 0.7492380357
0.2626830952 0.2527508114 0.2517470216
0.2524804868 0.2507277034 1.0021974504
0.242523354 0.2502145632 0.2515211691
0.2425518633 0.0037293253 0.2489414523
0.252593413 0.5000962138 0.9981894944
0.2525797138 0.0027712452 0.4990499422
0.2427299535 0.0029998021 0.7490390264
0.2624298442 0.2540133722 0.7526952449
0.2526252545 7.1835678469e-04 0.9995409068
0.2624935272 0.0022202085 0.2509546866
0.262500562 0.0019434792 0.7524749462
0.2726194939 0.2530342167 0.4963869192
0.2723754992 0.2495515388 0.9975045319
0.2724525112 -0.0013514181 0.4992850509
0.2728109132 0.5004614336 1.0025862129
0.2824866559 0.2511511751 0.7496360545
0.2823840967 0.0010537306 0.7458409922
0.2825803292 0.2531697014 0.2445965688
0.3026745361 0.2501360213 0.2462404787
0.3126549946 0.2512755331 0.4949920024
0.3126527731 0.251691805 0.9962641945
0.3125442898 7.1770226901e-04 0.9999111568
0.2927203654 0.2542038362 0.4944653218
0.3028148608 0.2516590793 0.7432853417
0.2927096281 0.502024417 0.4995016471
0.3023701906 0.5030415344 0.2475095105
0.2925530124 0.2554611608 0.9900902761
0.3025993753 0.0042738169 0.7501877269
0.2927796054 0.001834306 0.4986658078
0.3125394766 0.5058683876 1.0029657191
0.2925182089 6.6075940489e-04 0.9968010569
0.322662111 0.2494540159 0.2442253932
0.3326088768 0.2533470752 0.4974763797
0.3226550763 0.2526676879 0.7436380048
0.3325018745 0.2520773148 0.9937742634
0.3225654758 0.0015792413 0.2456388225
0.332400426 0.0019743724 0.4945773224
0.3225280805 0.0012325443 0.7448033666
0.33258407 0.0030581194 0.9925431822
0.3625832044 0.2531251944 0.2385735273
0.3525642399 0.2514254172 0.4890393083
0.342594889 0.2532927504 0.7471368671
0.3525157372 0.0026097762 0.9890258074
0.3524191019 0.2525976547 0.990571601
0.3426034047 0.0039711034 0.2447169
0.342577117 -9.6918099188e-04 0.7460538859
0.342737065 0.2530918141 0.2459192869
0.3624091869 0.250836353 0.7397392725
0.3625906094 0.0029859918 0.2367204261
0.3725540364 0.250794464 0.4883450896
0.3825878108 0.2483419938 0.7369124139
0.3725466314 0.2530466525 0.9833239577
0.3825470833 -9.9787814737e-05 0.7440462054
0.3823619584 0.2541436208 0.238904901
0.3926326928 0.0035421338 0.4899491976
0.3925623453 0.0024894108 0.9898218448
0.3723874239 0.0030382876 0.4861152591
0.3725947639 0.0019724088 0.9883871261
0.3924697828 0.2521669834 0.4867687503
0.3925068078 0.2532416982 0.9869524075
0.4125188193 0.0015611766 0.4935545068
0.4025887148 0.252337812 0.7355165715
0.4026331448 -0.0012165879 0.2363436967
0.4026183348 0.0021261546 0.7387192338
0.4024332098 0.4996897596 0.2379505817
0.4026220373 0.2507388302 0.2383078729
0.4124743893 0.2499102134 0.4874250184
0.4124669843 0.2506308351 0.9850826451
0.4126261917 0.0017319398 0.9846476013
0.4124447693 0.5015747647 0.9910344135
0.4123818268 0.5027221307 0.4871112315
0.4225118662 0.251041871 0.2367269055
0.4425386877 0.250836353 0.7327193329
0.4324012432 0.5020780873 0.9851011576
0.4324678882 0.5041064314 0.4834883355
0.4426090352 0.2514509433 0.2309186089
0.4224970562 0.5022777146 0.2364445899
0.4423979927 0.4990732058 0.7300479793
0.4326196907 0.2520223355 0.4815611843
0.4224563287 0.2530224354 0.7339467115
0.4324864007 0.2509312578 0.9882667949
0.4424276127 0.5026030089 0.2309547083
0.4325530457 0.0014811948 0.9901087886
0.4524243621 0.002752657 0.9822317202
0.4723364061 0.2500954413 0.4728390204
0.4625247816 0.2521552021 0.7320454779
0.4724956136 0.2519077952 0.9769001205
0.4623211441 0.2519437936 0.2313045945
0.4524132546 0.5052361254 0.9798158391
0.4623840866 0.5018928593 0.7265676294
0.4724733986 0.502714931 0.4815806225
0.4523947421 0.2514162539 0.4806864688
0.4523910396 0.2531926095 0.981852214
0.4724215636 3.580459031e-04 0.9810284078
0.482277618 -0.0013498473 0.2282981647
0.4824590405 0.2518495433 0.7287446993
0.482603438 0.250647198 0.2334066888
0.4923410125 0.2527514659 0.4807022044
0.492478005 0.2535395028 0.9781682267
0.4823257505 0.502610863 0.2265367004
0.5025191845 0.2492124996 0.2278436828
0.5123789414 0.0012391549 0.9842958639
0.5224312284 -0.0020142462 0.2335362763
0.5024747545 0.249060652 0.7274664113
0.502426622 0.5008115994 0.7245599489
0.5125344464 0.2505922187 0.4793174695
0.5023784895 -0.0026136516 0.7280106787
0.5225015759 0.2503899734 0.2294209477
0.5125455539 0.2485468572 0.9792697204
0.5224460384 0.2479211402 0.738064817
0.5125529589 0.4989881188 0.4817037306
0.5224534434 0.500583828 0.2286684147
0.5224571459 0.5015047315 0.7309356536
0.5525473618 0.2480697153 0.4847527392
0.5522992943 -0.0029271646 0.9794455891
0.5326723429 0.4994456252 0.9841662764
0.5325094329 0.4973459389 0.4790879145
0.5323946554 -0.0010691255 0.4790110876
0.5325279454 0.2456624066 0.4854256685
0.5324094654 0.2489376031 0.9812690703
0.5425432073 -4.8222132629e-04 0.7331821453
0.5425024798 0.248893096 0.2303419446
0.5424358348 0.248852516 0.7338421159
0.5526028993 0.2417438212 0.9809173328
0.5626070538 0.4949831373 0.7328535485
0.5623404738 0.4972340167 0.2284990253
0.5624552513 -7.0024049915e-04 0.2281047091
0.5625441113 0.2484080999 0.2306890539
0.5624219288 0.2482699971 0.7307172061
0.5725223482 -0.0014140553 0.4819517981
0.5724557033 1.6705822781e-04 0.9792326954
0.5725667782 0.2470977595 0.4812242569
0.5727185807 0.2480409166 0.9831018077
0.5923825572 0.4997532476 0.9875540637
0.5825561227 0.249855234 0.7333302453
0.6024829767 0.2476292262 0.2335094331
0.5925861947 0.2437675837 0.4885107765
0.6026940191 0.2489107679 0.7355878446
0.5926269222 0.247034926 0.9852770263
0.6025274067 0.4976699242 0.7356878121
0.5824857752 0.2475447937 0.2333493
0.5925269547 0.4982072816 0.4898723708
0.5825524202 0.4962332623 0.2359938105
0.6126352311 -0.005274127 0.9834628014
0.6127166861 0.4961501388 0.489970487
0.6225246081 0.245721313 0.7378556257
0.6225542281 0.4981379029 0.2394065897
0.6124575111 0.5000045816 0.9876558824
0.6225172031 0.4973969911 0.7387756969
0.6126019086 0.2465139315 0.4847360779
0.6126389336 0.2471180495 0.9888684511
0.6225283106 0.2475166495 0.2397111203
0.6425218095 0.2492426074 0.2410754915
0.6524334015 0.2471344124 0.4935619118
0.642384817 0.2481868736 0.7429826623
0.652533369 0.2489238582 0.9936446759
0.6324769276 0.5008129085 0.9953015445
0.6424107345 0.4963772557 0.7417923086
0.6523297315 0.4986019545 0.996764032
0.6424699745 0.496032326 0.2433784464
0.6524408065 0.5001885005 0.495600138
0.6324213901 0.2478412893 0.4920651763
0.6324991426 0.2511138677 0.9912473072
0.6624116385 -0.0038540243 0.7444284885
0.6723565529 0.4991170583 0.4926788656
0.6823829224 0.4969237763 0.745784529
0.6723343379 0.4957286307 0.9954033633
0.6823977324 0.4989396846 0.2476418749
0.6624930935 0.2488413893 0.2455147888
0.662526416 0.2503454663 0.7428715873
0.6823755174 -0.0030877173 0.2439088295
0.6824014349 -0.003194927 0.744809846
0.6623227785 0.4986929322 0.7455614534
0.6626115735 0.4996995773 0.2449473807
0.6824125424 0.2473045864 0.2484601274
0.6724083879 0.2477542387 0.4946837693
0.6823829224 0.2485409666 0.7409277749
0.6724676279 0.2503395756 0.9943851758
0.7026022738 0.2490469072 0.2437727626
0.6924278044 0.2480441892 0.4992248853
0.7024171488 0.2470048183 0.7421551536
0.6925018544 0.2484388621 0.999772313
0.7024060413 0.4984317804 0.745024591
0.7025393313 -0.0026507627 0.7436417073
0.7023616113 -0.0010676856 0.2417863715
0.6925351769 0.495472715 0.9959772507
0.6925129619 0.4990450616 0.4900991489
0.7124138983 0.2495757558 0.4916079176
0.7123287408 0.2476796239 0.9924691322
0.7226142853 0.5021474659 0.7440499079
0.7224809953 0.2464334261 0.235864223
0.7325073647 0.4961913733 0.9935891384
0.7325629022 0.252774374 0.4910553195
0.7225698553 0.4991589474 0.2387503216
0.7325147697 0.4994338439 0.4875916309
0.7225476403 0.2478720515 0.7403094575
0.7325073647 0.2518030727 0.9885815074
0.7124879483 0.5012468524 0.9873689387
0.7627234656 0.4973557567 0.7433186642
0.7426040817 -2.8252859247e-04 0.7383397276
0.7526230462 0.4967693106 0.9961438632
0.7625568531 0.4996622699 0.2428443608
0.7626679281 0.2508644972 0.2466551587
0.7525489962 0.2486129633 0.4934887875
0.7624679932 0.2494618701 0.7445247535
0.7524453262 0.2488381167 0.9915064822
0.7425596517 0.5000143993 0.7437444516
0.7526970962 0.4995870006 0.4931407525
0.7426596192 0.2525498751 0.2415540396
0.7425855692 0.2506694516 0.7406093599
0.7823948471 0.5010550793 0.2498022835
0.7826947496 0.5002899504 0.7470961396
0.7826206996 0.2478668154 0.2451769357
0.7726535701 0.2485933278 0.4963943242
0.7825799721 0.2493290034 0.7435130454
0.7725499001 0.2499939914 -0.0090131344
0.7925804241 0.4996144903 0.4977050091
0.8125109805 0.5008940684 0.4990693803
0.802506826 0.4991812009 0.7436157898
0.8024216685 0.4996550702 0.2473410468
0.7925396966 0.2502243809 0.496463746
0.7926211515 0.2494801966 0.991126976
0.812744238 0.0012303189 0.4961879098
0.8025771735 0.2512015728 0.2459350225
0.812781263 0.2505424755 0.4942922299
0.8026586285 0.2522782511 0.744439596
0.8124443355 0.2484676608 0.9950053445
0.8324415369 7.6057304602e-04 0.4910978982
0.8226669375 0.25196212 0.2423065727
0.8325933394 -5.8098774234e-04 0.9934225259
0.8325489094 0.2493237673 0.495585328
0.8227261774 0.2503487389 0.746895279
0.8326710919 0.2461225311 -0.0074905369
0.8325007769 0.501420299 0.492448385
0.8326414719 0.499163529 0.9937002134
0.8227039624 0.5036430343 0.2463589587
0.8426271139 0.502546066 0.7469906184
0.8426048989 0.5003154766 0.2436515057
0.8426456264 -3.3816242523e-04 0.2486369217
0.8424864189 0.2533902732 0.246516315
0.8425641714 0.2505411665 0.7412609999
0.8626465303 0.2509456572 0.2509047028
0.8527127234 0.2504704788 0.4945514049
0.8625354553 0.2541141676 0.7569142434
0.8526868059 0.2507191947 -0.0016467889
0.8926219687 0.5024766873 0.0022524062
0.8724433448 0.0012839892 0.505045215
0.8825622768 0.2537934549 0.2548645264
0.8725877423 0.2489991275 0.5007382821
0.8925108937 0.2507826828 0.5042649131
0.8825215493 0.2521846553 0.7552212754
0.8727506523 0.2512198992 0.0054664537
0.8925368112 -4.5865876183e-04 0.5063623793
0.8726025523 -0.0012069665 6.3719064828e-04
0.8925257037 0.2488518615 0.0033937018
0.8725062873 0.5010727512 0.4990184709
0.8923220662 0.4999384755 0.5031884113
0.9125266077 0.4986379529 0.5027117145
0.9024743207 0.5011656924 0.756540291
0.9125599302 0.5018444252 0.0042202848
0.9024928332 0.5010321712 0.2582310243
0.9126598977 -2.8324855971e-04 0.5026348876
0.9027371982 0.2499874462 0.2499846316
0.9126339802 7.6076940073e-04 0.00265061
0.9126450877 0.249999882 0.508512606
0.9025557757 0.2514535613 0.7524564337
0.9126673027 0.248455225 0.0046578277
0.9425686911 0.248975565 0.7581990109
0.9326348841 0.2499043227 0.0088101813
0.9326459916 0.4963883825 0.5061207912
0.9325052966 0.5014805145 0.0085747949
0.9226344321 0.5007193127 0.7508634331
0.9224011747 0.4978479524 0.2527957546
0.9425094511 0.5004987409 0.758336929
0.9226677546 0.2495986639 0.2574174
0.9223752572 0.2504207356 0.7551962835
0.9425427736 0.2480913143 0.2572045063
0.9326126691 0.2494468163 0.5050563225
0.9725515345 5.643492453e-04 0.5136646345
0.962702885 -0.0029284082 0.7660011036
0.9625955125 0.2503428482 0.262395411
0.9526246805 -5.0067866846e-04 0.0122851625
0.9723219795 6.1062350384e-04 0.01620648
0.9524432581 0.2492412983 0.5112589353
0.972495997 0.2514077452 0.5164618731
0.9623289325 0.2459320671 0.7667045786
0.9526024655 0.2521205128 0.0128749707
0.9524950931 -0.002142924 0.5156399181
0.9725811545 0.2497511661 0.0128380382
0.9725811545 0.4995994364 0.5179530549
0.9625807025 2.1562329124e-04 0.2645113896
0.9522025956 0.4979664198 0.5124733552
0.9624770325 0.5005530657 0.7636685287
0.9826445489 0.2491097407 0.2678112426
0.982474234 -4.3437623012e-04 0.7686752341
0.9925228184 0.0020684917 0.0205194295
0.9926153809 0.2526172902 0.5148411038
0.982489044 0.2497721106 0.7703524665
0.9925968684 0.2520295351 0.0178992629
0.9925117109 0.5022953865 0.0198846359
0.0224950093 0.7502671604 0.7767133611
0.0024954753 0.5016120721 0.2739888635
0.002554271 0.7500773508 0.7710485364
0.0126845696 0.4990777874 0.5260902238
0.0023503743 0.5037183036 0.7686141428
0.0223609418 0.9960901593 0.2804358413
0.0223751224 1.0009008496 0.7743918938
0.0124962235 0.748958129 0.0223751224
0.0224888261 0.748329794 0.2768990283
0.0025825951 0.7502802507 0.2746923385
0.0123358312 0.7497697285 0.523653979
0.0522892844 1.0005277756 0.5233392665
0.0523481541 0.9963192398 0.0241387156
0.0324794295 0.7481007135 0.0237693912
0.0425343082 0.7509020406 0.2774923539
0.0325238595 0.7508693148 0.5288060074
0.0424136067 0.7485457841 0.7772372649
0.0424713657 0.4956474707 0.77512684
0.0326079062 0.5001708286 0.0276630326
0.0324901667 0.5001701741 0.5279840525
0.0424624797 1.0006783142 0.2740906822
0.0524073941 0.4999168765 0.5208289716
0.0524540456 0.7490759419 0.0236011126
0.0524762606 0.7517594561 0.5218379028
0.0425505992 1.0000303437 0.778601636
0.0722842643 0.498874233 0.0166031103
0.0724316238 0.9988980316 0.5189629117
0.0722394641 0.999415099 0.0188403458
0.0723542416 0.7528132264 0.0180683746
0.0623822989 0.7496453705 0.274103641
0.0722216921 0.7478650878 0.5224275259
0.0623863716 0.748081078 0.7721018976
0.0923284875 0.9971832005 0.5150937994
0.092264064 0.7488206807 0.0144119709
0.1023733695 0.7515761917 0.2647381677
0.0822028911 0.750168983 0.2638273528
0.0922188935 0.7499464477 0.5122410233
0.102233415 0.7493901094 0.7584544834
0.0824235601 0.7500184444 0.7652578268
0.1023792935 0.9994020086 0.7571095503
0.102406692 0.5004411436 0.7555905998
0.0822939726 0.5014451706 0.7658493011
0.0923303388 0.5025729011 0.0105837712
0.0823280356 0.4989992455 0.2650426983
0.1124541657 0.7519099947 0.0047126247
0.1224531367 0.7506860504 0.2515313509
0.1124112167 0.7460848052 0.5066733893
0.1224287002 0.7502409798 0.755510996
0.1224127794 1.0035647284 0.2513971353
0.1223179954 0.9975039132 0.751288295
0.1224527664 0.4985299578 0.2504696591
0.1123216162 0.9997881729 0.5053284562
0.1424499679 0.75087586 0.2481361586
0.1525118813 0.750751502 0.4976244797
0.1325713281 0.7507580471 0.4988962884
0.1423500004 0.7518249077 0.7508051188
0.1525340963 0.4996668515 0.4998061777
0.1325306006 0.9991205669 0.0030823215
0.1425965869 0.5002578792 0.2489192373
0.1422922414 1.0010317527 0.2525810096
0.1323965701 1.0004099628 0.5027755826
0.1424736639 0.9979817096 0.7538226561
0.1523845153 1.0001612468 -0.0012298874
0.1522715891 0.7470273078 -6.8821171877e-04
0.1323539914 0.7512358436 -0.0021427203
0.1724657635 0.7495341028 -0.0041758462
0.1623497936 0.7498286349 0.2505946185
0.1724331815 0.7505944182 0.4967867892
0.1624534635 0.7478192717 0.7472386858
0.182492133 1.0005932272 0.7524527312
0.172687173 0.4974990956 6.5264858496e-04
0.1723187743 0.4979304214 0.4963508198
0.1823566215 0.7524925137 0.248875733
0.1823714315 0.7517660013 0.7484938333
0.1724883488 0.9998863503 0.002057377
0.1625152953 0.9975104583 0.7516937187
0.182469918 0.4991609109 0.2517905259
0.2024534202 0.5002925685 0.746088134
0.1924314937 0.4997061225 0.5006281327
0.1924662972 0.7487552292 -0.0018905985
0.2023175384 0.7510591244 0.2481398611
0.1923455957 0.7513602016 0.4978818035
0.2024026959 0.7474592881 0.7489001826
0.2325891768 0.7509282212 -0.0073027276
0.2325854743 0.4998056088 -0.0078417931
0.2326139836 0.7506402343 0.4926686837
0.2123664931 0.7508169536 -0.0028761392
0.2225642884 0.7495602835 0.2444799401
0.2123875974 0.7484934229 0.4951447305
0.2224724664 0.7526823232 0.7478079452
0.2325976926 0.4979572566 0.4938340456
0.2224424761 0.5003966365 0.7499276263
0.2125057071 0.5002814417 -8.8221625664e-05
0.2224446976 0.5031658923 0.2434395376
0.2125138526 0.4998213172 0.4923585994
0.2524138418 0.7514780144 2.4620666906e-04
0.242412279 0.7532910228 0.2505214941
0.2524790058 0.7503915184 0.5035818019
0.2426559035 0.7528263167 0.7456188422
0.2426577548 0.5024989409 0.7488242814
0.2624839007 0.5041915184 0.7503274963
0.2625135207 0.7520801688 0.2515193178
0.2425155788 0.502609554 0.24582765
0.2626183015 0.7522699784 0.7506375807
0.262659029 0.5021291395 0.2487109717
0.2525108473 0.5017861733 0.5011548133
0.2725191562 1.0027531289 1.000216613
0.2826506767 0.5007860733 0.2462182637
0.2725924657 0.5025696286 0.5023858945
0.2826995497 1.0030280255 0.2499420529
0.2824981337 0.5016539611 0.7471637102
0.2828987441 0.7516612788 0.2491839661
0.2827095464 0.7487225034 0.747995847
0.2725372984 0.7492526611 0.9982820569
0.2726383767 0.7500249896 0.4982076235
0.3125576188 1.0027531289 0.494156163
0.2926863024 0.7481792554 0.9954033633
0.3026245523 0.7482381618 0.2482000267
0.2926933371 0.7514976499 0.4979614072
0.3027074883 0.7517660013 0.7471711152
0.3024960756 0.5038249896 0.7471044702
0.2927137009 0.5005249216 0.9938205446
0.3026597261 1.0031851093 0.2459998162
0.3126997948 0.7505813279 0.9995501631
0.3125379956 0.7491741192 0.4995701434
0.3126512921 0.4983113495 0.4971514854
0.3325955478 0.5030146992 0.4992424721
0.32264582 0.5031593472 0.7457363965
0.3324144955 0.7517463658 0.9987078443
0.3326236868 0.4993644653 0.9992076818
0.32252734 0.750417699 0.2529401521
0.3325829593 0.7507449568 0.4954798067
0.3225917635 0.7523354299 0.7487900333
0.3224484768 0.4986379529 0.2475594943
0.3524313202 0.5013751374 0.4950355067
0.3525338794 1.0028840321 0.4904009026
0.3624795344 0.7524728782 0.2387040404
0.3624758319 0.7547375025 0.7358386889
0.3624462119 0.5027293304 0.7405741862
0.3623610544 0.5013633562 0.2397694347
0.3525220314 0.75129475 0.9918582197
0.342597851 0.7523550654 0.2506075772
0.3524342822 0.7522241623 0.493277745
0.342543054 0.7519230851 0.7407963362
0.3625313694 1.0038854411 0.73976519
0.342563788 0.5021350301 0.7425864948
0.3524457599 0.5023457842 0.9911454885
0.3425856327 0.5021788827 0.250250286
0.3724836889 0.5020669605 0.9856935575
0.3823767684 0.5020924866 0.2381532935
0.3723466964 0.5000392709 0.4839946523
0.3924660803 0.4998893869 0.9841477639
0.3825507858 0.5014360074 0.7395856187
0.3724947964 0.7542531609 0.98711902
0.3824841409 0.750751502 0.2366556324
0.3726021689 0.7535331936 0.4915496032
0.3825692983 1.0020397068 0.2320423176
0.3827470183 0.753631371 0.7348084684
0.3924549728 0.7516350982 0.9873781949
0.3922994678 0.7519885366 0.4908924095
0.3926030728 0.4988860143 0.4853756848
0.4025702023 0.4998173901 0.7370077533
0.4023443498 0.7534873775 0.2368222448
0.4024332098 0.7519165399 0.7374446482
0.4125558443 0.7518052722 0.9851844638
0.4125558443 0.7514845596 0.4868178084
0.4225044612 1.0029102127 0.7379259732
0.4424572327 1.0017386296 0.2345322487
0.4325678557 1.0026091355 0.4844102579
0.4423461577 1.0015095491 0.7342956722
0.4224230062 0.5009726103 0.7321667348
0.4325012107 0.752296159 0.9886185324
0.4224489237 0.7495799189 0.2364131186
0.4325049132 0.7531928455 0.4862504003
0.4223563612 0.7503391571 0.7344484003
0.4426238452 0.7543709737 0.231848862
0.4424165052 0.7507187762 0.7335968253
0.4225562962 0.9997947181 0.2397796166
0.4723993486 1.0020986132 0.4821693199
0.4724771011 0.5018424616 0.9819725452
0.4622544991 0.499832444 0.2322441038
0.4724882086 0.7514060177 0.9794085641
0.4622285816 0.7520212624 0.2348117875
0.4724882086 0.7493704739 0.4814223406
0.4624692441 0.7512554791 0.7335783128
0.4525650571 1.001588091 0.4836669811
0.4623951941 1.0028447611 0.2328133632
0.4624433266 1.0028643966 0.7341123984
0.4524132546 0.752839407 0.98586017
0.4524947096 0.7530226714 0.4843038111
0.4525835696 0.502359529 0.4787074826
0.4923706325 0.4988212173 0.9783718642
0.4925113275 0.4976391619 0.4781086033
0.482499768 0.5010203899 0.7267879282
0.4823701805 0.9982500611 0.7272553688
0.4924150625 1.0020658875 0.4816500443
0.4924372775 1.0008288528 0.9771130142
0.4924076575 0.7465822371 0.4760000296
0.4923336075 0.7516612788 0.9766039205
0.4823553705 0.7516809143 0.231300892
0.4823109405 0.7488141356 0.7322139416
0.502404407 0.4999011681 0.2305520614
0.512271569 1.0009990269 0.4817296481
0.5224497409 1.0014506427 0.7293009999
0.5023118445 1.0003445112 0.2333233825
0.5226274609 0.7496846414 0.7318011129
0.502434027 0.7510722147 0.2259017217
0.5025043745 0.7494097448 0.7307607105
0.5124789089 0.7474789236 0.9756782956
0.5127454889 0.5004751784 0.9783903767
0.5125492564 0.7514911047 0.4807438575
0.5225793284 0.7493442933 0.2325217913
0.5524622043 1.0001219759 0.4825155037
0.5424099173 0.4960859962 0.7323648185
0.5423506774 0.7475901913 0.2338296994
0.5524918243 0.499647216 0.4829227786
0.5526547343 0.7449197673 0.4788889051
0.5426061498 0.7474789236 0.7330386735
0.5324168704 1.0004885047 0.9778905392
0.5425691248 0.4989861552 0.2314351076
0.5325612679 0.7490432161 0.9821206452
0.5524955268 0.4984036363 0.9819170077
0.5423765949 0.9989111219 0.231922912
0.5322872829 0.7474789236 0.4857292735
0.5723446283 0.4992099996 0.9873134012
0.5625737313 0.9981518837 0.7312531429
0.5525547668 0.7451619381 0.980963614
0.5626366738 0.7501166218 0.231834052
0.5626292688 0.7475771009 0.7357738952
0.5724594058 0.7487421389 0.9827408139
0.5725482657 0.498686387 0.485955126
0.5724557033 0.7497435478 0.4780382558
0.6023719017 0.4962640245 0.2394213997
0.6024829767 0.9944865959 0.2388438097
0.6024607617 0.9969737555 0.73995772
0.5923492347 0.7459800827 0.9866099262
0.5924529047 0.9952327438 0.487773979
0.5925491697 0.9979489838 0.9824538702
0.6025274067 0.7497631833 0.2379357717
0.5923566397 0.7490301258 0.4872352653
0.6025533242 0.7456855506 0.7386775807
0.5825672302 0.9993300119 0.2309213858
0.5825339077 0.9998994406 0.734616864
0.5824265352 0.4963327486 0.7362811377
0.5824228327 0.7490366709 0.2349311931
0.5822377077 0.7485850551 0.7380213126
0.6123390311 0.744448516 0.9875633199
0.6125722886 0.9955665468 0.4865225341
0.6123723536 0.7460193536 0.4911562126
0.6226023606 0.996201427 0.7404084993
0.6223505906 0.746660779 0.2419937114
0.6222876481 0.7465233307 0.7388747388
0.6226356831 0.9985445931 0.2420288852
0.642407032 0.9995918182 0.7439156923
0.6326472426 0.4969591202 0.4932638606
0.6424181395 0.9961490657 0.2454018625
0.652525964 1.000501595 0.4959315117
0.6525148565 0.998747493 0.9941074883
0.6324547126 0.9961817915 0.4914524126
0.6326213251 0.9975693647 0.9944499696
0.6324621176 0.7458622699 0.995912457
0.6324880351 0.7472629334 0.4962017942
0.652533369 0.7483559746 0.9977822194
0.6424107345 0.7491937547 0.2483740442
0.652348244 0.7516743691 0.4936979787
0.6422774445 0.7517594561 0.7497480551
0.6723565529 0.749082487 0.9995871881
0.662422746 0.9978835323 0.2432766276
0.6725305704 0.9971570199 0.9952737758
0.6824125424 0.7468047724 0.2463247106
0.6724269004 0.7498417252 0.5000125921
0.6824643774 0.7469880368 0.7436185667
0.6725268679 0.9971308392 0.4963933985
0.662407936 0.7475705558 0.2464320831
0.6624190435 0.7496584608 0.7455586766
0.7025134138 0.4975331304 0.2455036813
0.6923019194 0.9974777326 0.4968580623
0.6925536894 0.9986820414 0.9973934569
0.6922945144 0.7482970682 0.9990318131
0.7025578438 0.749206845 0.2451806381
0.6924426144 0.7502475249 0.4960907192
0.7024430663 0.7464644243 0.7430169104
0.7125953208 0.4987924186 0.4939747406
0.7124805433 0.7490170354 0.4951817555
0.7224698878 0.9991009314 0.7368763145
0.7326184397 0.997078478 0.9886740699
0.7325851172 0.7507187762 0.9898681261
0.7225476403 0.7453452025 0.2400628578
0.7325221747 0.7493115675 0.4890078371
0.7225624503 0.7495995544 0.7411128999
0.7223810278 0.9966006815 0.2401054365
0.7326295472 1.0039574378 0.4887097858
0.7123768733 0.7478912685 0.9959402257
0.7126545608 0.9987605833 0.4867048822
0.7125731058 0.99883258 0.9910251573
0.7426040817 0.4993238853 0.2413920552
0.7424967092 0.7476949138 0.2418631983
0.7426299992 0.7496846414 0.7445664066
0.7524675412 0.7480745329 0.9928949197
0.7624791007 0.9987998542 0.7496962201
0.7525489962 0.9988980316 0.9935706259
0.7626531181 0.747452743 0.2493533554
0.7524416237 0.7490039451 0.4923724838
0.7624976132 0.7484672423 0.7452263772
0.7525119712 1.0015553652 0.4958250648
0.7425300317 1.0005735917 0.240953309
0.7626753331 0.9998405342 0.2458230219
0.7827354771 0.9976937227 0.2453629863
0.7726980001 0.9990027541 0.4990591984
0.7827799071 0.9995656376 0.7485456683
0.7725721151 0.997621726 0.9983283381
0.7825059221 0.7502017088 0.2432210901
0.7726054376 0.751752911 0.5000884934
0.7826206996 0.749082487 0.745710479
0.7724980651 0.7514321983 0.9987633818
0.7724277176 0.4995752193 0.4953789136
0.7725832226 0.4987505296 0.9954218758
0.7926359615 1.0001088856 0.4926103694
0.7925508041 0.7509020406 0.9991243756
0.792691499 1.0006194078 0.990756726
0.8127257255 0.7545542381 0.9946258383
0.7926359615 0.5008901413 0.9936261634
0.802595686 0.9995198215 0.2450343894
0.8125924355 0.5003030408 0.9994113193
0.802677141 0.7502867959 0.2488220467
0.8126294605 0.7520408979 0.499282274
0.8023994535 1.0008484883 0.7447182091
0.802558661 0.7512751145 0.747250719
0.812640568 1.0007568561 0.9948387321
0.7925063741 0.7528197715 0.4927705025
0.8225706725 0.9994870957 0.7425800155
0.822470705 1.0000237985 0.2420455464
0.8325859344 0.7499137219 0.994949807
0.822559565 0.4976653426 0.7453272703
0.82240406 0.7501755282 0.2432470076
0.8324896694 0.7529441295 0.493292555
0.8225336475 0.7504307893 0.7447385728
0.8425567664 0.7498548155 0.2468328787
0.8423605339 0.7515172853 0.7416941924
0.8624799178 0.5009307213 0.7493481851
0.8424605014 1.0031851093 0.7460705472
0.8623873553 1.0003314209 0.247705743
0.8626428278 1.0025175033 0.7460705472
0.8526534834 1.002674587 -0.0027795132
0.8624910253 0.7510067631 0.7492982014
0.8525053834 0.4980213991 0.4978762497
0.8525090859 0.7490104903 5.1602634222e-04
0.8524609534 0.5028209626 -0.0043916279
0.8626132078 0.500291914 0.2464385625
0.8624540003 0.7517921819 0.2435672739
0.8526053509 0.749082487 0.5013843683
0.8526312684 1.0008223077 0.4964739279
0.8825326568 1.0015946362 0.7531164043
0.8925479187 0.9996834504 0.0050852813
0.8825252518 0.7514714692 0.7537597136
0.8724174273 0.7498679058 0.0016364953
0.8924516537 0.7508562245 0.0038548481
0.8823993668 0.5016199263 0.7544215355
0.8824919293 0.5003141675 0.2529558877
0.8824993343 0.7504831506 0.2537602558
0.8723026498 0.7477996363 0.4968238141
0.8925145962 0.7494424706 0.5030301294
0.8724174273 0.5008489068 0.0023038709
0.8825548718 0.9990158444 0.2552070076
0.9122341102 0.7519689012 0.5051211162
0.9025557757 1.0026287709 0.2529818052
0.9025187507 1.0016666329 0.7540836823