POSCAR file written by Ovito 3.7.11
1
270.0021519008 0.0 0.0
0.0 15.2736282035 0.0
0.0 0.0 10.800086076
Sr Ti O 
800 800 2400 
Direct
0.022665882 0.4998297719 0.7632790164
0.012431334 0.5018168571 0.0159872871
0.0126917763 0.2477508324 0.5164985758
0.0225799198 0.2495912596 0.7672095406
0.0025562645 0.2531869999 0.7638160491
0.0124244081 0.2503317516 0.0130070331
0.0023185998 -3.450979798e-04 0.2654431693
0.0227376963 0.4998304267 0.2636228135
0.012527148 -3.1426051317e-04 0.5189124455
0.0026113011 0.0010445522 0.7659688098
0.0126619618 -0.0036636284 0.0184863413
0.0225603273 0.2469848062 0.2653598367
0.002636338 0.2482634808 0.2654709469
0.0425306867 0.5007018634 0.2633746673
0.0325685438 0.2511580124 0.5123652754
0.0426940187 0.2488219597 0.7634253115
0.0525924583 0.5003509317 0.0155134946
0.032732987 0.2479492136 0.0160529347
0.0327233574 9.8706748402e-04 0.515723582
0.0325726179 -6.8444105736e-04 0.0181406033
0.0425629086 0.2509065987 0.2667663069
0.0525791251 0.2504116279 0.5133337862
0.0526057916 0.249237709 0.0151294236
0.0625212681 0.2502702076 0.266538531
0.0625953416 0.5013899775 0.7703067382
0.0625731195 0.4983952732 0.264809841
0.0725726695 0.5017114467 0.514575443
0.0728156305 0.2506820286 0.5142606307
0.0625820083 0.2506879211 0.7656827009
0.0724841516 0.2485338815 0.0202568827
0.0625279347 9.0522707365e-04 0.2703838707
0.0625101571 0.0011552004 0.7685660113
0.1024920606 8.2868992187e-04 0.264207994
0.0926680649 0.2468099951 0.5174985678
0.0826511077 -8.8386976934e-04 0.2645626208
0.1026357632 0.2507180384 0.7666586191
0.08249222 0.2477338096 0.7661975116
0.092561399 0.2502440187 0.0163945061
0.0827151812 -1.8691683464e-04 0.7668373214
0.0925925099 -2.5522667109e-07 0.0172905175
0.1024468758 0.2505209666 0.26675427
0.0825662935 0.2470188518 0.2653005779
0.1022909511 0.4984371755 0.2668051955
0.0925565843 0.4962170089 0.5159078398
0.1125360547 0.0027208402 0.0180572706
0.1225356046 0.2507049439 0.2645672504
0.1125216103 0.250139263 0.5133921191
0.1224596793 0.4987756675 0.7589744211
0.1125256844 0.5014718179 0.0139685995
0.1224719014 0.2495735821 0.7634271634
0.1124212408 0.2509301687 0.0149341474
0.1123867966 0.5002651629 0.5118680572
0.1523298116 0.2514644229 0.5160393202
0.1323921927 0.2509386801 0.5109273239
0.1423069285 0.2499873672 0.7604364464
0.1525198101 0.2511390254 0.0157827517
0.1323507115 0.2497791652 0.0099877053
0.1424532236 0.2517708334 0.2637329978
0.1424139647 0.5021579679 0.7634401262
0.1524512921 0.5048979849 0.011266584
0.132334045 0.5013173032 0.0116694512
0.1323255266 0.5018103099 0.5092430781
0.1525394395 -5.4563972137e-04 0.5138402637
0.1824073496 0.2525296577 0.7583670185
0.1824321643 0.252753573 0.2534497464
0.1623878796 0.5025547303 0.7636391987
0.1625093601 0.5010488667 0.2620330113
0.1723240967 0.2504129373 0.5086662308
0.1824284606 0.4999423844 0.7584929434
0.1624675086 0.2547426224 0.762612355
0.172272986 0.2479335002 0.0118261166
0.1625467672 0.0033991335 0.2571450873
0.162653433 0.2543445506 0.2629589299
0.1725577985 0.0028420295 0.5046412629
0.1825951259 0.0042980031 0.2525284574
0.2025145968 0.2520287944 0.2555830627
0.192422455 0.5007182314 0.0038845132
0.2024920044 0.501665616 0.251942351
0.1922072715 0.2504103184 0.5018514703
0.2024653379 0.2501484291 0.754405939
0.1924402326 0.2481953895 0.0040056233
0.1923639369 0.0016810742 0.5008199971
0.2025464484 -1.6995950161e-04 0.7462291523
0.1923157892 7.3977850005e-04 0.0034822016
0.2023997829 0.0018725153 0.2507895824
0.2123730367 0.2535078143 0.5018496185
0.2225496223 0.2487892236 0.7509892995
0.2125089616 0.2514388887 6.0444675209e-04
0.2224044383 0.0041136985 0.2466988743
0.2124885914 -0.0016060296 0.5006468503
0.2124004439 3.9120382421e-04 -0.0037593518
0.2223151797 0.0032743433 0.7480328416
0.2324210251 6.1826185873e-04 0.500491296
0.2223411054 0.2534724592 0.2496173695
0.2322428784 0.2493247872 0.4976774295
0.2322417673 0.2518199376 -0.0031905878
0.2324528767 0.0014654738 0.9955512392
0.2525449388 0.2492724093 0.4912302587
0.2424153899 0.250420794 0.7407004926
0.2625604145 0.2494773377 0.2429600152
0.2524893837 0.2508123185 0.9937827348
0.2425405741 0.2484867414 0.2435100108
0.242318724 0.0017796755 0.2474673867
0.2523464218 0.4993145047 0.9976715927
0.2523141999 6.1446446369e-04 0.4971015082
0.2424965004 0.0017814432 0.7458902661
0.2623974529 0.2520916478 0.7404940128
0.2524508655 -7.5430003165e-04 0.9994771339
0.2623930084 0.0033592609 0.2420850222
0.2623841196 9.4614177029e-05 0.7444921291
0.2725184833 0.2501287874 0.4939811627
0.2722925592 0.2511226573 0.9965141945
0.2724251507 5.0839929185e-04 0.4929246896
0.2723218182 0.4974799701 0.9931531102
0.2823691455 0.2486720281 0.7457726744
0.2821628509 0.0013617656 0.742594922
0.2824439597 0.2490943246 0.2388350481
0.3024130599 0.2484245427 0.243860008
0.3124333504 0.2483996632 0.4911867405
0.3123248327 0.2514945402 0.9939956961
0.3123007588 -8.3803913954e-04 0.9948290228
0.2922416594 0.24845466 0.4963709585
0.302465652 0.2505890579 0.7479133981
0.2923683251 0.5017494206 0.4967126224
0.3023867638 0.4977962014 0.2502136611
0.2923327698 0.2493169305 0.9956530903
0.3024519484 9.8791862429e-04 0.7365764514
0.2923690658 -0.0013028272 0.495558002
0.3123011292 0.4975349668 0.9935882919
0.292421658 -0.0015956195 0.9936808838
0.3225251218 0.2486753017 0.2438526007
0.3323694878 0.2493902595 0.4929959854
0.3222240131 0.2479786761 0.7436495432
0.332346525 0.25000439 0.9935605144
0.3222973458 -5.3287261735e-04 0.2417896541
0.332408006 0.001185776 0.4927126543
0.3222691979 0.0019722296 0.7461060051
0.33246245 -0.0016821084 0.9946438391
0.3623618413 0.2537415505 0.2363322902
0.3524993273 0.2508692794 0.4916885884
0.3422390387 0.2484670997 0.7436791726
0.3524196983 0.0018895381 0.9928290387
0.3524856237 0.2496095918 0.9953660555
0.3422490387 0.0025562428 0.240529479
0.342227187 -6.3153941609e-04 0.7447124977
0.3424586666 0.2511933675 0.2371554318
0.3626322095 0.2515934034 0.7406532708
0.3623951744 0.001840041 0.2380887577
0.3725173159 0.2532341399 0.4932626499
0.3824987179 0.2491866406 0.7414819679
0.3724913902 0.2512005694 0.9928197795
0.3825135326 0.0022650873 0.7409319723
0.3825987171 0.250574654 0.2376313539
0.3925208602 9.9976911571e-04 0.4864914076
0.3924245647 0.0030614927 0.9889031441
0.3724765755 0.0026873838 0.4882210234
0.3724395388 0.0030956038 0.9885883318
0.3925541933 0.2515508464 0.4916098853
0.3924430831 0.2505072175 0.9945605064
0.4125577376 0.0025226555 0.489373792
0.4024763364 0.2502937777 0.7406782706
0.4024652254 0.0038366196 0.2397757813
0.4025763356 0.0040436431 0.7337042521
0.4025689283 0.5002906971 0.2384304216
0.4024800401 0.2531928924 0.2466118379
0.4126132927 0.2518022601 0.4896950857
0.4126614404 0.2497313704 0.9936716246
0.4125355155 0.0020266371 0.9891346237
0.4125762559 0.5007719188 0.9890049951
0.4125836633 0.5002789121 0.4882719489
0.4224835844 0.2527869639 0.2466729485
0.4425723132 0.253335622 0.7365875624
0.4325909112 0.5055592554 0.9872827866
0.4327612802 0.5058427506 0.4949293033
0.4423797221 0.2528969574 0.2363785862
0.4225724726 0.5022843295 0.2450025915
0.4426797197 0.501623059 0.7436347285
0.4325205414 0.2516150093 0.4895024947
0.4225872873 0.2520314133 0.7397088339
0.4324168385 0.2513171102 0.9927827428
0.4425760168 0.5045090792 0.2401878151
0.4323909128 0.0024272623 0.985005027
0.4525166783 0.0016884071 0.9881809276
0.4726905916 0.2498452922 0.4785868409
0.462683264 0.2504463282 0.7306940909
0.4726091108 0.2497981521 0.9793291463
0.4626314125 0.2536027491 0.2343137878
0.4525574188 0.5039813723 0.9869401968
0.4626573383 0.5007882868 0.7334190692
0.4725831851 0.5009120295 0.4803359011
0.4526055665 0.2553083033 0.4872117722
0.4526759363 0.2511056345 0.9839402207
0.4725239263 0.0023874551 0.981060614
0.4826127348 3.6809209232e-04 0.2261120013
0.482575698 0.2520399247 0.7269802316
0.4824719952 0.2541127786 0.2290906813
0.4926682102 0.2483688912 0.4748609447
0.4925237669 0.2491159305 0.9751162169
0.4825312539 0.4994009282 0.230662891
0.5025125762 0.249531025 0.2280453192
0.5126643471 -0.0028468611 0.9774773092
0.5225050094 5.6058073751e-04 0.2202074187
0.5027088709 0.249997188 0.7286950328
0.5026792415 0.4970740416 0.7245811767
0.512438423 0.2500443281 0.4751952013
0.5024310953 1.7455588988e-04 0.7245941395
0.5225383425 0.2481397381 0.2207148221
0.5123754605 0.2483217511 0.9728847532
0.5223864919 0.2504214487 0.7227784132
0.5125643479 0.5003168861 0.4742396534
0.5225531572 0.4990238076 0.2243638671
0.5225013058 0.4986630551 0.7234728522
0.5524714373 0.2500757548 0.4754063107
0.5522899572 -0.0020267547 0.9763106519
0.5325197444 0.5013258146 0.9759402844
0.532330857 0.5003522411 0.4743609487
0.5323827085 -0.0035044652 0.4746285392
0.5324012268 0.2489293343 0.4732554019
0.532467893 0.2496102466 0.9734680819
0.5424381839 -0.0020776922 0.7273117105
0.5424196655 0.2536073322 0.2229305452
0.5423196663 0.2506983967 0.724770064
0.5522751425 0.2496789925 0.9759217661
0.5625380237 0.4991403483 0.7280737414
0.5624898759 0.5010279156 0.2257221896
0.5623046922 -0.0028765856 0.2308267785
0.5622009893 0.2508843381 0.2334915721
0.5622824702 0.246843386 0.7323005596
0.5723157235 -5.5879965936e-04 0.4804766407
0.5724490558 -0.0024354985 0.9857365027
0.5723638713 0.2485581062 0.4818886665
0.5723490566 0.2465153696 0.9820698652
0.5925414883 0.498670257 0.9774124949
0.5825378643 0.2497627971 0.7349060944
0.6023562249 0.2479321908 0.2399794834
0.5923785266 0.2471746759 0.4868062199
0.6024599277 0.2503677614 0.7372607052
0.5923118605 0.2505334064 0.9910512751
0.6026340004 0.499768228 0.7352329436
0.5824489761 0.2477108943 0.2344573052
0.5926007471 0.4980083318 0.4841812408
0.5824341614 0.499044104 0.2303906709
0.612448737 0.0017308986 0.991347569
0.6124228113 0.5002121303 0.4828858807
0.6224338426 0.2499775463 0.7389977284
0.6223190287 0.4994611627 0.2347073032
0.6123191084 0.49774055 0.983708741
0.6223486581 0.4974334847 0.7390236541
0.6123968856 0.2442428251 0.4890497205
0.6124709591 0.246069503 0.9921808957
0.6225190271 0.2502472923 0.2443192636
0.6422744252 0.2457224997 0.2387156046
0.6522632345 0.2515986412 0.490317303
0.6422484995 0.2492285429 0.7426801065
0.6523336043 0.2473710929 0.9814865365
0.6324930217 0.4982106413 0.9842365146
0.6424744236 0.4998847687 0.7337070299
0.6523743447 0.4981019572 0.9853846536
0.6423077583 0.4978525076 0.234799895
0.6523891594 0.4976868626 0.4816423721
0.6324152446 0.2437622582 0.4905311902
0.6323485784 0.2482733016 0.9962086414
0.6624150055 0.0018892762 0.7386366202
0.6723741853 0.5019347073 0.4886515755
0.682574104 0.4994199152 0.7436106546
0.6724001111 0.5008504855 0.9873753785
0.6824259571 0.4991357653 0.2385924574
0.6622964879 0.2486543506 0.2368156197
0.662352043 0.2476316728 0.7341551744
0.6822926248 -0.0016240999 0.2397433741
0.6823111432 -7.7426909178e-04 0.7433143607
0.662352043 0.5006075832 0.736262565
0.6624150055 0.4989910714 0.2385609762
0.682381513 0.2499873672 0.2428350162
0.6723001119 0.2525309671 0.4879997289
0.6824000314 0.2458423141 0.7380236621
0.6722704825 0.2496036993 0.9927179285
0.7025591299 0.2484520411 0.2365332145
0.6924703215 0.2475472135 0.4875256586
0.7027183879 0.2480729563 0.7399125359
0.6926703199 0.2500194486 0.991495716
0.7025257969 0.4976659115 0.7391625419
0.7024739454 8.0937558503e-04 0.7448708298
0.7025554263 -0.0023385994 0.2436479727
0.6924666178 0.500115886 0.9904309097
0.6924666178 0.498866674 0.4908228545
0.712584976 0.2476637542 0.4914145165
0.7127627523 0.250929514 0.9891346237
0.7225404522 0.4985903808 0.7419523345
0.7226737844 0.2474129952 0.2416628033
0.7327181488 0.501225642 0.9934123674
0.7327366672 0.2481174775 0.4944033815
0.7225182301 0.4971048136 0.240915587
0.7326033349 0.5002802216 0.4924783969
0.7225848963 0.2510604586 0.7400467941
0.7325107431 0.2465893533 0.9934586633
0.7125812723 0.4976331753 0.9918660834
0.7625660591 0.5029770268 0.7488319093
0.7427514022 -1.242820145e-07 0.7404014209
0.7526735454 0.5006193682 0.9961808639
0.7626253179 0.5017880493 0.2482377509
0.7624438379 0.2508830286 0.2452377748
0.7525809535 0.2532341399 0.4925922849
0.7626067995 0.2502486018 0.7440532437
0.7524439176 0.2501916408 0.9938938451
0.7425699222 0.500392834 0.7433365827
0.7527846556 0.4982800419 0.4926265439
0.7425847369 0.2482130671 0.2477970137
0.742629181 0.2490242692 0.7448902741
0.7825362703 0.499945658 0.2493303348
0.7825029372 0.4993439673 0.7512170755
0.7825770107 0.2497398818 0.2457849927
0.772514128 0.2497549404 0.4972135443
0.7825140483 0.2492324712 0.7524568804
0.7724030177 0.2500253411 -0.0028712107
0.7926250788 0.4984830062 0.4998635232
0.81259529 0.5006416288 0.499649636
0.802558333 0.4996700195 0.7511448538
0.8027731461 0.5007064464 0.2511405055
0.7925732274 0.2489699272 0.5026153531
0.7925028575 0.2483145492 0.9988938052
0.8125804753 -2.2796798448e-04 0.5039088613
0.802602777 0.250744882 0.2493914454
0.8125582533 0.2523496088 0.5018514703
0.8025472219 0.2479132038 0.7459717469
0.812617512 0.2520183188 0.9996530584
0.8324284653 -0.0013034164 0.5007246275
0.8227248389 0.2504456735 0.2500627363
0.8324988351 -0.002848236 1.003375251
0.8324062432 0.2493928784 0.4968052143
0.8222989164 0.2486857773 0.7525105837
0.8325543902 0.2493752009 -0.0011766502
0.8325543902 0.4997440032 0.5018625814
0.8326284637 0.5002304626 0.9997641686
0.822610025 0.500030772 0.2496979244
0.8424209782 0.4963394421 0.7534633539
0.8425765325 0.4973693218 0.2515867983
0.8425765325 5.688957232e-04 0.2547423287
0.8425580142 0.2461022392 0.2526154938
0.8424432003 0.249843328 0.7544707533
0.8624319298 0.2488579695 0.2547034401
0.8523727507 0.2473999008 0.5055819962
0.862520818 0.2488605884 0.7477865473
0.852313492 0.2467360113 0.0032100741
0.8926168744 0.5027347792 0.007056062
0.8726096265 -0.0020895427 0.5038708987
0.8827021387 0.2487447024 0.2601552485
0.8724429612 0.2484651355 0.5065977288
0.8926353928 0.2510506378 0.5115069489
0.8825317696 0.2496711358 0.754951305
0.8724799979 0.2500174844 -9.9609604714e-04
0.8927983545 -5.9114298954e-04 0.502117209
0.8725651824 0.0015341543 0.0046235814
0.8926020598 0.2521558107 0.008997065
0.872535553 0.4992346285 0.5011801794
0.8924872459 0.5016250232 0.5039570091
0.9125241232 0.498492827 0.5094773355
0.9026353131 0.5011424921 0.7594577505
0.9127278253 0.5013205769 0.0103789985
0.9025834617 0.4998932801 0.2578126746
0.9125463452 0.00277695 0.5104578832
0.9025167955 0.2513668691 0.2572228645
0.9126907885 -0.0011794773 0.0100382605
0.9128167135 0.2499173118 0.5102921438
0.9027316086 0.2523031234 0.7562059246
0.9127315289 0.2509007062 0.008949658
0.942627587 0.25239413 0.7547374178
0.9325980373 0.2492206862 0.0058982009
0.9325684079 0.5021618963 0.509892147
0.9324313719 0.4990788043 0.0053058908
0.9225388582 0.49964514 0.7600244127
0.9227092272 0.5014436648 0.2627228206
0.9425201804 0.4985412765 0.7585651651
0.9226610794 0.2498066635 0.2574589737
0.9226907088 0.2494642433 0.758929977
0.9424498106 0.2499317157 0.2592163671
0.9326684071 0.2468708843 0.5106458447
0.972512534 0.0011223333 0.5083227151
0.9626755753 -0.001018219 0.7604734832
0.9624903916 0.2505203119 0.2613422761
0.952494175 -0.0015117494 0.0071663389
0.9726569773 0.0017755507 0.0098994653
0.9525534338 0.2508935042 0.5061727322
0.9726199405 0.250016175 0.5157217302
0.9626829827 0.2474143047 0.7619632861
0.9524978787 0.2489457024 0.0082671635
0.9525534338 -2.2744420586e-04 0.5059440303
0.9726754956 0.2502662793 0.0112813987
0.9724977193 0.4983428954 0.5129393449
0.9625570578 -5.3889607156e-04 0.2617246804
0.9527200991 0.4984469964 0.5068486527
0.9624903916 0.4993570617 0.760384595
0.9825865278 0.2510192111 0.263469111
0.9826791196 -4.1351656287e-04 0.7661317714
0.9926420032 -0.0014266354 0.0217968704
0.9924753378 0.2461578907 0.5142402605
0.9825754167 0.2482300899 0.7651984455
0.992404968 0.2506754813 0.0156557157
0.9925901517 0.5000864235 0.0140661913
0.0225432904 0.7489650756 0.7710058067
0.0024749318 0.4969653576 0.2676237075
0.0023689327 0.7490501896 0.7684308272
0.0124682966 0.5004294985 0.5161680229
0.002728078 0.4963964031 0.7605142236
0.0225384016 0.9992657866 0.2662376074
0.0225571792 0.9988794999 0.768023423
0.0124917409 0.7460646514 0.0164517279
0.0224902908 0.7506869978 0.2654940948
0.0024587838 0.7468568666 0.2681514811
0.0123985565 0.7487031863 0.5166013528
0.0526713466 1.0043071559 0.5186328181
0.0526920872 1.0008174808 0.0177606989
0.032523359 0.7484412969 0.0201801241
0.0426647597 0.7504316557 0.2694079525
0.0323566937 0.7495936099 0.518258747
0.0425899455 0.7501108413 0.7731724561
0.0425110572 0.4996065113 0.7662428817
0.0326481728 0.4964337223 0.0145287802
0.0325526181 0.5003162313 0.5200522512
0.0424177246 1.0002937022 0.2670311196
0.0525772733 0.4987219802 0.518985593
0.0526494949 0.748722828 0.0236662074
0.0525683845 0.7503007111 0.5188355942
0.0423958729 0.999134842 0.7645327101
0.0724837813 0.4995672279 0.0155075687
0.0725297068 1.0006734417 0.5137254498
0.0726174839 1.0016555266 0.0123608345
0.0726011878 0.7489650756 0.0150445168
0.062324603 0.7499209716 0.2661107566
0.072636743 0.7523565422 0.5110254713
0.062545342 0.750045369 0.769023415
0.092543251 0.9976027895 0.5171078302
0.092550288 0.7503465417 0.0113529722
0.1025450232 0.7498293103 0.265140394
0.0824166651 0.7478193098 0.2627135614
0.0926288059 0.7484347497 0.51410878
0.1025690971 0.7482055966 0.7646678942
0.0824737017 0.7492989844 0.7656067756
0.1025594675 0.9987551025 0.7658817734
0.1024557646 0.4972449244 0.7647077087
0.0825659231 0.4973745596 0.7620299523
0.0925480658 0.4988496512 0.012476204
0.0825077755 0.5005329448 0.2636107765
0.1124482776 0.7505298642 0.0127555536
0.1225896782 0.748722828 0.2633052234
0.1125445731 0.7492597011 0.5083810479
0.1225056048 0.7493775512 0.7653160372
0.1225241232 0.9982771545 0.2617719023
0.1225415305 1.0001954937 0.7632799423
0.1224219018 0.5012695084 0.2650505799
0.1124367962 0.9975766006 0.5177883804
0.1425117417 0.7504840336 0.2646561386
0.1524690697 0.7528803208 0.513097677
0.1325166362 0.7527428289 0.5153726589
0.1425932225 0.7495215904 0.7634179042
0.1524938843 0.5019608962 0.5140624841
0.1324492293 1.0004442886 0.0155778459
0.1425417414 0.503542053 0.2630126331
0.1425924818 0.9996913568 0.2628876341
0.1324358961 0.9995473177 0.5129458264
0.1425032232 1.0016555266 0.7616882883
0.1525598097 1.0012888816 0.0137023053
0.152511662 0.7532993437 0.0148008151
0.1326751534 0.7523892783 0.0114226013
0.1726252054 0.750889962 0.0093619695
0.1625930631 0.752913057 0.26266171
0.172541132 0.7502614277 0.5062236577
0.1625326932 0.7492662483 0.7603132993
0.1825758668 1.0026310643 0.751745775
0.1724477994 0.5003594431 0.0139475811
0.1722511343 0.5005198503 0.5124097195
0.1824629047 0.7509226982 0.2617922725
0.1825310524 0.750130483 0.7616281036
0.1725155766 1.0008829532 0.0077848525
0.1625338043 1.0013019761 0.754723529
0.1824932749 0.5027878117 0.2558775048
0.2024723749 0.5022162383 0.7546726035
0.1924165291 0.5021029712 0.5074171667
0.1925917129 0.7537838389 0.0043558983
0.2024516343 0.7494757597 0.253374747
0.1925902314 0.7512500598 0.5051097777
0.2024053384 0.7524678451 0.7506587466
0.2324599137 0.7513548156 -0.0039789797
0.2323243592 0.5000373192 6.9676083116e-04
0.2325165799 0.7499471605 0.4989857524
0.2124871099 0.7539278781 -8.8174510666e-04
0.2225740665 0.752323806 0.2495155185
0.2123556295 0.7507262812 0.5004153707
0.2224033272 0.7487817531 0.7462995221
0.232303989 0.49723183 0.496375588
0.2223699941 0.5010442836 0.7515078139
0.2122463711 0.4992143321 0.0026518378
0.2223966605 0.5005872868 0.2496608877
0.2124315548 0.5009067917 0.4953237446
0.2524416063 0.7494692125 -0.0049094167
0.242377242 0.7470009057 0.2477692361
0.2524449396 0.7514530241 0.4906663743
0.2423250202 0.7476949124 0.744516203
0.2422972427 0.5010115475 0.742765291
0.2622522688 0.4997040651 0.7434560262
0.2622496763 0.7500911996 0.2458627698
0.2423335387 0.4975971656 0.249805331
0.2623207868 0.747374098 0.7467735924
0.2623052314 0.5015458017 0.2422405765
0.2523171628 0.5007909057 0.4951987456
0.2723940398 1.000483572 0.9980789969
0.2825106259 0.4994611627 0.2446581498
0.2724566319 0.5003627167 0.489214534
0.2823372939 0.9994818453 0.2426840915
0.2823547012 0.5018443555 0.7412106737
0.282348405 0.7501763136 0.2439692664
0.2823602567 0.7486900918 0.7456458236
0.2722103376 0.7507524701 0.9933197756
0.2721992266 0.753194588 0.4963070701
0.3123733508 0.9949642547 0.4929358006
0.2923461031 0.7513548156 0.9905420199
0.302324542 0.7489061505 0.2437757494
0.2923416586 0.7498816882 0.4932283909
0.3024467633 0.7501042941 0.7439310224
0.3025371329 0.499876912 0.7412699325
0.2924746205 0.499545622 0.9915883079
0.3022300984 0.9978843205 0.2438961188
0.3121626118 0.7499733494 0.9945790248
0.3125159423 0.7494168346 0.4901117491
0.3123540917 0.4997891791 0.4938839412
0.3324939312 0.4998068566 0.4917848839
0.3223869747 0.5029488737 0.7465143352
0.3324798573 0.752998171 0.9960234577
0.3324076356 0.5040612485 0.9889401808
0.322335864 0.7490436424 0.2446164835
0.3322339333 0.7492924372 0.4946691202
0.3223184568 0.7515577798 0.7464208174
0.3224066042 0.4997787035 0.2406767
0.3525078458 0.501630261 0.4955987424
0.3525174753 0.9985259493 0.4911422964
0.3624211001 0.7523696366 0.2420822444
0.3626803573 0.7522255975 0.7434875075
0.3623470266 0.5021213034 0.7422708505
0.3623322119 0.501291769 0.2439785256
0.352503031 0.7516887244 0.9969586354
0.3423268158 0.7522255975 0.2440711174
0.3523656247 0.7536856304 0.490840447
0.3424220002 0.7522452392 0.7442625013
0.3623322119 1.0008240281 0.7402773479
0.3424179262 0.5031053525 0.7434162117
0.3523596988 0.5006062738 0.9913012731
0.342426815 0.5014037267 0.2458877696
0.3723839837 0.5020433914 0.9959216067
0.3824653848 0.5027629323 0.2421165034
0.3723580579 0.5007228145 0.4940894952
0.3923245655 0.5033744438 0.9864587191
0.3824950142 0.4996012735 0.739355133
0.3725802784 0.7536397998 0.9915327528
0.3825135326 0.7532011352 0.2398054107
0.3724321314 0.7498816882 0.4871330691
0.382383904 1.0029256898 0.2401137416
0.3822394607 0.7530440016 0.7390662464
0.3926356741 0.7510601901 0.9873938969
0.3926393778 0.7520946529 0.4881293575
0.3924912308 0.5039761345 0.4913015544
0.4025281879 0.5019216128 0.7367783017
0.4024281887 0.749482307 0.2365100666
0.4026096687 0.7511191152 0.7390282837
0.4125058861 0.7510798318 0.9887549971
0.4124132943 0.751845858 0.4861349289
0.4224946954 1.003128654 0.7384968065
0.4425204617 1.0009025949 0.2393785622
0.4323872091 1.0024673835 0.4855840074
0.4426167572 1.003436374 0.7392421709
0.4225095101 0.5037659683 0.7438856524
0.432331654 0.7521928614 0.9904401689
0.422624324 0.7523630894 0.2411498444
0.4325057267 0.7548641324 0.4863636308
0.4227058048 0.7540981061 0.7360449742
0.4425352764 0.7521994086 0.2312480715
0.442472314 0.752605337 0.7385069916
0.4223428448 1.0009418783 0.2396720784
0.4724831859 0.9981331154 0.4794099825
0.4725646667 0.5020597594 0.9774124949
0.4625388207 0.5016027626 0.2279693939
0.4725683704 0.7502941638 0.9774773092
0.4625943758 0.7504643919 0.2286379071
0.4725350373 0.7499798967 0.4753590889
0.4627758558 0.7503530889 0.7344033206
0.4525426041 1.0034494684 0.4844738311
0.4626091905 0.9989056888 0.2255286726
0.4626906713 0.9998877738 0.7286654034
0.4524574196 0.7523172588 0.9832180042
0.4524092718 0.7518196691 0.4845756821
0.4526166775 0.503037916 0.4841719816
0.4924867302 0.5015588961 0.9757273232
0.4925645073 0.5018914956 0.4783822129
0.4826090311 0.4980142243 0.7291792882
0.4825942164 1.0022185887 0.7243432156
0.4924422861 0.9992395977 0.4809599702
0.4925422853 1.0009287838 0.9746347393
0.4926682102 0.7502221443 0.476744263
0.492749691 0.7502745221 0.9733847492
0.4827719928 0.746503316 0.2249629364
0.4826831046 0.7505429587 0.7270830086
0.5025236872 0.4991187425 0.2238166492
0.5125236075 0.9977599231 0.4702832034
0.5223642698 0.9998026597 0.7213358322
0.5025162798 1.0009877089 0.224808308
0.5225753792 0.7510078122 0.7213571283
0.5029310914 0.7473610035 0.2251110834
0.5027496113 0.7491156619 0.7239339596
0.5126976802 0.7492597011 0.9715514305
0.5124902744 0.4977752503 0.9764958356
0.5125236075 0.7500911996 0.4736507692
0.5226827858 0.7505822421 0.2215259267
0.5523640307 0.9994294675 0.4811571908
0.5424159618 0.5000661271 0.7279209649
0.5422641112 0.7505495059 0.2261647787
0.552326994 0.4992621269 0.4777285144
0.5524047711 0.7477996681 0.4765618571
0.5425641088 0.7504905808 0.7273793025
0.5324086342 0.9992003143 0.973171788
0.5424196655 0.5001335635 0.2264629244
0.53261604 0.7496656295 0.973671784
0.5523936601 0.4961345137 0.9793754422
0.5424270729 0.9988925944 0.2261388529
0.5324493746 0.7477931209 0.4739924331
0.5724934999 0.4993249803 0.9802365465
0.5624269135 0.999023539 0.7307098315
0.5524121785 0.7486049778 0.9798846974
0.5623232106 0.7481532187 0.2307971492
0.5625380237 0.7473675508 0.7306487209
0.5722712795 0.7472300589 0.9811439467
0.572549055 0.4979264914 0.4814331145
0.5724712779 0.7489978117 0.4776859222
0.6022858551 0.4985281821 0.2363471049
0.6023747432 0.9999859823 0.2413609538
0.6025006682 0.9974325615 0.7352347955
0.5925229699 0.7527559234 0.9837457778
0.5923933413 0.9980087179 0.4845043864
0.5924785258 0.9977468286 0.9894864728
0.602445113 0.7487293752 0.2350397079
0.5926488948 0.7463592769 0.4832886553
0.6023006697 0.7499406133 0.7331570342
0.5824267541 0.9966403463 0.2353869274
0.5822786071 0.9976813563 0.7329940726
0.5826045304 0.4990022017 0.7328940734
0.5825193459 0.7484412969 0.2333980543
0.5823674953 0.7491680398 0.7311903832
0.6124635517 0.7483758246 0.9876438949
0.6122968864 0.9995735066 0.4900598976
0.6123820709 0.7497441963 0.4839145763
0.6222079185 0.9952326912 0.7419847417
0.6225153235 0.7539737087 0.2392415263
0.6225079161 0.7496918184 0.7414828938
0.6224264353 0.9968694994 0.2377202421
0.6424077575 1.0003002494 0.7402856811
0.632318949 0.4990264265 0.4903802655
0.642481831 0.9982509656 0.2380082028
0.6522891602 0.9979301512 0.4878830631
0.6522373088 0.9985063076 0.9914309017
0.6324041335 0.9989580667 0.4908163731
0.6324263556 1.0005883277 0.9925975591
0.6323041343 0.7496263461 0.9893846217
0.6321893204 0.7494364763 0.4835580976
0.6525558248 0.7498293103 0.9876253765
0.6425262751 0.7518524053 0.236619325
0.6523632337 0.7479502545 0.4875765841
0.6425929412 0.7506018838 0.7378532931
0.6724964066 0.7478258571 0.9896623973
0.6624038944 1.0017275462 0.2400804085
0.6725001103 1.0009287838 0.9881253725
0.6825889187 0.7481728604 0.2369841369
0.6724445551 0.7492335121 0.4896913821
0.6826296592 0.748218691 0.7391449495
0.6725334433 1.0001889465 0.4880228768
0.6625150047 0.7494757597 0.2374202445
0.6623113026 0.7483758246 0.7374190373
0.7025961667 0.4997282898 0.2418961348
0.6925406913 0.9990366335 0.489612679
0.692396248 0.9983033434 0.9908197955
0.6924592104 0.7478258571 0.9880698174
0.7025443153 0.7468372249 0.2417498396
0.6926073574 0.7507983008 0.4902923032
0.7026850549 0.7485591471 0.7415541895
0.7125516429 0.5011974889 0.4885256506
0.7125220135 0.7509030565 0.4898987878
0.7227256359 0.9980807375 0.7471356265
0.732614446 0.9983950047 0.9918846018
0.7326181496 0.7487817531 0.9945049513
0.7226404514 0.7471973227 0.2450025915
0.7326811121 0.7500911996 0.492897838
0.7225219338 0.7489978117 0.741287525
0.7228478571 0.9988009331 0.2387730115
0.732784815 0.999894321 0.4941774574
0.7127294193 0.7492073232 0.9927734836
0.7126146054 0.9982444183 0.4953385593
0.7125923833 0.9965094016 0.9945142105
0.7425958479 0.4982512341 0.2452377748
0.7427217728 0.7510536428 0.2459896207
0.7427514022 0.7504316557 0.7438023198
0.7527253968 0.74824488 0.995838274
0.7625586518 0.9989056888 0.743492137
0.7526476196 0.9967843854 0.9975234458
0.7624882819 0.7511060207 0.2461285084
0.7526920637 0.7516887244 0.4926126551
0.7625771701 0.7494037402 0.7476319189
0.7525698425 1.0006145166 0.4928154312
0.7425439965 0.9981069264 0.2427063135
0.762532726 0.9993443534 0.244053525
0.7824066417 0.9998877738 0.2511340241
0.7726215345 1.0009222366 0.5000237071
0.7825362703 0.9992461449 0.7505605992
0.772525239 1.0013936373 0.997236411
0.782539974 0.7489847173 0.2506062505
0.7724882022 0.7482055966 0.4978829834
0.7825696034 0.7503138055 0.7503967116
0.7726511639 0.750719734 0.9962827149
0.7727104227 0.4990761854 0.5048532983
0.7726770896 0.5021481471 1.0015141547
0.7923991547 1.0005752332 0.49571726
0.7926139678 0.7500126328 1.0010882322
0.7926732266 0.9987943859 1.003578953
0.8125582533 0.7479175183 0.9986067705
0.7925954494 0.4996647817 0.9994771339
0.8027324056 1.0022513248 0.2493784825
0.812584179 0.5001224333 0.9982734398
0.8027953681 0.7484740331 0.2488645977
0.812584179 0.7508244897 0.4962478113
0.8026620358 1.0015442237 0.7484504309
0.8025953697 0.7502483332 0.7512541122
0.8125915863 0.9987092719 0.9984030684
0.7926732266 0.7494626653 0.4965820679
0.8227433573 0.9973736364 0.7507133758
0.8225952103 0.9990759169 0.2486812659
0.8325988343 0.752238692 1.0009771219
0.8226285434 0.5032441539 0.7500476404
0.8225174331 0.7517411023 0.245372033
0.8325099461 0.7482841634 0.4980672412
0.8225396552 0.7501173886 0.7475411789
0.8425469031 0.7527231872 0.2537802993
0.8425765325 0.7505626004 0.7532189114
0.8624948923 0.4983723579 0.753280022
0.8426024582 0.9995080343 0.7524689174
0.8625652621 0.9982378711 0.2513118005
0.8624763739 0.9997175457 0.7532744665
0.8523949728 0.9998484904 8.4268559407e-04
0.862520818 0.7524023728 0.7504059708
0.8524283059 0.499448723 0.5007246275
0.8525801565 0.7474133814 0.0015050877
0.8524875646 0.4980096412 0.0034377575
0.8623985968 0.4972874814 0.2530395645
0.8624134115 0.7473151729 0.250408104
0.852517194 0.7471973227 0.501912581
0.85247275 1.0004704775 0.5016718421
0.8825243623 1.0036720743 0.7541577928
0.8926316891 1.0017406407 0.0077831858
0.8825206586 0.7526184315 0.7543207544
0.8724985163 0.7492204177 0.0026387824
0.8925390973 0.7508703203 0.0108215875
0.8823354749 0.5009087559 0.7550300081
0.8826280652 0.5003411108 0.2533441917
0.8826947313 0.7512042292 0.2583293371
0.8724577759 0.7483823719 0.5038644173
0.892542801 0.7508834148 0.506163473
0.8726022191 0.4991920715 0.0043443244
0.882539177 0.9990759169 0.2581460053
0.9125426416 0.7472693423 0.5081847532
0.9027427197 0.9979366984 0.2571682353
0.9026093874 1.0006145166 0.7572429534