POSCAR file written by Ovito 3.7.11
1
270.0515735745 0.0 0.0
0.0 15.2764239156 0.0
0.0 0.0 10.8020629429
Sr Ti O 
800 800 2400 
Direct
0.0224080818 0.4994455509 0.7798637681
0.0124412449 0.5003528313 0.0293893409
0.0126909379 0.2522037866 0.5230313451
0.0226310392 0.2512991247 0.7779113633
0.0025241022 0.2488011578 0.7761589203
0.0124562791 0.2512461018 0.0240199036
0.0024802587 -0.0029501042 0.2720376215
0.022607303 0.499879553 0.2763108793
0.0125168971 1.0355550459e-04 0.5216917861
0.0024548561 0.00288346 0.7691769206
0.0124802374 9.5656927745e-04 0.0196368519
0.0225178016 0.2530305508 0.2740603833
0.0025564664 0.2495015835 0.2752434906
0.0424259248 0.5000543321 0.2755193639
0.0323896937 0.250946948 0.5265538204
0.04259293 0.2528682092 0.772599415
0.0523573611 0.5008477115 0.0227435733
0.0323893234 0.2492554526 0.0263291847
0.0324145038 4.650929973e-04 0.5277017492
0.0322078766 9.0230265035e-04 0.0254887897
0.042479248 0.2507963892 0.2754240117
0.0523481036 0.2498118656 0.5270120662
0.0523984644 0.2519124881 0.0253404847
0.0623924813 0.2476117433 0.2744853021
0.0624739472 0.4985029219 0.7689778845
0.0625002385 0.4990881374 0.2737502573
0.0725131407 0.5031106757 0.5151958047
0.0724264906 0.2501306575 0.5231933511
0.0623535999 0.2496678528 0.7689158593
0.0723087353 0.2493536432 0.0193721803
0.0625035712 -0.0022864672 0.2735077111
0.0624158102 -8.2545773034e-04 0.7707682833
0.1025244452 -6.9499526013e-04 0.2579717898
0.0923556469 0.250073707 0.5141626687
0.0824282838 -0.0031838631 0.2640141541
0.1024029869 0.2500789438 0.7650240101
0.0822231378 0.2502720518 0.7682021068
0.0924615525 0.2497837176 0.0115343255
0.0823838479 3.5557783791e-04 0.767732752
0.0922845493 7.7829588489e-05 0.0130134874
0.102336333 0.2476084703 0.2616386819
0.0824382819 0.251785495 0.2693446174
0.1024589022 0.5020475996 0.2625505448
0.092364534 0.499385982 0.5124703994
0.1123829325 -0.0011580617 0.0098230783
0.1223969456 0.2472713495 0.2610119498
0.1123714532 0.2515485286 0.5121149117
0.1222784497 0.5002350026 0.7606535487
0.1123836731 0.4997604151 0.0148905363
0.1222103146 0.2497594973 0.7626948254
0.1124047802 0.2505856069 0.0120714452
0.112366269 0.4990285685 0.5131943352
0.152471201 0.248726533 0.5017224524
0.1324528026 0.2550578577 0.5070334749
0.1423501713 0.2486748194 0.7553832591
0.1523975114 0.250567278 7.1130028267e-04
0.1322839459 0.2459988004 0.0100985813
0.1423949776 0.2486597635 0.2556990757
0.1423249909 0.500797307 0.7564265783
0.1524519454 0.4991581799 0.0047865404
0.1323698555 0.4990717723 0.0107998362
0.1324757612 0.4999476317 0.5096653796
0.1522001417 -3.2809001902e-04 0.5024658289
0.1823862276 0.2497935367 0.7494269894
0.1821388674 0.2484660009 0.2488688989
0.1624292989 0.5036356676 0.7532818086
0.1624778081 0.5013033155 0.253100498
0.1725814338 0.2528970117 0.5010124028
0.1823769701 0.4995777808 0.7424523957
0.1624544793 0.249327459 0.7506332405
0.1724110959 0.2495467512 3.5688592706e-05
0.1624926201 -0.0023448578 0.2478737186
0.162314506 0.2507531854 0.2528847985
0.1725573643 -0.0022894129 0.5001718226
0.1825835973 -0.0034722814 0.2432421959
0.2025275655 0.2488921477 0.2492364213
0.1925302159 0.5006310377 -0.0047572848
0.2024635037 0.501698696 0.2507287288
0.1923065549 0.2497843722 0.5001921891
0.2024812781 0.2508998165 0.752372723
0.1924443064 0.2477073154 -0.0014491204
0.1927198093 -0.0010001059 0.4946719473
0.2025845917 -0.0019621766 0.7470654034
0.1925902044 -0.0019742213 -0.0055081414
0.2025631143 6.3559232992e-05 0.2459703785
0.2125300993 0.2526502262 0.5022519809
0.2224848645 0.2477177891 0.7526365615
0.2127241364 0.2492181402 0.0024828138
0.2227107473 0.0024740056 0.2481644038
0.212475295 1.3851132953e-04 0.4974760413
0.2126560012 -0.0016417482 -0.0031266796
0.2226274299 0.0022763808 0.7517932041
0.2325140599 -2.9025393885e-04 0.4999459399
0.2224800506 0.2495559156 0.2479699965
0.2326407024 0.2526823018 0.4994932486
0.2325862684 0.2529408701 2.8962156963e-04
0.2326033021 3.3672525817e-04 0.9983581439
0.2525135731 0.2502249204 0.4954616112
0.2425891725 0.2493248406 0.7475625307
0.2627630968 0.2495166394 0.2456334058
0.2527142755 0.2494099391 0.9952846569
0.2425943567 0.2445200512 0.2514619221
0.2424484586 0.0014953079 0.2471090499
0.2524880224 0.5003541405 0.9960900587
0.2526613226 0.0015303947 0.491640119
0.2426280539 0.0037161156 0.7490807592
0.2626782982 0.2520833396 0.7460609657
0.2526528057 9.3293809243e-04 0.9929054818
0.2625653568 4.8931332544e-04 0.2433995732
0.2626649674 0.0010906321 0.7447602882
0.2725530786 0.2537709073 0.4986924756
0.2725378963 0.2512114078 0.999320923
0.2724771672 0.0014173447 0.4968715271
0.2728804235 0.5023356252 1.0028943145
0.2827278018 0.2519851491 0.753117951
0.2825741274 0.0027158161 0.7465886427
0.2824941427 0.256046309 0.2486883778
0.3026295558 0.2530128765 0.2486235754
0.3124010227 0.2524433715 0.5006957966
0.312492857 0.2550009072 1.0030702068
0.3125339602 0.0024557421 0.9977008621
0.2925792533 0.2554381823 0.5017826261
0.3025447572 0.2515033609 0.7543473458
0.292597398 0.5028213409 0.5031832844
0.3024821766 0.5058017505 0.2462860589
0.2924711258 0.2563579002 0.9996171627
0.3025192065 0.0019951631 0.7506832309
0.292725892 0.00225707 0.5036942979
0.3125865428 0.5058017505 0.997247245
0.2925996198 0.0013551573 0.9982192816
0.322493169 0.2534553885 0.2507453923
0.3325723549 0.2538802261 0.494916345
0.3224646559 0.2556162345 0.7458998853
0.3324079418 0.2522234247 0.9946458901
0.3225672289 0.0033273466 0.2469840737
0.3326356761 0.0035252333 0.4900626425
0.3226890575 0.0028168214 0.7457675032
0.3326793715 0.0018865644 0.9919241877
0.3624203572 0.251972057 0.244171648
0.3525148419 0.2511557665 0.4936091873
0.3426848677 0.2528747552 0.7461331741
0.3525126201 0.0020360104 0.9923315173
0.3525333569 0.253670753 0.9934887037
0.3426937549 0.0048587914 0.2454954692
0.3426348772 -7.966800475e-05 0.7480133705
0.3427574464 0.2539371766 0.2454788057
0.3625129321 0.2500939997 0.7437864001
0.3623351883 3.1221821911e-05 0.244389199
0.3725591613 0.2512709767 0.4900746773
0.3824831916 0.2508350108 0.7384170554
0.3724406654 0.2517946595 0.9887118384
0.3825942815 -2.9169406647e-04 0.7369960305
0.3823721017 0.2516159527 0.2414027324
0.3924442519 0.0016615117 0.4855394324
0.3921406062 0.001824508 0.9850458719
0.3723480905 0.0014045144 0.4922835146
0.3724554774 -9.0165357345e-04 0.9889617906
0.3923850039 0.252161892 0.48570329
0.392303538 0.2547606678 0.9845089375
0.4124330264 3.726629883e-04 0.4850673004
0.4023164402 0.2537872724 0.7328866303
0.4024349361 1.8276252364e-04 0.2312518936
0.4023053312 0.0016086198 0.728537461
0.4027163638 0.5010277274 0.2300308306
0.4023979062 0.2516008968 0.2334931322
0.4123219365 0.2490826373 0.4825353766
0.4123959964 0.2526796834 0.9813058456
0.4125144923 0.0034997692 0.9798894495
0.4124848683 0.5015095156 0.981389163
0.4123737784 0.4997368494 0.4810412176
0.4223977896 0.2507957346 0.232383159
0.4426346648 0.2501797527 0.7336818488
0.4326550896 0.5011913783 0.9780749813
0.4326513866 0.5011232995 0.4827445959
0.442523575 0.250687725 0.2292754193
0.4226792173 0.5021307343 0.227800701
0.4426420708 0.4956265943 0.7303778502
0.4325180787 0.2512434834 0.4819743727
0.4222385608 0.2515360911 0.7287596408
0.4325328907 0.2508854153 0.9822315947
0.4425680109 0.5008103991 0.2327090227
0.4325588117 -8.9159754966e-05 0.9821112473
0.4525735071 -0.0013196833 0.9787230056
0.4725437666 0.25007698 0.4734102678
0.4625123494 0.251102089 0.7278311145
0.4725289546 0.2488731642 0.9735295532
0.4627123112 0.2505653142 0.2288967879
0.452751251 0.5022505267 0.9783249335
0.4625345674 0.4984787016 0.7249233366
0.4726992925 0.5012646939 0.4759264538
0.4523068914 0.2514791406 0.4833241148
0.4525586952 0.2519825307 0.9791581077
0.4726030146 0.0030306149 0.9738720804
0.4824752029 0.0014916421 0.2233672886
0.4824603909 0.2492371237 0.7224108535
0.4825270449 0.2490184862 0.227793295
0.4923696093 0.2498609608 0.4715541408
0.4924473722 0.2506517218 0.9735850981
0.4826307288 0.5025876475 0.2244929995
0.5024787894 0.2489202957 0.2236079833
0.5126101875 7.6346125581e-04 0.9778898314
0.5224490489 -0.0030903857 0.2273480097
0.5026269092 0.2499735526 0.7243651099
0.5025750673 0.5020253431 0.7276459647
0.5126064845 0.2538311308 0.4789073659
0.5024491654 -0.0023944113 0.725290859
0.5225231088 0.2492194494 0.2255650169
0.5125731575 0.2461820894 0.9768992799
0.5224379399 0.2485373526 0.7311008603
0.5125213156 0.4993139756 0.4754469158
0.5223860979 0.5017111335 0.2289254861
0.522345365 0.5006892974 0.7260805229
0.5525433005 0.2483553729 0.4850543399
0.5523396357 6.0138143833e-04 0.984444135
0.5324323271 0.5005740872 0.9777694841
0.5324693571 0.4970091168 0.4769642186
0.5323249402 -0.003576887 0.4758699831
0.532532308 0.2469964161 0.4784917046
0.5323323462 0.2520846488 0.9774547294
0.5424600413 0.001392797 0.7294946856
0.5425081803 0.2510209182 0.2230034692
0.5424415263 0.249175591 0.7295289383
0.5526951233 0.2451694178 0.9821112473
0.5624006768 0.4984937574 0.735252845
0.5625191727 0.4995280309 0.2359037828
0.5624858458 -0.0010887392 0.233884724
0.5626228566 0.250864468 0.2368943343
0.5623414289 0.2465395029 0.737233948
0.5725468869 -0.0047843162 0.488507384
0.57247653 -0.0028795379 0.9911465585
0.5724061731 0.2479495187 0.4881157922
0.5725542929 0.2457487419 0.9907577439
0.5923690266 0.5009661947 0.9846570573
0.5823450154 0.2485340796 0.7391613577
0.6022782449 0.2481098966 0.243363469
0.5923468086 0.2473623394 0.490883782
0.6025374546 0.2481026959 0.7402305979
0.5923245906 0.2482931855 0.9903967017
0.6023819288 0.4994016924 0.7351019479
0.5822228165 0.2471312644 0.2389374626
0.5923282936 0.5004713145 0.487507575
0.5823783423 0.4972054978 0.2362814884
0.6125318419 -0.0016359223 0.9897394199
0.6126096048 0.5000556413 0.488810104
0.6223818122 0.2459706525 0.738333738
0.6224632782 0.5005308834 0.2371387321
0.6123133651 0.5002127461 0.9880175265
0.6224040302 0.4990102396 0.7357240513
0.612380019 0.2493045479 0.4904181302
0.6125947928 0.2461349579 0.9968121429
0.6224151392 0.249023723 0.2422303521
0.6424150227 0.2476484011 0.2413175635
0.652346459 0.2470716955 0.4977148845
0.6422817148 0.2494753994 0.7452879652
0.6524390339 0.2444061502 0.990118977
0.6325798643 0.4983477809 0.9892024854
0.6425298156 0.4944522356 0.7373709589
0.6525019848 0.4964245559 0.9938034584
0.6424261317 0.4940391809 0.2379172871
0.6526019657 0.4966124271 0.4881657826
0.6324317444 0.2484555272 0.489031358
0.6324391504 0.2505404392 0.9923870623
0.662533402 -0.0056611837 0.7442566807
0.6725500072 0.4986502077 0.4932240757
0.6825073645 0.4996092017 0.7461600208
0.6724685413 0.4971374191 0.9930258291
0.6824592256 0.4998821714 0.2459713042
0.6624297181 0.2482447449 0.2434699302
0.662600056 0.2493385873 0.7427153084
0.6823777596 -0.0021759701 0.2414406882
0.6825480975 -0.0021344683 0.7459359895
0.662514887 0.4979360353 0.7401583894
0.6627629878 0.4981062322 0.2425062254
0.6825888304 0.2468105087 0.2451362785
0.6725537102 0.2458875178 0.4949635582
0.6824740375 0.248198268 0.7355166835
0.6725537102 0.2486152505 0.9922667149
0.7025850109 0.2499958092 0.2450501839
0.6924536128 0.2481347715 0.4950848314
0.7025257629 0.2484843298 0.7463507251
0.6925239697 0.2508827968 0.9958863939
0.702466515 0.4973750401 0.7466969553
0.7025479809 -0.0015593337 0.7488215495
0.702459109 -0.0013643928 0.2474386165
0.6926239506 0.5001917988 0.9964603583
0.6924462068 0.4992157851 0.4900746773
0.7124497933 0.2490669268 0.4992349646
0.7125164472 0.2493955378 0.9975527422
0.7227144992 0.4999109739 0.7485299385
0.7225367554 0.2467064268 0.2445132494
0.7325237366 0.4983137415 0.9953957468
0.7325200336 0.2486414346 0.4985906432
0.7226885782 0.5002821341 0.2424553092
0.7325718756 0.4975576745 0.4947515617
0.7224589925 0.2477033878 0.7488752429
0.7324496767 0.2527169958 0.9990339408
0.7125053382 0.4979798937 0.9946551476
0.7627068602 0.5007901064 0.7412220751
0.742429252 -0.0046434979 0.7419460109
0.752675443 0.5002926077 0.9970713527
0.7625550373 0.5025097497 0.242573805
0.7625106013 0.2511361284 0.2468044784
0.7524717782 0.2470703863 0.4932398134
0.7625328193 0.251140056 0.744738996
0.7525421351 0.2496796357 0.9936368236
0.7425736688 0.5006055082 0.7446843768
0.752619898 0.5006251463 0.4932092637
0.7424440639 0.2473931058 0.2479264863
0.742432955 0.247470349 0.7457480625
0.7824697518 0.5003259925 0.2454121518
0.7826882286 0.5014211441 0.7451491028
0.7824401279 0.2496076293 0.240323309
0.7726568114 0.2498773259 0.4932916554
0.7825141878 0.2533853459 0.7399241749
0.7726419994 0.2542173469 -0.0104060076
0.7926752099 0.5020711654 0.4960179864
0.8125084585 0.5007455933 0.4950440984
0.8026547851 0.4999692336 0.7407203191
0.8025103683 0.4997047738 0.2427080387
0.7924752481 0.2515354365 0.496746551
0.792515981 0.2507564584 0.9921278525
0.8125010525 -3.0419699262e-04 0.4928898803
0.8022548615 0.2505718602 0.242607132
0.8123899626 0.249469508 0.4915549501
0.8026436761 0.2507309288 0.7425403419
0.8123344177 0.2500966181 0.9934609312
0.8323565191 -4.5364296326e-04 0.4928509988
0.8223584289 0.2508337016 0.2420276131
0.832437985 7.9134736335e-04 0.9989413659
0.8325824019 0.2487808651 0.4956319491
0.8224361918 0.2505731694 0.7474282971
0.8325527779 0.2487121318 -0.0078162745
0.8325527779 0.4995875998 0.4964151328
0.8324009551 0.501366812 0.9885266885
0.8225732027 0.4994881001 0.2426312015
0.842658255 0.4986907931 0.7443362951
0.8425138382 0.4991463971 0.2449187275
0.8421990835 -0.0010806876 0.2478320599
0.8424545902 0.2517913865 0.2429255897
0.8424731052 0.2476713123 0.7458924793
0.8623989288 0.2513626212 0.2497455833
0.8525452554 0.2494524883 0.4958319109
0.8624396617 0.2499611152 0.7487252716
0.8525230374 0.2498216846 -0.0024939764
0.8926413002 0.5013818679 0.0020466008
0.8724673759 -3.0769126051e-05 0.5023010456
0.8823914062 0.2511557665 0.2496965186
0.8724525639 0.2499984276 0.4955421514
0.8923154365 0.2500311577 0.5041506923
0.8824802781 0.249966352 0.7534382602
0.8725451388 0.2493261498 -0.0035185862
0.8925339133 -5.2682763044e-04 0.5010660963
0.8725858718 -0.002542679 -0.0046387889
0.8924820714 0.2505005084 0.0036327793
0.8725969808 0.5020934219 0.4964799352
0.8925228043 0.4998173656 0.503358251
0.9125486088 0.4990580256 0.5117316516
0.9025060826 0.5003292655 0.75977779
0.9126300747 0.502002432 0.0095864569
0.9024542406 0.4998252209 0.2613118925
0.9125819357 1.4891952459e-04 0.5093821004
0.9025134886 0.2515603114 0.2577810854
0.9125560148 -5.9732842343e-04 0.0067709761
0.9124597369 0.2515210352 0.5131387902
0.9025468155 0.2512762135 0.7550564696
0.9126041537 0.2475633027 0.0136905803
0.9425391765 0.2508559581 0.7647851669
0.9325670072 0.2498950002 0.0166651973
0.9326447701 0.499955487 0.5173602061
0.9326077402 0.5017563011 0.0160399464
0.9226577889 0.5016784033 0.7598175972
0.922509669 0.5012286907 0.2634374124
0.9428094952 0.5025300424 0.7643389558
0.9224578271 0.2533028659 0.2633864962
0.9223763612 0.2490413973 0.7657053615
0.9424354926 0.2497437868 0.2629291762
0.9326262552 0.2506595771 0.5157688434
0.9724482782 -0.0027912974 0.5152161712
0.9625760899 -0.0018454608 0.7686455406
0.9627279127 0.2476215624 0.2658749098
0.9525631877 0.0018044117 0.0159589433
0.9723297824 -0.0035253043 0.0214615034
0.9526705746 0.2510372833 0.5145422258
0.9725704771 0.2495644255 0.5165149972
0.9623576131 0.2464210196 0.7662598852
0.9526150296 0.2526973576 0.0151050324
0.9524002558 -2.8901019227e-04 0.5161437718
0.972714894 0.2471829781 0.012828245
0.972659349 0.4980093509 0.5202578008
0.9626390408 -4.287929012e-05 0.2652157764
0.9525779997 0.5002422033 0.5225453268
0.962457594 0.5021942308 0.7696425724
0.9826315183 0.2452230953 0.2705916014
0.9825389434 -0.0019795236 0.7716338587
0.9924222407 -9.7568922514e-04 0.0194953049
0.9926333115 0.2489294601 0.5151272993
0.9824167445 0.2478323447 0.7745805181
0.9927962434 0.2493798273 0.0215744448
0.9927036685 0.5005027355 0.0237554171
0.0223430202 0.7513284536 0.7714922191
0.0024461541 0.5007259552 0.2760849966
0.0024971073 0.7481667189 0.7711274739
0.0126419473 0.4997990367 0.5223860979
0.0024563744 0.5010545662 0.7727373516
0.0222137116 1.0004836238 0.2752610799
0.0222916596 1.0034620696 0.7703628052
0.012363482 0.7497312212 0.0212049783
0.0222929557 0.7534166387 0.2742094289
0.0024689645 0.7501370753 0.2715238308
0.0122604276 0.7522318064 0.5218861934
0.0522477524 0.9988012929 0.5241246547
0.0522047977 0.9973742574 0.0231938577
0.0322615701 0.7505887517 0.023651548
0.0423726017 0.7523692732 0.2771357218
0.0322189856 0.7504120088 0.5227730611
0.0423751938 0.7496330307 0.7753618503
0.0423944494 0.4975930231 0.7764820067
0.032555588 0.5014021606 0.02752516
0.0325900258 0.5003940713 0.5274841982
0.0424007445 1.0026634533 0.2772319997
0.0523895772 0.5005734326 0.5243431315
0.0525925014 0.7508505931 0.0246907014
0.0523332917 0.752519832 0.5268852385
0.04239519 1.001655364 0.77535537
0.0725127704 0.5009288823 0.0131530904
0.072290961 0.9985983658 0.5204809063
0.0723502089 0.9991547788 0.0193672738
0.0725512816 0.7511778949 0.0228572553
0.0624072933 0.7475448456 0.2741150025
0.0723842765 0.7491093479 0.5202818702
0.0624395094 0.7478525093 0.7717745725
0.0923637934 1.0010269447 0.5189960047
0.0925500542 0.7496330307 0.0112794668
0.1024418684 0.7520747016 0.2630800733
0.0824156937 0.7514135521 0.2643085423
0.0924256335 0.751969965 0.5150060261
0.1023296676 0.7500388848 0.758545618
0.0824545751 0.7498686879 0.7660414084
0.102497043 0.9989191215 0.7590918099
0.1023652164 0.4985075041 0.7589557248
0.0824430958 0.5009098988 0.7668458844
0.0923626825 0.5019965406 0.0135259821
0.0825275242 0.4990848644 0.2696917733
0.112377378 0.7506542121 0.0107498458
0.1223802821 0.7501501674 0.2574107858
0.1125003175 0.7484678365 0.5066113333
0.1223221451 0.7514200981 0.7613043503
0.1225072949 0.9991024105 0.2576644411
0.1225298832 0.99862455 0.7577309588
0.1223302917 0.4975563653 0.2586235171
0.1124740262 0.9995213567 0.5111336177
0.1423775735 0.7473550106 0.257970864
0.1522168052 0.7492468146 0.5057429807
0.132415032 0.7499603324 0.5096755629
0.142383128 0.7538290389 0.7559803672
0.1523930678 0.4973567112 0.5069362713
0.1324487293 0.9990631343 0.0077140367
0.1424616315 0.4999083555 0.2556601943
0.1425619827 0.9967720222 0.2529671901
0.1324031824 1.0016029957 0.5049292472
0.1424049757 0.9962287013 0.7542853206
0.1526241348 0.9984739912 -0.0090207482
0.1522542054 0.748173265 0.0046247194
0.132305053 0.7503792786 0.0066988603
0.1723892483 0.7488016843 0.0024203257
0.1622789572 0.7505560216 0.2554519007
0.172575509 0.747806687 0.5017261554
0.1624292989 0.7506869423 0.7514275332
0.18264877 0.9992333312 0.7458600781
0.1725925428 0.4981206335 0.0012751741
0.1724203534 0.4981893668 0.4977667265
0.1824921333 0.7491813543 0.2524256269
0.1827050556 0.7503989167 0.7528791078
0.172439609 0.9988405691 0.0011574188
0.1624666992 0.9997439219 0.7517237729
0.1824295527 0.4994939915 0.2478135449
0.202456468 0.5012804044 0.7488743172
0.1925213287 0.4988446249 0.4974232736
0.1926164957 0.7493711893 -6.4057112163e-04
0.2028267676 0.748559481 0.2472617985
0.1926416761 0.7483303698 0.4985943462
0.2026138453 0.7492402686 0.750295342
0.2325136896 0.7508375011 -0.0022462737
0.2328436266 0.5014977327 0.0012935039
0.2326773621 0.7511713488 0.5007124601
0.2128118974 0.7504971073 -0.00191829
0.2225592947 0.7516688475 0.2495632107
0.2125660184 0.7504316469 0.4960281697
0.222497825 0.7538944992 0.7491085317
0.2327066157 0.500496844 0.5029638819
0.2225159697 0.5003574135 0.7504841948
0.2126219337 0.5003816338 0.0010935421
0.2224863457 0.5004608408 0.2539383009
0.2125589827 0.5006814422 0.4998413302
0.252430626 0.7518324983 -0.0026004375
0.2425817665 0.7494301036 0.2499233271
0.2526894654 0.7500454309 0.4965808419
0.2426487907 0.7526638447 0.7485947409
0.2427417359 0.500724646 0.749277018
0.26260646 0.5017942681 0.7474320001
0.2625894262 0.7501698055 0.2412018449
0.2426624918 0.5017837944 0.2497372515
0.2626038679 0.7505298374 0.7451750238
0.2626164581 0.5015972325 0.2440633353
0.2527546381 0.499668116 0.4966104659
0.2726608358 1.0063423248 0.997247245
0.2824978457 0.5023938849 0.2492169806
0.2725608549 0.5031918465 0.5022612383
0.2827163225 1.0048105527 0.2503325082
0.2825867176 0.5042405212 0.7472005628
0.2825419113 0.7526114764 0.2507879768
0.2827237285 0.7517015776 0.7471190969
0.2725693718 0.7539534135 0.9934979612
0.2726163998 0.7512368092 0.4971362914
0.3126583809 1.0039595682 0.4954338388
0.2924848269 0.7512760854 0.998774731
0.3024292237 0.7538421309 0.2469692618
0.2923592954 0.7552495284 0.5005180528
0.3025658643 0.7504709231 0.7455814276
0.3023447954 0.5055156888 0.7472561078
0.2926503509 0.5018721659 0.9989413659
0.3026888038 1.0026830914 0.2516044875
0.3126206104 0.7517081237 0.9910724986
0.312444718 0.7535802896 0.495230174
0.3126135747 0.5008791325 0.4955245622
0.3326079036 0.50333455 0.4917141789
0.3225501952 0.505327163 0.7428810175
0.3325027385 0.7530500608 0.9901467495
0.3326864072 0.5030491429 0.9938034584
0.3225427892 0.7541301565 0.2436967387
0.3326764091 0.7491551702 0.4918049023
0.3226261066 0.7522841747 0.7486206619
0.3223728216 0.505634172 0.2441660935
0.3524981784 0.4998625333 0.4915706878
0.3523804231 1.0036846347 0.4953607046
0.3625018231 0.7500388848 0.2402418431
0.3624610902 0.7539992358 0.7371691456
0.362590695 0.5011730494 0.740558313
0.362616616 0.4982463173 0.2384218204
0.3526618508 0.7498621419 0.9917945829
0.3428070666 0.7516884856 0.2408935704
0.3524700356 0.7517015776 0.4931629762
0.342615992 0.7499210562 0.7396557077
0.3624907141 1.0040053904 0.739846412
0.3425026803 0.5006251463 0.7410128558
0.352659629 0.5000353486 0.9905818515
0.3426600576 0.5052243902 0.2432968151
0.3725961913 0.5010159446 0.986573358
0.3824757856 0.5002716604 0.2384116371
0.3722332976 0.4991535977 0.4875927439
0.3926627287 0.5018584192 0.9855920639
0.3823980227 0.5004412027 0.741407225
0.3725961913 0.7520223333 0.9908688338
0.3825942815 0.7499014181 0.2413536677
0.3725517553 0.7520747016 0.4888786094
0.3822647148 1.0011120431 0.2357510342
0.3826127965 0.7516884856 0.7322395317
0.3925109058 0.7505298374 0.9828240741
0.3925516388 0.7521925302 0.4866021924
0.3926775407 0.4991725812 0.4868604764
0.40257565 0.499354561 0.7289262757
0.402508996 0.7554328174 0.2280025143
0.4024867781 0.7530566068 0.7339864202
0.4126515031 0.7516950316 0.9802042042
0.4125144923 0.7524347335 0.4801562014
0.4224718495 1.0041886794 0.7312971191
0.4425383869 0.9977932036 0.2288847532
0.4324440188 1.0000843157 0.4795294693
0.4424013761 1.0004050714 0.7279542391
0.4224755525 0.5009616125 0.7256028364
0.4325106727 0.7500912531 0.9831943738
0.4225236915 0.7535475594 0.234685497
0.4325625147 0.7507916788 0.4796933269
0.4223718686 0.7529911464 0.7244317638
0.4425457929 0.751773584 0.2270647304
0.442456921 0.7497574053 0.7290364398
0.4225162855 0.9993446138 0.2311620959
0.4724808157 1.0028729264 0.4699359314
0.4728585213 0.4988498617 0.9754736263
0.4627049052 0.4992085844 0.222125859
0.4726844805 0.7527489432 0.9733999483
0.4624197745 0.7521205238 0.2240079069
0.4726696685 0.7514921045 0.4718189051
0.4626530633 0.7506803962 0.7243271542
0.4525549922 0.9998355664 0.4778770072
0.4626715783 0.9998682965 0.2234987449
0.4625160524 0.9995999091 0.7273821262
0.4526068341 0.7492009924 0.9777139391
0.4523846543 0.7503138183 0.4820049224
0.4526290521 0.4976106974 0.4761810348
0.4924844021 0.5004425119 0.9752884765
0.4927769389 0.4991241406 0.4748405501
0.4827973636 0.5003338478 0.719593799
0.4824826089 0.9992660614 0.7233134589
0.4924251542 1.0025063485 0.473730577
0.4924844021 1.0029973011 0.9705486411
0.4925547591 0.7475644837 0.470907968
0.492595492 0.7528929559 0.9761123932
0.4825381539 0.7528013114 0.2288708669
0.4825011239 0.7515510188 0.7253556614
0.5024454624 0.5004025811 0.2268962441
0.5125139096 1.0011120431 0.4725520984
0.5224157219 1.0018124688 0.7215110254
0.5024343534 1.0012036876 0.2250104932
0.5223972069 0.7508636852 0.7244086201
0.5025898793 0.7501174372 0.2230071722
0.5025010074 0.750830955 0.7231662648
0.5123583837 0.7465433023 0.9723168219
0.5125805635 0.4991287228 0.9770103698
0.5124102257 0.748755862 0.4760014395
0.5225601388 0.7498097736 0.225782568
0.5523914776 1.002787828 0.4858514099
0.5423119215 0.4987228686 0.7301491902
0.5423600604 0.748945697 0.2317795706
0.5525284885 0.5011933421 0.4853459509
0.5525136765 0.747230636 0.4809949301
0.5425970522 0.7484940207 0.7322830419
0.5322212563 1.0030300313 0.9719187498
0.5423563574 0.5002474401 0.2286459099
0.5324323271 0.7473353725 0.9739183678
0.5524988645 0.500714827 0.9835554159
0.5425303983 1.0017142783 0.2309760204
0.532595259 0.7463534673 0.4875881152
0.5723210042 0.4982973764 0.987573167
0.5626043416 0.9990238581 0.7419154612
0.5523618536 0.7497704974 0.9838238831
0.5624858458 0.7501763516 0.238784714
0.5624154888 0.7494628338 0.736975664
0.572491342 0.7473746487 0.9907855163
0.5723987671 0.4993571794 0.4899024879
0.572461718 0.7482845475 0.4791665757
0.6022930569 0.4983818202 0.2395836355
0.6022893539 0.9969945873 0.2414045839
0.6024633947 0.9972957049 0.7436993797
0.5922283127 0.7474597472 0.9849347821
0.5923060756 0.9953122564 0.4913355475
0.5923468086 0.9980223148 0.9854069141
0.6024745037 0.7488016843 0.2391605681
0.5922616397 0.7477412267 0.4853959413
0.6024448797 0.7480881665 0.7364711308
0.5824227783 0.9972760668 0.2379607973
0.5822746584 0.9982710641 0.7428263983
0.5823116884 0.4963185101 0.7374505733
0.5823190944 0.7496461227 0.2341217158
0.5822487375 0.7475317536 0.7375977674
0.6125688718 0.7447496888 0.9898412523
0.612413346 1.0011578654 0.4917465801
0.612417049 0.7481536269 0.4916410447
0.6225003081 0.9998159283 0.7416969844
0.6224188422 0.750065069 0.2395160558
0.6225780711 0.7476692203 0.7371830318
0.6225225261 0.9992136931 0.2407408218
0.6423668837 0.9990565883 0.7411063565
0.6324243384 0.4955244761 0.4921779792
0.6425038946 0.9972106065 0.2407852578
0.6526649167 0.9994100741 0.495170926
0.6524131129 0.9984216229 0.9934239013
0.6325021014 0.9959275837 0.4884370271
0.6324946954 0.9976426448 0.9902485819
0.6324613684 0.7450704445 0.9880915865
0.6323984175 0.747230636 0.4845803564
0.6525908567 0.7476364901 0.9899986296
0.6425001916 0.7490242495 0.2396169624
0.6524649549 0.7459868894 0.4846025743
0.6422372788 0.749698491 0.7388956677
0.6724537293 0.7494431957 0.9927295894
0.662577838 0.9998944807 0.2418424633
0.672790702 0.9988536612 0.9952198545
0.6825443945 0.7458363306 0.2380959567
0.6724648383 0.748945697 0.4930778073
0.6826184544 0.748932605 0.7394400081
0.6724500263 0.9967982063 0.4944858717
0.662507481 0.7455810352 0.2397567505
0.6624889661 0.7473615567 0.737828279
0.7025701989 0.4967014531 0.2532069592
0.6926239506 0.9988929374 0.4969881715
0.6926387626 0.9992202391 0.9988765634
0.6924017708 0.749691945 0.9949143573
0.7026294468 0.7494824719 0.247182184
0.6925535937 0.7525787463 0.4922936978
0.7025776049 0.7477019505 0.743657721
0.7125534772 0.4978116606 0.500269952
0.7123905453 0.7477412267 0.4975075167
0.7224071505 0.9971320541 0.7475754912
0.7325977966 0.9979503084 0.9961085736
0.7325533606 0.7480423443 0.9971454126
0.7225848944 0.7485987572 0.2471645948
0.7326163116 0.7487165858 0.4943433063
0.7225811914 0.7467462294 0.7456730768
0.7225219434 0.9985263594 0.2460833199
0.7325940936 0.9998617505 0.4956671275
0.7124905262 0.7471193534 0.9989876533
0.7125719921 0.9972171525 0.4927750874
0.7125645861 0.9983103403 0.9963029809
0.7425107179 0.4999541778 0.2427746926
0.7425921838 0.7493515512 0.2470757229
0.7424662819 0.7483303698 0.7467284308
0.7525347291 0.7503596405 0.9942848479
0.7625587403 0.9981728736 0.7441548483
0.7525310261 0.9974659018 0.9896468449
0.7625550373 0.7481012586 0.2446567405
0.7525717591 0.7472830042 0.4924482979
0.7625291163 0.7507196724 0.7434161005
0.7523755002 0.9992529693 0.4923659063
0.7425440449 1.0014262528 0.2465323082
0.7625661463 0.9984543531 0.2366277186
0.7825364058 1.0016684561 0.2400029998
0.7726160785 0.9985067213 0.4914512662
0.7824845638 1.0009680304 0.7396631137
0.7725086916 0.9994231662 0.9879064366
0.7826437927 0.7495937545 0.2420553856
0.7724605526 0.7507131264 0.4938322928
0.7826623077 0.7499406943 0.7405481298
0.7726160785 0.751007698 0.9949143573
0.7724975826 0.4999600692 0.4929620887
0.7726419994 0.5010329643 0.9918501278
0.7923752672 0.9997046457 0.4888628717
0.79252709 0.7494039195 0.9968954604
0.792504872 1.001845199 0.9887396108
0.8125677064 0.7519372349 0.9880915865
0.7926196649 0.502198813 0.9918593853
0.8023659514 1.0001759602 0.2431931312
0.8125936274 0.497159021 0.9906188815
0.8024659323 0.7505232914 0.2388310015
0.8125565975 0.752153254 0.4912587103
0.8022437525 1.0004247095 0.7410397026
0.8025066653 0.7517212157 0.741359086
0.8125751124 1.0019041133 0.9911928459
0.792534496 0.7515968411 0.4923501685
0.8225694997 0.9975968225 0.7431494848
0.8224250828 1.00090257 0.2441049941
0.832489827 0.7526703907 0.9968214004
0.8225287667 0.4991084301 0.7412739171
0.8224324888 0.7512368092 0.2422183174
0.8326046199 0.7508898693 0.4948071066
0.8225287667 0.7508571392 0.7427097539
0.8424064513 0.7486445795 0.2461518253
0.8424434813 0.7503269104 0.7425866293
0.8625692666 0.4978443908 0.748236476
0.8425064322 0.9997373759 0.7488150692
0.8624952067 0.9993773439 0.2449381682
0.8625470486 1.0000974078 0.7464590378
0.8524341655 0.9985525436 3.658107202e-04
0.8625618606 0.7494693798 0.7449658045
0.8525452554 0.4983314158 0.4995117635
0.8525970973 0.7475317536 -2.1926270822e-04
0.8525748794 0.4996497871 -0.0036828604
0.8626211085 0.4970883238 0.2458722491
0.8625063157 0.750647666 0.2485495155
0.8525341464 0.7500127007 0.4972344208
0.8525526614 0.9999010267 0.494960781
0.882624695 1.0000123093 0.7512932996
0.8925079923 1.0005032619 0.0078326252
0.8827061609 0.7495217481 0.7514978901
0.8725044059 0.7490897098 -7.1657512237e-04
0.8924561504 0.7503661866 -1.4085175982e-04
0.882635804 0.4985363067 0.75267174
0.8824654662 0.49886099 0.2465758184
0.8825321201 0.7483107317 0.2473293782
0.8724784849 0.7482190872 0.4936823215
0.8925931613 0.7501108912 0.498473073
0.8724414549 0.5000360032 -0.0024281093
0.8823210493 0.9985459976 0.2479440756
0.9124597369 0.7510862504 0.5128897637
0.9025653305 1.0028467423 0.2576922135