POSCAR file written by Ovito 3.7.11
1
270.0555583503 0.0 0.0
0.0 15.2766493285 0.0
0.0 0.0 10.802222334
Sr Ti O 
800 800 2400 
Direct
0.0225815761 0.4984859245 0.7727305501
0.012414483 0.5011317927 0.0248911935
0.0126295499 0.2490765208 0.52236355
0.0226962933 0.2504969894 0.7713567587
0.0027174043 0.2534138593 0.7733480156
0.0126225143 0.2511653296 0.0242240159
0.0024730472 0.0021587629 0.2701191584
0.0225989059 0.4986855756 0.2704672349
0.0125082415 -5.3174852417e-04 0.5223181889
0.002477824 0.0021228912 0.7729295832
0.0127412676 8.9893169438e-04 0.0204013766
0.022611644 0.2479309816 0.2683621126
0.0027218849 0.2513800364 0.2704968585
0.0426059742 0.5033076625 0.275057957
0.0326054394 0.2526990429 0.5237938112
0.0426541124 0.2497343876 0.7768871022
0.0525542975 0.5016135737 0.0258055424
0.0327298583 0.2524064395 0.0282426335
0.0327124544 8.5854325666e-04 0.5242566789
0.0326039582 0.0032328204 0.0263509857
0.0425533924 0.2520379032 0.279931954
0.0525994734 0.2487230401 0.5291649282
0.0526676075 0.2506724205 0.0261679678
0.0624296728 0.2516608571 0.2792913451
0.0624981772 0.5020357867 0.7793069746
0.0625489075 0.5011743413 0.2763567638
0.0724331699 0.5003017677 0.5294028422
0.072590545 0.2488539589 0.528637259
0.0625692737 0.2505454293 0.7809982932
0.0725912855 0.24993993 0.0290349704
0.0624578152 0.0020150141 0.2808641696
0.0623641307 0.0015500562 0.781709258
0.1023521986 -7.2635926217e-04 0.2786775825
0.0924905242 0.2518493802 0.5301304703
0.082576268 0.0014091876 0.2795088929
0.1024481048 0.2510586308 0.7773166434
0.0825170209 0.2522434456 0.7800697806
0.0925353298 0.2502659177 0.0327536497
0.0825418306 0.0031959668 0.7816370507
0.0924883024 -0.0017888959 0.0337118784
0.1024062616 0.2488533043 0.2755948835
0.082582563 0.2504930618 0.2802004173
0.1023944122 0.4986842665 0.2802513328
0.0925749512 0.500614009 0.5284123053
0.1125641714 7.2035850458e-04 0.0222297041
0.1225535973 0.251272683 0.2723140771
0.1124941858 0.2511777669 0.5260738976
0.1224358438 0.4979805781 0.7693247694
0.1126552637 0.4981219704 0.025283983
0.1224950908 0.2522925402 0.7718048146
0.1123845787 0.2489593485 0.0258210947
0.1125226984 0.5022923875 0.5186772715
0.1524418916 0.2506645654 0.5198436981
0.1324286023 0.252685951 0.5191068127
0.1422676889 0.2520863431 0.7680379971
0.1524244878 0.2505238277 0.0159475708
0.1323804641 0.2517603554 0.0171585254
0.1424780159 0.2492748627 0.2696368503
0.142493198 0.5027892242 0.7631140103
0.1524385589 0.5020442965 0.0093349501
0.1324523012 0.5003862103 0.0171033515
0.1324856277 0.5000183286 0.517723764
0.152532984 0.0010181332 0.5139569465
0.1824020229 0.2501461271 0.7585343971
0.1824790441 0.2485796841 0.259213995
0.1625505523 0.4991784848 0.759752665
0.1624094702 0.4959650838 0.2610645401
0.1723415005 0.2483473033 0.5108224063
0.1824301653 0.4987549626 0.758101153
0.1625075981 0.2498934539 0.7635305913
0.1723074335 0.2475061503 0.0134896507
0.1622413566 -1.1653967414e-04 0.2626836514
0.1624598302 0.2483571222 0.2650322422
0.1723166908 0.0023123961 0.5095865495
0.1824231297 -0.0018080755 0.2610006644
0.2024597475 0.2519482238 0.2589677494
0.1923240553 0.5002670743 0.0048733681
0.2023890213 0.4980584748 0.2590797633
0.192339978 0.2498050837 0.5090375884
0.2024860384 0.2510403022 0.7618781535
0.1924529177 0.2464686191 0.01074466
0.1923277583 7.2055488272e-04 0.5075906639
0.2024467872 0.0013460193 0.7585547633
0.1923825618 -2.2081646715e-04 0.0088428291
0.2024045736 8.5703769091e-04 0.2579679551
0.2124014055 0.2517282803 0.5153140746
0.2227148388 0.2520280843 0.7600831525
0.2125124937 0.2536115467 0.0114738618
0.2222393811 0.0020444054 0.2592676876
0.2125665567 0.0010174786 0.5121230646
0.2121388669 0.0011110855 0.0121962131
0.2223715761 0.0016600279 0.7593731135
0.2324121026 -9.8996560185e-05 0.5096096929
0.2224719258 0.2502410432 0.2605118761
0.2325417056 0.2491956569 0.506183546
0.2325154147 0.2491707823 0.0098506773
0.2322776859 -3.2424370294e-05 1.0087375421
0.2524535342 0.2468999964 0.5056568026
0.242300068 0.2537693038 0.7502212929
0.2623626064 0.2519796443 0.2531559823
0.2523668854 0.2480920117 1.0043495561
0.2424918804 0.255288616 0.2530198992
0.2423489468 0.0016820223 0.257114427
0.2525131516 0.4997047782 1.0068860712
0.2522509833 -4.3617924347e-05 0.5074425462
0.2425851945 7.938693888e-04 0.7621577256
0.2622600349 0.2547387572 0.7498204495
0.2524542748 -0.0017786188 1.0067101815
0.2623877864 1.1407372309e-04 0.2524589035
0.2623951922 5.2843160118e-04 0.756162663
0.2723594382 0.2482320948 0.4992951486
0.2724142417 0.2516634755 0.9971565918
0.2724471979 0.001507573 0.4982240727
0.2724723779 0.5011069181 0.9967122387
0.282429218 0.2533405448 0.7455898385
0.2824062597 0.002312527 0.7440281229
0.2822588826 0.2534721182 0.2424517035
0.3024102916 0.2546575876 0.2445744148
0.3124097155 0.2511974047 0.4939953133
0.312433044 0.2522185711 0.9957031871
0.3124508181 0.0034238964 0.9944071575
0.2924423427 0.2511574745 0.4936639
0.302451024 0.252075215 0.7436689375
0.2924638198 0.5025594618 0.4952848627
0.3024495428 0.5038889418 0.2450919009
0.2924849265 0.2495569927 0.9959068489
0.3024325092 -3.7300952664e-04 0.7436957838
0.292423828 0.0032128553 0.4975168109
0.3124804417 0.4992498355 0.9915281203
0.2923971668 9.4560423262e-04 0.9975361433
0.3225542947 0.2516137264 0.2440634088
0.3325281683 0.2514579331 0.4921540255
0.3224087691 0.2481456884 0.7416980468
0.3326425892 0.2492231498 0.9905746128
0.3225217088 -0.0011254651 0.2395791464
0.3326018568 0.0053677781 0.4884483065
0.3225376314 0.0016020309 0.7406815893
0.3325774174 -5.2350064223e-04 0.9887786861
0.3623927637 0.2474171255 0.2414370974
0.3525347922 0.2502135502 0.4913902938
0.3423639221 0.2509329488 0.7443900854
0.3525484931 0.0013140096 0.9885565096
0.3527791864 0.2493494864 0.9962030843
0.3423617004 0.0022077265 0.2382220182
0.3426805236 0.0013920372 0.7377072013
0.3424527927 0.2516641301 0.24186201
0.3625482873 0.2495439008 0.7416989725
0.3624186843 4.0392785961e-04 0.2399124112
0.3727313771 0.2510187006 0.4847786913
0.3825812021 0.2456673963 0.7327202645
0.3725980712 0.2477090743 0.9872327079
0.3824738168 -0.0018703929 0.7352919576
0.3825108462 0.2473968331 0.2314900702
0.3924347301 -0.0011314219 0.4764424437
0.3924162154 -0.0013289783 0.9780679271
0.3724240329 2.1684495036e-04 0.4846870435
0.3724351417 -2.1577609486e-04 0.9906671864
0.3924014036 0.2475264427 0.4783679734
0.3924680566 0.2467239107 0.9837149132
0.4124713479 0.0012514959 0.4863496643
0.4023141787 0.2466741615 0.731245568
0.4024030493 -0.0024866929 0.230244956
0.4022993669 -1.0528066071e-04 0.7321463085
0.4022623375 0.4976847017 0.2289989161
0.4023956434 0.2482327494 0.231945532
0.4122973096 0.2475696459 0.4814201231
0.4124750508 0.248359086 0.973781772
0.4125046743 0.0011549433 0.9843444133
0.4123824773 0.4991601561 0.9761238827
0.412271389 0.496283871 0.4779523182
0.4223619053 0.2485423723 0.2293858735
0.4421726436 0.2491878017 0.7259836878
0.4324042833 0.5010898987 0.9717358967
0.4323746597 0.5027440572 0.478918786
0.442402226 0.2503307225 0.2217402245
0.4225470523 0.4985199634 0.2261828289
0.442461473 0.4985670942 0.7230417005
0.4323931744 0.2502665723 0.475136231
0.4223470935 0.2457799864 0.7270890159
0.4321228597 0.249074557 0.9776698608
0.4424873936 0.5017634757 0.2192101896
0.4325412921 0.0015855351 0.9774847137
0.4524223863 -6.3255597002e-04 0.9698566538
0.4724775188 0.2501199433 0.4666083561
0.4624684673 0.250595833 0.7181751094
0.4723923511 0.2492990827 0.9655704987
0.4624055173 0.2510920151 0.2174198173
0.4524297922 0.5008516265 0.9671535063
0.4623351614 0.5003200964 0.7139685675
0.4723960541 0.5004025752 0.4661640031
0.4524705246 0.2532502109 0.4686579344
0.4524223863 0.2507103869 0.9688846315
0.4724515982 2.451234027e-04 0.9682736462
0.4824273233 -6.4846259946e-04 0.2172550364
0.4824347292 0.2507974479 0.7149526243
0.4825384115 0.2502868647 0.2151860177
0.4925363542 0.2479165806 0.467333207
0.4925548689 0.2512242431 0.9665240062
0.482379185 0.4992727463 0.2147499963
0.5024602381 0.2500957234 0.2112183156
0.5125396455 -0.0016191598 0.966283315
0.5223376294 -0.001050776 0.2167042238
0.5026009499 0.2510749957 0.7181556689
0.5023972881 0.49958106 0.7192952492
0.5124655867 0.2538602923 0.4648772309
0.5024158028 0.0011178933 0.7192693286
0.5226190529 0.2480533907 0.2177632651
0.5122656278 0.2500904866 0.9665888077
0.5225635088 0.2507260972 0.7194452184
0.5123656073 0.5018066789 0.467109179
0.5223006 0.5028795581 0.2137974145
0.5224079853 0.499640628 0.7133890571
0.5525240105 0.2518546169 0.4661723348
0.5524425457 0.0016659193 0.9699399699
0.5324540662 0.5013399535 0.9666721239
0.5324799868 0.5001518658 0.4665722525
0.5324725809 -2.3547936837e-04 0.4670786297
0.5324836898 0.2507850106 0.4686218307
0.5323911162 0.2539080777 0.9670239033
0.5425075531 8.7569361433e-04 0.7238220955
0.5425001472 0.2530767435 0.2179567438
0.5424668207 0.2520955074 0.7159283494
0.5524684663 0.2525399766 0.963931947
0.5625997149 0.5011304835 0.720212653
0.5625441708 0.5012293272 0.2184399777
0.562596012 -2.4831082165e-05 0.2245822323
0.562344212 0.2515436849 0.2193425698
0.5624182708 0.2512831565 0.7178862799
0.5724532429 9.6779496258e-04 0.4689458381
0.5726902312 4.7698052817e-04 0.9700695729
0.5724162135 0.2492702806 0.4696762434
0.5726680135 0.2501088152 0.9730596984
0.5926898196 0.499131354 0.9692641831
0.582554868 0.2496447082 0.7193674566
0.6025877828 0.2505094266 0.2213245693
0.5925083754 0.2544494267 0.4735782182
0.6027173858 0.2507123507 0.7227908262
0.5925861372 0.2531062003 0.9707453598
0.6026211093 0.5011684499 0.7226519659
0.5826770651 0.2526139457 0.2176123702
0.5926861166 0.4981003688 0.4759453237
0.5826659563 0.5007279083 0.21866308
0.6124709343 -2.0268421878e-04 0.9726894042
0.6125894285 0.5007442732 0.4724849247
0.6225910741 0.2486687089 0.7253069751
0.6225540447 0.4987516896 0.2270576489
0.6126486756 0.495735976 0.9753184928
0.6226206977 0.4995313108 0.7302402193
0.612622755 0.2532318823 0.4749566383
0.6124450138 0.2495785943 0.9757906179
0.6225577477 0.2501677287 0.2204904817
0.6426276919 0.247172962 0.2311623598
0.6524034581 0.2518788369 0.4814821474
0.6424684654 0.2497867551 0.7295922045
0.6526367434 0.2499235652 0.9786974272
0.6326260463 0.4967957633 0.978928861
0.6427165625 0.4975812759 0.7265159856
0.6524812199 0.4967558331 0.9839926339
0.6426573154 0.4971931018 0.2316391136
0.6527033964 0.4978391859 0.4844843074
0.6326630757 0.2504498586 0.4766312937
0.6325853139 0.2513381424 0.980678501
0.6622792037 -2.247454447e-05 0.7320815071
0.6725289465 0.4997676192 0.4833252866
0.6825935421 0.5016895066 0.7419979851
0.6725326494 0.5031800167 0.9892045244
0.6823935833 0.5006781592 0.2368908107
0.6626383891 0.2497409335 0.2370824379
0.6624717567 0.2482176937 0.7316843666
0.6824602362 -0.0015407394 0.2383368094
0.6825454039 9.6943144709e-04 0.7411463085
0.6626383891 0.4987274696 0.7373887483
0.6626976362 0.4999908357 0.2344977846
0.6824158009 0.2505703039 0.2416463136
0.6725733818 0.248083502 0.4852360046
0.6825454039 0.2484932777 0.7390124883
0.67243267 0.2494725501 0.9860940533
0.7025561011 0.2512379895 0.2403484325
0.6924952084 0.248523389 0.4877882572
0.7024783393 0.2489226913 0.7428117065
0.6924840995 0.2511417643 0.9886953699
0.7024487158 0.499116953 0.7417850659
0.7024783393 -2.9157805739e-04 0.7429940764
0.7025375864 -0.0024168478 0.2442004177
0.6923804172 0.5024573451 0.9951847753
0.6923396848 0.4990796411 0.4921679115
0.7124688761 0.2484337097 0.4921040358
0.7126243997 0.2529425518 0.9923427675
0.7226223424 0.4985114537 0.7453417415
0.7226815895 0.2496237612 0.2427118351
0.7326054733 0.5035832465 0.9961197681
0.7325203057 0.2475879745 0.4928705447
0.7224816306 0.4993722445 0.2443476096
0.7324499498 0.5008018774 0.4880446859
0.7224446012 0.2527946136 0.7388856625
0.7325203057 0.2506259443 0.9917595542
0.7124984997 0.499637355 0.9928426646
0.7624882132 0.5015140755 0.7463563475
0.7426959896 0.0014400189 0.7414397666
0.7525161911 0.4991261173 0.994184981
0.762503025 0.498942831 0.2472553446
0.762499322 0.2472318755 0.2435783235
0.752586547 0.2489298918 0.4931288249
0.7626585485 0.2477634056 0.7430533235
0.7524717558 0.2484179994 0.9959716504
0.7424219719 0.5011802326 0.7435291515
0.752582844 0.4973233659 0.4925317256
0.7425811984 0.2515233924 0.2493058486
0.7426478513 0.2506730751 0.7447927803
0.782521128 0.4972893271 0.2501936289
0.7824729898 0.4989107559 0.7491724347
0.7825396427 0.2485469544 0.2459333944
0.7725157794 0.2455927726 0.4974242373
0.782584078 0.248257624 0.7471709947
0.7726268677 0.2475212059 -7.4793924414e-06
0.792563506 0.4995293471 0.4999838958
0.8124853326 0.501542223 0.5021640028
0.8024207369 0.4983248945 0.7527226301
0.8023763016 0.5004510151 0.2524126167
0.7923005972 0.2504583683 0.500525451
0.7924672295 0.249018262 1.0008502761
0.8125667973 -7.7381731298e-04 0.5044875987
0.8025355281 0.250623326 0.2528578955
0.8124186797 0.2504276024 0.502929586
0.8025836664 0.2483355206 0.746246185
0.812396462 0.2511011794 1.0028776367
0.8325330592 -6.7333716403e-04 0.5074971646
0.8225795518 0.2538642199 0.2499594178
0.8324775151 -0.0026868022 1.0027665485
0.8324478915 0.2528260341 0.5026453852
0.8223944047 0.2520621231 0.7550554834
0.8324960298 0.2500047348 0.0019762791
0.8325219504 0.502114338 0.5060900467
0.832355318 0.5002009603 1.0030257544
0.8223425635 0.4995679681 0.2560063217
0.8425532196 0.4980826947 0.7576568
0.8427087431 0.4990802957 0.2543594384
0.8427346637 0.0024151019 0.2576559822
0.8425606254 0.2488677054 0.2570875807
0.8425161901 0.2503051934 0.7562478306
0.8625231844 0.2502515167 0.2600545628
0.8526770623 0.2482870807 0.5091477509
0.8626935197 0.2488015914 0.7600368658
0.852565974 0.2469733109 0.0066155096
0.8927614067 0.4975917494 0.0050764745
0.872591483 -0.0047996543 0.506152071
0.8825375845 0.2496761287 0.2617125549
0.8725137212 0.2448779561 0.5149845128
0.8928354655 0.2487210764 0.5120045704
0.8827190286 0.2468509019 0.7549730929
0.8727470065 0.2476076123 0.006651243
0.8928613861 -0.0036629325 0.5080664919
0.8725470477 -0.0021007444 0.0070026522
0.8926318037 0.2469111245 0.0113451846
0.8727581154 0.4994710882 0.5079924331
0.8926540213 0.4987687091 0.5088459611
0.912698045 0.4997885662 0.5145383083
0.902655667 0.4985690579 0.7602321959
0.9127202627 0.4986561189 0.0113560157
0.9026260435 0.5003482439 0.2647137892
0.9127461832 0.0023243097 0.5124081911
0.9027038052 0.2519148395 0.2625642315
0.9127350744 -0.0035296572 0.0151004303
0.9127721038 0.2502017676 0.514990993
0.9027926758 0.2489606577 0.7615837697
0.9126684215 0.2482779164 0.0150768241
0.9426918731 0.2508563614 0.7639638355
0.9325643275 0.2483420666 0.0163507286
0.9328753746 0.5007665293 0.5155205136
0.932590248 0.497651972 0.0175169701
0.9226552554 0.4980316364 0.7665938498
0.9226552554 0.4976356072 0.2636279015
0.942510429 0.4964213357 0.7699950018
0.9226515524 0.2476423058 0.2640972494
0.9227737495 0.2493730518 0.7622586308
0.9426733584 0.2506573648 0.2689397715
0.9326754157 0.2455332045 0.5165573373
0.972637563 0.0024747354 0.517723764
0.9628173615 -3.8878523732e-04 0.7666216219
0.9625729673 0.2505761952 0.262548494
0.9525750246 -0.0013621008 0.0119728332
0.9726708895 2.8983215953e-04 0.0143561391
0.9526046482 0.2509028375 0.5153325893
0.9724783365 0.2500165175 0.5196224473
0.962721085 0.2505336466 0.7660310027
0.9525379952 0.2474347995 0.0133542156
0.9527342511 6.6943110661e-04 0.515624196
0.9725894248 0.2484854226 0.0171296424
0.9725190689 0.5008562087 0.5207972056
0.9626062938 0.0012730975 0.2722742705
0.9527564688 0.4973783518 0.5175488
0.9625877791 0.5004235222 0.7682259214
0.9826725351 0.2493612691 0.2728658155
0.9826132881 0.0016454305 0.7759234116
0.9925853102 0.0014722249 0.0207830573
0.9925075484 0.2492643892 0.5203547041
0.9826429116 0.2506449276 0.7697691224
0.9924779249 0.2486425251 0.0248924895
0.9926371514 0.4957889981 0.0206521583
0.0224859662 0.7499566441 0.7749810129
0.0025704716 0.4988210766 0.2711578336
0.0024850448 0.7476001065 0.7666753146
0.0126187743 0.4992262701 0.5199427518
0.0027045551 0.5000124373 0.7729675383
0.0225418436 1.0021912747 0.2733934847
0.022570134 1.0001031205 0.7693247694
0.0124615845 0.7501006548 0.0204690479
0.0226194202 0.7487980131 0.269606301
0.0026093525 0.7493151422 0.2684009935
0.0126138865 0.7514163883 0.5210860351
0.052672051 1.0029702414 0.5302869196
0.0526261345 1.0019883507 0.0294385911
0.0324028885 0.7533147104 0.029121249
0.0424208271 0.7511021833 0.276947383
0.03239215 0.7500221035 0.523360567
0.0422360503 0.7525161059 0.7756040328
0.0425700557 0.5013667919 0.773654434
0.0325247153 0.5008810833 0.0236306195
0.032445102 0.5003646087 0.5256480593
0.0424585971 0.9988332085 0.2784544803
0.0526213207 0.4973862069 0.5291778885
0.0524887554 0.7522019009 0.026408659
0.0525591113 0.7488503806 0.5264164197
0.0423923144 0.9979233231 0.7800373798
0.0725720302 0.5013419173 0.0294945981
0.0723239331 0.9974978372 0.5314635293
0.0724990823 0.9990295867 0.0327604075
0.0725531452 0.7493806016 0.0331097801
0.0625100266 0.751763323 0.2791126782
0.0725738817 0.7507683405 0.5295648459
0.0625266899 0.7513836586 0.7841800459
0.0923927665 1.0016021403 0.5330669031
0.0924957083 0.7493544178 0.033637079
0.1025595634 0.7515800368 0.2786331472
0.08247814 0.7498322713 0.2838941017
0.0924427562 0.7528106731 0.5294083966
0.1024821719 0.7506177839 0.7754068512
0.0825344247 0.7517567771 0.7851881718
0.1023329433 0.9995467158 0.7784256745
0.1025106845 0.4994429407 0.7785173223
0.0823629785 0.5016397575 0.7776276905
0.0926964077 0.5001459744 0.0296860402
0.0824725856 0.5025280413 0.2774769037
0.1123323672 0.7486147269 0.0252212181
0.1225228629 0.7480779599 0.2719373028
0.1123590284 0.7492234991 0.5239946958
0.1224388061 0.7497799038 0.7743940966
0.1223902976 0.9991277757 0.2739350399
0.122515457 1.0005220605 0.7687998774
0.122546932 0.4997152517 0.2715920035
0.1122475698 0.9989575813 0.5240817149
0.1422839818 0.7492431369 0.2693720899
0.1524207848 0.7512985614 0.5164684667
0.1325215462 0.7520251606 0.5192956627
0.1425579995 0.7476066524 0.7670631977
0.1525037307 0.4992963117 0.515099304
0.1323819453 1.0018181563 0.0204270195
0.1426246524 0.4997152517 0.265015579
0.1423584109 0.9984600901 0.2654451202
0.1325167324 1.0021389072 0.5186365391
0.1424872733 1.0033368139 0.7632945288
0.1523359875 1.0009475465 0.0142447731
0.1521960163 0.7506701514 0.0162573219
0.1323960165 0.7490663966 0.018937326
0.1722667011 0.7517567771 0.0102715166
0.1622017351 0.7488176509 0.2612108063
0.1720560037 0.7471091611 0.5113158233
0.1622754237 0.7482677921 0.7619531381
0.1825631009 0.9989379435 0.7599331834
0.1723859358 0.4998730088 0.0109987744
0.172264109 0.4981553547 0.5063464755
0.1821835494 0.747966679 0.2583632441
0.1822864912 0.7503166707 0.7603664276
0.1723744567 0.999527078 0.0071942794
0.1623331896 1.0007642602 0.760833924
0.1823957279 0.5005701512 0.2567709792
0.2024241992 0.5021987806 0.758541803
0.1924147774 0.4995123276 0.506501999
0.1923821915 0.7521691712 0.0088037631
0.2023512513 0.7488831103 0.2572171837
0.1923696015 0.748595089 0.5096328363
0.2022786736 0.7540544014 0.759941515
0.2322832403 0.7491580397 0.0106513458
0.2324121026 0.5019775279 0.0054385296
0.2324317282 0.7506243298 0.5105520915
0.2123258655 0.7503821301 0.0098258676
0.2224300826 0.75209062 0.2645369737
0.2122980934 0.749020575 0.5133885449
0.2223226973 0.7502119357 0.75872047
0.2324450588 0.4981952849 0.5040663891
0.2224715555 0.5007023792 0.7580576434
0.212330309 0.4971296062 0.00486624
0.2226211544 0.4983235853 0.2580559
0.212355489 0.5010080745 0.5036025956
0.2524787143 0.7491187641 0.0050198195
0.2424218948 0.7526535706 0.2583308434
0.2526286834 0.7522411765 0.5077933999
0.2423196936 0.7505981461 0.7585269913
0.2425892677 0.5030196412 0.7550017907
0.2624244455 0.5000739691 0.7512488593
0.2625266467 0.7519400634 0.2513748673
0.2424726251 0.5000425486 0.2556610224
0.2625733037 0.7527124841 0.7529272176
0.2625259061 0.5018197708 0.2512924769
0.2524968587 0.5040309886 0.5041932148
0.2725734682 1.0042270615 0.9993876142
0.282668428 0.5025830272 0.2465110533
0.2724745997 0.4986305898 0.498384225
0.2825232727 0.9996841805 0.248342158
0.2824595821 0.5019578901 0.743159783
0.2824932788 0.7537401963 0.2492530817
0.2825599318 0.7495900716 0.7473320726
0.2724564552 0.7522869981 1.0008132467
0.2725356982 0.751023632 0.5016131902
0.3124030502 1.0022043666 0.4904978848
0.292329403 0.7504737733 0.9948515105
0.3024525051 0.7513051074 0.2424785498
0.2925878683 0.7484707162 0.495903254
0.3024728713 0.7482219706 0.7449575612
0.3025835893 0.499452105 0.7416582402
0.2925130689 0.5039452369 0.9970732756
0.3023814087 0.9987350195 0.2468980108
0.3124585943 0.7491776775 0.9931759294
0.3125522787 0.7508534377 0.4903895738
0.312477109 0.5006991062 0.4907830113
0.3325774174 0.4999731617 0.4927955602
0.3225876212 0.5004006114 0.7454574584
0.3327203509 0.7490991263 0.98963962
0.33261852 0.4999469779 0.991102282
0.3224891229 0.7513902046 0.2423794961
0.3324718836 0.7502184817 0.4886436367
0.3224839388 0.7516062205 0.7445502377
0.3225417047 0.5001557933 0.238919097
0.3525129449 0.4990521482 0.4969835873
0.3525870037 1.0001685799 0.4927937087
0.3625260696 0.750499957 0.2409112797
0.3626482667 0.7517960527 0.7416758291
0.3625556932 0.5006257917 0.7372767343
0.3624890402 0.4973390762 0.2346560853
0.352621441 0.7500024657 0.988908289
0.342541293 0.7525881112 0.2386793316
0.3523855637 0.7529939594 0.4918087262
0.3424898221 0.7517371393 0.743352336
0.3624816343 1.0011373787 0.7405890157
0.342595356 0.4991464097 0.7404871848
0.3525918175 0.4991601561 0.9918058409
0.3426831157 0.4986580827 0.239524528
0.3725017947 0.4988616614 0.9921946498
0.3824812227 0.5009295232 0.2354651781
0.3725351212 0.4968121282 0.4849194031
0.3921792271 0.4989402126 0.9789381184
0.3825071433 0.4968579497 0.7363954342
0.3723388652 0.7511741886 0.990815304
0.3824478962 0.7511741886 0.2333646844
0.3725277153 0.7494853366 0.4868588188
0.3823145903 0.9983946307 0.2290766779
0.382396055 0.7501202926 0.7333247698
0.3924606507 0.7485819972 0.9858811341
0.3923199389 0.7484248946 0.4830420116
0.3924976801 0.4997139425 0.4799037685
0.4023067728 0.4989742515 0.7336700691
0.4023215845 0.7466771292 0.2270419114
0.4024141581 0.7489812994 0.7336784007
0.412397289 0.7483790731 0.9772532799
0.4122973096 0.7480386843 0.4814229003
0.4223656082 0.9978709556 0.7306438399
0.4425355319 0.9997234561 0.22654294
0.4323524421 0.997406194 0.4781291336
0.4426355113 0.9987415654 0.7235267859
0.4223841229 0.4991045157 0.7219271151
0.4324487186 0.7474888255 0.9755221546
0.422439667 0.7481303274 0.2324824585
0.4323894715 0.7478161224 0.4760166054
0.4224063406 0.7500679251 0.728068444
0.442461473 0.7481630571 0.2248951309
0.4424244436 0.7473382689 0.7214105547
0.4224729935 0.9990230407 0.2306744972
0.4723145894 0.9982702578 0.4676942438
0.47240346 0.4978850074 0.9644873882
0.462424032 0.4996209902 0.214908297
0.4723108864 0.7489747534 0.968477308
0.4624906849 0.7469586045 0.2154766986
0.4723849453 0.7519204256 0.4653160295
0.4625129026 0.7484772622 0.7194878022
0.4524001687 0.9955929692 0.4688430815
0.462424032 0.9985779169 0.2190111565
0.462357379 1.0028785982 0.7137362079
0.4524371981 0.7492824125 0.9733466763
0.4522557539 0.7466182157 0.4679330836
0.4524779304 0.5003338428 0.468050652
0.492358613 0.4998415883 0.963071013
0.492295663 0.501165177 0.4654058258
0.4822866115 0.5004994551 0.7183676623
0.4824791645 1.0022370963 0.7148674566
0.4926252248 1.0013337569 0.46521605
0.4924808101 1.0012552056 0.9647188221
0.4921956836 0.7524244628 0.4645097139
0.4920660806 0.7493871475 0.9681440432
0.4824051056 0.7461927298 0.2141010557
0.4822310674 0.7494591529 0.7163754797
0.5023047145 0.5032356572 0.2132632652
0.5125285367 0.999730002 0.4633192181
0.5223413323 1.0023680151 0.7124096291
0.5024565352 1.0050911253 0.2167199613
0.5224635294 0.7510694536 0.7133714682
0.5023454469 0.7491842235 0.2121875606
0.5024713469 0.7490009372 0.7169744305
0.5125137249 0.7525815653 0.9632191307
0.512443369 0.5004078119 0.9681533006
0.5122397072 0.7529415919 0.4643504874
0.5225301823 0.7512265561 0.2151647257
0.5523536751 1.0012224759 0.4674692901
0.5423594354 0.5014924739 0.7124225894
0.5422779707 0.7531052403 0.2181752174
0.552490684 0.5037658782 0.4706880722
0.5525240105 0.7515342152 0.4700872699
0.5425149589 0.7537401963 0.7166365371
0.5323800074 1.0037164783 0.9679126093
0.5424705236 0.4999980362 0.2159349376
0.5324170368 0.7493609638 0.9627932924
0.5524425457 0.5000726599 0.963515366
0.5425297707 1.0000769367 0.2177688195
0.5323985221 0.749020575 0.4655817155
0.5726457959 0.5040715735 0.971587779
0.5624219737 1.0004173255 0.7197877405
0.5522611016 0.7477899387 0.9699029405
0.5625737944 0.7500875629 0.2224150857
0.5623886473 0.7499108226 0.7185491065
0.5724421341 0.7519531553 0.9724301983
0.5724865694 0.5021228477 0.4708954369
0.5723791841 0.7512069183 0.4693272411
0.6024544769 0.5029129424 0.2250006648
0.6024359622 1.0018836156 0.2270743121
0.6025063181 1.0004435093 0.7229148748
0.5925787313 0.7532623429 0.9707731318
0.5924750489 1.0011570165 0.4705427317
0.5924935636 0.9982440741 0.9738650882
0.6024211505 0.7487914672 0.2225604261
0.5926083548 0.7487980131 0.4704566383
0.6024952093 0.7510694536 0.725919812
0.5827400151 0.9988070248 0.2232158468
0.5826030062 1.0011373787 0.7208976973
0.5825252445 0.5001479382 0.7175446835
0.5825585709 0.7515996746 0.2243748676
0.5823993445 0.7529874135 0.7238563477
0.6125116667 0.7497340823 0.9793084126
0.6124450138 1.0013337569 0.476896054
0.6125079638 0.7485819972 0.4735467432
0.62253553 0.9968956109 0.7285600095
0.6226725388 0.7504475895 0.2289581837
0.6225503418 0.7494198772 0.73108449
0.62253553 0.9991539595 0.2269502636
0.6425277125 1.0003125905 0.7246376684
0.6326149374 0.4984538494 0.4785836697
0.6425203066 0.9989248517 0.227449235
0.6522738551 1.0000769367 0.480759148
0.6524219728 1.0017657888 0.9833075896
0.6324594139 0.9983226254 0.4756685289
0.6324260874 1.0002536771 0.9727171763
0.6324408992 0.750715973 0.9785678242
0.632385355 0.7486409106 0.4779208432
0.6526515552 0.7502053898 0.9788085154
0.6425684448 0.750611238 0.2264540694
0.6525886052 0.7518942418 0.481539543
0.6427128596 0.749446061 0.7316297482
0.6724067494 0.7510890914 0.9876030021
0.662327342 1.0011635625 0.2328138718
0.6724289671 1.0010457356 0.9866957813
0.6825750274 0.7500221035 0.2413269349
0.6724030465 0.7502512114 0.4842954574
0.6824195039 0.7517305934 0.7385561007
0.6726955789 1.002158545 0.4860774981
0.6625273008 0.7496882607 0.2315224709
0.6623532626 0.7484379865 0.7358686907
0.7023450334 0.5011095365 0.2435736948
0.692584079 1.0008100818 0.4941749059
0.6925544554 0.9978644097 0.991102282
0.692584079 0.750820708 0.9939165177
0.7023783599 0.7483987109 0.2404993274
0.6924211495 0.7517240474 0.4897591479
0.7026079423 0.7480583221 0.7393864854
0.7125577467 0.5010493139 0.4922540049
0.7123392732 0.7501661142 0.4904469693
0.7224890365 0.997510929 0.7453028606
0.7324795733 1.001418854 0.9926575175
0.7325351174 0.7510105402 0.9935554809
0.7224408982 0.7485754512 0.2419934644
0.7325721468 0.7490860344 0.4975834638
0.7224038688 0.7493478719 0.7416961953
0.7225519865 1.0012421137 0.2389116911
0.7326054733 1.0006922549 0.4905423201
0.7124984997 0.7496948066 0.9907319878
0.7125096085 0.9974716534 0.4937333301
0.7125651526 1.0002340393 0.9932407309
0.7426219307 0.5010624057 0.2446188501
0.7425219513 0.753039781 0.2446938347
0.7424923278 0.7502839411 0.7437078184
0.7525124881 0.7510629077 0.9957124445
0.7625585691 0.9975502047 0.746659063
0.7525791411 0.9989183057 0.9954162091
0.7624141544 0.749230045 0.2466369534
0.7524902705 0.7528892244 0.4962716967
0.762247522 0.747757209 0.7434458353
0.7524791617 0.9994878023 0.494821995
0.7423849425 1.0007969899 0.2438097573
0.7625400544 0.9985386413 0.2477367271
0.7823730104 0.9974258318 0.2488124316
0.7724639382 0.9980280581 0.4922382674
0.7825470486 0.9970199837 0.749930612
0.77247875 0.9988070248 0.9922594513
0.7823730104 0.7467556804 0.2446382906
0.7725157794 0.7467949561 0.4990137251
0.7824952074 0.7478684899 0.747785683
0.7725194824 0.7490074831 0.9963234299
0.7724565324 0.498834823 0.4997987487
0.772545403 0.4977514703 0.9954162091
0.7925968325 0.9980280581 0.4979843073
0.7923339236 0.7493544178 1.0020259601
0.7927338413 0.9976942153 1.0000078569
0.812463115 0.7503363086 0.9998504819
0.7927301384 0.5033508657 0.9968788711
0.8025170134 1.0001489421 0.2488577927
0.8125334708 0.501074843 1.0055900416
0.8026836458 0.7479994087 0.2494187883
0.8123594326 0.7508403458 0.4978158234
0.8025244193 0.9998020074 0.7443817538
0.802542934 0.7504214057 0.7545481804
0.8125667973 0.9993896133 0.9994709303
0.7924894472 0.747966679 0.4981722316
0.8225906606 0.9997954614 0.7513090321
0.8224351371 1.0010915571 0.2534420345
0.832421971 0.7536812829 1.0074600272
0.8224573547 0.5021313574 0.7594453208
0.8225128988 0.752823765 0.2525533285
0.8324552974 0.7488438347 0.5085552802
0.8226387989 0.7512723777 0.7540538376
0.8424569431 0.7509123511 0.2572949454
0.842334746 0.7487914672 0.7568143807
0.8625565109 0.4979085728 0.7587176928
0.842523596 1.0013730325 0.7532382647
0.8625861344 1.0016414159 0.2590640258
0.8626379756 0.9978447719 0.7562043211
0.8524363711 0.9996383589 0.0050480544
0.8625565109 0.7511283671 0.7587500935
0.8525289446 0.5002330354 0.5094180656
0.8524585887 0.7471026152 0.0027462132
0.8523919358 0.4986744475 0.0068864724
0.8626861138 0.4994298488 0.261708852
0.8625268873 0.7480517762 0.2571070211
0.8527066858 0.7485819972 0.5085043648
0.8524178564 0.9980673338 0.5061465166
0.882630158 0.999095046 0.7540871641
0.8926318037 0.9979691447 0.0099753738
0.8827708698 0.7448639044 0.7547935002
0.8726803536 0.7479994087 0.0073821112
0.8925392302 0.7473579067 0.0085419651
0.8827745728 0.497631025 0.7568662219
0.8826931081 0.5021058283 0.2532004176
0.8826708904 0.7507225189 0.2574912013
0.8725803742 0.7493020503 0.5090931325
0.8926429125 0.7505523245 0.5085774979
0.8725581565 0.4983870809 0.0080922428
0.882567208 1.0011635625 0.2578874161
0.9126425009 0.7506570595 0.5147919598
0.9027667552 0.9994027051 0.2612395041
0.9027519435 0.999101592 0.7641387995
0.9027519435 0.748392165 0.7665290484