POSCAR file written by Ovito 3.7.11
1
270.0726435619 0.0 0.0
0.0 15.277615814 0.0
0.0 0.0 10.8029057424
Sr Ti O 
800 800 2400 
Direct
0.0225036593 0.5004850233 0.7687986092
0.0125882159 0.5005314965 0.0232258724
0.0122441974 0.2487127542 0.5263092214
0.0224227181 0.2495957454 0.7705888683
0.0025141486 0.2512759814 0.7792217308
0.0124773198 0.251289727 0.0262392283
0.00236156 0.002275218 0.2770559127
0.0223516261 0.5007736809 0.2718610141
0.0122848901 0.0014542784 0.5301609629
0.0023376035 -0.0036417392 0.7777878573
0.0124162622 2.6849130616e-04 0.0308374356
0.02243216 0.2478690362 0.2767023041
0.0025017815 0.2497626563 0.2806058835
0.0423586877 0.5004248045 0.2722812714
0.0325131884 0.2514029646 0.5227259262
0.0423164768 0.2479403824 0.7738194806
0.0524663386 0.4989932984 0.0223052867
0.0325242966 0.2509140139 0.0225701229
0.0325031911 1.1080963453e-04 0.5233563122
0.0326268616 -7.9129447436e-04 0.0214623654
0.0423905309 0.2503124803 0.2723451431
0.0524644872 0.2523586111 0.519535118
0.0524367169 0.249477926 0.0206221285
0.0624847542 0.2520804263 0.2694810988
0.0624381001 0.5010407383 0.7751182052
0.0622659242 0.5015931805 0.2700355793
0.0724572563 0.4970617143 0.5240274279
0.0724987266 0.2511732167 0.517206115
0.0625754706 0.2497050556 0.7745989005
0.0725413078 0.2515410751 0.0216514812
0.0623403486 0.0032847342 0.2701290727
0.0624529109 0.0013084441 0.7722041744
0.1022918219 -1.034253639e-04 0.267412211
0.0924929768 0.2502064428 0.5152288692
0.0823605178 0.0018627191 0.2700883429
0.1024688113 0.2507464485 0.7611284506
0.0825460234 0.2504322634 0.7666491875
0.0924889038 0.2517904596 0.0161427781
0.0823953232 -2.7668538249e-04 0.7686282847
0.0925529607 7.9880965547e-04 0.0179986677
0.1025347195 0.2520378804 0.2650822823
0.0824482719 0.249191232 0.2653636881
0.1023892031 0.4974498639 0.2679361441
0.0924496551 0.5001119285 0.519744321
0.1124065079 0.0015894435 0.0151331423
0.122596359 0.2515973666 0.260187303
0.1125549865 0.2480464199 0.5111568167
0.1225315616 0.4972881894 0.7664335048
0.1124513107 0.4991268271 0.0140285321
0.1226285725 0.2499740767 0.7607230042
0.1125349919 0.2496808372 0.0100636729
0.1124716756 0.4992826106 0.5150196663
0.1524638786 0.249978004 0.5064765944
0.132484069 0.2438337207 0.5123851899
0.1424676792 0.2490930492 0.7629622165
0.1525064598 0.2469081533 0.0064762122
0.1325559016 0.2520130074 0.0098292916
0.1425446956 0.2500918961 0.2592171937
0.1424695306 0.4974066634 0.7593641105
0.1523757542 0.4975172828 0.0084791918
0.1323870581 0.4996537418 0.0131964412
0.1323578067 0.4981175073 0.5128415486
0.1525790329 -8.2585484075e-04 0.5064367903
0.1826320582 0.2488331919 0.75039893
0.1827072232 0.2504944458 0.2534613349
0.1624963646 0.4938805897 0.7524854057
0.1624137942 0.4962539967 0.2535057674
0.1724503531 0.2474684501 0.5006466815
0.1826002149 0.4983930739 0.756383431
0.1624582267 0.2481171115 0.7571350806
0.1726103101 0.249141486 0.0029944638
0.1625493133 5.1407936425e-04 0.2536409162
0.1626078161 0.2472020473 0.2537001595
0.1725158911 -8.3672041048e-04 0.4975595491
0.1825291229 0.0037238734 0.2527689286
0.2025700272 0.2503353896 0.2509990344
0.19238536 0.4995117039 0.0055070285
0.2026366759 0.4988538788 0.2474231447
0.1927097172 0.2511391799 0.498273246
0.2024719055 0.2487867186 0.7489132186
0.1926297387 0.2512052897 8.4957791829e-04
0.1923583302 8.8874515436e-04 0.5011261821
0.2025193001 0.0028766208 0.7497065237
0.1925867873 0.0018315624 0.001907534
0.2026307516 6.4433529058e-04 0.2499539452
0.2125758537 0.2478317267 0.4997321127
0.2224872611 0.2538850272 0.7492168406
0.2124647724 0.2506017924 -0.0021447368
0.2224972584 -0.0015482843 0.2501862901
0.2125984402 0.0018485808 0.4984657868
0.2125514158 0.0027703869 -0.0012280113
0.2225524287 -0.001179444 0.7470979663
0.232734504 0.0017222522 0.4949741336
0.222602045 0.2513473276 0.2538325313
0.2326423066 0.2485379887 0.5004985732
0.2325571444 0.2482146398 0.0026909344
0.23256492 0.0010885145 0.998920954
0.252688765 0.2504944458 0.5016769598
0.2427347764 0.2526466141 0.7489863471
0.2625416696 0.2532160747 0.2470417658
0.252536954 0.2523638475 0.9988283863
0.2425985168 0.2570700792 0.2460262983
0.2426710899 7.2078701015e-04 0.250143709
0.2526976515 0.5019119475 0.9994485898
0.2525669459 0.0013881032 0.500662418
0.2426844196 -0.002491887 0.7461796948
0.2624839074 0.2515332205 0.7498675915
0.2526591433 0.0019093887 0.9982266963
0.262709032 0.0034301757 0.2469927049
0.2625568507 0.0023005492 0.7476552238
0.2726222907 0.250527828 0.4953990193
0.2725826718 0.2521884274 0.9968844649
0.2727067125 0.0036974295 0.4963811624
0.2724060526 0.5010944116 0.9919135801
0.2823974385 0.2539995739 0.7442616924
0.2826318199 0.0036251014 0.7476848454
0.2826355226 0.2505042641 0.2511971293
0.3025605321 0.2553361699 0.2459689063
0.3127348318 0.2541455391 0.4920628798
0.3125034126 0.2525798498 0.9904695242
0.3126470776 0.0050170726 0.9947461513
0.2925791436 0.2525242128 0.4946955049
0.3024494509 0.2564187996 0.7433887791
0.2925024975 0.5037224395 0.4937855645
0.3027589973 0.5007959357 0.2463012243
0.2926035814 0.2514487832 0.9969029784
0.302539797 0.0056282281 0.745620586
0.292507311 0.0053474906 0.4936217197
0.312542291 0.5004516412 0.9966715592
0.2925580381 0.0068962925 0.9973380465
0.3224207443 0.2534883685 0.2403093179
0.3324765573 0.2507372848 0.4933532734
0.322655496 0.2519207155 0.7434304345
0.3326139278 0.2521124994 0.9939130421
0.3225221985 0.0033125527 0.2428345644
0.332523952 0.0024751183 0.4940827068
0.3224592525 0.003978887 0.7434683873
0.3323999113 0.0037424627 0.9945610159
0.3624718204 0.2511156161 0.2410026499
0.3524948751 0.2506070288 0.4931542529
0.3422617024 0.251433074 0.7442348477
0.3524941345 0.0019951351 0.9930984465
0.3525444914 0.2488711559 0.9914229713
0.3424342486 0.001081969 0.2398196348
0.3423779674 0.004473205 0.7387511379
0.3423009511 0.2508413586 0.2411109541
0.3624236852 0.2518971516 0.7421992843
0.362590307 0.0020684449 0.2396613441
0.3724246981 0.250239825 0.4913556627
0.3824442246 0.2517354772 0.7378735963
0.3723987792 0.2499308762 0.9942833129
0.3823479542 0.0012773529 0.7433091708
0.3825108733 0.2504407725 0.2360826773
0.3925563188 4.0339455448e-04 0.4848000191
0.3928118056 9.3332017236e-04 0.9873314796
0.3726394552 -6.7007137106e-04 0.4863292373
0.3725209685 0.0020302191 0.9935150011
0.3925118863 0.2494595985 0.487450232
0.3925970485 0.2475574692 0.9886922246
0.41256575 0.0027193318 0.4765466841
0.4025647371 0.2488312282 0.7340598075
0.4025647371 0.0018575482 0.2334694915
0.4027165481 2.1665075658e-04 0.7357176948
0.4023721963 0.4997146152 0.2325762133
0.4025499263 0.2515764209 0.2345367969
0.4125768582 0.2532874209 0.4803058579
0.4126472096 0.2506927752 0.9796761318
0.4125768582 2.0598155257e-04 0.979268834
0.4125768582 0.499381448 0.9765843711
0.4126212906 0.5016599449 0.480133682
0.4226074927 0.2508649225 0.2260400089
0.4425095455 0.2495630178 0.7194415184
0.4323863432 0.4993264656 0.9763529518
0.4324492893 0.4998533803 0.4728948888
0.4425021401 0.2497724745 0.2259742858
0.4223853303 0.4993958481 0.2286865191
0.4425947078 0.5023315156 0.7206013915
0.4325529651 0.2490439577 0.4752683243
0.4226852496 0.2494995262 0.7305496408
0.4324159649 0.250745794 0.9748903824
0.442465113 0.499431194 0.2209534145
0.4325603705 0.0019550765 0.9763714654
0.4524883422 0.0018655991 0.9764084925
0.472427422 0.2506927752 0.4677305376
0.4626522742 0.250745794 0.720164472
0.4725977466 0.2522722101 0.9664111822
0.4624078955 0.2511398345 0.2185781276
0.4524253962 0.4991104633 0.9704378766
0.4626707878 0.5003082942 0.7185454632
0.4725866384 0.499768943 0.4699188377
0.4527956669 0.249559745 0.4674009966
0.4523920718 0.249453053 0.972224433
0.4725755303 -0.00165982 0.9733537588
0.482528408 -0.0013547986 0.2165703345
0.4826209757 0.2502463705 0.7200607962
0.4824728674 0.2504571363 0.2188076955
0.4925516372 0.2499112397 0.4697096347
0.4924183397 0.2495603996 0.9684476714
0.4825172999 0.4991733003 0.214437575
0.5025193258 0.250327535 0.2247709059
0.5124129602 2.863605865e-04 0.970863688
0.5224324867 0.0038061506 0.2259104141
0.5023564067 0.2489883208 0.720193168
0.5026155962 0.4973130624 0.717142137
0.5122907708 0.2466345504 0.4692440193
0.5024674879 0.0013008513 0.720190391
0.5222991892 0.2503353896 0.2280329912
0.512301879 0.2542142671 0.9720022705
0.5223584325 0.250608338 0.7216686969
0.5126721497 0.5003292399 0.4746157221
0.5226361356 0.4994239939 0.2230334104
0.5226472437 0.5001485834 0.7227767321
0.5522244711 0.2488220645 0.477684341
0.5525392013 -0.0025125054 0.9815367423
0.5325112564 0.5008771002 0.9776951833
0.5324186888 0.5020245306 0.4794523838
0.5325519862 0.0038472565 0.4800753643
0.5322076344 0.2523029741 0.4771270835
0.5323594454 0.2477898353 0.9744182872
0.5424011881 -8.0163640218e-04 0.7306227693
0.5422197555 0.2485072248 0.2336833228
0.5424011881 0.2489955209 0.7303756136
0.5521430116 0.2508171402 0.9817959319
0.5623476734 0.4978052858 0.7333498134
0.5623069436 0.4976036837 0.2348959595
0.5624809709 2.3524004456e-04 0.2367232457
0.5623809978 0.2472923755 0.2355476361
0.5625365115 0.250652193 0.7360768574
0.5722598213 0.0042352097 0.4844639984
0.5724375513 0.001409507 0.9873314796
0.5724967946 0.2479528189 0.4854896484
0.5723931188 0.2502070973 0.9855264097
0.5924173609 0.4960504309 0.9950238544
0.5826088888 0.2481446027 0.7406867283
0.6025961038 0.2481465664 0.235817008
0.5925136313 0.2489948663 0.4888100513
0.6023813468 0.2489994482 0.7391352938
0.5925617665 0.2485438797 0.9885626298
0.6023998603 0.4978628864 0.7469415269
0.5826051861 0.2508426677 0.2391207488
0.5924691988 0.4967854932 0.4936744833
0.5823311857 0.5002356389 0.2421421581
0.6122712785 -0.0013930245 0.9880627643
0.6122712785 0.4973477537 0.4911483111
0.6224389132 0.2503190258 0.7388474083
0.6223722645 0.4965740728 0.2436093559
0.612378657 0.4969458585 0.9909693897
0.622542589 0.4982994729 0.7436322321
0.6125489815 0.2477008162 0.4896894443
0.6122786839 0.2524070479 0.9837768804
0.6225129674 0.2476510702 0.2360039948
0.6425149932 0.2475083778 0.2390161473
0.6526159793 0.247255066 0.4839502477
0.6426631015 0.2462784739 0.7338135775
0.652530817 0.2494478166 0.990154794
0.6323140341 0.4979617238 0.9907935111
0.642403912 0.4995267586 0.7435276306
0.6525048981 0.4994671944 0.9883867512
0.6424409391 0.500612661 0.2428864023
0.6524863845 0.4983086366 0.495285161
0.6324510343 0.2472118656 0.4896135388
0.6325028722 0.2468282979 0.9885441163
0.6625651543 0.0010682234 0.7419178785
0.6724143562 0.4974708096 0.4908150674
0.6825042341 0.4967102197 0.7401248424
0.6725032212 0.5000445096 0.9898122936
0.6826190181 0.496763893 0.2412664678
0.6625910733 0.2482866406 0.2390707622
0.6624503704 0.2463648748 0.739154733
0.6826560451 -0.0012670232 0.2464317447
0.6824709098 -8.5701153468e-04 0.7435591036
0.6623170729 0.4957041726 0.7431721707
0.66217637 0.4957912281 0.242468922
0.6824968287 0.2509585235 0.2408850889
0.6724106535 0.2490007573 0.4894024845
0.6825227477 0.2486040985 0.7488586037
0.6724143562 0.2471581923 0.9899974289
0.7024877465 0.2459171609 0.2457939534
0.6925496796 0.2491460679 0.4940253148
0.7026988008 0.2475208143 0.7463296545
0.6925904093 0.2465010217 0.9935242578
0.7026358548 0.4992479193 0.7473062436
0.7024618275 -4.3279612837e-04 0.7468082294
0.7026395575 -0.0010812612 0.2481433213
0.6925496796 0.4971140785 0.9922838508
0.6926385445 0.4976442659 0.5000533226
0.7126479758 0.2473650308 0.4976095357
0.7125517054 0.2485864256 0.9979860204
0.7224453398 0.4960831585 0.7482328461
0.7225712319 0.2485923166 0.2495577555
0.7326018665 0.4969668042 0.9984303453
0.7326425962 0.2512812178 0.4969717443
0.7224601507 0.4963286156 0.2529670234
0.73262038 0.4985063114 0.4991091322
0.7227415564 0.2487513728 0.7476728116
0.7326018665 0.2469009532 0.9948757461
0.7126035433 0.4970263685 0.9986154806
0.7623901482 0.5003901132 0.749066881
0.742506609 0.0035822937 0.7451012813
0.7525742707 0.4977941584 0.9924227024
0.762582689 0.4988342422 0.2450756281
0.7625160403 0.2486171896 0.2373628884
0.7525927842 0.2533908402 0.4952555394
0.7625641755 0.2485451888 0.7439053068
0.7526409194 0.2487795186 0.9949035164
0.7425288252 0.498501075 0.7462630057
0.7525150273 0.4984552564 0.496038662
0.7426695281 0.2509716145 0.2447618236
0.7426436092 0.2504905185 0.7444866318
0.7827069042 0.4998527257 0.2410998459
0.7824662282 0.5002827666 0.7404608631
0.7825884176 0.2504990277 0.2403407909
0.7724244855 0.2518133689 0.4901356206
0.7825550932 0.248091584 0.74057287
0.7724392963 0.2468714983 -0.0057030202
0.7925227818 0.4993094472 0.4914676696
0.8125729428 0.5000975283 0.4951685257
0.8025312001 0.5028806851 0.7482069272
0.802583038 0.501617399 0.2448617967
0.7925524034 0.249733856 0.4853026616
0.7924598357 0.2497927657 0.9886366839
0.8124544562 0.0030737065 0.4924035289
0.8027385517 0.2507831034 0.2419570227
0.8125544293 0.2521746818 0.4938466592
0.8023645783 0.2500414956 0.7434341372
0.8126247807 0.2509487052 0.9923023644
0.8325638606 0.0021637478 0.4983454488
0.8227294695 0.2496834554 0.2477554626
0.8325120227 -4.5184360303e-04 0.9907009434
0.8323972387 0.2506587385 0.494738086
0.8224961989 0.2489673751 0.739787896
0.8323528062 0.2501521149 -0.0021926128
0.8325305362 0.4988852973 0.4927802794
0.8325786714 0.4973929178 1.0007352807
0.8225258206 0.5011133936 0.2475999489
0.8424204679 0.4987288593 0.7484809275
0.8424389814 0.5000504005 0.2489245925
0.8426796574 7.4382725441e-04 0.2479804021
0.8424500896 0.2467870611 0.2461744066
0.842520441 0.2498202569 0.744623632
0.8626779806 0.2480483835 0.2452913108
0.8524288862 0.2499452764 0.4989702807
0.8625150614 0.2493227971 0.74414228
0.8525844 0.2485314432 -0.0035652528
0.8925329111 0.4980088516 0.0092922138
0.8725160744 -0.0012996199 0.4969661902
0.8826059523 0.2488083189 0.2525236242
0.8726456691 0.2485746437 0.5024304608
0.8926958302 0.2510370698 0.5061489048
0.8825948442 0.2499793131 0.7500749431
0.8725345879 0.250140333 -0.0015441299
0.8924884786 3.4441938382e-04 0.5043947471
0.8723198309 9.5675314806e-04 4.9145126766e-05
0.8925366138 0.2497567653 0.0078322363
0.8724309121 0.4955195889 0.5006985194
0.8926032625 0.4987144591 0.5075142782
0.9127533967 0.5006617525 0.5128591364
0.9026413025 0.5006964437 0.7578497032
0.9126793425 0.4986954771 0.0131437702
0.902659816 0.5000209457 0.2588080445
0.9124905044 8.5477388513e-04 0.5110161138
0.9026338971 0.250483973 0.260482594
0.9124534773 9.7115330072e-04 0.0117415548
0.9126534236 0.2507988127 0.5103061196
0.9026116808 0.2500375683 0.7618763976
0.9123757205 0.254163212 0.0099163052
0.9425379757 0.249453053 0.7667889647
0.9325480709 0.2528560709 0.0136342863
0.9325925034 0.5018464923 0.5135432117
0.9326406386 0.4994436305 0.0165190657
0.9224433822 0.5000949101 0.766725093
0.92267295 0.4992112644 0.2620442109
0.9423861647 0.4991242089 0.7688189741
0.9227877339 0.2470128817 0.2650322958
0.9229099233 0.2508033946 0.7620652356
0.9426268407 0.2502142974 0.2695144232
0.9324851249 0.2514147465 0.5124925684
0.9725113928 -7.8324347992e-04 0.527327466
0.9623622716 0.001501668 0.7701621312
0.9623585689 0.2494903625 0.272975529
0.9523242316 -5.6272477851e-04 0.0173518047
0.9725002847 0.0013886923 0.0225549418
0.9524427182 0.2486688992 0.5203561934
0.972496582 0.2473427761 0.5238978331
0.9626770017 0.2512609267 0.7746803601
0.9524056912 0.2471241556 0.0164795393
0.9525537995 4.2977301595e-04 0.5201756864
0.9723077439 0.2508492132 0.0287408701
0.9725558253 0.4984493654 0.5238635831
0.9622697039 -4.406507571e-04 0.2718156559
0.9525908265 0.4990384625 0.5159175728
0.9627029207 0.496271015 0.772408749
0.9823680002 0.2506292836 0.2771521831
0.9823161623 -4.8967673138e-04 0.7724541072
0.9924615808 -0.0021224577 0.0317166435
0.9923801212 0.2485563162 0.5334026833
0.9826086761 0.2491990866 0.7728863983
0.9921579588 0.2495721815 0.026826848
0.9924245537 0.4976887755 0.0265508111
0.0224585233 0.7501633793 0.7780840739
0.002615936 0.4992420283 0.2745038216
0.0023114994 0.7508506593 0.7778035938
0.0123183996 0.5006840073 0.5297212664
0.0025396232 0.4990940995 0.7745507653
0.0225137307 0.9993972942 0.2738317801
0.0224916625 0.996857631 0.7787033517
0.0123863813 0.7504382913 0.0267404823
0.0224757779 0.7481800856 0.2748852004
0.0023541176 0.7476826257 0.2811622153
0.0124398114 0.7484811797 0.5232341228
0.0525851955 1.001393679 0.522824048
0.0526114847 1.0020809591 0.023133675
0.0324457992 0.7510601161 0.0228492145
0.0424031202 0.7506412026 0.2713093107
0.0325205939 0.7523168567 0.5264656608
0.0424579202 0.7528863173 0.7718709307
0.0424142283 0.503910296 0.7724855802
0.0323373098 0.5005210237 0.0199410154
0.0323795207 0.501512016 0.5210680389
0.04247125 0.9976627304 0.2710232765
0.0525118819 0.5003658948 0.5193925638
0.0522441761 0.7509881153 0.0201955766
0.0525081792 0.7498164666 0.5164951952
0.0424271877 0.9985725582 0.7708591659
0.0723328453 0.4992623195 0.0272674702
0.0725868511 1.0004707602 0.5200368349
0.0724835455 1.0008896737 0.0225948385
0.072368021 0.7475844429 0.0168179668
0.062418846 0.753632507 0.2697402884
0.0724505914 0.7522383104 0.518687198
0.0624480974 0.7530303188 0.771082254
0.0924285497 0.9982583731 0.5124860887
0.0923300577 0.749397553 0.0187829937
0.1023414382 0.7476629892 0.2666170546
0.0824912233 0.7496986471 0.2695875517
0.0924189226 0.7462753381 0.5177106089
0.1024673302 0.7498557397 0.7684375952
0.082382734 0.7493713709 0.769747428
0.1023040408 0.9992271106 0.7646228808
0.1026021088 0.5007075711 0.76750729
0.0824138367 0.4994187575 0.7700677122
0.0925607363 0.4982529997 0.0149999374
0.0822886852 0.5014694701 0.2670178727
0.1124616783 0.748710273 0.0166553254
0.1224264047 0.7499670136 0.2660005538
0.1123446727 0.7487168185 0.5185150221
0.122446029 0.748559726 0.7641406032
0.1223801208 1.0003791228 0.2630189486
0.1223179154 0.999881663 0.7641165356
0.1226167238 0.5006918619 0.2672659541
0.1123294916 0.9996263876 0.5141199083
0.1423873305 0.7519241253 0.2575741172
0.1525668139 0.7507655675 0.5057684516
0.1324477825 0.7508768414 0.5104209036
0.1424032521 0.7461182455 0.7595205499
0.1523938975 0.5013778328 0.5084205158
0.132381504 1.0008962192 0.0088689018
0.1424217657 0.4977856493 0.2585997672
0.1423436385 1.0014984074 0.2583803818
0.1324836988 0.9979769155 0.5123574196
0.1425317361 1.0015769537 0.7570434386
0.1523287298 0.9995871144 0.0140398254
0.1525627409 0.7509488422 0.004060103
0.1325177637 0.7497248292 0.0134955274
0.1725132992 0.7482586319 0.001977978
0.1625815269 0.7472375301 0.2507676152
0.1724429477 0.7508048407 0.4994201596
0.1624697051 0.7470411644 0.7546959221
0.1825202364 0.9989129255 0.7473562301
0.1723537125 0.499700215 0.0029037475
0.1724962667 0.4997728703 0.5059869113
0.1823939741 0.7496659195 0.2480498279
0.1823891606 0.7467662524 0.7460408433
0.1726510399 0.9980881895 -4.5173862886e-04
0.1625356133 0.9967136294 0.7508053022
0.1824558093 0.4997407973 0.2528476111
0.2025185596 0.4990541718 0.7530176699
0.1923801762 0.5009392827 0.5018380276
0.1923272275 0.7509226601 -0.0037342629
0.2022693674 0.7523495843 0.2503982701
0.1923083437 0.7520026715 0.4991618958
0.2023493458 0.7511517534 0.7477996294
0.2326826661 0.7490375492 0.0038736717
0.2323971874 0.5008456817 0.00193623
0.2325267822 0.7499931957 0.4982769487
0.2122626046 0.7502615622 7.6117577698e-04
0.2225461341 0.7492339149 0.2509851493
0.2124599589 0.7503204719 0.5037615841
0.222629445 0.7469888002 0.7497278143
0.232480128 0.5015519437 0.4982713946
0.2225587233 0.5017398003 0.7506692277
0.212398494 0.5005773152 6.2815601042e-04
0.2225976017 0.5010839388 0.2506611624
0.2124110832 0.5012174675 0.5032617186
0.2527080191 0.7487691827 -0.0014810913
0.2425570465 0.751708123 0.2477554626
0.2524717863 0.7510012064 0.498725902
0.2426629439 0.7483633602 0.746735101
0.24257556 0.5015539074 0.7506331263
0.2625638858 0.5014157968 0.7459436472
0.2626349778 0.752670315 0.2516062784
0.2424952113 0.4994037028 0.250839818
0.2625727723 0.7522055828 0.7485142519
0.2626386805 0.5001197831 0.2480831523
0.2524703052 0.5023491885 0.4999302076
0.2725908177 0.9992663838 0.996079126
0.2827462336 0.5040300791 0.2432770379
0.2726667232 0.5023171155 0.4936291251
0.2823937358 1.0013609514 0.2457560006
0.2825873874 0.5013817601 0.7452197679
0.2825610982 0.7546732453 0.2447720061
0.2824770467 0.7545226983 0.7467767564
0.2726437664 0.750209198 0.9983100073
0.2725482366 0.7528012255 0.4961201216
0.3125300721 1.0034817012 0.4960395877
0.2925858084 0.7564732644 0.9950238544
0.302768254 0.753907419 0.2461540417
0.2927668708 0.7526244963 0.4933412396
0.3025198024 0.757468184 0.7509515591
0.3026097782 0.5024886082 0.7490594756
0.2924913894 0.5057842795 0.9974583845
0.3025279483 1.0033769728 0.2428799226
0.3124382449 0.7558841672 1.001040754
0.3125893154 0.7535932339 0.4976641506
0.3124819369 0.5054124937 0.4986518478
0.3325569061 0.5021194407 0.4916379941
0.3226884501 0.5007520807 0.7421159734
0.3325183979 0.7524674037 0.9983007505
0.3324539708 0.5024964628 0.9907842543
0.3224185227 0.7516164856 0.2483321593
0.3324606357 0.7554652537 0.4939281187
0.3225114606 0.7546470632 0.7411356816
0.3227106663 0.4994246484 0.2445683572
0.3525722617 0.5043835374 0.4914473047
0.3525548589 0.9992467472 0.4903707425
0.3625310637 0.7518717611 0.2404185478
0.3626569558 0.7488150014 0.7412069587
0.362590307 0.5019630026 0.737702346
0.3625866043 0.5040464429 0.2429965578
0.3525204238 0.7545226983 0.9907379704
0.3422450402 0.7527226792 0.2439370456
0.3525763346 0.7523823119 0.4892275316
0.3424683135 0.7544637885 0.7450670312
0.3624570096 0.9982911007 0.7431101503
0.342624938 0.5029382857 0.7422113181
0.3525159805 0.5034305091 0.9905991189
0.3425571784 0.4987969327 0.2392707084
0.3725320767 0.5013896147 0.9896271582
0.3825330896 0.5017234365 0.2363418668
0.3728282933 0.5032374161 0.4877408945
0.3925007781 0.5000104728 0.9826938384
0.3826552789 0.5003907678 0.7334692257
0.3724321036 0.7500193778 0.9884885756
0.3825738194 0.7518128514 0.2306609878
0.3724543198 0.7508506593 0.490329087
0.3826589816 0.9999733003 0.2423735773
0.3825071706 0.7491030044 0.7398943489
0.3926192648 0.7511844811 0.9868223573
0.3925452106 0.7493779164 0.4837771461
0.3924452375 0.501674345 0.4811722914
0.4024869802 0.5011814671 0.7356880732
0.4026573048 0.7473029854 0.2352014329
0.4025832506 0.7498033755 0.7309921144
0.4124879932 0.750346654 0.9763344383
0.4125472365 0.7494695538 0.4802623511
0.4226148982 0.9972372713 0.7269709741
0.4425502753 1.0023755076 0.2266722462
0.4327047761 1.0002023937 0.4754358718
0.4426909782 0.9996983883 0.7283150569
0.4226074927 0.5004228408 0.730291377
0.4326788571 0.7499801047 0.9723817981
0.4226556279 0.749384462 0.2220670038
0.4326233165 0.7501306517 0.4755321422
0.4227704119 0.7505692018 0.7304154177
0.4425947078 0.7479117191 0.2275072067
0.4427761404 0.7500062867 0.7254223166
0.4225741684 1.0011384036 0.2270841724
0.4726606926 0.9968838131 0.4738816604
0.4724829626 0.5020003121 0.9660686818
0.4625189768 0.5013896147 0.2207331034
0.4724385301 0.7481931766 0.9672905753
0.4628114907 0.7486840909 0.2230621064
0.4724718545 0.74910955 0.4707121428
0.4625004632 0.7497379203 0.7261360135
0.4525994234 1.0005493065 0.473877032
0.4624597335 1.0029384227 0.2218985306
0.4625560038 1.0016096813 0.7213752574
0.4525142611 0.7500913786 0.9748811256
0.452769748 0.748435361 0.4715332182
0.4526290451 0.5026260642 0.473000416
0.4927182591 0.4992577376 0.9686976041
0.4924294479 0.5009137551 0.4701882097
0.4823802997 0.4997918523 0.7161803588
0.4825506243 1.0002678489 0.7144558227
0.4925553399 0.9962423517 0.4722191447
0.4925886643 0.9967070839 0.9746774767
0.4924109343 0.7519437618 0.469677236
0.4924479614 0.7468251621 0.9628658398
0.4825654351 0.747060801 0.2142524396
0.4826357866 0.7486579088 0.7169347854
0.5027600018 0.4999338902 0.218276357
0.5125240414 0.9992860203 0.4767706979
0.5225620814 0.9981929178 0.7273042177
0.5025637583 0.9988736523 0.221728206
0.522554676 0.7496070098 0.7271070486
0.5024748933 0.7492011873 0.2239100264
0.5025267312 0.7484746341 0.7205625131
0.5126277172 0.75323323 0.9727520688
0.5125610685 0.5014498336 0.9719097029
0.5125721766 0.749672465 0.4708741362
0.5224250812 0.7516099401 0.2245339326
0.5524318227 0.99590853 0.4807372233
0.5425641073 0.4995647227 0.7326425962
0.5424122963 0.7507328399 0.2259918737
0.5522800117 0.4977470307 0.4809140276
0.5523318496 0.7504906555 0.484522316
0.5423345394 0.7503662906 0.7291472404
0.5326297431 0.9972176348 0.9822680271
0.5424345125 0.4985266026 0.2292206346
0.5324631212 0.7515510304 0.9805740384
0.5524318227 0.4976115383 0.9839805293
0.5422604853 0.9972176348 0.2278663694
0.5322742832 0.7536455981 0.4680739637
0.5724486594 0.4988951156 0.990275132
0.5622662138 0.9991223822 0.7279734821
0.5524947688 0.7479902654 0.9819718105
0.5623254571 0.7481211759 0.2324169969
0.5622995382 0.748022993 0.7329610291
0.5722079834 0.7480295385 0.9833603258
0.5724338486 0.4984290743 0.4874150563
0.5722190916 0.7483829968 0.4904716413
0.6024109684 0.5000451641 0.240801778
0.6025886984 1.0014133156 0.2389059917
0.6024331847 0.9990176539 0.7350576872
0.592391442 0.7484680886 0.9930243923
0.592517334 1.0018584112 0.4852017629
0.5924840096 0.9996918428 0.9909879032
0.6023184007 0.7472244391 0.2405629534
0.5924136582 0.7491357321 0.493408814
0.6022850764 0.7483371781 0.7421030139
0.5823867263 1.0002285758 0.2383653965
0.5825940779 0.9984154657 0.7319288994
0.5824015372 0.5014544154 0.7405173294
0.5822978613 0.7478331728 0.2418385361
0.5824274561 0.7488870022 0.7374153862
0.6121564945 0.7512041176 0.9919228368
0.612504549 0.994946338 0.4859210138
0.6124267922 0.7487233641 0.489234937
0.6224055889 0.9965827189 0.7389418274
0.6223500483 0.7453720558 0.237957173
0.6222241562 0.7467204337 0.7404580861
0.6224500214 0.9972241803 0.2403167233
0.6425853447 0.9967790847 0.7419780475
0.6325102776 0.5002565845 0.4883231453
0.6425001824 0.9985136485 0.2421949217
0.6523234654 0.9960918047 0.4883361047
0.6525715468 0.9968183578 0.9908027678
0.6323954937 0.9991289278 0.4891497747
0.6325510074 0.997558002 0.9920802019
0.6324658451 0.7497117382 0.9931354735
0.6324251153 0.7473684406 0.4942354435
0.6522938437 0.7479117191 0.9909879032
0.6424705608 0.7456535133 0.2386005184
0.6523308708 0.7486120901 0.4965533383
0.6426260745 0.7438731308 0.7408589042
0.6725735726 0.7458760611 0.9892198604
0.6624725866 0.995496162 0.2439777753
0.672329194 0.99659581 0.9916451338
0.6823931529 0.7502353801 0.2458643048
0.672455086 0.7464913404 0.4875455767
0.6823820448 0.747348804 0.7436849957
0.6725735726 0.9991223822 0.4905753171
0.6624725866 0.7494106441 0.2418774145
0.6624059379 0.7478004452 0.7425630753
0.7025099627 0.4995607953 0.2411868596
0.692442301 0.9986183769 0.4935439628
0.6924311929 0.9972241803 0.9910249303
0.6926533554 0.7469298905 0.9920154045
0.702480341 0.7483568147 0.2452228107
0.6924200848 0.7454506021 0.4937550172
0.7025618006 0.7497771934 0.7489632052
0.7126294623 0.4981351802 0.4952675732
0.7126590839 0.7494891904 0.4959016618
0.7225749346 0.9986380135 0.7453317748
0.7324278392 0.9974598192 0.9936631094
0.7325426231 0.7489131842 0.9956440579
0.7225638265 0.7470477099 0.2467390694
0.7324944879 0.7499211949 0.4965755546
0.7226193671 0.7492273694 0.7478931227
0.72240461 0.9978656416 0.2444063637
0.7324833798 0.9970016325 0.4958229793
0.7125554081 0.7489590029 0.9963290588
0.7125035702 0.998107826 0.4980149821
0.712481354 0.9961768965 0.9962642614
0.7426658254 0.4990783902 0.2495623839
0.7425140144 0.7483240871 0.2438435522
0.7426399065 0.7489590029 0.7414661482
0.7524965138 0.7492928246 0.9936075687
0.7623864455 1.0020744135 0.7406867283
0.7525002165 0.9999143906 0.9955885173
0.7625012294 0.7511255713 0.2399779256
0.7525335409 0.751721214 0.4957128237
0.7625308511 0.748697182 0.7437081376
0.7526520275 0.9990962001 0.4952916408
0.7424140413 0.9968510854 0.2422217663
0.7623197968 1.001518044 0.2446738843
0.7823958768 1.0001500295 0.2388939579
0.7723874584 1.0013413149 0.4883481385
0.7823477416 1.0006998535 0.7366480001
0.7724281882 1.0001369384 0.9918858098
0.7823958768 0.7515772125 0.240014027
0.7725244586 0.7506019294 0.4899079041
0.782418093 0.7517408506 0.7381874007
0.7723282151 0.7507655675 0.9916821609
0.7726688642 0.5016704177 0.4923331775
0.7725614857 0.4996615964 0.9952645304
0.7925412953 1.0025653278 0.4871197653
0.7925079709 0.7530695919 0.9843415433
0.7924487276 1.0001893026 0.9877850612
0.8123359695 0.7483829968 0.9966993295
0.7925301872 0.4999594178 0.9942925696
0.802494173 1.001930412 0.2344988442
0.8125618347 0.5035156009 0.9984766291
0.8025497136 0.7519241253 0.2424226382
0.8122878343 0.7494106441 0.4909159662
0.8025645245 1.0017733194 0.7379791234
0.8025645245 0.7507066578 0.7423418385
0.8123137533 0.9999012996 0.9941259478
0.7923783762 0.7501764704 0.4882240978
0.8222777391 1.0034358825 0.7434850495
0.822418442 1.0005623975 0.2448497629
0.8324046441 0.7475517153 0.9948572325
0.8224850908 0.5008548454 0.7474589803
0.8225110097 0.7495808277 0.24488679
0.8323120764 0.7480819027 0.4960849458
0.8224702799 0.7494106441 0.7470118783
0.8424760085 0.7517277595 0.2464345218
0.8425574681 0.7496986471 0.7495602668
0.8625520885 0.5009150642 0.7483578125
0.8425611708 0.9991223822 0.7470165067
0.8625298723 0.9981536447 0.2496068164
0.8624669262 0.9987231053 0.7462833706
0.8525881027 0.9991485643 -0.0072872792
0.8623780613 0.7514724841 0.7494112328
0.8523733456 0.5003312035 0.4922748598
0.8524844268 0.7515117573 -0.0040758654
0.8525658864 0.4986221672 -0.0018269242
0.8625594939 0.5005046599 0.2503806823
0.8624817371 0.7485073618 0.2480063211
0.8523141023 0.7483371781 0.4957970603
0.8523215077 0.9990372904 0.4992748283
0.8824171142 0.9994758405 0.7504702071
0.8924625596 0.999194383 -0.0025166275
0.8823948979 0.7499604681 0.7506803358
0.8725938312 0.7489590029 -0.0034331032
0.8926106679 0.7500193778 0.0088866748
0.8825356008 0.5014694701 0.7509941402
0.8825763306 0.5011925945 0.2547656136
0.8824134115 0.7498295576 0.2512165685
0.8725642096 0.7494302806 0.5024091702
0.8924588569 0.7501175607 0.5086667459
0.8726160475 0.499318611 -0.0016047617
0.8825948442 0.9995805689 0.251263778
0.9125534504 0.748297905 0.5080826438
0.9024228428 0.9972503624 0.2581933951
0.9025672484 1.0015769537 0.7578543315
0.9025709511 0.7516492133 0.7590290155