POSCAR file written by Ovito 3.7.11
1
270.0435832361 0.0 0.0
0.0 15.2759719138 0.0
0.0 0.0 10.8017433294
Sr Ti O 
800 800 2400 
Direct
0.0226152479 0.5017118387 0.7883854896
0.0127476186 0.4994939766 0.0306867784
0.0125309128 0.2494346008 0.5306354288
0.022544963 0.2514076341 0.7891955441
0.0027416781 0.2525034727 0.7786018837
0.0125799049 0.2516668647 0.028216529
0.0024092874 1.1780388797e-05 0.2796870479
0.022608101 0.5010061553 0.2889485159
0.0124550732 0.0024053433 0.5264592511
0.0025917024 0.0015221916 0.7768854941
0.0125334679 0.002808591 0.0338172916
0.022603398 0.2525643526 0.2889735118
0.0025485982 0.2479427154 0.2803008377
0.0425249601 0.501105658 0.2965222933
0.0323303094 0.2482660991 0.5384832361
0.0425205163 0.253235341 0.7941623349
0.0524907588 0.5021962596 0.0389966407
0.0326095236 0.2515437956 0.0385606926
0.0325636051 0.0012837126 0.5446359466
0.0326317422 0.0013172947 0.041901357
0.042611983 0.2538611604 0.2935875818
0.0524974244 0.2515863461 0.5448794259
0.0524118826 0.2505612067 0.0423878526
0.0625920912 0.2504335553 0.2918813758
0.0625291384 0.5000628438 0.7892696062
0.0625517274 0.5012326548 0.2896039656
0.0724845684 0.5043381855 0.5417762231
0.0726171396 0.2513860315 0.534345941
0.0624373014 0.2523116682 0.7927782991
0.0725286354 0.2497671492 0.0361687639
0.0626565252 -0.0014050198 0.2938227291
0.0626724486 -0.0012958287 0.794306756
0.1025671199 6.3877813755e-04 0.2911861176
0.0924202393 0.2494797698 0.5405801199
0.0824629577 7.6930993031e-04 0.2899446514
0.1026097057 0.2496283692 0.7869866414
0.0824577734 0.2496296785 0.7896426941
0.0923017399 0.2515267754 0.0364925079
0.08244185 1.0445743474e-06 0.7919071434
0.0924680094 0.0027363206 0.0429114717
0.1025963745 0.2506855851 0.2911314968
0.082583679 0.2495445775 0.286595192
0.1025693418 0.5007685272 0.2859647382
0.0925076326 0.5010892924 0.5406791779
0.1125073672 -0.0025318221 0.0358105809
0.122462427 0.2459906301 0.2806489296
0.1123625758 0.2494457294 0.5359317961
0.1225172329 0.5026747889 0.7836566233
0.1125184766 0.5010460873 0.0310464425
0.1224394677 0.2469719098 0.7804886162
0.1124084943 0.2502404416 0.0371237023
0.1126099433 0.497367107 0.5365872459
0.1524479571 0.2477607303 0.5262666896
0.1324830317 0.2482235486 0.5293948883
0.1426976791 0.2501645053 0.780497874
0.1524964678 0.2498018443 0.0271128182
0.1324808098 0.2503517274 0.0319651831
0.1425080801 0.2479472978 0.2778882642
0.1425114129 0.5005020957 0.7774011516
0.1526608857 0.4982940529 0.0268359185
0.1325744984 0.4987372326 0.0288249493
0.1325889405 0.5016620874 0.5304382384
0.1524683242 -2.6113186998e-04 0.528195082
0.182595313 0.2504512301 0.7718622309
0.18244867 0.2499026562 0.27127822
0.1625607691 0.499776119 0.7757912263
0.1624789305 0.5013681617 0.2739685265
0.1727106122 0.2475866006 0.5254223814
0.1825056978 0.501937029 0.770196759
0.1626585311 0.250402788 0.7757449375
0.1726632125 0.2495269027 0.0249039155
0.1624200511 -4.2923901331e-04 0.2783187502
0.1626529765 0.2479865751 0.2768301016
0.1725928535 -0.002413008 0.521886841
0.1825653178 7.6256731514e-04 0.2670446442
0.2025968991 0.2490503372 0.2653495474
0.1923781783 0.5003325484 0.0180246556
0.2024783997 0.5014460618 0.2592736763
0.1926262863 0.2492702905 0.5156776581
0.2024343328 0.2517925523 0.7647328262
0.1925148229 0.2506777296 0.0187001021
0.1925529649 1.0827179427e-04 0.5192881864
0.2025261698 0.0021601871 0.7653243973
0.1925644445 9.6792249762e-04 0.0181188997
0.2026283755 -4.5404921865e-04 0.2658716853
0.212701194 0.2502168751 0.5115199959
0.222440733 0.2504787243 0.7592503778
0.2124190173 0.2501697423 0.0117930689
0.2226092243 6.2579120582e-05 0.2622537508
0.2124438282 -0.0011909581 0.5104405405
0.212641574 4.9862338916e-04 0.0101868467
0.2225673792 4.2864420839e-04 0.7613491131
0.2325979823 -0.0017805115 0.505285817
0.2225962634 0.2521781251 0.2569675671
0.2325553966 0.2529800381 0.5047784915
0.2325553966 0.2528910094 0.0023985669
0.2325865027 -0.002172696 1.0050569961
0.2524836612 0.2527672857 0.5043563374
0.2425915543 0.2485593701 0.7586745448
0.2624183539 0.2498175552 0.2555261331
0.2524721816 0.2535796726 1.0110745433
0.2425504498 0.247042609 0.2538004857
0.2424997173 -7.1013767064e-04 0.2577442936
0.2522966544 0.5025504106 1.0075936237
0.2525421703 -0.0017571414 0.5049053229
0.2425274906 -5.9269833453e-04 0.7537142344
0.2624135399 0.2491629324 0.7572377397
0.2523547932 7.5988336152e-04 1.0114726272
0.262481677 0.0019732922 0.2583673411
0.262585364 7.8488995372e-04 0.7530791517
0.27247636 0.2500309622 0.5013355288
0.2723226811 0.2513277701 1.0018167784
0.2725856016 -3.551357087e-04 0.5076650626
0.272361934 0.5029543128 1.002779586
0.2824047573 0.2500636934 0.754059549
0.2825943564 -9.6380401815e-04 0.7533365176
0.2826017626 0.2502594256 0.2536847637
0.3022859926 0.2497887518 0.2493086182
0.3123177066 0.2507818146 0.4965862954
0.3125050837 0.2488755529 0.9946790417
0.3123043754 -0.0015049153 0.9982062501
0.2923868497 0.249731145 0.500427342
0.302371164 0.2510495554 0.7496306343
0.2923505593 0.4978122505 0.5059903329
0.302288955 0.4980583887 0.2532542776
0.2923920341 0.2529531986 0.9973545358
0.3024074544 -0.001395135 0.7447342025
0.2924116605 -0.0014658997 0.5020585602
0.3123073379 0.5017786102 1.0007799088
0.2924242511 0.002179433 1.0019186138
0.3222920225 0.2502849559 0.2421079287
0.3323359567 0.2495622523 0.4898549745
0.3223353488 0.2520177425 0.7448360379
0.3322855945 0.2500447093 0.9883745038
0.3225264291 0.0012848909 0.2385436892
0.3322515259 -5.7070300736e-04 0.4904409911
0.3223209067 -2.6983835365e-04 0.7439380347
0.3324414952 9.3021622248e-04 0.9922072185
0.3624310988 0.2505821547 0.2324659666
0.3524308612 0.2506299421 0.483151427
0.3423728551 0.2494895892 0.7375177747
0.3524790015 -0.0018470866 0.984310345
0.3523401351 0.2479603902 0.9761449964
0.342586154 -0.0019896635 0.2351553473
0.3422791665 -0.0024460665 0.7314048726
0.3424469172 0.2488591874 0.2361737014
0.3624903485 0.2498869452 0.731183612
0.3624607236 -0.0036840892 0.2319401255
0.3725627967 0.2474393105 0.480861056
0.3823538088 0.2487583755 0.7202168637
0.3722295171 0.2488048537 0.9800239999
0.382290856 -8.2345288291e-04 0.7249179567
0.3822797467 0.2485312213 0.2237877378
0.3925706781 5.0942466589e-04 0.4736557376
0.3925558657 9.7132653635e-04 0.973682431
0.3723591258 -0.0012895443 0.4806675687
0.3721369395 -0.001450647 0.9764042138
0.3924336632 0.2482785369 0.4743306286
0.3924003352 0.2469876207 0.973839813
0.4123341546 -0.001652009 0.4724920365
0.4023950182 0.2483872043 0.7210676523
0.4026542356 5.2759778097e-05 0.2244089338
0.4026097983 -0.0021299491 0.7229636426
0.4024061275 0.4997944484 0.2211937121
0.4023987213 0.2501180271 0.2203836576
0.4123934043 0.2470288619 0.4736733273
0.4124304353 0.2467192253 0.9761264809
0.4125637471 -0.0031224883 0.968405505
0.4125082006 0.5000117832 0.9650079053
0.4125267161 0.5024738197 0.4704571798
0.422521399 0.2460888236 0.2228999181
0.4425366867 0.2487564116 0.7145835138
0.4326493938 0.4976904906 0.9630637747
0.432586441 0.4955970068 0.4605532229
0.4424478122 0.2468128364 0.2170017961
0.4223991965 0.4963400037 0.2176433592
0.4424700308 0.5003737896 0.7113608859
0.4324309106 0.2447848149 0.4666040981
0.4223066189 0.2493684839 0.7212778036
0.4325049727 0.247546014 0.970099676
0.4425255774 0.4978292707 0.2121812779
0.4326530969 -3.9814442878e-04 0.9673501198
0.4526239473 -6.8676763553e-04 0.964980132
0.4724614859 0.2478170278 0.4580156696
0.4625964116 0.2473607557 0.7085705955
0.4725836884 0.2508374576 0.958916296
0.4625704899 0.2469129937 0.2109666592
0.4527498529 0.4967465245 0.9650449363
0.4626926924 0.4988046587 0.7113673663
0.4726355319 0.4957803012 0.4585118858
0.45257951 0.2475990384 0.4600421943
0.4525165572 0.247650099 0.9620917093
0.4725466573 8.0269569476e-04 0.9581201282
0.4825043092 -8.0545075502e-04 0.2057804593
0.4825857776 0.2490817591 0.7088029654
0.4825746682 0.2465457503 0.2048991201
0.4924101176 0.2532575982 0.4528498368
0.4923027276 0.2489665455 0.9502695436
0.4825746682 0.4976793621 0.2046843399
0.5025158938 0.2509749284 0.2034141746
0.5123587494 0.0015642839 0.9508898138
0.522375651 0.0022123605 0.1982862986
0.5024010975 0.2497304904 0.7030372295
0.5023862851 0.5028914691 0.700844065
0.5124105929 0.2491550769 0.4517713072
0.5024714565 5.152508091e-04 0.7016448616
0.5222312299 0.2529106481 0.2015987269
0.5123661556 0.251343481 0.9486494347
0.522201605 0.2502234214 0.696755836
0.5126475917 0.5001152136 0.4469165353
0.5225052597 0.4988936874 0.1976364035
0.5224756349 0.5023527145 0.6971604003
0.5523078564 0.2528582783 0.4535423176
0.5524263558 7.3513861846e-04 0.9560834199
0.5323999588 0.4983104185 0.9480384223
0.5323851464 0.5004222317 0.4506011257
0.5323333029 6.0015539045e-04 0.4560641327
0.5324555054 0.2512917658 0.4495531467
0.5323999588 0.2492827284 0.9520840655
0.5423465014 0.0021103048 0.7014995147
0.5424131573 0.2494850068 0.2021986301
0.5422317051 0.2521381931 0.7012625159
0.552222685 0.2514593493 0.9558797491
0.5622692114 0.500786202 0.7049619188
0.5624136325 0.5009053434 0.2061044811
0.5624543667 7.7592162092e-04 0.2063229643
0.5624395543 0.2526861125 0.2047278514
0.5622877269 0.2535129011 0.7065542543
0.572286113 0.0014837653 0.4608985376
0.5723712844 0.002096885 0.9661651259
0.5724416435 0.2561700152 0.4560095119
0.5724675652 0.2529119573 0.9545003421
0.5922939945 0.5045745044 0.9619158118
0.5824844668 0.2550388269 0.7141382153
0.6022886774 0.2534166715 0.2160380628
0.5923051038 0.2498470132 0.4618298687
0.6024219892 0.2546179044 0.7159379248
0.5924828529 0.2529734919 0.9662762191
0.6024627234 0.5030852374 0.7156990745
0.5823622643 0.2501154086 0.2154057575
0.5922125261 0.5053967106 0.4578138503
0.5823030146 0.5021013393 0.211771159
0.6124018598 8.3228464677e-04 0.9709606481
0.6123463132 0.5006107631 0.4687556026
0.6226335415 0.2532445057 0.7247466881
0.622511339 0.5002271541 0.2164444787
0.6123648287 0.5027729823 0.9653411848
0.6224446831 0.4986835535 0.7253752903
0.6125314685 0.2485881735 0.4722106005
0.61272403 0.250925177 0.9692016728
0.6224631986 0.2509840931 0.2287082398
0.6425229236 0.2542166206 0.2290044883
0.6525842624 0.250770686 0.4801213606
0.6424303459 0.2519647181 0.7254558329
0.6526472152 0.2528190009 0.9816718821
0.6325023189 0.5039748698 0.9720993532
0.6426747509 0.5042753417 0.7265732451
0.6527397929 0.5031991418 0.9761172231
0.6422822217 0.5057547893 0.2239867797
0.6525027941 0.5019789248 0.4777115644
0.6325726779 0.2496761567 0.4747731498
0.632435663 0.2490372448 0.9761172231
0.6625493205 3.0007628413e-04 0.7285775512
0.6725921439 0.5008274433 0.4813683815
0.6823090939 0.500039932 0.7309817927
0.6726513936 0.4985185885 0.9762468318
0.682486843 0.5031349887 0.2320928786
0.6623937901 0.2511909539 0.2291128041
0.6626456013 0.2510200973 0.7314382005
0.6825646082 7.1405976326e-04 0.2321336128
0.6824127809 -0.0030927684 0.7261038764
0.6625715392 0.502174657 0.7294579646
0.6625937578 0.503389637 0.2301330098
0.6827053262 0.2489128665 0.2275547223
0.67249216 0.255052574 0.4774347572
0.6826127486 0.2498188645 0.7295690578
0.6725847377 0.2520832048 0.9824587921
0.7025206462 0.2483760757 0.2333389738
0.692448198 0.2512681994 0.4846937706
0.7027132077 0.2508629879 0.7323408326
0.6924333856 0.2488041991 0.9812182516
0.7025095369 0.499925373 0.737367799
0.702583599 -0.001396837 0.7352209233
0.702550271 -3.0171848558e-04 0.2319179069
0.6925074477 0.5011554093 0.9830883201
0.6925481819 0.5013864912 0.4813146864
0.7125967975 0.2484166623 0.4885338915
0.7124486732 0.2493396805 0.9845510469
0.722576668 0.498267868 0.74108294
0.722402622 0.2497632215 0.2364792076
0.7326380069 0.4994533899 0.990179768
0.7325972727 0.2510135511 0.4871655938
0.7226840581 0.4975497467 0.2379576727
0.7325676479 0.4992890796 0.4935941858
0.7225396369 0.2477882244 0.7375279583
0.7326306007 0.2486909493 0.9920776098
0.7124894074 0.5009524762 0.988170833
0.7623480259 0.4973415767 0.7479096158
0.7424364252 0.0020443188 0.744980459
0.7524903579 0.5002389373 0.9962898928
0.7625553998 0.4989977724 0.2460211859
0.7625405874 0.2494201991 0.2460795098
0.7525829355 0.2508328752 0.4956605189
0.7625405874 0.2488670429 0.7444638757
0.7526866225 0.2508093088 0.9953085697
0.7426771271 0.5003927737 0.7422651566
0.752460733 0.501598589 0.4979805148
0.7425660339 0.2504525394 0.2409312668
0.7425512215 0.2493691386 0.7404811853
0.7824855161 0.5025700492 0.2539467584
0.7825003285 0.5006932456 0.7529930545
0.7827188118 0.2488794807 0.2473598587
0.7724945362 0.2501566498 0.498198998
0.7826558589 0.2476075485 0.7493760458
0.7725611921 0.2504401015 -0.0016941058
0.7924320587 0.4975798594 0.5001810855
0.8124436432 0.4969893896 0.5039341834
0.80250821 0.4984616363 0.7517284438
0.8026748497 0.4979510305 0.2506537714
0.7927505258 0.2460115781 0.5022363093
0.7925912922 0.250946125 0.9991505421
0.8126584234 -5.7266687586e-04 0.5033305771
0.8025489441 0.2491387113 0.2516212079
0.8125288147 0.2491753702 0.4981147524
0.8026415218 0.2486667283 0.7558351883
0.8124954867 0.2463676929 1.0009650641
0.8325996489 5.3803168367e-04 0.5087963615
0.8224753572 0.2471205091 0.2563232267
0.8324404153 0.0010643484 1.0055476577
0.8325033682 0.2478713615 0.507033683
0.8224161075 0.2482798462 0.7506471369
0.8323700563 0.2471637142 0.0065843727
0.8324737433 0.4966895723 0.506218074
0.8324218998 0.4964630728 1.0122502794
0.8225049821 0.5000909926 0.2528117564
0.8423795517 0.4974148944 0.7605686835
0.8423314113 0.4996288289 0.2610085815
0.8425610039 -0.0028965779 0.2601207618
0.8424610201 0.2486130492 0.2583053141
0.842320302 0.2482536613 0.7567729999
0.8626540568 0.2510678848 0.2622250518
0.8524519999 0.2499275318 0.5063624951
0.8624837139 0.2507713407 0.7583792221
0.8524705154 0.2479669365 0.0139163373
0.8926232933 0.4987915663 0.0140175247
0.8724709907 0.0022196923 0.509941547
0.8826397196 0.2496453894 0.2549873312
0.8727302081 0.2512623078 0.5087713655
0.8923899976 0.2488153276 0.5091657463
0.8824878923 0.248556097 0.7617814507
0.8723858192 0.2504957445 0.0127652268
0.8925677467 0.0015706992 0.5100563433
0.8725894901 -4.7578269668e-04 0.009667949
0.8924492473 0.2483309068 0.012064414
0.8725746776 0.4983150008 0.5128771842
0.892615887 0.49817753 0.5088083966
0.9126015499 0.49925373 0.5155610103
0.9025142893 0.49919285 0.7649614929
0.9124423163 0.5000235664 0.0165889614
0.9025698358 0.5034328421 0.263151754
0.9125163784 -0.0017293854 0.5196631259
0.9025142893 0.2484166623 0.2621528412
0.9124608318 3.0175290384e-05 0.0147972136
0.912605253 0.2498175552 0.5145046993
0.9023846805 0.2475964199 0.7594114629
0.9123127076 0.2483184689 0.0111735393
0.9424745056 0.249864688 0.7685683181
0.9325427754 0.2485685348 0.0157652055
0.9324501978 0.4968944693 0.5225191464
0.9324724164 0.4981906225 0.0198437138
0.9224332962 0.4991470264 0.7676073621
0.9224110775 0.5007593625 0.2677843396
0.942593005 0.5018578196 0.7698097844
0.9225814204 0.2498437401 0.2672122097
0.9224332962 0.2501998549 0.7703346997
0.9425004273 0.2479158759 0.2677343476
0.9324316822 0.2509762376 0.5152073637
0.9724696638 -9.7362336063e-04 0.5243216332
0.9623305597 2.4266586174e-04 0.7718724144
0.962552746 0.2521539041 0.2711310216
0.9525136258 -0.0015955151 0.0237269759
0.9724733669 -0.0012392038 0.0220926101
0.9525506569 0.2497376912 0.5187734547
0.9725770538 0.2539711371 0.5251807538
0.962412028 0.247415744 0.7685701697
0.9524321575 0.2508931005 0.0225808646
0.9525099227 -0.0012828672 0.518217063
0.9725103979 0.2504839612 0.0239112054
0.9725548352 0.500741033 0.5209360686
0.9623712938 -8.6436680992e-04 0.2681509471
0.9524691885 0.5003011265 0.5163590296
0.962482387 0.4989303463 0.7720973781
0.9824680498 0.2491773341 0.2743897548
0.9825384088 -0.002533786 0.7718566762
0.9925108732 -1.3740815468e-04 0.0262492539
0.9926552943 0.2517087606 0.5311918205
0.9825310026 0.2486287601 0.7768345764
0.9926886223 0.2522357319 0.0301880626
0.9926404819 0.5035015775 0.0277410502
0.0225770689 0.7493982066 0.788976135
0.0024346907 0.5001970415 0.2820811059
0.0027269768 0.7533324899 0.7828012059
0.0126124182 0.5003567694 0.5350125001
0.0027170895 0.5029052161 0.7811773939
0.022503229 1.0008977526 0.2850491453
0.0224012455 1.002573587 0.7898371072
0.0127413973 0.7498760813 0.035046445
0.0226062124 0.750786007 0.2925951494
0.0026467305 0.7506485363 0.2816432136
0.0125487988 0.7497124256 0.5364363443
0.0525092743 1.000020558 0.5482159243
0.0525388992 1.0030776466 0.0450115957
0.032477693 0.7491559962 0.0409843754
0.0426208705 0.7507990995 0.2950901171
0.0325073178 0.752304732 0.5446026187
0.0425623614 0.7477027335 0.7906610482
0.042552363 0.5029169993 0.7881790415
0.0327235792 0.501582878 0.0385754124
0.0326602561 0.5012935347 0.5416882743
0.0426056878 1.003116924 0.2952789755
0.0524226216 0.5017138026 0.5454348918
0.0525566741 0.7512966129 0.0446387855
0.0523922562 0.7513424365 0.5418252892
0.0425149617 1.0011923328 0.7913979663
0.0723831033 0.5019442298 0.0413625551
0.0726686128 1.000766828 0.5412364954
0.0726019569 0.9979912272 0.0415814087
0.0726119553 0.7517417564 0.0398280806
0.0625176588 0.7508580156 0.2946522248
0.0724927153 0.7518530423 0.5410170864
0.0625258056 0.7507467297 0.7906878958
0.0925094842 1.000164575 0.5395284378
0.0926016915 0.751846496 0.039763554
0.1025437904 0.7472837749 0.292555341
0.0826173773 0.7525862198 0.2942060005
0.0926172446 0.7493916604 0.5431250794
0.1025212014 0.7499480898 0.7917303201
0.0824474047 0.7523832868 0.7922793055
0.1025189796 1.0010614083 0.7872523392
0.1024719501 0.5006146908 0.7914414778
0.0825444261 0.5002618491 0.7895603
0.0923843192 0.5005773773 0.0395097986
0.0825070247 0.4991529181 0.2887605832
0.1125855028 0.7482722554 0.038237504
0.1225961091 0.7492607358 0.2798823867
0.1126617868 0.7502295776 0.5378277864
0.1224387271 0.7493982066 0.7806571075
0.1226435089 0.9984101858 0.2807183629
0.1224272475 1.0010221309 0.784063965
0.1224879784 0.4983248202 0.2834095951
0.112755105 1.0001252976 0.5376916972
0.1425321503 0.7507532759 0.2790130826
0.1524472165 0.7495356774 0.5194492715
0.1324815504 0.7504194183 0.527784963
0.1424484601 0.754281693 0.7778899616
0.1525646049 0.5005341722 0.526683289
0.1324674786 1.0007013657 0.0292265511
0.1423869885 0.4989107076 0.2759348758
0.1424014307 1.0000467429 0.2776466365
0.1325185815 1.0001187514 0.52976057
0.1424621616 0.9984298245 0.7789536788
0.1523076094 0.9995819607 0.0289469666
0.1524890616 0.7502950399 0.0223077605
0.1325815343 0.750497973 0.0280522962
0.1725987784 0.7470088333 0.0238770443
0.1624589337 0.7504325107 0.2760052348
0.1725758192 0.751100226 0.5210601226
0.1624196808 0.7520821603 0.7720742337
0.182485701 1.0010286771 0.7691848853
0.1726198861 0.4974476256 0.0204753711
0.1726683968 0.5010460873 0.5220210786
0.1825197696 0.7525011189 0.2720567981
0.182594202 0.7512704279 0.7704939332
0.1726058143 1.0005311638 0.025039727
0.1625270709 1.0000598353 0.7732101614
0.1824912557 0.4988026948 0.2704366892
0.2024839544 0.5010415049 0.762989589
0.1924570544 0.500602253 0.5150925674
0.1925314868 0.7500004596 0.0147027844
0.202457292 0.751473361 0.2641645535
0.1925696288 0.7517483026 0.515665623
0.2025150605 0.7518988659 0.7615231591
0.2325224389 0.7512966129 0.0068074848
0.2325335482 0.4993676343 0.0084966566
0.2325531747 0.7503408635 0.5074234349
0.2124071674 0.7511198647 0.0077161344
0.2224040722 0.7495029463 0.2539624966
0.2125967664 0.7525142113 0.5102803812
0.2223985176 0.7509627552 0.7590911442
0.2324924438 0.5035290717 0.5083973518
0.2224488798 0.5018270523 0.7622869247
0.2124445688 0.5029353288 0.0138091324
0.2223962957 0.5030597071 0.259805072
0.2126723098 0.4990723994 0.5125698264
0.2526617806 0.7513948063 0.0123449243
0.2425715575 0.7506943598 0.2553261654
0.2524066366 0.7497778879 0.5080492599
0.2426848726 0.7509365703 0.7569516748
0.2423101183 0.5036665425 0.7616833184
0.2625213002 0.5016601235 0.7611232236
0.2625042659 0.751558462 0.258748761
0.24246713 0.5022001873 0.2598411773
0.262481677 0.7489399707 0.7604233366
0.2623420699 0.5004968587 0.2585432387
0.2524181163 0.501124642 0.5105849617
0.2724678428 1.0001383901 1.0056957819
0.2821896069 0.5008902871 0.2538717705
0.2722197347 0.5042975989 0.508255708
0.2823562466 1.0019451491 0.2541004373
0.2823806871 0.4982253175 0.7552991637
0.282388834 0.7519774206 0.2529654353
0.2823425451 0.7527105982 0.7579755836
0.272633742 0.7490970801 1.0032980208
0.2723826714 0.7527826067 0.5064837718
0.3124117655 1.0003347769 0.4988951819
0.2925031273 0.7518661347 1.0027055239
0.3024437449 0.7521148914 0.2528719319
0.2924579494 0.7507532759 0.4989581347
0.3024874415 0.7533783135 0.7486687525
0.3023567219 0.5012470565 0.7505230828
0.2922916799 0.4997584442 1.001400179
0.302458187 1.0021284435 0.2472450624
0.3124687933 0.7496338709 0.9952900542
0.3126165472 0.7495094925 0.4968686572
0.3123284456 0.4996700701 0.5005467672
0.332473342 0.4991411348 0.4919925925
0.3224016344 0.498262631 0.7449517599
0.3324403843 0.7493720217 0.9867729105
0.3324974121 0.4990671625 0.9938365851
0.3225253181 0.7494112991 0.2388945585
0.3325170386 0.7508187382 0.4861250211
0.322413114 0.7484882809 0.7400358868
0.3223957094 0.5016254285 0.2461128378
0.3523356913 0.5006637876 0.4874016669
0.3522894025 0.9996736079 0.4842595815
0.3621792876 0.7481544233 0.2296941918
0.3623755522 0.7471397579 0.7270546489
0.3627014255 0.4991522634 0.7330944147
0.362405177 0.5018597835 0.2394926101
0.3525634324 0.7476700024 0.9767467511
0.3423676707 0.7495094925 0.2360866784
0.3524471548 0.747087388 0.4781253864
0.3424987607 0.7499677285 0.7329722122
0.3623792553 0.9974086129 0.7319575612
0.3425091294 0.5015717494 0.7335554514
0.3524590048 0.4965809049 0.98238473
0.3426483662 0.5012326548 0.238502955
0.3723887507 0.4993964377 0.9759876144
0.3825130424 0.4986351114 0.2259790507
0.3726812961 0.5023821725 0.4769459472
0.3924188508 0.5004660915 0.9722289619
0.3826019169 0.500218644 0.724543943
0.3723813445 0.748606113 0.9785612731
0.3824241678 0.746655337 0.2221491134
0.3724628128 0.7481740619 0.4745130066
0.382535261 0.9993724814 0.2250699382
0.3823797305 0.7482788016 0.7204418274
0.3924558818 0.7513555289 0.9676093372
0.3925373502 0.7497582492 0.4733909655
0.3923077576 0.5009780065 0.4738371898
0.4024764865 0.4996661424 0.7159351475
0.4025801735 0.7516697479 0.2213260981
0.4024505648 0.7494112991 0.7211954095
0.4125452316 0.7478860279 0.9721178687
0.412560044 0.745424646 0.4716690212
0.4225584301 0.9993397502 0.719702132
0.442618155 0.9981221518 0.2168231213
0.4327160497 1.0003609619 0.4695314033
0.4424515153 0.9976835545 0.715349131
0.4225325084 0.4984367607 0.7117904462
0.4326049565 0.7492410972 0.9672205111
0.4226287891 0.7482067931 0.2203651421
0.4325271913 0.7484555498 0.463071335
0.4226917419 0.7491232651 0.7152176707
0.4425737178 0.7468910012 0.210594497
0.442688514 0.745882882 0.7153269123
0.422414009 1.0004853402 0.222320382
0.4725540635 1.0023772002 0.4594774707
0.4726133132 0.4985015683 0.9579534884
0.4626926924 0.4985480466 0.2047704372
0.4727466251 0.7490512565 0.9554631497
0.4626667707 0.7486322979 0.2125654752
0.472535548 0.747401607 0.455976184
0.4626593644 0.7483573563 0.707976247
0.4526165411 1.0024753936 0.4635795863
0.4626371458 0.9998372636 0.2067127162
0.4625260526 0.9975460837 0.7127227031
0.4525165572 0.7456472178 0.9594254731
0.4528091026 0.7490708952 0.4621529647
0.4526980094 0.498779783 0.455052259
0.4925656481 0.4997152391 0.955490923
0.4927582096 0.5006618237 0.4512139897
0.4824746844 0.50101532 0.7043925662
0.4824117316 1.0003544156 0.7061376549
0.4925101015 0.9993004729 0.4533099477
0.4923767897 0.9982268914 0.9526117581
0.4926360071 0.749980821 0.4569852803
0.4926063823 0.7514799072 0.952102581
0.4825080123 0.7525600349 0.2067710402
0.4825931838 0.7501117455 0.7058793633
0.5023640664 0.4982508478 0.200492424
0.5124624364 1.003346042 0.4488125255
0.5223904634 0.9964397711 0.7028807732
0.5023344416 0.996551057 0.1978123011
0.5225941343 0.7502492163 0.7000738189
0.5026232839 0.753967474 0.2024504413
0.5024973783 0.7510805873 0.6974825705
0.5123883743 0.7509300241 0.948010649
0.512310609 0.4999626865 0.9513897331
0.5125476078 0.7521738075 0.4462370153
0.5223015889 0.7502754012 0.1964810345
0.5525263396 1.0012905263 0.4584165308
0.5424464853 0.5023219472 0.6980278529
0.542542766 0.7499677285 0.2001221134
0.5524226527 0.5010487058 0.4535562042
0.5524633868 0.7498629889 0.4537459884
0.542439079 0.7538496419 0.7058951015
0.5323518184 0.9979323111 0.9499825529
0.5423539076 0.5022924892 0.2019070105
0.5324258806 0.7514471761 0.9492604472
0.5523745123 0.5025229164 0.955805687
0.5423427983 1.0012381564 0.2035965526
0.5323629277 0.7487566763 0.4486542177
0.5724527528 0.497785411 0.9628971349
0.5623803046 1.0024492087 0.7076920336
0.5524522775 0.7526124047 0.9533894104
0.5623395704 0.754111491 0.2128654268
0.5623728984 0.752848069 0.70899923
0.5723675813 0.7501510229 0.9599994545
0.5723749875 0.5003390946 0.4592488039
0.5722787068 0.753306305 0.4601412524
0.6024738327 0.4978698573 0.2135801262
0.6025256762 1.0000009193 0.2199522458
0.6025812228 1.0011923328 0.7177950325
0.5923088069 0.7502164852 0.9649060699
0.5924050876 1.0005573487 0.4659412421
0.5925124777 1.0030972853 0.9639247468
0.602447911 0.7540132976 0.2184774838
0.5922532603 0.7526975057 0.4640683963
0.6023405209 0.7505176117 0.7117987781
0.5823363426 1.0042494215 0.2124432727
0.582247468 1.001513098 0.7132207708
0.5823585612 0.5039859984 0.7103323482
0.5824067016 0.7499219049 0.2097353765
0.5823437488 0.7512376968 0.7069671507
0.6125425778 0.7503408635 0.9687850733
0.6124685157 1.0000663816 0.4718051104
0.6124129691 0.752992086 0.4733780046
0.6222632309 1.0017749472 0.725144772
0.6223335899 0.752160715 0.2229202852
0.6225779949 0.7481347846 0.7239273759
0.6224187614 1.0024164775 0.224213595
0.6422970341 1.0030972853 0.7254900866
0.632543053 0.5007770373 0.473314126
0.6422525968 1.0016963924 0.2239960375
0.6523694823 1.0020040652 0.4762525406
0.652499091 1.0004329704 0.9780613538
0.6324208505 1.0025997719 0.4744713466
0.6324912095 1.0000401967 0.9781539314
0.6325134282 0.7512246043 0.9782557668
0.6326319276 0.7521083452 0.4741001103
0.6523768885 0.7525796736 0.9760339032
0.6423007372 0.7518530423 0.2285462289
0.6523657792 0.750353956 0.4791400375
0.6424229397 0.7525534887 0.7251864319
0.6725069724 0.7529855398 0.978681624
0.6625085864 0.9999027259 0.2262614125
0.6724958631 1.0010417696 0.9769041331
0.6824238902 0.753738356 0.2301061623
0.6725032693 0.7535419692 0.4786734461
0.6825386865 0.7491036264 0.7313289589
0.6723440358 1.0008977526 0.4828153701
0.6624863677 0.7544649874 0.2280296456
0.6625937578 0.7533128512 0.7278896993
0.7025984114 0.4992039786 0.233557457
0.6926703843 0.9971467637 0.4796501403
0.6926111347 1.0007275506 0.9833475375
0.6924815259 0.7522392697 0.9824958231
0.7025354586 0.7489988867 0.2367689757
0.6925444787 0.7490970801 0.4845632361
0.702550271 0.7506223513 0.7369604573
0.7124857043 0.4960604798 0.4894457813
0.7124857043 0.747630725 0.4873007572
0.7226211053 1.0015458292 0.7364568349
0.7324972888 1.0003413232 0.9867821683
0.7325565385 0.7537972721 0.9906056252
0.722609996 0.7488024999 0.2408572046
0.7325491323 0.7497386105 0.4882469008
0.7225988866 0.7481282383 0.7403089909
0.7225914804 0.9979388574 0.2384936973
0.7325195075 0.9992939266 0.4921638611
0.7124486732 0.7500004596 0.9894576623
0.7125967975 1.0008977526 0.4823858098
0.7126227192 1.0009828535 0.9845510469
0.7425512215 0.5004222317 0.2446352985
0.7426363929 0.7492869208 0.2467442173
0.742603065 0.7520036055 0.7477688978
0.7525903417 0.7485144658 0.9992246043
0.7624665253 0.9993659351 0.7440287608
0.7524385144 1.0014345433 0.9945309175
0.7626590868 0.7500266446 0.2471126764
0.7525977479 0.7475783552 0.49771852
0.7627072272 0.7507336372 0.7499435468
0.7526236697 1.0010024922 0.4942264911
0.7426697209 0.9988422369 0.2437363695
0.7625109626 1.0009042988 0.2469210406
0.7825225471 0.999935457 0.2495474685
0.772557489 0.9958964341 0.5005041815
0.782589203 0.9990582624 0.7520774616
0.7725945201 0.9991171785 0.9967712966
0.7827373273 0.7510609486 0.2492493685
0.7723760368 0.748547197 0.5028343609
0.7827225149 0.7511460496 0.7508434015
0.7725871139 0.7499284511 0.9986876539
0.7726056294 0.4976931091 0.4961308134
0.7725834108 0.5014519534 0.9972341848
0.7925024177 0.9990975398 0.5000107426
0.7929393842 0.7501903003 0.9982340234
0.7926579481 0.9984560094 1.0016871697
0.8126510171 0.7476372712 1.0042423128
0.7924061369 0.4971903588 1.0035572382
0.8026007876 0.9992873804 0.2511629485
0.8126695327 0.4971471537 1.0072418286
0.8025859752 0.7514078987 0.2516397234
0.8125843612 0.7473819683 0.5030722855
0.8025896783 0.9993986663 0.7529180666
0.8027748336 0.7465505973 0.7523209408
0.8124880805 0.9979454036 1.0009650641
0.7925912922 0.7489661556 0.5019696857
0.8225346069 0.99904517 0.7488233572
0.8225197945 0.9988422369 0.2539782348
0.8325626178 0.7444754429 1.0029184524
0.8224457324 0.4963537508 0.7515692103
0.8224716541 0.7465571435 0.2573008466
0.8326959297 0.7501968465 0.5063486084
0.8224161075 0.746426219 0.7576598938
0.8425832225 0.7499677285 0.2589357679
0.8425684101 0.748147877 0.7602344782
0.8626873848 0.5005256621 0.7632849117
0.8423943641 0.9979257649 0.7616009243
0.8626725723 0.9971794949 0.2604484867
0.8623948394 0.9981745216 0.760901963
0.8523890471 0.9983185386 0.0084437022
0.8624726046 0.7465833285 0.7623396939
0.8525779055 0.4998167056 0.5099424728
0.8525482807 0.7479711289 0.0156455952
0.8525445776 0.4971687563 0.0124550917
0.8626725723 0.5001715112 0.2636211227
0.8626836816 0.7509823939 0.2664734401
0.8526260459 0.7480365912 0.5114551916
0.852596421 1.0002431297 0.5103137091
0.8825101109 0.9957393247 0.7637598351
0.8925603405 0.9984036396 0.0105970583
0.8827100786 0.7511460496 0.7640570093
0.8726413335 0.7496142322 0.0107506446
0.8924899814 0.7500070059 0.0139501281
0.8824952985 0.4975104694 0.7666251133
0.882654532 0.4996013347 0.2657837366
0.8825989854 0.7496076859 0.2590774117
0.8728264888 0.7479645826 0.5142695521
0.8926566212 0.7480300449 0.5125411274
0.8727857547 0.4990769818 0.0146585323
0.8825212202 0.9982334376 0.2583590091
0.9125163784 0.7493000132 0.5168422849
0.902366165 1.0010679545 0.2645524539
0.9023365402 0.9982465301 0.762360061