POSCAR file written by Ovito 3.7.11
1
270.0391934837 0.0 0.0
0.0 15.2757235919 0.0
0.0 0.0 10.8015677393
Sr Ti O 
800 800 2400 
Direct
0.0226068951 0.4980779961 0.7693346104
0.0126647827 0.5000379687 0.0187039431
0.0127007775 0.2502671492 0.5187348766
0.0225398678 0.2498612765 0.7698789758
0.0026506808 0.2475085238 0.7721305009
0.0128414978 0.2475360184 0.0182304933
0.0027309284 -0.0012608374 0.2652716696
0.0225106498 0.4975248308 0.2665390782
0.0124268543 -0.0021426287 0.5186571101
0.0025348828 -7.5480575368e-04 0.7648185993
0.0127298844 0.0016404981 0.0142951387
0.0226060063 0.251526664 0.2691683262
0.0024865935 0.252769813 0.2687998612
0.0426308402 0.5017989328 0.2682156867
0.0325822989 0.2508340618 0.5164842774
0.0426967566 0.2495313412 0.7726896789
0.0525568068 0.4975837478 0.0200983703
0.0325623018 0.2501957942 0.017959329
0.0325926678 -6.8947333299e-04 0.5190450168
0.0325637831 5.7272546787e-04 0.0188268882
0.0426871284 0.2488321927 0.2722095514
0.0524449712 0.2498187253 0.5210475039
0.0525853212 0.2507227741 0.0193732904
0.0625357286 0.2498396736 0.2703764841
0.0626608956 0.5003102963 0.7684430732
0.062579426 0.5008785181 0.2729270398
0.0724239228 0.4984216787 0.5209762179
0.0725583478 0.2479667672 0.5187635762
0.0627108884 0.2496301909 0.7706112769
0.0726457425 0.2505113275 0.0161506101
0.0624705529 -0.001248203 0.2697062111
0.0624642575 3.3700265531e-05 0.7711639745
0.102382537 -0.0015161445 0.2605260622
0.0925021194 0.2509433856 0.5122423006
0.0824358028 -0.0016594438 0.2673435911
0.1023647618 0.2501512791 0.7676191187
0.0825069036 0.2526087732 0.7646991722
0.092555445 0.2487477449 0.0155012599
0.082389143 0.0018584256 0.7723915741
0.0925006381 0.0010470074 0.0133238908
0.1025065931 0.2480859105 0.264115356
0.0825065333 0.2514317422 0.2667658972
0.1025536233 0.5014631058 0.2634441571
0.0923502896 0.5005073409 0.5178368588
0.1124173766 -8.1711615903e-05 0.0123201476
0.122532575 0.2489009292 0.2649244978
0.1124384847 0.2499980949 0.5124543068
0.1224362926 0.5007521739 0.7705205494
0.1123562744 0.498651455 0.021157013
0.1225222061 0.251423232 0.7655064624
0.1124192282 0.2488033888 0.0113455668
0.1125954989 0.5000720097 0.5182479103
0.1524497136 0.248811899 0.5136133978
0.1324152145 0.2521387463 0.5178970353
0.1424878264 0.2522637813 0.7681394135
0.1524319384 0.2521852253 0.0108213837
0.1325951883 0.2484125726 0.0190036218
0.1425444848 0.24781882 0.2669455007
0.1423415513 0.5017884587 0.7673932256
0.1523323233 0.501596651 0.0166890504
0.1323600373 0.5016522949 0.0138071539
0.1324559493 0.4999168615 0.516970318
0.1522764055 0.0049022094 0.5150261557
0.1824757254 0.2510684206 0.7605590324
0.1824872052 0.24926556 0.2632914015
0.1623256874 0.5034433721 0.7618810628
0.1623027278 0.5003116055 0.2647689648
0.1725386493 0.2516955595 0.5114951868
0.1823853681 0.5005577477 0.756794764
0.1625149192 0.2466699383 0.7616866465
0.172531243 0.2493729199 0.0119108551
0.1622645852 -0.0016798683 0.2665288945
0.1622838417 0.2486842455 0.2615944256
0.1724153339 -0.001100845 0.5177535376
0.1822994547 -0.0010870977 0.2620017739
0.2024443082 0.2516143849 0.2548768822
0.1923920637 0.5016090891 0.0096610891
0.2025209638 0.499598055 0.2571617357
0.192650915 0.2516327147 0.5090566519
0.2024743039 0.252742973 0.7558430503
0.1924094686 0.2495123568 0.0081019636
0.192443908 -2.3535409221e-04 0.5116220202
0.2024032031 0.00251319 0.7577001882
0.1924605723 -3.1679049635e-04 0.0070607259
0.2024724523 0.0018246465 0.2571904353
0.2124610023 0.2491130304 0.5015549631
0.222553241 0.2512078575 0.7517566065
0.2124750744 0.251283795 0.0039629348
0.2223451231 0.0012316795 0.2508441343
0.2124517444 0.0020448652 0.5040527486
0.2123421307 -5.0591410694e-04 0.0073624413
0.2224232599 0.0016172586 0.7511659515
0.2325917838 -0.0036467146 0.4967686208
0.2225406503 0.2474371687 0.2517004915
0.2324895764 0.2523063325 0.4943180506
0.2325058704 0.2515855811 -0.0056479293
0.2323788518 -0.0017441533 0.9960294809
0.2522885543 0.2513675881 0.4941125249
0.242333703 0.2507666346 0.7455176973
0.2624044932 0.248436794 0.243069337
0.252337436 0.2494927178 0.9960017072
0.2425562633 0.2498573487 0.2483907867
0.2424988642 0.0025809446 0.2425258973
0.2523937242 0.4996929769 0.9983809914
0.2525288897 2.7231416674e-04 0.492237797
0.2423903615 0.0023164727 0.7432495081
0.2624078261 0.2502429278 0.7448094668
0.252508152 -0.0010372801 0.9938631287
0.2623337627 -0.0014205025 0.2391513872
0.2625678028 0.0012041849 0.7415321648
0.2722089959 0.2491169582 0.4950123943
0.272428964 0.2496714328 0.9974737157
0.2724574784 -0.0027364467 0.4933293053
0.2725596857 0.4997846256 0.9965571821
0.2824267719 0.2488642697 0.7435948283
0.2824800975 0.0011975077 0.7448039121
0.2822671655 0.2510219416 0.24230093
0.302264633 0.2522389053 0.2481000882
0.3121972652 0.2484551238 0.4936653676
0.3122587378 0.249245921 0.9948722415
0.3123968659 0.0010654681 0.9959831914
0.2923990281 0.2510644928 0.493339489
0.3023609153 0.248272481 0.7450501726
0.2922664547 0.4977532979 0.4937292472
0.3022350077 0.5042976688 0.242736052
0.2923157068 0.2521322 0.9950018523
0.3023731358 0.0016900539 0.7508965462
0.2924382816 4.1646445767e-04 0.4971250506
0.3123320605 0.5036456538 0.9959924493
0.2923879186 -0.0021438725 0.9962053813
0.3223261653 0.2497761741 0.2419389455
0.3322721289 0.2509060715 0.4947902043
0.322392452 0.2505008534 0.7450853527
0.3322980511 0.2486115812 0.9947796624
0.3223557906 0.0017473998 0.2419889382
0.3324435855 -0.0011459493 0.490314928
0.3223846753 -7.0996336072e-04 0.7405212004
0.332417293 -0.0022874336 0.9874011038
0.362528848 0.2517440024 0.2447977898
0.3523066281 0.248701266 0.490381585
0.3425250851 0.2528536061 0.7408498564
0.3524062433 2.3761859262e-04 0.9919282244
0.3522314538 0.2519207534 0.9982976702
0.3422658634 -6.67859727e-05 0.2389227167
0.3424184339 6.2686365616e-04 0.7394519112
0.3422725291 0.24926556 0.2452153218
0.3624436751 0.2494128526 0.7417895348
0.362439972 -5.0021879571e-04 0.2421176233
0.3722644718 0.2506749859 0.4921072604
0.3824666945 0.2498324726 0.7375707028
0.3724422237 0.2498468746 0.9901507047
0.382411147 7.7670925831e-04 0.7393056361
0.3823259742 0.2526303761 0.2416547275
0.3924096956 0.0014581172 0.4887633014
0.3924504304 -0.0017285076 0.989132334
0.3723718636 6.6824719306e-05 0.4879995234
0.3724903649 3.8451834415e-04 0.9933817171
0.3924430241 0.2515986737 0.4870404034
0.3924800558 0.2512301151 0.9847811138
0.412521591 0.0022092437 0.4891937945
0.4023267745 0.2513512223 0.7355247035
0.4025230424 -2.9891900251e-04 0.2390717691
0.4025526677 0.0020976941 0.7399231391
0.4022304922 0.5000307678 0.2392430405
0.4023638062 0.248831538 0.2385088879
0.4125252941 0.2496681596 0.4855748754
0.4124216055 0.2522087921 0.9860401902
0.4125104815 0.0027639146 0.9914560707
0.4125697321 0.5030479735 0.9892712027
0.412521591 0.5014028795 0.4825882719
0.4224571857 0.2504589568 0.2261097618
0.4424431734 0.2485349891 0.7340897266
0.4325112818 0.4997270178 0.9822722187
0.4324557343 0.5013380708 0.4828752672
0.4425987064 0.2508595925 0.2301693577
0.4224979206 0.5025026638 0.2304526499
0.4423542974 0.4993329285 0.7330611722
0.4324446248 0.2529157963 0.482196662
0.4223942319 0.248036813 0.7317419193
0.4324298122 0.2506638571 0.9822444449
0.4424468766 0.5018879629 0.232383851
0.4325742356 0.0035944481 0.9899562884
0.452419503 0.0019365888 0.9800410611
0.4724536319 0.2509518959 0.4821466693
0.4624810055 0.252389471 0.7333157649
0.4724462256 0.2500255895 0.9771803652
0.462469896 0.249647866 0.2291926476
0.4524083935 0.5020568584 0.9791985908
0.462447677 0.5009361259 0.7290413853
0.4723832717 0.5012601694 0.47772046
0.4526490993 0.2490855358 0.4801719559
0.4525639265 0.2511908371 0.9815963909
0.4725017731 0.002584676 0.9765415691
0.4825003217 -4.1648047305e-05 0.2235184713
0.4824521805 0.2510494362 0.7232681493
0.4825780881 0.2483130683 0.2274808591
0.4924988703 0.2483464546 0.4724601124
0.4923988848 0.2504720495 0.9706350191
0.4825817913 0.5009348166 0.2230722398
0.5023344795 0.2492563952 0.2209077392
0.5123626535 -0.0014099629 0.9682464769
0.5224056401 -0.0063240215 0.2264291599
0.5023122605 0.2511653064 0.7232200082
0.5025825917 0.4980649035 0.7183614542
0.512484858 0.2521400556 0.4661860232
0.5025492632 -0.0015753888 0.7177624671
0.5224760002 0.2488793263 0.2210419789
0.512529296 0.2486508592 0.972171833
0.5225130319 0.2494135072 0.7228071051
0.5123182155 0.4996032921 0.4705316887
0.5223760147 0.500907322 0.2234295953
0.5225315477 0.497219117 0.7224025342
0.5525234904 0.249694345 0.4741987489
0.5525345998 -9.5262528811e-05 0.9809483368
0.532211624 0.497520903 0.9703943133
0.5324301108 0.494884694 0.4732146325
0.5324856583 -5.7340681809e-04 0.4732868443
0.5325152837 0.2500223163 0.4736173519
0.532589347 0.251553504 0.9738382578
0.5425471607 0.0011779341 0.7248364402
0.5424434721 0.2489519906 0.2192450176
0.5424805038 0.2483372898 0.7237615962
0.5526605075 0.2493532809 0.9733938778
0.5623479901 0.5008857191 0.7246725751
0.5623739123 0.4996386423 0.2273234745
0.5626405403 0.0014695079 0.226432863
0.5625738833 0.2490541134 0.2258459112
0.5625998054 0.2489212228 0.7260010859
0.5725242907 -0.0025259166 0.479772014
0.5726946364 4.5456412585e-04 0.9776617768
0.5724094926 0.2487817859 0.4747708881
0.5725020717 0.2518834393 0.9746714702
0.5923029011 0.4985159459 0.9823370241
0.5825709805 0.2489166404 0.7319604061
0.6025051239 0.2503031541 0.2382292988
0.5925880449 0.2493558994 0.4848759027
0.6025014207 0.2512000019 0.7349905218
0.5925991544 0.248851177 0.9779858039
0.6023866225 0.4976609946 0.7302356564
0.5825709805 0.2507404492 0.228031705
0.5922177283 0.4991299921 0.4777473079
0.5823747127 0.4983143188 0.2307368679
0.6125221883 -7.230560302e-04 0.9854013941
0.6123185141 0.4984400084 0.4852526999
0.6224318609 0.2482502235 0.7431282294
0.6223726102 0.4987974383 0.2368350568
0.6122814825 0.501959318 0.9853180728
0.6223948292 0.500480501 0.7320502078
0.612403687 0.2499450696 0.484546321
0.612448125 0.2472401241 0.9846237292
0.6223096564 0.2520176392 0.2351760383
0.6425956006 0.250351597 0.2383329875
0.6526274777 0.2464617649 0.4886633159
0.6426326322 0.2497061284 0.7373161101
0.6526608062 0.2475824974 0.9922059619
0.6324674412 0.5007004578 0.9867623076
0.6423178631 0.4970266548 0.7371216939
0.6524867574 0.4981879745 0.9858828057
0.6424104423 0.4982770047 0.2353204618
0.6526015555 0.5003927801 0.4887049765
0.6325563171 0.2508746491 0.4857017088
0.6326044583 0.2491025563 0.9825499561
0.6625334471 -0.0027406364 0.7384557595
0.6725060736 0.4987725622 0.4832020716
0.6823194638 0.4992818671 0.7334925911
0.6725801369 0.5003384455 0.9842904442
0.6824379652 0.4995810346 0.2323505226
0.6627630434 0.2472918401 0.2432952301
0.6625556661 0.2491437982 0.7364921556
0.6826009045 -4.2257926572e-04 0.2360073991
0.6824490747 -3.7466009544e-04 0.7374031345
0.6625038218 0.4969697016 0.7373429581
0.6625186345 0.5007416997 0.2357833576
0.6824861063 0.2472577992 0.2356167151
0.6727134509 0.245881105 0.4927395761
0.6827119995 0.2499143018 0.7336166471
0.6727134509 0.2474875755 0.9856050682
0.7024350624 0.2515783801 0.2385051847
0.6925883436 0.2494141618 0.4920878188
0.7025276415 0.251224878 0.7401731028
0.6923291219 0.2500039866 0.9891230761
0.7025350478 0.500007201 0.7372105699
0.7025424542 -9.9211038794e-04 0.7367995184
0.7025424542 -1.9836730094e-04 0.2364295601
0.6924179979 0.5007155144 0.9876973571
0.6925290929 0.4988831953 0.4834390743
0.7124150951 0.2496144797 0.4910148264
0.7123965793 0.2484786906 0.9925114731
0.7224580817 0.5000209483 0.7439910671
0.7224395659 0.2491104119 0.2427425326
0.7324788493 0.4999895259 1.0009546919
0.7324455208 0.2484092994 0.4929164022
0.7226099115 0.4996831574 0.2420028251
0.7326010538 0.4990763122 0.4957187732
0.7224395659 0.2491686743 0.743458737
0.7325418031 0.2511725073 0.9902803155
0.71245583 0.5009898058 0.9917800978
0.7626485439 0.4985231469 0.7486246537
0.7424440694 -9.8706971019e-04 0.7477016396
0.7526685112 0.4979110646 1.0014268456
0.7624226508 0.499710652 0.2482306248
0.7624115413 0.2492151532 0.2495961673
0.7526277763 0.2482908108 0.4976110911
0.7624374635 0.2501571708 0.7512640854
0.7526796207 0.2513224184 1.0002696062
0.7422885365 0.5001918076 0.7498791013
0.7526833238 0.5003508835 0.4978962349
0.7424848043 0.2502350722 0.245543052
0.7424440694 0.2484570877 0.7473683546
0.7826012031 0.4991470126 0.2488805304
0.7825049208 0.5011076398 0.7477164522
0.7824345607 0.2474397873 0.250849689
0.7725804355 0.2490488763 0.4967408471
0.7825678746 0.2499836929 0.7475137039
0.7726730147 0.2523331725 -0.002441367
0.7925701264 0.4996988686 0.4987868464
0.8124079875 0.4959713856 0.4988164717
0.8027279112 0.497969327 0.7483737642
0.8024612832 0.4995201537 0.2470817175
0.7924405156 0.2520975044 0.4969037864
0.7926590024 0.2503817101 1.0013620402
0.8123931748 -0.002596617 0.4975435083
0.8024538769 0.2481114412 0.2488333151
0.8126635059 0.2484669072 0.4991182797
0.80245758 0.2478050727 0.7463712771
0.8125820363 0.2501355679 1.0018434518
0.8326494936 9.2524559352e-04 0.5015744047
0.8224731931 0.2505473324 0.2488194282
0.8325754303 4.0585939539e-04 0.9994734254
0.8326420873 0.2515312465 0.4982008203
0.8226916799 0.2489670472 0.7489310907
0.832568024 0.2471353827 -0.0042051017
0.832634681 0.497712056 0.5019456471
0.8324495227 0.4950509709 0.9986957606
0.8225287405 0.4991601053 0.2483935641
0.8425628694 0.4986540736 0.7502290505
0.8425665726 0.4985571878 0.2442487954
0.8426961834 -0.0016564324 0.2503090268
0.8426295264 0.2525570571 0.245689327
0.8426295264 0.2473167162 0.7448113184
0.8628228914 0.2510939513 0.2499424133
0.8527132478 0.2511666156 0.4998616904
0.8627192028 0.2485330252 0.7570734273
0.8525317927 0.2518664188 0.0032277637
0.8927815055 0.4982056496 0.0102091577
0.8725807342 0.0013357008 0.5075568696
0.882560767 0.2519835982 0.2605519844
0.8725474057 0.249108448 0.5054071817
0.8926815201 0.250751578 0.5075096542
0.8826126113 0.2503260663 0.7597193395
0.8726733134 0.249942451 0.0066373614
0.8924556269 -0.0011009105 0.5088909352
0.8727140482 -6.5975297328e-04 0.0050059315
0.8925407997 0.2484616701 0.0101081539
0.8727807052 0.5012909372 0.5111146865
0.8926704106 0.4985683166 0.5142799677
0.9126341793 0.4986822228 0.5121395377
0.9025726768 0.4971359786 0.7625652227
0.9125860381 0.4989303289 0.0121919254
0.9026356307 0.4990710751 0.2674722761
0.9125564128 -0.0015302191 0.5063820401
0.9027282098 0.2488302288 0.2648735792
0.9125193811 -4.3436266825e-04 0.0105830849
0.9125341938 0.249903173 0.5122237847
0.9025800832 0.2503221385 0.7645214202
0.9125823349 0.2492125347 0.010955068
0.9425890902 0.2490868451 0.7658693727
0.9326053543 0.2529347806 0.0163796509
0.9327201525 0.4986128317 0.5079651437
0.9325016657 0.5008359669 0.0114674936
0.9228438083 0.4999201347 0.7631512487
0.9226882754 0.4978410188 0.2598817113
0.9425816839 0.5006009535 0.764220538
0.9225327424 0.2481310802 0.2641070239
0.9225586645 0.2485055306 0.7601387231
0.9426742631 0.2484420311 0.2618453151
0.9326942303 0.2495143207 0.5150233784
0.972584736 3.6239173273e-04 0.5149928272
0.9626084064 -8.6124915652e-04 0.7567086654
0.9625676716 0.2492491942 0.263284921
0.9524839502 -1.756515194e-04 0.0109142405
0.9725995487 -0.0019795595 0.0208414106
0.9527505782 0.2505191831 0.512173792
0.97271805 0.2511554869 0.512569105
0.9626380318 0.2519377739 0.7654796145
0.9526950307 0.2493539355 0.0123645856
0.9525283882 0.0012330543 0.5131060641
0.9727513785 0.2486214007 0.0168033857
0.9727365659 0.500716169 0.5174924644
0.9625195305 4.2988444388e-04 0.2634450829
0.9525543103 0.5006637983 0.5142207171
0.9626417349 0.5031854465 0.7583824965
0.9826684575 0.2479687311 0.2662900403
0.9824907055 -0.0012296114 0.7643695904
0.9925485047 0.0029330065 0.0165363874
0.9928040232 0.2515600504 0.5161824694
0.982546253 0.2509008344 0.7648472988
0.9926336776 0.2471942997 0.0202456638
0.9926484902 0.4995064064 0.0204267486
0.0225556062 0.7493171585 0.7631438424
0.0027766625 0.50114299 0.2665325977
0.0026956743 0.7482631986 0.7635345264
0.0126294916 0.4997761154 0.5199309993
0.0027099315 0.5001381277 0.7702566988
0.0226111537 0.9993805992 0.2672843404
0.0226001924 1.0005131151 0.7675728291
0.0126039397 0.7495397339 0.0141716381
0.0227082137 0.7475823798 0.2649985611
0.0025685076 0.7521975458 0.2688276349
0.0127197748 0.7501812747 0.5186367427
0.0524086801 0.9992300335 0.5188478232
0.0524212709 0.9977178301 0.0173439554
0.0324941635 0.7526754282 0.0149324536
0.0425123389 0.749932514 0.2649735647
0.032521567 0.7485119593 0.5151659502
0.042458643 0.7500961723 0.7632845627
0.0426201011 0.5020935178 0.7679283331
0.0324634273 0.5039264916 0.020793362
0.0325300843 0.499992799 0.5198374943
0.0427378617 0.9979993225 0.2643745776
0.0527304853 0.4989977562 0.5146558391
0.0524768184 0.7485905153 0.0163367867
0.0524179381 0.7490291198 0.5194319977
0.0426874987 0.9977178301 0.7720212575
0.0725772339 0.4997348734 0.0198004506
0.0723991116 0.9984706586 0.5197291767
0.0724435496 1.0001072423 0.0194845705
0.0725735308 0.7492909732 0.0195067895
0.0626431204 0.7512810589 0.2713874485
0.0725587181 0.7463909469 0.5206012724
0.062446112 0.7502598307 0.7694938466
0.0924321295 1.003151288 0.5186034142
0.0924784191 0.7469670243 0.0177917607
0.1024566003 0.7503973037 0.2667279397
0.0824424685 0.7510977616 0.2686248866
0.092509896 0.753375886 0.5159750921
0.1023851292 0.7501616357 0.7632669727
0.082468761 0.7512155956 0.7705492489
0.1023947574 1.0005523931 0.7643621841
0.1026462024 0.5025412871 0.7598896852
0.0825280117 0.5017138304 0.7710547311
0.0925672951 0.499085477 0.0180939391
0.0825613402 0.4994160669 0.2676870597
0.1124910696 0.7519487851 0.0099092013
0.1223833374 0.7495070022 0.265474418
0.1124414472 0.7494088072 0.5148622906
0.1223800045 0.7498212263 0.7656314443
0.1224288863 1.0021758841 0.2674556118
0.1224248128 1.0004803834 0.7630910723
0.1225048012 0.499737492 0.2662428249
0.1124262642 1.001724187 0.5156019981
0.142362289 0.7494022609 0.2638968692
0.1525037799 0.7514709026 0.5142068302
0.1324974247 0.7539585098 0.5116812709
0.142423021 0.7525575942 0.7626902046
0.1524052756 0.5009204147 0.5176285557
0.1323056007 0.9997013696 0.0167258969
0.1424596823 0.5002317402 0.2701570716
0.1422800788 1.0009713585 0.2671963902
0.1324885371 1.0021169671 0.5153029674
0.1425359675 1.0010368219 0.7642140574
0.1521293898 1.0004280127 0.0172975732
0.1524426776 0.74876072 0.0131394731
0.1324470617 0.7508686398 0.0140957232
0.1723638599 0.7539126855 0.0083850706
0.16222348 0.7498866896 0.2623961611
0.172318311 0.7509275568 0.5099537439
0.162356794 0.7521124434 0.7634891627
0.182344263 1.0013772313 0.7609923029
0.1724971739 0.5044024101 0.0141728416
0.1723886711 0.5019724107 0.5093584599
0.1823916635 0.7505085914 0.2554295798
0.1823979589 0.7535068127 0.7580825401
0.1723953368 1.0009779048 0.0144983499
0.1623516096 1.0019598551 0.768182
0.1822972328 0.4984098953 0.2581245589
0.2025187419 0.5009668936 0.7519093621
0.192356143 0.5018244635 0.5079484794
0.1923457741 0.7524659455 0.0046399661
0.2024954119 0.7475692871 0.250681195
0.1922991142 0.751830951 0.5021622823
0.2025094839 0.7474710921 0.7542840174
0.2324869842 0.7471699607 -0.0051229222
0.2323873691 0.5037143903 -8.4340455115e-04
0.232542902 0.7507769911 0.4957789497
0.2125943163 0.7497033923 0.0032221164
0.2223895611 0.7474776384 0.2476158992
0.2125335844 0.7491469538 0.5006458358
0.2224747339 0.7508686398 0.7465545839
0.2326014121 0.5013315245 0.4983637596
0.222243286 0.4999901805 0.7499633483
0.2127080035 0.5001996632 0.0051487812
0.2223710453 0.499374825 0.2497202234
0.2124498928 0.5018558859 0.5068828934
0.2524677875 0.7531336717 -0.0067773487
0.2425166394 0.7517065707 0.2463059042
0.252567773 0.7509144642 0.496665858
0.2424714608 0.7516476537 0.7429662159
0.2424959017 0.501768165 0.7480876946
0.2624878145 0.5044718013 0.7443900832
0.2624326373 0.7520011557 0.2431878383
0.2422996339 0.5046793201 0.2440719692
0.2624678174 0.7542334559 0.7446983718
0.2624404139 0.5045647592 0.2468160153
0.2524666765 0.5015108941 0.4952262521
0.2724741426 1.0006898661 0.9951684948
0.2824160328 0.4998900216 0.2490860562
0.2723274972 0.4987188823 0.4978730901
0.2825671219 0.9998912133 0.2452032865
0.282373076 0.5006539788 0.7504780884
0.2825260168 0.7516214683 0.2456402601
0.2823490055 0.750266377 0.7438438662
0.272399709 0.754724431 0.9979458694
0.2726481914 0.750266377 0.4922137265
0.3124146411 1.0015736213 0.4944458099
0.2924201361 0.7497164849 0.9979643852
0.3024227582 0.7502336454 0.2434590952
0.2923756981 0.751497088 0.4958344972
0.3024612711 0.7477263992 0.7462046347
0.3023735061 0.5001937715 0.7480358503
0.2923631074 0.4994730201 0.9972885574
0.3023842453 1.000316725 0.2441451067
0.3126079464 0.753081301 0.9908080167
0.3123028055 0.7544887629 0.4916712126
0.312327987 0.4981506604 0.4944819157
0.3323673003 0.5012438036 0.4925562693
0.3223846753 0.5017177582 0.7467545548
0.3324272916 0.7524855845 0.9896230035
0.3324613607 0.497744133 0.988363927
0.3224924375 0.7515625513 0.2407298618
0.3324387714 0.7524135748 0.4895455953
0.3224805873 0.7489112857 0.7418386018
0.3223057979 0.5002075188 0.2471604098
0.3522988515 0.5000667726 0.4864460452
0.3524780847 1.0022151621 0.4895455953
0.3624251593 0.7507835375 0.2398753562
0.3623918308 0.7516214683 0.7392445339
0.3623140643 0.5029739999 0.7457139651
0.3626658651 0.5024817155 0.2407548581
0.3524566063 0.7504234891 0.9876232938
0.3424610203 0.748623247 0.237180377
0.3524810472 0.7509079178 0.4884411259
0.3424102869 0.7476151115 0.7357802219
0.3624029403 1.0007422368 0.7424144441
0.3422206848 0.4983634163 0.7452047798
0.352404762 0.5011835773 0.9906506321
0.3424243589 0.5009793317 0.2452338376
0.3723385351 0.5047153249 0.9908357904
0.3823852248 0.5019933589 0.2402428954
0.3722903939 0.5007508646 0.4872820349
0.3923282259 0.5023213303 0.9971404308
0.3824481787 0.5025818744 0.7379188004
0.3724607396 0.7503776647 0.9857902265
0.3822630204 0.7494022609 0.241900988
0.3725310997 0.7523415652 0.4924461001
0.3823593027 1.0009386268 0.2384181603
0.3824370692 0.7513334296 0.7399453581
0.3925911507 0.7503580257 0.9850495933
0.3924319146 0.7526165112 0.4877245633
0.3924245083 0.5012228553 0.4920082007
0.4025304487 0.5002723275 0.7345128133
0.4025748867 0.7513268833 0.2419972704
0.40242676 0.7527147062 0.7381724673
0.4125252941 0.7498212263 0.9879380629
0.4125475131 0.7519684241 0.4883439178
0.4224757016 1.0018354747 0.7394352469
0.4424987209 1.0015736213 0.2342743174
0.4325853451 1.0009517195 0.4891354696
0.4425394557 1.0009189878 0.7344498595
0.4225127332 0.5005642941 0.7313105004
0.4326408926 0.748741081 0.9819389337
0.422597906 0.749932514 0.2313562224
0.4324298122 0.7477787698 0.4873107345
0.4225423585 0.7480602622 0.7338397629
0.4425690811 0.7515625513 0.2370220666
0.4426838792 0.749991431 0.7289700994
0.422664563 1.0011677485 0.2345520548
0.4723425369 1.0043558136 0.4817069183
0.4724795541 0.4987660159 0.9751158501
0.4626291321 0.5006762364 0.2346575951
0.4725239921 0.7511108542 0.9757639042
0.4626328353 0.7511566786 0.2310062732
0.4728054327 0.751595283 0.48174395
0.4625735846 0.7526034185 0.7314243728
0.4524343157 0.9987063267 0.4866330551
0.4626217258 1.0007422368 0.2350482791
0.4624143485 1.0028894346 0.7311521901
0.4527231627 0.7499456066 0.9797355499
0.4526231772 0.748741081 0.4792831961
0.452552817 0.500505377 0.4825734592
0.4925247924 0.4997381466 0.9729217242
0.4924803544 0.4994893859 0.4742644801
0.4825151343 0.5018866537 0.7263065971
0.482418852 0.9983855563 0.7229283838
0.4926284811 1.001881299 0.4724323387
0.4924914639 1.0002250763 0.9758101938
0.4925618241 0.7509995665 0.469033758
0.4923581499 0.7504103964 0.9730143033
0.4823855235 0.7526165112 0.2241313453
0.4823040538 0.7521582678 0.722581212
0.5024492777 0.4990435805 0.2172962264
0.5123700598 1.0000941497 0.4699678816
0.5225722825 0.9997733792 0.7191622639
0.5024640904 1.0013444996 0.2194986844
0.5224797034 0.7528587256 0.7131390641
0.5023344795 0.7530551156 0.2214122955
0.5024159492 0.7509995665 0.7236458723
0.5125107801 0.7486952567 0.9698388383
0.5124959675 0.503016551 0.9694962955
0.5124922643 0.7494808169 0.4694383289
0.5225685794 0.7517785804 0.2192459433
0.5524309112 0.9998322963 0.4749791912
0.5423657056 0.4996091838 0.7189576639
0.5423805183 0.7520469801 0.2229083747
0.5525308967 0.5015776667 0.4732738832
0.5525642252 0.7516411073 0.4760197809
0.5424656911 0.7489898418 0.7237532641
0.5324301108 1.0013248606 0.9755417142
0.5425397544 0.50044646 0.2203041231
0.5324893615 0.7493695292 0.9684316352
0.5523679574 0.5013079577 0.9689408206
0.5425878956 0.9992169408 0.2209327355
0.5324597362 0.7521779068 0.4716954086
0.5724465242 0.4989270557 0.977967288
0.5622665205 0.9978618495 0.7232894425
0.5523716605 0.7509471959 0.9749677235
0.5625368516 0.7498015873 0.2247201487
0.5623331775 0.7483221156 0.7264260243
0.5724094926 0.7511435859 0.9827536303
0.5722613659 0.4988609378 0.4761040279
0.5724428211 0.7491207685 0.4811301502
0.6024717954 0.5017504899 0.2356111603
0.6025162334 0.9978683958 0.2315043491
0.6025458587 1.0011219242 0.7337573674
0.5925102784 0.7480406232 0.9841330597
0.5925621227 1.000041779 0.4838251293
0.5927213589 0.9997013696 0.983883096
0.6024495764 0.7496248362 0.2359064878
0.5923732613 0.7496051972 0.4831391178
0.6023940289 0.7503842111 0.7324205245
0.5824302602 0.9995311649 0.2302267568
0.5824858077 1.0007422368 0.7333435386
0.5822376955 0.4983575246 0.7298995941
0.582293243 0.7497230313 0.2277780382
0.5822413987 0.7488851004 0.7321909282
0.612448125 0.7485381447 0.9846515029
0.6125703294 1.0010368219 0.4913481114
0.6122592635 0.7480406232 0.4837482886
0.6226281287 1.0006047638 0.732053911
0.6223689071 0.7479096965 0.2342409889
0.6223096564 0.7492386025 0.7340165891
0.6225059242 0.9993478675 0.236132381
0.6426511481 0.9986474097 0.7339027167
0.6325229887 0.5017838762 0.4826354872
0.6424474739 1.0000352326 0.2343317164
0.6524015845 0.9993413212 0.4889058733
0.652657103 0.9991449311 0.9849014667
0.6325489108 0.99837901 0.4843704206
0.6325822393 1.0005916711 0.9835961006
0.632263767 0.7502729234 0.9805872781
0.6324674412 0.7511304932 0.4867024894
0.6523756624 0.7485381447 0.9836146164
0.6423623011 0.7459523424 0.2314821301
0.6525348985 0.7525117699 0.4857720689
0.6425030214 0.747058673 0.7373244422
0.6723542437 0.74856433 0.9849199825
0.6625964009 1.0001334277 0.2363443872
0.6723542437 0.9973577817 0.9838182906
0.682434262 0.7498277726 0.2390254795
0.6723764627 0.7477394918 0.4859137151
0.6824861063 0.7505544158 0.7365125231
0.6724616356 0.9983724636 0.4874070168
0.6624667901 0.74711759 0.2346631498
0.662507525 0.7488130907 0.7345831735
0.7023869212 0.4978861885 0.2364471501
0.6926068594 0.9997210086 0.4879810076
0.6926142657 0.9979600445 0.9841145438
0.6926031562 0.7495921046 0.9904932475
0.7023869212 0.7506198791 0.2376941913
0.6925105771 0.7493891682 0.4860757286
0.7027239093 0.7469670243 0.7388149666
0.7123780635 0.4998887123 0.4955169507
0.7125706281 0.7482501059 0.4924396196
0.7223877216 0.9993871455 0.7399647997
0.7323936765 0.9983462783 0.9965479242
0.7324973652 0.748642886 0.994057545
0.7223358772 0.7476412968 0.2427471615
0.7325381 0.7480864476 0.495178111
0.7224840039 0.749932514 0.7460546564
0.7223358772 0.9994198772 0.2424749788
0.7324640367 0.9976392741 0.4949253699
0.7125039711 0.7490945831 0.9902895734
0.712411392 0.9975869034 0.4874097942
0.7125484091 1.0004345591 0.991974514
0.7426218214 0.499796409 0.2470196895
0.7423625998 0.7507769911 0.2469752515
0.7424514758 0.7501419967 0.7515344165
0.7525129782 0.7503122014 0.9990290455
0.7623041495 1.0002447154 0.7523259683
0.7525463067 1.0021104208 0.9994456517
0.76251523 0.7498474116 0.2534585696
0.7524055864 0.7467509953 0.4981360149
0.7625078236 0.7528390866 0.750981719
0.7524907592 0.9997144622 0.5019141702
0.7425662739 1.0021758841 0.2463457132
0.7625522616 0.9994918869 0.2472446568
0.7826234221 0.9999239449 0.2417399003
0.7726433894 1.0014819726 0.4989886689
0.7825160303 1.0007160515 0.7472813302
0.7726285767 1.0013444996 1.0002140587
0.7826271253 0.7508686398 0.2492406634
0.772547107 0.7508424545 0.4969741465
0.7826678601 0.7506264255 0.7548246797
0.7724730437 0.7499783383 0.9987420501
0.7724582311 0.5015920686 0.4988414681
0.7726619052 0.4977166384 0.9976125845
0.7926219707 0.9989812727 0.4994728579
0.7925256884 0.7497819483 1.0049541113
0.7924368124 1.00311201 0.9953814269
0.8127746009 0.7509995665 1.0027507275
0.7926034549 0.5010441404 0.9990475613
0.8025094244 0.9979731372 0.251098727
0.8123931748 0.4967785487 1.0025655692
0.8024094389 0.7490356661 0.2483741225
0.8125783331 0.7474318141 0.5038287071
0.8026723637 0.9996097209 0.7485589225
0.8024760959 0.7511043079 0.7486950139
0.8124339096 0.9999370376 0.9981865752
0.7926441897 0.7493237048 0.5024002107
0.8226028039 1.0005393004 0.7469443421
0.8226213197 1.0012593972 0.2489592227
0.8324754448 0.7483548473 0.9981125119
0.8225287405 0.495661744 0.7515807061
0.8225324437 0.7490487588 0.2515301458
0.8325976493 0.7470259413 0.4998709483
0.8225065216 0.7479947989 0.7528333021
0.8426110106 0.7472877947 0.2501155364
0.8424369618 0.7486494324 0.7519463938
0.8625858888 0.5004602073 0.7558985978
0.8425813852 0.9977832935 0.7465971703
0.862500716 1.0044147306 0.2531178783
0.8627969692 1.0009779048 0.7499439067
0.852761389 1.0016325383 0.0010463211
0.8625932951 0.7503645721 0.7558828594
0.8527428732 0.4966869 0.5027890432
0.8523799629 0.7493106122 1.5015492642e-04
0.8526577003 0.4992792485 0.0026276657
0.8626895774 0.5030892154 0.2569451005
0.8627673439 0.7525314089 0.2534233895
0.8526095592 0.7506526108 0.5015614436
0.8526354813 1.0009058952 0.4977573662
0.8825311416 0.9978814885 0.7582945463
0.8925667219 0.9995704429 0.0085476396
0.8825348448 0.7492189635 0.7580621727
0.8725399994 0.750069987 0.0050359272
0.8925667219 0.7470652194 0.0070078632
0.8828125823 0.5014866726 0.7601914932
0.882582986 0.5025157564 0.2585402393
0.8825126258 0.751772034 0.2572432054
0.8726325785 0.7506067864 0.5042962318
0.8927407707 0.7464891419 0.5082197363
0.8726362817 0.5000117834 0.0085381966
0.882538548 0.9992234871 0.2556619535
0.9126971331 0.7507049815 0.5110285879
0.902554161 0.9985492147 0.2620258445
0.9026060053 0.997246494 0.761897727