POSCAR file written by Ovito 3.7.11
1
270.0476397026 0.0 0.0
0.0 15.2762013822 0.0
0.0 0.0 10.8019055881
Sr Ti O 
800 800 2400 
Direct
0.0224613362 0.4995705739 0.7788754275
0.0125007603 0.4984839163 0.0296315155
0.0124326612 0.249104512 0.5285908849
0.0224121967 0.2509426653 0.7738633489
0.0025970633 0.2537352444 0.7842837325
0.0123598222 0.2512536065 0.0299671044
0.002554182 0.001620147 0.2760308178
0.0224039019 0.4988851941 0.2771482132
0.012371672 0.0034623589 0.5276799345
0.0024396837 -0.0022376184 0.7772210898
0.0124075916 0.0012830213 0.0271865765
0.0224662242 0.2474404858 0.2782443161
0.0027150796 0.2518002084 0.2822676803
0.0423718602 0.500142051 0.2735479225
0.0325117481 0.2497421051 0.5267430627
0.042487025 0.2472421381 0.7722747403
0.0525974633 0.497922913 0.0218759395
0.032560258 0.2494305093 0.0254896537
0.0323925098 0.0014007207 0.5240000282
0.0324532399 -9.9267537349e-04 0.0226095138
0.0424366635 0.2491581903 0.2720648509
0.05243564 0.2510690056 0.5192740102
0.0525037761 0.2466628056 0.0207233651
0.0625586687 0.2503430398 0.2694171699
0.0625520032 0.500263809 0.7723450983
0.0624779422 0.4987464161 0.2711418656
0.0725654216 0.4974398086 0.5206617284
0.0724802514 0.2503738066 0.5167309404
0.0626182878 0.2493401727 0.7683902405
0.0726457778 0.2516535751 0.0240375951
0.0624535021 7.2594559407e-04 0.2716991747
0.0625601499 -3.5220201527e-04 0.7649945434
0.1025534637 -3.332836996e-04 0.268375687
0.0925163458 0.2510637687 0.5185121076
0.0825329222 0.0027715458 0.2702892382
0.1025179145 0.248328141 0.7695891031
0.0824918183 0.2525143911 0.7710073713
0.0925430078 0.2519186933 0.0190542151
0.0824421974 4.4820768614e-05 0.7722043824
0.0927033499 0.0019432639 0.0205469147
0.1026601116 0.2518879265 0.2741552228
0.0824303477 0.2504890185 0.2699837366
0.102558648 0.497621791 0.2677193213
0.0924626516 0.5020862516 0.5231288856
0.1125654009 3.4653189985e-04 0.0225926649
0.1226717658 0.2516647035 0.2694347594
0.1125757694 0.2475301678 0.516237509
0.1225491949 0.4963963554 0.767908844
0.1123913575 0.4977363482 0.0212915056
0.1226669519 0.2482220937 0.7702649098
0.1125465153 0.2484878666 0.0188957246
0.1125150394 0.497731766 0.5228613402
0.1525053908 0.2521982131 0.5112643124
0.1326685205 0.2445117472 0.5134639243
0.1425786238 0.2498396424 0.7640354533
0.1526131496 0.2478332536 0.0081540088
0.1326414882 0.2508412003 0.016789337
0.1427534078 0.2485186334 0.2608418311
0.1426204683 0.4967171158 0.761065607
0.1524987253 0.4988707926 0.0121696891
0.1324959584 0.4970987552 0.0152029502
0.1325322483 0.497963499 0.5137231378
0.1525194624 8.2348293092e-04 0.5149368125
0.1824038191 0.2482567882 0.7595390245
0.1826896946 0.2511652338 0.2598901472
0.1626502675 0.4987326692 0.761432209
0.1624121613 0.5006618137 0.2638385246
0.1724511308 0.2501590936 0.5086434785
0.1826219288 0.4999181734 0.7612766809
0.162529548 0.2521209687 0.7584521792
0.1725137123 0.2512313497 0.0102525274
0.1624873332 0.0030297906 0.2692857116
0.1624310469 0.2495751788 0.2634478528
0.1725359306 -6.6968931979e-04 0.5113207839
0.1825948965 0.0031654919 0.260541884
0.2023365984 0.2504942554 0.2557436566
0.1926183131 0.4983850697 0.0088640687
0.2026109944 0.498971603 0.2528626834
0.1924516759 0.251065078 0.5071983631
0.2023403015 0.248536308 0.7571551858
0.1924835221 0.2490783275 0.0059630065
0.1923179958 0.0012288848 0.5110930463
0.2024802768 0.0029508443 0.7552073814
0.1925168496 -6.5129469451e-04 0.0110211881
0.2025539675 9.3654898339e-05 0.2579358624
0.2124703659 0.2493696303 0.5036925002
0.2224289792 0.2551236786 0.7544102998
0.2123266876 0.2511226839 0.0024215017
0.222382691 7.4826789733e-04 0.2558288267
0.2122963226 0.001764751 0.5047469438
0.2124451852 0.0018241244 0.0044511436
0.2223345514 0.001699617 0.7524467574
0.2323116799 0.0026021974 0.5026880478
0.2224556411 0.2522401083 0.2559028877
0.2324153653 0.2503260199 0.5030203966
0.2326223658 0.2499535451 0.0026743275
0.2322787227 0.0043781624 1.0031701115
0.2524577549 0.2489703164 0.4966594819
0.2425098805 0.2520286683 0.7470116052
0.2624252554 0.252386087 0.2447974398
0.2522326094 0.2518794165 0.9982357969
0.2424709984 0.2564139208 0.2460027827
0.242367313 0.0026965926 0.2527247448
0.2525388517 0.500451683 0.9988097697
0.252381472 0.001267376 0.4978935234
0.2423039909 0.0012522544 0.749991635
0.2624559907 0.2532802884 0.7463904185
0.2522663072 0.0025286843 0.9971896852
0.2623489726 0.0044958619 0.2458231847
0.2623278652 0.0034158813 0.7453378265
0.2725253252 0.2503607144 0.4941219667
0.2724016433 0.2520515798 0.9951992957
0.2724301568 0.0039059901 0.4955337546
0.272222786 0.5009544258 0.9953103872
0.2823913622 0.2517007072 0.747874416
0.2824080259 0.0012186728 0.7475087397
0.2825472606 0.2514336251 0.2478478275
0.3025204031 0.2513177586 0.2459453854
0.3126201026 0.2520168853 0.492046407
0.3124771648 0.2500923231 0.9897928422
0.3127248989 0.0031417294 0.9931811332
0.2924366268 0.2500681024 0.496132723
0.3025241062 0.2523042604 0.7406784634
0.2924103351 0.501109569 0.4934211644
0.3025059612 0.4994815465 0.2386142715
0.2924936538 0.2497113383 0.9932274214
0.3024615246 2.8663481044e-04 0.7465579816
0.292542534 0.0024111813 0.490743859
0.3124742024 0.498743143 0.9891910965
0.2924847664 0.0033324836 0.9954307363
0.3225372417 0.2543348699 0.2390030918
0.3326054652 0.2525477764 0.4909336403
0.3226786982 0.251580913 0.7427854991
0.3327239628 0.253263923 0.9915517911
0.3226424083 0.0014347605 0.2376903605
0.3327069288 0.0024564805 0.4875157249
0.3225502023 0.0019423475 0.7401313377
0.3326913759 0.0040405785 0.9869044629
0.3627405184 0.2532266101 0.233593861
0.3526771089 0.2508830956 0.4875536812
0.3424418778 0.2518807258 0.7421041378
0.3525412069 0.0026315895 0.9910889098
0.3527700554 0.2503417306 0.9852843784
0.3425929622 0.0027016331 0.2381180628
0.3425092733 0.0031092606 0.7369985572
0.3424118831 0.2536966222 0.2392586023
0.3625998025 0.2533869903 0.7355951011
0.3627145971 0.003868939 0.2343668728
0.3724425103 0.2517583131 0.48408022
0.3826147895 0.2532089355 0.728525978
0.372720239 0.2524397653 0.9810721587
0.3825259163 7.696082811e-04 0.7353525513
0.3825518377 0.2523199711 0.2298991426
0.3924612003 9.8621972247e-04 0.4780174008
0.3927056017 0.0028247658 0.9818868297
0.372494353 0.0016511101 0.4801762791
0.3726758024 0.0041822368 0.9860897919
0.3927204139 0.251235932 0.478695059
0.3926870864 0.2501309452 0.9810073553
0.4125539514 0.0037059403 0.4724554192
0.402592746 0.2496268932 0.7272345392
0.402592746 4.0760729266e-04 0.227277383
0.4026482918 4.5892895178e-04 0.7301210669
0.4026853223 0.4979111299 0.2263923539
0.4027667894 0.2496190379 0.2281614862
0.4126169033 0.2510906079 0.4786959848
0.4127539161 0.2500523917 0.9738604682
0.4125798727 0.0023181608 0.9724903395
0.4127316978 0.4988956679 0.9764155729
0.4126169033 0.4987824198 0.4787830065
0.4226373574 0.2485814763 0.2266256461
0.4425560651 0.2483320687 0.7129379877
0.4325985628 0.49978005 0.9721755803
0.4324985804 0.4984479126 0.4661602337
0.4426819688 0.2485670748 0.2176911114
0.4225558903 0.4981363168 0.2259535425
0.4425079255 0.4988753749 0.7168308193
0.4325207987 0.2504006458 0.4711973079
0.4227336367 0.2494134894 0.7237203445
0.4326207811 0.2523612117 0.97381418
0.4427967634 0.4971386866 0.2156507307
0.4325615323 6.9354225062e-04 0.9723144446
0.4527394535 2.0120781407e-04 0.957881806
0.4723174806 0.2473972813 0.457724685
0.4625858643 0.2484806658 0.7151311192
0.472495227 0.249958782 0.9623995274
0.4623747905 0.2494075979 0.2088787774
0.4526913139 0.4986947017 0.9616126292
0.4626784406 0.4984956993 0.7145775132
0.4725137423 0.4986004374 0.4630117151
0.4525913315 0.2469272692 0.4646253193
0.4525468949 0.2471190708 0.9631956832
0.4726285368 -0.0012572699 0.9605850327
0.4824527293 -8.564504084e-04 0.2101063386
0.4825230873 0.2500766123 0.7106430222
0.4823971836 0.25094332 0.216612598
0.4923250615 0.2511979644 0.4661611594
0.4922584066 0.2493342812 0.9661673811
0.4824045897 0.499967924 0.2104886785
0.5025121529 0.2514224967 0.2184539398
0.5123844851 4.7693080925e-04 0.9613163852
0.5223753149 0.0026040957 0.2200740243
0.502441795 0.249356538 0.7191100468
0.5024492011 0.4977180191 0.7133425459
0.5124252187 0.2451585049 0.4684570506
0.5023973584 0.0023588123 0.7167965661
0.5224827033 0.2509498661 0.2173883871
0.5124141095 0.2538229625 0.9688150621
0.5224234545 0.2509151716 0.7188582394
0.5125659346 0.4979765912 0.4718471932
0.522456782 0.4974614108 0.2185576252
0.522530843 0.4987523076 0.7190137675
0.5525625811 0.2521550086 0.4776961612
0.5525477689 -2.4595832554e-04 0.9803130333
0.5323661447 0.5000805174 0.9694538383
0.5324735331 0.4998991896 0.4718897783
0.5326549826 3.2185298979e-04 0.471388015
0.5324809392 0.2492275793 0.4740708749
0.5323476294 0.2466438218 0.9651490423
0.542401411 6.6958341485e-04 0.7237249733
0.5425310178 0.2520843104 0.2256684076
0.5425347209 0.2502808516 0.723905497
0.5523811317 0.2526525145 0.9770913796
0.5624312103 0.4975759681 0.729922028
0.562412695 0.5012660215 0.2279059757
0.5625941445 7.5481402732e-04 0.2317349298
0.5624460225 0.2499744927 0.2285623414
0.562634878 0.2518074091 0.7299146219
0.5723294638 0.0041857717 0.4813149671
0.5724331492 0.0018502434 0.9851269988
0.5724627736 0.2476656727 0.4785043519
0.5723776034 0.2485932593 0.9795724233
0.5924888697 0.4975393097 0.983118094
0.5823647302 0.2495607773 0.7302812239
0.6023797172 0.2494763322 0.2355712899
0.592359263 0.248490485 0.4814427224
0.6022093768 0.2500969053 0.738714921
0.592359263 0.248377237 0.9794983623
0.6024278568 0.5004412092 0.7391259596
0.5823795424 0.2508150158 0.2302203822
0.5924925728 0.4990599757 0.4836090068
0.5823906515 0.5009616265 0.2315969912
0.6122187219 -3.1384169353e-04 0.9888670796
0.6123964683 0.4992903995 0.4891126653
0.6222947218 0.2522937866 0.7408858342
0.6224872804 0.4998370014 0.23833932
0.6124038744 0.4989002502 0.9861453376
0.6226131841 0.4998461659 0.7412209603
0.6123890622 0.2495876164 0.4923769042
0.6122002066 0.2532717784 0.9879598323
0.6223354554 0.2494246178 0.2397214836
0.6425207827 0.2496183832 0.2434569356
0.6527189833 0.2478214706 0.4879397242
0.6425874376 0.2482679166 0.7402859401
0.6525301277 0.2498357148 0.9915888216
0.6324929224 0.499174533 0.9907648929
0.6425948437 0.4979772458 0.7407590048
0.6525782674 0.5007416765 0.9914314419
0.6426059528 0.4995928307 0.2419470168
0.6525264247 0.4985663975 0.49462373
0.6324336736 0.2489853725 0.4906207326
0.632463298 0.248510778 0.9898669032
0.6624061629 0.0016873102 0.7404257302
0.6725043812 0.4982613479 0.4940071721
0.6824174469 0.4964015923 0.7422883645
0.6726154727 0.4992013721 0.9926071604
0.6825951933 0.4964402145 0.2397835097
0.6625468788 0.2483301049 0.2443586283
0.6624728178 0.2485179788 0.7440287982
0.6826766604 -3.8048129683e-04 0.2441392226
0.682424853 -3.0487349545e-04 0.7444231731
0.6624320843 0.4958130953 0.7471347317
0.6622765562 0.4943677098 0.2419886761
0.6824803987 0.2477605916 0.2401297449
0.6723599622 0.2467596883 0.4923907906
0.6823730103 0.2464912969 0.7469986446
0.6724377263 0.2459767711 0.9935514383
0.702295421 0.2463734666 0.2404463557
0.6923416218 0.2487732779 0.4892237569
0.7024916827 0.2467191023 0.7348600456
0.6925230712 0.2454969398 0.9929682078
0.7023805912 0.4990049882 0.7412792833
0.7023768881 -2.5119522953e-04 0.7407451183
0.7024361369 9.2527525226e-04 0.2426181947
0.6924712285 0.4968447653 0.9894410524
0.69258232 0.4978869092 0.4943191541
0.7122677356 0.2481088457 0.4923722754
0.7122455173 0.2492295431 0.9897187812
0.7223289233 0.4980616909 0.7431743193
0.722310408 0.248299338 0.2405491153
0.7324863903 0.498577526 0.9956992074
0.7324271415 0.2541011731 0.4932304573
0.722236347 0.4985389038 0.2428283428
0.7323975171 0.5005073251 0.489878271
0.7224918575 0.2504733078 0.7447434869
0.7323604866 0.248718945 0.9903760726
0.7125158399 0.4992517773 0.9892188694
0.7623551943 0.4989722576 0.7483317427
0.7423402073 0.0037536616 0.7434677861
0.7524273163 0.4988360981 0.9907556353
0.7625366437 0.4997957607 0.2446632042
0.762484801 0.2483353418 0.2429070326
0.7525458139 0.2487601856 0.4952014058
0.7624959102 0.248527798 0.7481178915
0.7525458139 0.2470699748 0.9924312655
0.7424105652 0.4982489102 0.7424068622
0.7524532377 0.4963348218 0.4953134231
0.7424438927 0.2501630213 0.2426311554
0.742466111 0.2485238703 0.7443565182
0.7827552985 0.498893704 0.24910131
0.7825923643 0.4979320775 0.7476161282
0.7825590368 0.249020067 0.2471729466
0.7724423033 0.2507750844 0.4984415749
0.7823923996 0.2490986205 0.7512765935
0.7724460064 0.2480532036 2.5540243474e-04
0.7925943032 0.4991856614 0.495742977
0.8126759451 0.49829997 0.4961836399
0.8026814123 0.4980184865 0.7460228908
0.802585133 0.4976204817 0.2468767026
0.7925276483 0.247360623 0.4932452695
0.7924980239 0.2498586262 0.9964583328
0.8125278231 0.0015341308 0.4971158829
0.8025592116 0.2483582532 0.2458916912
0.812590775 0.2488825982 0.4962428887
0.8023703561 0.2492675107 0.7475022594
0.8125833689 0.2481121187 0.9922924012
0.8325428101 0.0023158042 0.492358389
0.8225112468 0.2513603084 0.2443984361
0.8324650461 -0.0010077315 0.9917554589
0.8324206095 0.2505832828 0.4971862408
0.8227075085 0.2479183533 0.7460127074
0.8324132034 0.2501329091 1.1811184394e-04
0.8326576047 0.5002651183 0.4907734834
0.8326020589 0.4954517489 0.9962916955
0.8224779193 0.500260536 0.2438272406
0.842544749 0.5000458229 0.7515811693
0.8425225307 0.5002886843 0.2537042016
0.8426558406 0.0015544238 0.2491624104
0.8424558758 0.2495057898 0.2507602766
0.8425743735 0.2519200025 0.7480817868
0.8625893605 0.2485899862 0.2555640586
0.8525281727 0.2481153918 0.5089749015
0.8625078934 0.2507142054 0.7563071873
0.8525281727 0.2487346557 0.0056237145
0.8924766796 0.4978404317 0.0100224754
0.8724098499 5.5240768803e-04 0.5072150269
0.8824080858 0.2500190064 0.2578664302
0.8724357713 0.2472414834 0.5083500118
0.8925322254 0.2488256469 0.5074011051
0.8824710377 0.2492053224 0.7568172825
0.8726135177 0.249999368 0.0079020162
0.8924581644 0.0016019487 0.5085777494
0.8724987231 0.0015605772 0.0094947907
0.8922878241 0.24545439 0.011507954
0.8724061469 0.4965744102 0.5089721242
0.8924766796 0.4990259359 0.5078787986
0.9125694307 0.4994285229 0.5125724149
0.9024267759 0.4992701065 0.7572570197
0.9126138673 0.4973579819 0.0107296654
0.9023934484 0.5004772129 0.2615509652
0.9124583392 3.2938103928e-04 0.5124585461
0.9023897454 0.2506814748 0.2601002953
0.9124398239 5.117562208e-04 0.0142966287
0.9123324355 0.2491896117 0.5141064035
0.902437885 0.2493755218 0.7623116834
0.9122065318 0.2524836243 0.0110048021
0.9424345316 0.2486718128 0.7723238057
0.9324214835 0.2517537308 0.0169243132
0.9326288543 0.4974954507 0.515722785
0.9324548109 0.4984570772 0.0170278134
0.9223121561 0.498849845 0.7663887418
0.9225121208 0.4975661489 0.2617231571
0.9423012218 0.4987771829 0.7725154386
0.9225417452 0.2463544828 0.265747447
0.9226935703 0.2486934151 0.7652741237
0.942390095 0.249124805 0.2758095605
0.9324140774 0.2499895488 0.5167411238
0.9725329246 -6.8035951167e-04 0.5340917661
0.9625606101 0.0024735005 0.7801770497
0.9622865844 0.2512300404 0.2800902867
0.9522624271 0.0012919895 0.0272336053
0.9726106887 0.003283715 0.0330602624
0.9524364705 0.248487212 0.5269134031
0.9724588636 0.2501368367 0.5297267955
0.9624013789 0.2513020479 0.7810093103
0.9523513003 0.2483765824 0.0238338348
0.9525660773 5.8572748968e-04 0.5303813097
0.9723292568 0.2527245219 0.0320261856
0.972410724 0.499304801 0.5356748201
0.9624643308 2.6758557217e-04 0.2828722032
0.9523587064 0.4991175817 0.5235167802
0.9625680162 0.4995096949 0.7762471876
0.9825237544 0.253565045 0.2840210746
0.9822830561 0.0027433319 0.7827617788
0.9925590208 3.140630951e-04 0.0381657504
0.9925664269 0.2523873962 0.5354276415
0.982571894 0.2509819421 0.7833079788
0.9922924011 0.2532580315 0.0314367525
0.992429414 0.4997735039 0.0354924258
0.0225129937 0.7499901582 0.7764647418
0.0025162998 0.5002585721 0.2800588108
0.0025386292 0.7517117904 0.7802001938
0.0124195895 0.500605517 0.535464672
0.0025121154 0.501207761 0.7809352493
0.0223778324 0.9983961529 0.2763344679
0.0224424136 0.9966090594 0.7752001501
0.0123763749 0.751240469 0.0294768206
0.0224384143 0.7468807464 0.275975272
0.0025350372 0.7459708344 0.2809290276
0.0125920035 0.7487791241 0.5238343167
0.0525641359 0.9995875486 0.5234362388
0.0525833917 0.9983110532 0.0222910514
0.0324502774 0.7498395972 0.0246642438
0.0424196295 0.7512666535 0.2701698149
0.032568775 0.7529424628 0.5274549742
0.0424888765 0.7516725136 0.7751020192
0.0424355526 0.5015966011 0.7798363691
0.0323628854 0.4982718217 0.0271538045
0.0323639963 0.4999378118 0.5226160132
0.0422652123 0.9978921009 0.2688580093
0.0525252538 0.499125437 0.5176891047
0.0523823161 0.7480917805 0.02132724
0.0525171071 0.7504091105 0.5203025325
0.0424255544 0.9985139833 0.771792418
0.072625411 0.4993349132 0.0246052727
0.0725846775 0.9971131114 0.5199266729
0.0726154128 0.9998690322 0.0234762127
0.0724721047 0.7470051229 0.0173631246
0.0624697955 0.7528573631 0.2707021284
0.0724013765 0.750029435 0.5224067908
0.0624646112 0.751089908 0.7677662765
0.0925130131 0.9983045071 0.517952947
0.0925193083 0.7510440851 0.021022479
0.1025445764 0.7508738857 0.2707623029
0.0825699527 0.7511160925 0.2692551614
0.0924893136 0.7477579279 0.5181103267
0.1024382989 0.7513844839 0.7720840332
0.082461083 0.7536428987 0.7723145481
0.1023823828 0.9983306916 0.7674561461
0.1025945676 0.5003495633 0.7700529101
0.0825214427 0.5013550489 0.7736319083
0.0927181621 0.5002350061 0.0176671451
0.0825406986 0.5029483769 0.2699726274
0.1125650306 0.748268526 0.0159524476
0.1226517694 0.7498330511 0.2657761457
0.1126146515 0.7482096108 0.5157764792
0.1225684507 0.7488773161 0.7660610219
0.1226654707 0.9990704043 0.264293074
0.1224532859 0.9976695325 0.76840783
0.1226728768 0.4996137783 0.2678535569
0.1125646603 1.0004450916 0.5178899952
0.1424330939 0.7490213309 0.2616861266
0.1525416807 0.7529097322 0.5150617905
0.1325385434 0.7504876641 0.5135065094
0.1423608844 0.745702443 0.7682856294
0.152550568 0.5019134338 0.514950699
0.1325344701 0.9987627362 0.0128782678
0.1425882517 0.4959125964 0.2604863383
0.1424649401 0.9994762644 0.2622202916
0.1326418585 0.9985728984 0.5146322367
0.1425852893 1.0022583696 0.7621672645
0.1523665264 0.9982848687 0.0191895616
0.1525276091 0.7513059303 0.0148640285
0.1325396544 0.748772578 0.0170228143
0.1725474101 0.7510440851 0.0167605458
0.1625121437 0.7488511316 0.267790605
0.1725755532 0.7538130981 0.5148970048
0.1625388056 0.7490802461 0.7676635169
0.1823775275 1.0010080588 0.7629291671
0.1725151935 0.5041855955 0.0133122653
0.1727192316 0.5041993424 0.5141036262
0.1827600526 0.7492111687 0.2591199127
0.182531204 0.748320895 0.7583781182
0.1725414852 0.9984288836 0.0159463376
0.162590278 0.9999344935 0.7615969947
0.1827063583 0.5008025555 0.2582172942
0.2025769264 0.4993997199 0.7547556092
0.1924901876 0.5002134038 0.5065919886
0.1926553436 0.7494140987 0.00201574
0.2024843501 0.7501276269 0.2534431366
0.1924664881 0.7506578634 0.5033203437
0.2026309909 0.7491457074 0.7530596122
0.2326679133 0.7519801817 0.0028921594
0.2324590613 0.5010427985 0.0020588805
0.2325416393 0.7527657173 0.5014614124
0.2125555361 0.7506382251 0.0022683806
0.222701894 0.7484059947 0.249081869
0.2126318189 0.7496039365 0.504597896
0.2226663447 0.7485369173 0.7519949852
0.2325083118 0.5013635589 0.5005171346
0.2226311657 0.5043721602 0.7534780569
0.2125499815 0.5003966955 0.0059738379
0.2226133911 0.5042634945 0.2489476335
0.2125155431 0.5011841949 0.502773218
0.2523703629 0.7508607935 -0.0025199134
0.2424124902 0.7542255043 0.2483921759
0.2522603823 0.7526217024 0.4975917248
0.2424176745 0.7518165285 0.7473615435
0.2425187678 0.5046457885 0.7502045604
0.2622808365 0.5032134952 0.7476142767
0.2623945201 0.7530668393 0.249284611
0.2424287837 0.500463466 0.2489809609
0.2623830406 0.7541731352 0.7476263116
0.2623582302 0.5008830729 0.247810797
0.2523551804 0.5014185464 0.4974139784
0.2724894056 0.9999541319 0.9959399057
0.282454314 0.5049076337 0.2433143682
0.2724805183 0.5020188265 0.4961790111
0.282258793 1.0029064365 0.2447326364
0.2824495001 0.5014270563 0.743737183
0.2823221151 0.7552401544 0.2421562392
0.2824220975 0.7521111043 0.7440167633
0.2725279173 0.7512601074 0.9980413868
0.2721916803 0.7556591068 0.4933434003
0.3126904605 1.0002552538 0.4901958076
0.2923525675 0.7540945817 0.9906723166
0.3025403996 0.7497217669 0.2412573237
0.2925562353 0.7513648455 0.4905837021
0.3025078127 0.752399134 0.7399832157
0.302487446 0.4994010291 0.7378400753
0.2923788592 0.5004726306 0.9935421806
0.3024263456 1.0001832464 0.2423543524
0.3123579266 0.7537869136 0.9912740623
0.3124623526 0.7512535613 0.488372981
0.3124231003 0.5019854412 0.4899014151
0.332651383 0.5027238447 0.4874027819
0.3225439071 0.5023408961 0.7384816288
0.332790988 0.7524384108 0.9880801814
0.332508075 0.5016182033 0.9882838492
0.3226450004 0.7518558052 0.2358055079
0.3325706565 0.7559536826 0.4866038487
0.3226283367 0.7537279984 0.73135696
0.3226705515 0.5006997813 0.2367960738
0.3526556312 0.503745041 0.4915909318
0.3526682215 0.9994238953 0.4874416639
0.3626405361 0.751993274 0.2350871161
0.3627257062 0.7483667179 0.7333880831
0.362710894 0.5038196668 0.734870229
0.3626257239 0.504118825 0.2419497941
0.352736728 0.7540225743 0.986284202
0.3425214933 0.7522747576 0.2385448393
0.3527256188 0.7525366028 0.486017841
0.3427377515 0.7529882857 0.738644563
0.3625775842 0.9999541319 0.73499891
0.3427462685 0.5024233773 0.7403803679
0.3526082321 0.501931763 0.9878950289
0.3425444523 0.4999803616 0.2381532418
0.3726128506 0.5018879039 0.9881820153
0.3824851828 0.5020666132 0.2372228504
0.3727424574 0.5013020253 0.4834294089
0.3927018986 0.5024305781 0.9849788768
0.3826703353 0.5018669563 0.7346767446
0.3724351042 0.750886978 0.9856824563
0.3824777767 0.7506316789 0.2282772065
0.3725498987 0.7490737 0.4848050921
0.3825851651 0.9990507659 0.2343687243
0.3826666322 0.7494010065 0.7325604513
0.3926167284 0.7499836121 0.9864230664
0.3925278552 0.747515721 0.4813223732
0.3926611651 0.5008228485 0.4813714386
0.4026445887 0.501025124 0.7364838332
0.4027149467 0.7498395972 0.2333707523
0.4025409033 0.7530275625 0.7289712698
0.4125761697 0.7513059303 0.9727865836
0.4125539514 0.7483405334 0.4783617845
0.4227077154 0.996687613 0.7216123831
0.4426893749 0.9996137331 0.2174439328
0.4326022659 0.9987823746 0.470787195
0.4426708597 0.9956991474 0.7162448116
0.4227003093 0.499605923 0.7259356943
0.4325985628 0.7487333012 0.9721478074
0.4225929208 0.750435295 0.222789286
0.4325800476 0.748824947 0.4714222682
0.4225262659 0.7528573631 0.7288129644
0.4427041871 0.7477317433 0.2196278067
0.4425967987 0.7480263192 0.7190748678
0.4226188422 0.9985728984 0.2251388714
0.4726322399 0.9969363659 0.4608426534
0.472495227 0.5013432659 0.9643436288
0.4626228948 0.4994285229 0.2154322507
0.4724581965 0.750179996 0.9593352533
0.462782126 0.7488314932 0.2114653581
0.4724470874 0.7494991984 0.4598752315
0.4625155064 0.7481245111 0.7141822126
0.4526172529 0.9985663523 0.4626414101
0.4625488338 0.9990245814 0.211204293
0.4625488338 0.9968512662 0.7101421847
0.4525765193 0.7481310573 0.9670561132
0.4527098291 0.7479346734 0.4636079062
0.4525617071 0.5006297377 0.4691532241
0.4924583713 0.5008968198 0.966565459
0.4922250791 0.5008091017 0.4642346475
0.4822675768 0.4995195141 0.7116308109
0.4823712622 1.0008378594 0.7038895842
0.4923435768 0.9986776365 0.4642855644
0.4924805896 0.9995744563 0.968000391
0.492358389 0.7526609792 0.4617536038
0.4923917164 0.7492373532 0.9579188365
0.4824860568 0.7474371675 0.210467386
0.4825712269 0.7485892864 0.7089294357
0.5024862316 0.4993322947 0.2159516035
0.51245114 0.9991882346 0.4683246666
0.5224864064 0.996033 0.7213466892
0.502445498 1.0010080588 0.2160099266
0.5226123101 0.7470051229 0.7212207855
0.502515856 0.7498985124 0.2173004396
0.5025454804 0.749728313 0.7138591214
0.5126177773 0.7507298709 0.9683058927
0.5123474546 0.5008719445 0.9653156795
0.512595559 0.7489427774 0.4686514608
0.5225123278 0.7476793743 0.2180317921
0.5525329567 0.9995875486 0.4803197723
0.5425273148 0.4996163968 0.7245738976
0.5425532361 0.7501407192 0.2211692014
0.5523181798 0.5012116887 0.4765898749
0.5526181269 0.7509589854 0.4807826536
0.542471769 0.7509131625 0.7255107693
0.5324179874 0.9962228378 0.9657693032
0.542619891 0.5004471007 0.2235521143
0.5324735331 0.7506513173 0.9737771495
0.5525477689 0.5020116257 0.9783781896
0.5422755073 0.9987627362 0.2211377255
0.5324513148 0.7504942102 0.4686246137
0.5726034895 0.5008326677 0.9847289209
0.5624497255 0.9986645442 0.7272632379
0.5526107208 0.7491391613 0.9814702366
0.5625348957 0.751541591 0.2317053054
0.5624571316 0.7501865421 0.7343805006
0.5723516821 0.7476531898 0.9787577522
0.5725405376 0.5008614707 0.4787941156
0.5724405553 0.7474829904 0.485206873
0.6023352806 0.5023179846 0.2373987453
0.6025056209 1.000314169 0.2405176394
0.6023760141 0.998199769 0.7365671518
0.5925333063 0.7471687762 0.9831551245
0.5924444331 1.0014335572 0.4794949179
0.5923518569 0.9980230235 0.9845345107
0.6026315246 0.7492700839 0.2334901756
0.5925370094 0.747967404 0.4861891071
0.6025611666 0.7490213309 0.7404081407
0.5824610095 0.9979444699 0.2330476611
0.5826424589 0.9956271399 0.7266707498
0.5824536034 0.5010925491 0.7269734742
0.5824313851 0.7478233892 0.2338502973
0.5824610095 0.7492635378 0.7301525429
0.6124038744 0.7495646597 0.9899872523
0.6122816737 0.9947106817 0.4847097385
0.612670494 0.7500097966 0.4903587418
0.6224317347 0.9969036353 0.7401350408
0.6226242933 0.7476466436 0.2370376978
0.6225094987 0.7477382895 0.7376132635
0.6224687652 1.0004385455 0.2400066184
0.6424541278 0.9984747065 0.7360598339
0.6326706688 0.5012856599 0.4870704331
0.6424282064 0.9996726483 0.2408314729
0.652330163 0.9997315634 0.4900726811
0.6524264423 0.9993387956 0.9910055912
0.6324114553 1.0017674099 0.4902782004
0.6324670011 0.9991293195 0.9904593912
0.6327299176 0.7488380393 0.9902742387
0.6327965725 0.7473717062 0.4921389832
0.652478285 0.7477448356 0.9897280388
0.6427503718 0.7447008852 0.2390012403
0.6524634728 0.7493486374 0.4920806602
0.6427244505 0.7445765087 0.7397906571
0.6726525032 0.7466909087 0.9883671678
0.6624246782 0.9965305059 0.2429209191
0.672341447 0.9973618644 0.9910148488
0.6823915255 0.7505400331 0.2404889408
0.6724673507 0.7475877285 0.4909382692
0.6823248706 0.7478953966 0.7419430551
0.6724451324 0.9994631721 0.491094723
0.6625653941 0.7494206449 0.2436809701
0.6626024246 0.7486809322 0.7427734641
0.7024768705 0.5000438591 0.2395363311
0.6923231065 0.9995220873 0.48701211
0.6923860584 1.0002552538 0.9859694427
0.6925230712 0.7490671539 0.9900427981
0.7024879797 0.748268526 0.24091294
0.6924193858 0.7463701483 0.4889700979
0.7024250278 0.7481637879 0.7386158644
0.7124788094 0.4988760295 0.4888173471
0.7125010277 0.7502454573 0.4924731835
0.7222659714 0.9984419758 0.7393870246
0.7322197707 0.9999541319 0.9907926658
0.7323641897 0.7507691477 0.9900983438
0.7224326087 0.747764474 0.2393733968
0.7323086439 0.7501734498 0.4902189516
0.7224289057 0.7493093607 0.740609957
0.7222844867 0.9987954668 0.2441364453
0.7323234561 1.0006545678 0.4945737388
0.712375124 0.7493879142 0.9892558999
0.7124306698 0.9985663523 0.4912696922
0.7124084515 0.9986056291 0.9882005305
0.7425216567 0.4997551747 0.2437559569
0.7423846439 0.750284734 0.241369341
0.7425697964 0.7494991984 0.7401470757
0.7525087834 0.7486482015 0.9921813096
0.7623477882 0.9991096811 0.7402424292
0.752475456 0.99835033 0.9952178109
0.7624255522 0.7504287489 0.2426672601
0.7523939889 0.7520521891 0.491371526
0.7624514736 0.7464421557 0.7412681742
0.7523717706 0.9966941591 0.4921500924
0.7422402249 0.9989132972 0.241057359
0.762332976 1.0006742061 0.2447826276
0.7824183209 0.9971785727 0.2473479157
0.7723682423 0.9995679102 0.4943672938
0.7823294477 1.0003861764 0.7469079198
0.772494146 0.998651452 0.998976407
0.7824553514 0.7504287489 0.2474414177
0.7725237705 0.7490998845 0.493835906
0.782496085 0.7505138486 0.7492649114
0.7725200674 0.7516332368 0.9969212141
0.7724793338 0.5016149303 0.4964132291
0.7724793338 0.501845354 0.9983006003
0.7925943032 1.0000326854 0.497239935
0.7925091331 0.7505007563 0.9959213905
0.7923424958 0.9991620501 0.99717117
0.8125130109 0.7472538758 0.9940883806
0.7924128537 0.5010120317 0.9952270685
0.8024147927 0.9987823746 0.2430773729
0.8125611506 0.5014028357 0.9941346687
0.8027073337 0.7498919662 0.2476330506
0.8124685743 0.7480001347 0.4933989461
0.8025258842 0.9987430978 0.7441352609
0.8026851153 0.7482357953 0.7429678743
0.8123389675 0.9989656662 0.9974766716
0.7924869148 0.7478692121 0.4951977028
0.8224705132 1.0009229591 0.7496620635
0.822303876 1.0007134829 0.2422219683
0.8324317186 0.7487333012 0.9944957161
0.8226519627 0.4986226943 0.7429002936
0.8226297444 0.7508215167 0.2405398577
0.8324280156 0.7498003204 0.4905244533
0.8227815695 0.7513779377 0.7434214979
0.8425484521 0.752850817 0.2514379348
0.8425928887 0.7502912802 0.7512423402
0.8626819367 0.5022053912 0.7542168154
0.8425632643 0.9992995189 0.7499027618
0.8624671598 0.9985794446 0.2569527025
0.8625967666 0.9981866768 0.7531401535
0.8525726093 0.9999148551 4.5990338895e-04
0.86255233 0.7537214523 0.75561842
0.85247633 0.5008588523 0.5032111037
0.8526762947 0.7510179006 0.0032821832
0.8525577971 0.4991784607 0.0032324697
0.8626893428 0.5010211963 0.2589162449
0.8625375178 0.7494991984 0.2546225581
0.8526503734 0.7488118548 0.5035341948
0.8524170812 0.9983699684 0.5048756248
0.8824710377 0.999711925 0.7578106257
0.892354479 0.9988412898 0.0025399993
0.8824599285 0.7501930882 0.7550694427
0.8727727489 0.7483339873 8.4150272495e-04
0.8924988979 0.7485565557 0.0119523201
0.8825376926 0.501216271 0.757169998
0.882493256 0.5003286157 0.258237661
0.8823673522 0.7513190226 0.2554770369
0.8725135353 0.7490213309 0.5054310824
0.8924137278 0.7496824901 0.5112087666
0.8727431245 0.4987863475 0.0074739436
0.8825080682 0.9996857405 0.2576349895
0.9123509507 0.7474437136 0.5078297332
0.9022490294 0.9957515164 0.2624758021
0.9024823216 0.9990311275 0.7615627415
0.9025637887 0.7499116046 0.756409947
0.9125731337 0.7511881 0.0128222592