POSCAR file written by Ovito 3.7.11
1
270.0470677738 0.0 0.0
0.0 15.276169029 0.0
0.0 0.0 10.8018827109
Sr Ti O 
800 800 2400 
Direct
0.0224770256 0.5002166774 0.7694165561
0.0123221662 0.499928647 0.0180827176
0.0126351117 0.2504760524 0.5185926884
0.0223848565 0.2508472188 0.7713893603
0.0023605695 0.2498240565 0.7699007309
0.0123236475 0.2513146134 0.0170363259
0.00256346 -0.0044045392 0.2656617806
0.0225480503 0.4990108777 0.2675364538
0.0124307399 -6.8940619105e-04 0.5211709426
0.0025903442 0.001181809 0.7715310023
0.0126520717 -7.9787579471e-04 0.0218456727
0.0223204973 0.2496237445 0.27062573
0.0024244842 0.2486549152 0.2652599988
0.0424212525 0.4992406473 0.2711460097
0.0324252173 0.2515882423 0.5158626087
0.0425690046 0.2476428814 0.7654700218
0.0524165471 0.4979045794 0.0187997222
0.0325263108 0.2477973704 0.0221634877
0.032487799 -0.0016662872 0.5231780001
0.0322959806 -0.0017619919 0.0243411636
0.0424693923 0.248198649 0.2735409626
0.0523036039 0.2484094348 0.5206682525
0.0525198625 0.2499968747 0.0162076741
0.0625355239 0.2472920081 0.27101918
0.0624903466 0.498159879 0.7705182159
0.0624644252 0.4985572299 0.2675114581
0.0725063783 0.5004575755 0.5179539108
0.0726293199 0.2489724032 0.5178872558
0.0625736654 0.2481515167 0.7691749315
0.0722878979 0.2506357783 0.0178126721
0.0625370051 -9.8221520564e-04 0.2664810822
0.0626321737 -7.4387010792e-04 0.7649145631
0.1024544909 0.0016939139 0.2608977962
0.0925836191 0.2502469374 0.5124335769
0.082374658 -0.0028783712 0.2638500594
0.1025433643 0.2512799189 0.7638860387
0.0823772502 0.2500800107 0.7637425452
0.0924862287 0.2513682918 0.0158614381
0.082572031 -2.8714565123e-04 0.7689221978
0.0926154654 0.0019782784 0.010821576
0.1025511408 0.2513584726 0.2609209403
0.0825253725 0.2503628041 0.2691287688
0.1024611565 0.5030406838 0.2630307577
0.0924225361 0.4974974092 0.5124382057
0.1126397524 0.0012333272 0.0078685722
0.122635047 0.2511136468 0.2541397151
0.1124812615 0.2511306668 0.5083009639
0.1225546907 0.4980433576 0.7563558699
0.1124901489 0.5011567036 0.0111387429
0.1225261771 0.248590763 0.7517261214
0.1125805035 0.2508066327 0.0068468059
0.1124868161 0.4996419259 0.5116605635
0.1524113378 0.2497114628 0.4991247858
0.1324555573 0.2505748992 0.5002847688
0.1423564239 0.2500230593 0.7522010386
0.152452812 0.2535547039 1.518618979e-04
0.1324936988 0.2473365218 0.0050348996
0.1424971401 0.2493258949 0.2545924139
0.1422553304 0.4989022117 0.7524713619
0.1524791037 0.5037692696 0.0040388695
0.1323737197 0.5026027468 0.0025864375
0.132486663 0.499327711 0.5034897656
0.1523083928 0.0029251126 0.5039183946
0.1823987028 0.2519626817 0.7486127753
0.1825027587 0.2525040478 0.2450996243
0.1623555302 0.5019900277 0.7521362351
0.1625432752 0.5001577621 0.2491109621
0.172536348 0.2525655815 0.4988563141
0.1823942591 0.4991038329 0.7467640235
0.1624936542 0.249566793 0.7502930379
0.1725626397 0.2486719352 -0.0030581896
0.1625225381 0.0016668128 0.2509439759
0.1622962812 0.2521080061 0.2489156258
0.172559307 -4.7109229353e-04 0.4964743219
0.1823609316 0.0030484419 0.2491220713
0.2024826091 0.2536738437 0.249394246
0.1925695224 0.500763935 1.1186886969e-04
0.2025622248 0.5021451713 0.2487647261
0.1924517651 0.2514095325 0.4996348821
0.2023837374 0.2524261487 0.7555837823
0.1925087922 0.2480330315 8.3359490659e-04
0.1924136236 0.0012011202 0.4979823924
0.2023400414 -0.0022073915 0.7523204623
0.1923584481 3.831794794e-04 -4.4683003137e-04
0.2022322824 0.002203793 0.254344309
0.2125689989 0.2501906405 0.5044109013
0.2224657922 0.2504249925 0.754149773
0.2126123247 0.2490620853 0.0034126823
0.2224998603 0.0028646917 0.2549340211
0.212410508 -7.8360520111e-04 0.5045784647
0.2123768102 2.1599096538e-04 8.3674250603e-04
0.2224769014 2.3661131852e-04 0.7526231873
0.2326118013 8.6713589452e-04 0.5007133978
0.2221688069 0.2527881504 0.2558662659
0.2323955427 0.2482287612 0.4986295018
0.2324018379 0.250373278 0.0034673025
0.2325644021 0.0035572082 0.9982553674
0.2522972585 0.2492872727 0.4985415541
0.2423075185 0.2506946936 0.7507494398
0.2626476764 0.2496885513 0.2445330564
0.2524157563 0.2479741162 0.9964223536
0.2425008181 0.2487184128 0.2515364652
0.2424015761 0.0030312256 0.2479176516
0.2522487484 0.498171662 0.9962001701
0.2524479729 0.0026075592 0.4990784976
0.2426378313 6.7035881027e-04 0.7522806544
0.2621503557 0.2529033626 0.7462557788
0.2524398262 -2.079373106e-04 0.9981998215
0.2624095697 -1.8581134437e-04 0.2443136502
0.2624254929 -0.0032024708 0.7476712727
0.2724744818 0.2506200676 0.4939599454
0.2723445045 0.2474052563 0.9956076808
0.2722585935 -0.0015993202 0.4966141124
0.2724596696 0.4969148024 0.9951633138
0.2823372069 0.25002175 0.7428211923
0.282380903 0.0011338258 0.7436099437
0.2822472226 0.2514010225 0.2373556039
0.3024403691 0.2519679186 0.2400505045
0.3124682506 0.2466380483 0.4909299181
0.3125674926 0.248055943 0.989571696
0.3123323484 1.4631580431e-05 0.9910158887
0.2926106012 0.249975927 0.4903263196
0.3024914713 0.2521263353 0.746781613
0.2924846972 0.5024600409 0.4950866009
0.3025596076 0.5001649628 0.2431129336
0.2923776789 0.2524248394 0.9929322213
0.302460736 0.0033492373 0.7492330375
0.2925917156 0.0013090661 0.4936748099
0.3124108532 0.5022976965 0.9926082037
0.292317319 -0.0010864953 0.9944782481
0.3224665077 0.2506141761 0.2413604613
0.3325603037 0.2507326613 0.4883572184
0.3223920762 0.2522350013 0.7393958635
0.3323944066 0.2485750522 0.9874146646
0.3223842998 0.0011868496 0.2435295277
0.33234997 0.00182104 0.4900902496
0.3224098509 6.6289620628e-04 0.7438450879
0.3323807053 -0.0012834687 0.9903956265
0.362566184 0.254542517 0.2440090737
0.3525327479 0.2491484944 0.4899819352
0.3423341554 0.2525524893 0.746337246
0.3524061033 -3.1843621885e-04 0.9935617412
0.3524779426 0.2509054795 0.9931636624
0.3424608 0.0035740973 0.2380582592
0.3423634095 -9.0385786371e-04 0.7421314977
0.3424859808 0.2519011479 0.2408244437
0.3626180268 0.249763832 0.7434544152
0.362569887 4.3116271385e-04 0.2443367943
0.3725940655 0.2529243102 0.4962567673
0.3826330562 0.2504943816 0.7442015072
0.3724681615 0.2505971561 0.9929599942
0.382555292 0.0011537261 0.7460474817
0.3825960256 0.2563859111 0.2469011621
0.3926424224 0.0028729398 0.490953988
0.3924535665 0.003822458 0.9937561517
0.3724718646 0.0020042665 0.4916705297
0.3726644236 9.486353855e-04 0.9950059339
0.3926720469 0.2559237533 0.489951385
0.3926090949 0.2543101289 0.991765758
0.4126167182 0.0050738843 0.4895023892
0.4025851336 0.2546570745 0.737600806
0.4026036489 0.0024949655 0.2411040246
0.4026925223 0.0046872691 0.7377924393
0.4022999981 0.5026223852 0.2415243217
0.4026777101 0.2546616568 0.2427454051
0.4127426222 0.2547827605 0.4903846428
0.4127092946 0.2541399291 0.9931914354
0.4126648579 0.005103342 0.9865537036
0.4124389714 0.5007200758 0.9928489025
0.4125019234 0.4999672693 0.4884229477
0.4226186783 0.2507326613 0.2345690527
0.4426411138 0.2497795427 0.7333071101
0.4324354855 0.5022983511 0.9871924811
0.4325354681 0.5030367561 0.4974676673
0.4424411487 0.2493422603 0.2362696821
0.4225705385 0.504223572 0.2395922511
0.442715175 0.4982194489 0.7348698006
0.4325799048 0.2541320738 0.4845004833
0.4224779621 0.2508753672 0.7342523157
0.4324502977 0.2523233742 0.9847299475
0.4425522404 0.50353099 0.2345810876
0.4326391537 0.0017022275 0.9866092495
0.4525319822 -2.8904403295e-04 0.9854520438
0.4724803565 0.2513434165 0.4841931295
0.462582082 0.2512170759 0.7327368391
0.4724248107 0.2505899553 0.9851928297
0.4625117239 0.2511823813 0.2358382758
0.4523357201 0.5033902479 0.986516673
0.462452475 0.4996851305 0.7341736257
0.4723544525 0.5009131871 0.4837663521
0.4525023577 0.2537216305 0.4852151736
0.4524060782 0.2520837854 0.9848040086
0.4727247584 7.675690465e-04 0.9813879375
0.4825119411 7.9794315399e-04 0.233891393
0.4825452686 0.2515934792 0.7287125407
0.482504535 0.250685529 0.2359845466
0.492499089 0.2511974375 0.479960534
0.4924546523 0.2541490937 0.9780366698
0.4823453035 0.5042628489 0.2354235333
0.5024492063 0.2493488064 0.2260149883
0.5126252101 -0.0020290745 0.980564007
0.5224975632 -0.004821378 0.2288506051
0.5025454858 0.2506599991 0.7304140959
0.5026454684 0.499762375 0.7273961035
0.5125992887 0.2522297644 0.4764065239
0.5025195644 -0.0033326082 0.7290985845
0.5225160785 0.2460757345 0.2261899578
0.5125141184 0.2462367697 0.9784625215
0.5223198164 0.2475793838 0.7313176421
0.5124956031 0.4986789882 0.481199207
0.5225901397 0.4997571381 0.2304688415
0.5226604978 0.497278768 0.7282348462
0.5522590417 0.2494574724 0.4807946479
0.5522553386 -0.0030167567 0.9822581561
0.5324847111 0.4987365942 0.9853224368
0.5323773224 0.4956239028 0.4815565521
0.5324328683 -0.0042583638 0.481218648
0.5322625276 0.2481914482 0.4751669252
0.5322847459 0.2507267697 0.9764721277
0.5424237192 6.8980085752e-04 0.7288162263
0.5424459375 0.2515044516 0.2264121413
0.5423718764 0.2491511129 0.7317851532
0.5523145876 0.2443364241 0.9812027846
0.5624572639 0.4990043315 0.7321489787
0.5623128446 0.4978142426 0.2332433578
0.5623017354 -9.8201882132e-04 0.232428685
0.5622795171 0.2488905764 0.2339099083
0.5622461896 0.24655033 0.7306344279
0.5723999751 -0.0023637134 0.4829035395
0.5723407261 -8.94496878e-04 0.9817767586
0.5723222108 0.2470962783 0.4846050947
0.5723185078 0.247146029 0.9838134406
0.5926520002 0.4952324434 0.9882293374
0.5824759963 0.2487701273 0.737023129
0.6022651392 0.2464632662 0.2415058064
0.5922631791 0.2464311901 0.4873703534
0.6023651218 0.248774055 0.7396615579
0.5923483494 0.2493697541 0.9855909085
0.6026761786 0.5012908996 0.7372499413
0.5822130792 0.2451893866 0.2364603896
0.5925890482 0.4956664528 0.4929212376
0.5824426688 0.495722095 0.2344394456
0.6122930207 0.0011243993 0.9860630484
0.6127707152 0.4980178276 0.4886136552
0.6225319765 0.2464462463 0.7382423609
0.6225690071 0.5020888745 0.2411540158
0.6122522871 0.4996019945 0.9875905599
0.6225875224 0.5022191428 0.7403355145
0.6124448461 0.248602546 0.4818092858
0.6124004094 0.2484879885 0.9868962365
0.622372745 0.2483151703 0.2400477272
0.6424433203 0.2468750187 0.2407124262
0.652415656 0.2454276663 0.4938303384
0.6422766827 0.2511849998 0.7409400388
0.6524860141 0.2440588676 0.9875072411
0.6327301987 0.4995561714 0.988553355
0.6423988836 0.4967923895 0.7426786246
0.6527081975 0.4970771468 0.9928396448
0.6423877744 0.4945876483 0.2441757113
0.6525822936 0.4982750911 0.4890080309
0.6325672642 0.2459651047 0.4900060051
0.6324043296 0.2507784843 0.9909418275
0.6626509087 -0.0021562661 0.7441903981
0.672471419 0.5007233489 0.4961697454
0.6825437372 0.497307571 0.7452698395
0.6725899169 0.4996386529 0.9972370264
0.6823919118 0.4983254964 0.2406902078
0.6625546292 0.2480755815 0.243630436
0.6626286904 0.2496806959 0.7383386404
0.6824104271 -2.3412188602e-04 0.2420131253
0.6824993005 -5.0500131869e-04 0.7477092291
0.6624213191 0.4968421402 0.7432229741
0.6625546292 0.4959112785 0.2406365135
0.6824178332 0.2487229951 0.2478482192
0.6724417945 0.2475335608 0.4924092898
0.6824881913 0.2472605866 0.7384645444
0.6725417771 0.2487432881 0.9923582473
0.7026439369 0.2499458148 0.2364437259
0.6925382912 0.2471283545 0.4918232809
0.7027587317 0.248415981 0.739806903
0.6925975401 0.2502927604 0.9931636624
0.7025032207 0.4953686032 0.7350929099
0.7025476574 -7.9763813942e-05 0.7452920579
0.7026143125 5.3777520678e-05 0.2438711348
0.6925123698 0.4995587899 0.9937654094
0.6926271646 0.4985002784 0.491865866
0.7124829625 0.250018477 0.4893607472
0.7124792594 0.2510017078 0.9893217396
0.7225552807 0.5001819828 0.7430915155
0.7225997174 0.2454126101 0.2419029594
0.7326572234 0.4989081032 0.996413096
0.7325794592 0.2492912004 0.4956392823
0.7225960144 0.4973128079 0.2386738926
0.7325128041 0.4989323239 0.4914622327
0.7225589838 0.2493481518 0.7425305022
0.7324868827 0.2499903285 0.9931636624
0.7125940542 0.500208822 0.9914695133
0.7625186845 0.4980381207 0.7436414197
0.7425369826 -0.0017041239 0.7411751829
0.7525167243 0.4974110001 0.991737985
0.7624668416 0.4994880916 0.2404587667
0.7623224224 0.2501552914 0.241691885
0.752624113 0.2499045741 0.4946959282
0.7624520294 0.2492984011 0.7430507819
0.7525241305 0.248465077 0.9955799079
0.7424481092 0.5008948579 0.748405404
0.752750017 0.4990763391 0.4889811837
0.7425332795 0.248161336 0.2457319215
0.7425073581 0.2477463104 0.7431729828
0.7825374169 0.5002827934 0.2448209692
0.7824300282 0.4998383102 0.7418417334
0.7825300108 0.2474543524 0.2448589255
0.7726909852 0.247380381 0.4914613069
0.7825226047 0.2482824396 0.7456160755
0.7725984088 0.2500112762 -0.0074743364
0.7925504862 0.4976433882 0.4991368207
0.8124729391 0.5004961977 0.5029500449
0.8026116952 0.4975661437 0.7482563559
0.8025709616 0.4985801414 0.2470918696
0.7926763902 0.2498522049 0.4997894847
0.7926282504 0.2470858045 0.9925156273
0.8126358737 0.0010700664 0.5007217296
0.8024413546 0.2506508345 0.2499385956
0.8126654982 0.2506122122 0.5023084901
0.8026450228 0.2478445026 0.7499829068
0.8126432798 0.2512393328 1.0072723141
0.832643497 0.0017214077 0.5041192855
0.8228155806 0.2507077859 0.2539897412
0.8326916367 5.8388424996e-04 1.00367109
0.8325620297 0.251603953 0.5047302901
0.8224674931 0.249826675 0.7542043931
0.8325768419 0.2482267974 0.001258706
0.8327471826 0.5000811722 0.5051144824
0.832706449 0.4995568261 1.0010974646
0.822715598 0.5008621271 0.254088798
0.8425639898 0.5036278729 0.7549190833
0.8424899286 0.5023363187 0.2491405865
0.8425528806 0.0012845835 0.2576752099
0.8425565837 0.250785685 0.2506218098
0.8425639898 0.2523835987 0.7525195016
0.86256791 0.2515352185 0.2522224567
0.8524289368 0.2526100953 0.504577539
0.862371648 0.2519188225 0.7510762347
0.8524141245 0.2531449153 0.0077445198
0.8927219127 0.5002808296 5.9132232596e-04
0.8724735906 7.8452355909e-04 0.504817312
0.8823977865 0.2516733421 0.2545516803
0.8725476518 0.2503182904 0.5046728927
0.8924071527 0.2512498066 0.4986998599
0.8823755682 0.2501448175 0.7519112743
0.8725365426 0.2506534529 0.0026791065
0.892484917 0.0011413539 0.4980555278
0.8725476518 5.3675201422e-04 -0.0010935691
0.8925108384 0.2500623361 -0.002740171
0.8726069007 0.4995594445 0.4992914234
0.8922368121 0.4987411765 0.5003449435
0.9125110555 0.4956566336 0.5050330151
0.9023461609 0.5001047383 0.7488469937
0.9125740075 0.4990056407 0.0043684417
0.9024720648 0.5004490655 0.2482185251
0.9124999464 0.0032868525 0.5015688042
0.902546126 0.2495307892 0.2515809019
0.9125814136 -0.0011622996 -9.7034987984e-04
0.9124925403 0.252742982 0.4989664801
0.902479471 0.2504983093 0.7508457193
0.912414776 0.2491249283 -0.0052859309
0.9425539665 0.2506901113 0.752639851
0.9324853513 0.2525092847 0.007534649
0.9325149758 0.5002192958 0.5007374676
0.9324075871 0.5005407115 0.0062979201
0.922535234 0.5027736012 0.7539701747
0.9224833912 0.50102709 0.2548053398
0.9424539839 0.5000687345 0.7584092157
0.9225611554 0.2483171342 0.2522604131
0.9225574524 0.2484840608 0.754720044
0.9424428747 0.2498234019 0.2600683112
0.9325408972 0.2503065073 0.5039045081
0.9725820651 0.0013967189 0.5080278634
0.9626208387 -0.0060022173 0.7591757487
0.9625208561 0.2522402382 0.2601432981
0.9525670357 6.753338796e-04 0.0069450295
0.9725339254 1.9759630115e-04 0.01364775
0.9524411318 0.2512995573 0.5073261339
0.9725376284 0.2495059139 0.5141897522
0.9624986377 0.2467264212 0.7662347033
0.9524855685 0.2507084405 0.0075597372
0.9524855685 0.0019912397 0.5098386589
0.9727264844 0.2463225241 0.0122119817
0.9724931917 0.4990030223 0.5063698191
0.9624801225 -8.7815570882e-05 0.2578362929
0.9523374461 0.5005256554 0.5093572613
0.9623097818 0.4985683583 0.7642091305
0.9824729335 0.2492106828 0.2608052198
0.9823951693 -0.0050199618 0.7626566234
0.9926304221 -0.0014291859 0.0174470876
0.9925785792 0.2482686927 0.5148164948
0.9824692304 0.2491962813 0.7632009729
0.9924156447 0.2478883618 0.0178887699
0.992497112 0.4991051421 0.0067098853
0.0225014658 0.7504947407 0.7704506351
0.002510173 0.4981415498 0.2702026556
0.0025655708 0.7473722301 0.768139001
0.0124341097 0.4986789882 0.5158403904
0.0024574044 0.4992170812 0.7641248859
0.0225671581 0.9981550011 0.2739121942
0.0226125575 1.0021350566 0.7731501645
0.0125174655 0.7473198609 0.0184464505
0.0225305348 0.7506976712 0.2699314066
0.0025608679 0.7474704223 0.2678317726
0.0126081904 0.7513522856 0.5212903662
0.0524446904 0.999150015 0.5226364279
0.0523369314 0.9947051833 0.0204146259
0.0325929659 0.7505667483 0.0218702981
0.0425771513 0.7501150644 0.2736863076
0.0325022409 0.7500365106 0.5210265233
0.0425419722 0.748550536 0.7690138485
0.0423183075 0.4972709126 0.7719383387
0.0325185344 0.5006035545 0.0198273209
0.0324370671 0.5017006882 0.5227975109
0.0425678936 0.9991369227 0.2711561931
0.052495052 0.4966254628 0.5180270462
0.0526505804 0.7473460455 0.0208907466
0.0525146782 0.7492051504 0.5216328991
0.0425649312 0.9972712717 0.7715411857
0.0724730508 0.4978103149 0.0167671136
0.0726304308 0.9974152869 0.5189963217
0.0726359854 0.9998635447 0.0152144213
0.0725360028 0.7495848267 0.0137499544
0.0625355239 0.7503441794 0.2690195286
0.072358256 0.7469467307 0.5142314116
0.0625466331 0.7488778432 0.7702988097
0.0927117449 1.0004526976 0.5145332108
0.0924484575 0.7487534664 0.0152869087
0.1025892823 0.7518497925 0.263190915
0.0823324432 0.7509333324 0.2620799975
0.0924747492 0.7509660631 0.5161107136
0.1024633783 0.7487992895 0.7595275392
0.0825216694 0.7503965486 0.763031558
0.1024937434 1.0005312514 0.7663439435
0.1025603984 0.4997558288 0.760244081
0.0825809184 0.5004916154 0.7633805712
0.0924451247 0.4997054235 0.012785678
0.0823679925 0.5016083875 0.265070217
0.1126260511 0.7511951781 0.010488023
0.1226206051 0.7499448646 0.2558486764
0.1125223655 0.7478500986 0.5108097859
0.1225994977 0.7483148748 0.7586647267
0.1225972758 1.0010680352 0.2607663377
0.122599868 0.9984168469 0.7586656524
0.1225824636 0.4994272124 0.2608089228
0.1125531009 0.9999355523 0.510404301
0.1424427052 0.7501216105 0.2577779697
0.1524017098 0.7502198027 0.5032425865
0.1325336918 0.7512540934 0.5108458907
0.1424689969 0.7506322097 0.7575417743
0.1525131719 0.4991601297 0.5046173468
0.1325033268 1.0010222121 0.0080927924
0.1426271175 0.5010892783 0.2522705965
0.1425252834 1.0001712134 0.2558116458
0.1325766473 1.0006163512 0.50285932
0.1425349113 0.9983841162 0.7560392584
0.1523972661 1.0019452184 0.0028121389
0.1524098565 0.749781211 0.0071424951
0.1326466351 0.7517123235 0.0089261656
0.1725211655 0.7505732944 6.1322125701e-05
0.1623725642 0.7524062147 0.2507338273
0.1724637681 0.7495259114 0.4991266373
0.1625566062 0.7484785284 0.7478675348
0.1823350102 1.0028158556 0.7517714839
0.1726818782 0.5004156801 6.0437560601e-04
0.172451548 0.4992511211 0.4973047327
0.1825897806 0.7526746066 0.2470816862
0.1826064444 0.751738508 0.7499171775
0.1724893192 0.9991303766 -0.0026762655
0.1624621782 1.0012382349 0.7520325495
0.1825375675 0.500875874 0.2472075902
0.2026522092 0.5018820164 0.7492200768
0.1924465808 0.5021536813 0.5002829172
0.1923847398 0.7540754814 0.0017779673
0.2025518563 0.7509267862 0.2461642535
0.1922973476 0.7520527229 0.5002412578
0.2024881637 0.7491265966 0.7501754658
0.2325162624 0.7484065208 1.6213788432e-04
0.2325070047 0.5049639409 0.0032840936
0.2326573489 0.7489629431 0.4971982698
0.2124919753 0.7536696205 4.3690480037e-04
0.2224972682 0.7532703057 0.2497941763
0.2123557028 0.7485374437 0.5014179046
0.2224672734 0.7534994207 0.7454429575
0.2325562554 0.5002638096 0.4976296761
0.2224491284 0.5001040837 0.7486498059
0.2125238216 0.5035892507 0.0046620016
0.2223750673 0.501857141 0.2496247614
0.2125297465 0.50401475 0.5016817475
0.2523494716 0.7483279671 -0.0017069807
0.2423271447 0.7502590795 0.2513624214
0.2523609511 0.7493164348 0.5017595117
0.2424482347 0.7512540934 0.7476305391
0.242461936 0.4998939525 0.7493515354
0.2622373775 0.4992314827 0.7476296133
0.2622029391 0.7505209253 0.245761546
0.2423326993 0.5013380318 0.2471076076
0.2621355434 0.7482232288 0.7484618757
0.2623717985 0.5008765287 0.2459828037
0.2523857616 0.5013471964 0.498310113
0.2723470966 1.000786551 0.9971907382
0.2825519843 0.4967367473 0.2453181048
0.2722708136 0.5014637178 0.4956300247
0.2825364315 0.9992351149 0.2483703504
0.2824971791 0.5008896209 0.7418065544
0.2823812733 0.7523931224 0.2464623497
0.2824427441 0.7502459872 0.7428841443
0.2723659822 0.7497550265 0.996857463
0.2723533918 0.7491724197 0.5002745854
0.3123423467 1.0002563133 0.4914085384
0.2923654588 0.7480530291 0.9999865471
0.3023800093 0.7492116965 0.2426148723
0.2925065453 0.7509529708 0.4986211699
0.30247777 0.7511624474 0.7481665568
0.3025525718 0.5007979749 0.7424592184
0.2924106361 0.500083136 0.9926915225
0.302535908 0.9981811857 0.2437767068
0.312526759 0.7509857015 0.9938950164
0.312437145 0.7517254158 0.4969057282
0.3125915625 0.4994756539 0.4928351415
0.3326939841 0.5033005657 0.4881239258
0.3226946161 0.5026354775 0.7414371743
0.3325154967 0.7556007329 0.9934413918
0.3325603037 0.5026027468 0.9868406906
0.3224057775 0.749414627 0.2456328647
0.3325095718 0.7513457394 0.4897569744
0.3225153881 0.7514504777 0.7434210877
0.3225042789 0.4982410511 0.241802051
0.3524823863 0.5013288672 0.4939830895
0.352468685 0.9999813753 0.4948209065
0.3625143412 0.7500954259 0.2489952415
0.3626365421 0.7537023512 0.7431553933
0.3625402626 0.5019507509 0.7443875859
0.3626254329 0.4994894008 0.2470344722
0.3526138449 0.7511297167 0.9956909996
0.3424763528 0.7508024095 0.2445950826
0.3525142326 0.7530215522 0.4944968889
0.3424782043 0.752648422 0.7384238107
0.362503232 1.0016637342 0.7417510085
0.3424882026 0.5018191734 0.7385969287
0.3523798116 0.4992655227 0.9903771112
0.3427322341 0.5015095408 0.2448404102
0.3725311135 0.5040658099 0.9957095149
0.3824145758 0.504812725 0.2456171267
0.3723422576 0.5001080114 0.494142321
0.392549846 0.5043027804 0.99380244
0.3825367767 0.5009400263 0.7381220115
0.3726459083 0.7541540351 0.9952836632
0.3825145583 0.7518628848 0.2489915385
0.3725125982 0.7525829606 0.4977092918
0.3823442177 1.0041250843 0.2413354657
0.3824442002 0.7537874511 0.7429693146
0.3924794879 0.7522032843 0.9900993818
0.3924313481 0.7543373272 0.494535771
0.3926498285 0.5023841056 0.4946700068
0.4024888541 0.5033915571 0.7386904309
0.4023666532 0.7534470516 0.2418899987
0.4024259021 0.7543504194 0.7429452447
0.4123649102 0.7508547786 0.9906640982
0.412350098 0.7528513525 0.4890395069
0.4226038661 1.0046422297 0.7387431995
0.4425707557 1.0004330592 0.2333507465
0.4326021231 1.0018732108 0.489011734
0.4426151924 1.0038763309 0.7312482098
0.4223964948 0.5042183351 0.7391866407
0.4325021405 0.7508744171 0.983748637
0.4224964774 0.7527858911 0.2397014913
0.432528062 0.7532637596 0.4846087978
0.4223298398 0.7529691831 0.7362908492
0.4424966945 0.7527989833 0.234831044
0.4424448517 0.7514373854 0.7346615036
0.4225927569 0.9999813753 0.2358095771
0.4724803565 0.9994904145 0.4808140889
0.4725025749 0.4986986266 0.9812583304
0.4625043178 0.5003214157 0.2371167567
0.4725247932 0.7505929329 0.9869332671
0.4623191649 0.7492575195 0.2361659965
0.4725470116 0.7504096408 0.4858863529
0.4626598463 0.7491724197 0.7360705173
0.4526949167 1.0008061894 0.4845060379
0.4627265013 0.9994642299 0.2347569829
0.4626005973 1.0008258278 0.7344587612
0.4524097813 0.7516730466 0.9846095981
0.4525319822 0.7523080226 0.4863112788
0.4525319822 0.5006971643 0.4834228934
0.4923842942 0.5019239117 0.9810454046
0.4925176043 0.4995240953 0.4821592248
0.4825008319 0.5024148725 0.7347966653
0.482567487 0.9997915371 0.7307982882
0.4925435257 1.0018863031 0.4841357321
0.4926657266 1.0010483967 0.9778607746
0.4925472287 0.7497681187 0.4799318353
0.4924879798 0.7538201818 0.9784995521
0.4823823341 0.7484261593 0.2344079696
0.4824823166 0.7508547786 0.7327238784
0.502493643 0.4990763391 0.2253308483
0.5124215419 0.9976574942 0.4727210553
0.5225234846 0.9994576838 0.7239874385
0.502556595 1.0011793196 0.2275526832
0.5222679736 0.7524520377 0.721999822
0.5025380797 0.7506714866 0.2253271452
0.5023825512 0.7513326471 0.7315259391
0.5125067123 0.7467961694 0.974453961
0.5125696642 0.4991928605 0.9800548365
0.5124104327 0.7492182427 0.4801318005
0.5224679387 0.7503310871 0.2274054866
0.5523960548 0.9991238304 0.4848291298
0.5423163305 0.500125686 0.7338125775
0.5421089593 0.7477388142 0.232873052
0.5524775221 0.4993768071 0.4761611963
0.5524738191 0.7476733527 0.4794124814
0.5425644354 0.7474442377 0.7320499219
0.5323402918 0.9990910997 0.9800918671
0.5424274223 0.5013144657 0.2321000386
0.5325402569 0.7474442377 0.9763425207
0.5523627273 0.496603206 0.9799067142
0.5423200336 0.9984954006 0.227604526
0.5322440123 0.7485701744 0.4799309096
0.572329617 0.4971714112 0.982313702
0.5622980324 1.0011204043 0.7308251354
0.5524145701 0.7491658735 0.9844707334
0.5625054036 0.7462855702 0.2294606839
0.5626201984 0.7453691101 0.7302493098
0.5723999751 0.7494735423 0.9874146646
0.572588831 0.4973605948 0.4848744922
0.5726332677 0.749277158 0.483192378
0.6025428686 0.5018937994 0.24078371
0.6024132615 0.9986525081 0.2387340673
0.6023873401 0.9985019468 0.737011094
0.5925890482 0.748779651 0.9892754514
0.5922891005 0.9968130416 0.4906799617
0.5924631442 0.9986459619 0.9897013031
0.6026317419 0.7495455499 0.240064391
0.592574236 0.7464164931 0.4889876641
0.6024317768 0.7483148748 0.7366148668
0.5823167648 0.9966952111 0.2345431312
0.5821945639 1.0001646673 0.7361964212
0.5824389658 0.4964794838 0.7369009281
0.5824056382 0.7467896233 0.2350763716
0.582327874 0.7468878154 0.7371323692
0.6124966889 0.7468616309 0.9889236608
0.6123967063 1.000243221 0.491099333
0.612563344 0.7499317723 0.4892977952
0.6223209022 0.9977033172 0.7376711642
0.6223801512 0.74891712 0.2406365135
0.6225319765 0.7461939242 0.737282343
0.6225245704 0.998966723 0.2391673251
0.6423359316 1.0013757039 0.7419472706
0.6325117183 0.4972231258 0.4928027398
0.6424618356 0.9975789405 0.2435304534
0.6523045642 0.9978146017 0.492180626
0.6525008263 0.9979717091 0.9921082909
0.6323487837 0.9948491985 0.4877776898
0.6325931856 0.9967279418 0.9889144032
0.6324043296 0.7491396889 0.9943393834
0.6323821113 0.7498859493 0.4931036132
0.6525045294 0.749506273 0.9962927466
0.6425655212 0.7464819545 0.2414197103
0.6523934376 0.7498139418 0.494567247
0.6424914601 0.7478959216 0.7435118126
0.6725825107 0.7475358837 0.9959965019
0.6625768476 0.999876637 0.2403698933
0.6726084321 1.000289044 0.9938116976
0.682469676 0.7470449229 0.2472205509
0.6724899343 0.7482559595 0.4978750037
0.6826326106 0.7489498508 0.7465492461
0.6723788425 0.9982728317 0.4953837713
0.6624953803 0.7441253427 0.2470150312
0.6625620353 0.7473525917 0.7462261543
0.7026291247 0.4962785172 0.2418909244
0.6924901514 0.9995558759 0.4974139729
0.6924568239 0.9990714613 0.9946911739
0.6924790423 0.7476078913 0.9936635753
0.7024884085 0.7511689935 0.2446348905
0.6926790074 0.7516665005 0.4951143738
0.7026772645 0.7501608874 0.7410381698
0.7125422114 0.5013845094 0.4934517007
0.7125236961 0.7499841415 0.4913585471
0.7224701104 0.9978997015 0.746687185
0.7326683326 0.997055249 0.9891736173
0.7326646295 0.7469205462 0.992784099
0.7225034379 0.7478959216 0.2441784886
0.7324868827 0.7474704223 0.4919815866
0.7225626868 0.751371924 0.7404040211
0.7225923113 0.9980829936 0.2433360429
0.7327275815 1.0016899188 0.4911317348
0.7125570237 0.7483083287 0.9947744927
0.7125422114 0.9997915371 0.4931230543
0.712579242 0.9997522602 0.9959316984
0.7426184499 0.4970391791 0.2449950129
0.7424666245 0.7482428672 0.239686679
0.7425962315 0.7477519064 0.742582345
0.7525204274 0.7470318306 0.9940523964
0.7623187193 0.9972189026 0.74372659
0.7525537549 0.9966690265 0.9858593802
0.7623557499 0.7478173679 0.2410401468
0.7524870999 0.7476798989 0.4918334643
0.7624038897 0.7479417446 0.7429859784
0.7526093008 1.0001319366 0.4898125203
0.7424592184 0.9993529455 0.2427565143
0.7625223875 0.9977033172 0.2355892452
0.7826781331 1.0010483967 0.2401014216
0.7727428281 1.0000992059 0.4913928004
0.7825929628 0.9995165991 0.7394319683
0.7725058323 0.9997653525 0.9910529193
0.7824226221 0.7514373854 0.2424500862
0.7723428978 0.7502590795 0.491653866
0.7825226047 0.7506256636 0.7436673411
0.7724725048 0.7492509734 0.9954688161
0.7724243651 0.4992406473 0.4925453772
0.7725206446 0.4990567007 0.9921730944
0.7925578923 1.0007800048 0.493902548
0.7924468006 0.7482035904 0.9984775509
0.7925838137 1.0006883588 0.993932047
0.8127358563 0.7485767206 1.0058836672
0.7924282853 0.4994435778 0.9939875929
0.8026746472 0.9987245157 0.2483342456
0.8125581095 0.4975530514 1.0049393874
0.8026265075 0.7486159974 0.2466141751
0.8125840309 0.7507696788 0.5022612761
0.8026005861 1.0008061894 0.7478777182
0.8026042891 0.7512279088 0.7525009864
0.8126840135 1.0001122981 1.0004772023
0.7925652984 0.7501085182 0.492534268
0.8226970827 0.9977949632 0.7506772302
0.8226674583 0.9979520707 0.2563374801
0.8325953572 0.7522687457 1.0038932735
0.8224674931 0.5020495976 0.7504754135
0.8227230041 0.7491789658 0.2508106658
0.8326397939 0.7477060834 0.5018178349
0.8226896766 0.7501150644 0.7522084448
0.8427417366 0.7504489177 0.2569753319
0.8427232213 0.7542915041 0.7559772322
0.8625271764 0.5025156831 0.7538053886
0.842638051 1.0046160451 0.7541534761
0.8625864253 1.0016768265 0.2529788063
0.8626864079 1.0014411654 0.7516909424
0.8527251814 1.002698025 0.0074749372
0.8625308795 0.7531721135 0.7532480783
0.8524474521 0.4969959746 0.5029287523
0.8526103866 0.7500234184 0.0026671642
0.8526511203 0.5002886849 0.0040842319
0.8625938314 0.5009806123 0.2500922725
0.8626530804 0.7499841415 0.2498654602
0.8526103866 0.750553656 0.5017280357
0.8526140897 1.0018470263 0.5038582199
0.8826570006 1.0016899188 0.7533378775
0.8924960261 1.0021874258 3.9468993726e-04
0.8824459263 0.7515944929 0.7517548201
0.8724439662 0.7509006016 0.0013877576
0.8926367424 0.7502001642 0.0026653126
0.8825014722 0.5020018108 0.7517974053
0.8825459088 0.5037961088 0.2476704725
0.8824570355 0.7516992312 0.2521687624
0.8725550579 0.7489629431 0.4986146895
0.8926182271 0.7486749127 0.4970399641
0.8723550928 0.4988177664 9.6273906019e-04
0.8825162844 0.9978473324 0.2532546842
0.9124332913 0.7503638178 0.502576036
0.9026572178 1.0005770744 0.2485055121