POSCAR file written by Ovito 3.7.11
1
270.0685055509 0.0 0.0
0.0 15.2773817328 0.0
0.0 0.0 10.802740222
Sr Ti O 
800 800 2400 
Direct
0.0225731384 0.5009353697 0.7802396408
0.0126645043 0.5031883736 0.0272003347
0.0125292793 0.2548545906 0.528010119
0.0224670542 0.2519306602 0.7794824255
0.0025226331 0.2462333489 0.780844117
0.0125709354 0.2494681964 0.0289348021
0.0026724469 -6.18701147e-04 0.2797545889
0.0224914554 0.5007200187 0.2761203258
0.0126553955 1.9635998178e-04 0.5348898549
0.0026369374 7.6779297683e-04 0.7809996331
0.0127228969 9.5794336063e-04 0.0286004424
0.0225990948 0.2528660299 0.2801655957
0.0025668811 0.2520406267 0.2756241554
0.0426167936 0.5018543753 0.2802850099
0.0326608011 0.2530931631 0.5310658252
0.0425449599 0.2521990308 0.7802711142
0.0525120607 0.5006087431 0.0381089558
0.0324364136 0.2484778434 0.0292009382
0.0326130355 0.0017269233 0.5289691349
0.0325923 4.8665841627e-04 0.0272387509
0.0426482671 0.2499447178 0.2788724053
0.0525176148 0.25122046 0.5292061118
0.0525609372 0.2520347356 0.0309930761
0.0625550681 0.2527861733 0.2858354535
0.0626813323 0.5007664926 0.7872980351
0.0626135717 0.5036197302 0.2872276928
0.0724318214 0.499355256 0.5414289365
0.072384426 0.2499087169 0.5426536258
0.0628635083 0.2525374396 0.7903241191
0.0724129373 0.2521708846 0.0403329286
0.0626672618 0.0017322907 0.2833712639
0.0627068814 0.0014637237 0.7886523211
0.1025086346 -0.0011883014 0.278732626
0.0925678235 0.2492993193 0.5357387136
0.0826447856 -9.7988869186e-04 0.2873693235
0.1024153249 0.2476269123 0.7840127575
0.0824618691 0.249495688 0.7912035256
0.092480068 0.2489340735 0.0386099398
0.0826099797 -3.0549302772e-04 0.7857363942
0.0927766594 -1.7444963069e-04 0.0342965898
0.1025215943 0.2474462531 0.2828380658
0.0824455769 0.2519188781 0.291194279
0.1022927634 0.5014393828 0.2889004165
0.0924637758 0.499811486 0.5338549323
0.1125131332 0.0013780415 0.030081363
0.1224891206 0.249862243 0.2786946727
0.1123709471 0.2480477959 0.5302290004
0.1223606347 0.4989657914 0.7827223442
0.1123816851 0.5010034442 0.0318110167
0.1225135589 0.2497935139 0.7792000897
0.1124064936 0.2497568584 0.0321647233
0.1124301913 0.4994364218 0.5307131369
0.1522919293 0.2483377671 0.5166907688
0.132395496 0.2489281824 0.5269076209
0.1424622011 0.2494151768 0.7733645333
0.1523533952 0.248855526 0.0168077864
0.1324602944 0.2457267176 0.0267501712
0.1425695813 0.2516865084 0.2721454084
0.1424592389 0.4994442765 0.7712243356
0.152343768 0.5002749162 0.0232109765
0.1323195893 0.5004431388 0.0266175196
0.1323388437 0.4963357596 0.5262364949
0.1525340901 0.0014236645 0.5171193637
0.1823754075 0.2504258212 0.7619516883
0.1825146314 0.2528797757 0.2601290128
0.1623304934 0.5018497934 0.7630440037
0.162380851 0.5025901035 0.2706855936
0.1723412867 0.2516721081 0.5119114258
0.1825098178 0.4986012001 0.7626274427
0.1623382692 0.2479528844 0.7614166388
0.1724375586 0.2488993816 0.0129312699
0.1624815661 -5.7543457086e-04 0.2646278714
0.1623227176 0.2543846147 0.262513593
0.1724197853 -8.4426335787e-04 0.5126723439
0.1824676063 -8.4316385083e-05 0.2612805725
0.2023840345 0.2492161899 0.2575565174
0.1925443089 0.5011258474 0.0127482608
0.2027095075 0.4987137848 0.2651073793
0.1925709688 0.2492430269 0.5127177027
0.2024554979 0.2500782486 0.7589117188
0.1924658103 0.2500651573 0.0117690648
0.192539125 0.0012293904 0.513334213
0.2024869714 -9.6025181918e-04 0.7625737526
0.1922928912 9.1899689648e-04 0.0112885386
0.2025365884 0.0025698688 0.2591311179
0.2123096643 0.2484686796 0.5080013068
0.2223152738 0.248530863 0.7568002175
0.2124629587 0.2489635288 0.0093185755
0.2224607924 1.0609582369e-04 0.262411767
0.2123574299 0.0011576504 0.5122918849
0.212537014 -0.001467865 0.0105508554
0.2223345281 9.1428404704e-04 0.7613027788
0.2325130567 -6.3696343859e-04 0.5077578501
0.2225452154 0.2489537103 0.2600614374
0.2323623542 0.2511131118 0.5127760213
0.2324123415 0.2504749134 0.0122505167
0.2325041701 5.1395366929e-04 1.0116753643
0.2524513312 0.252651988 0.5075819688
0.2423190872 0.2526958437 0.7604205953
0.2625617289 0.2524621649 0.2519394241
0.2525990715 0.2481276525 1.0072135335
0.2425068174 0.2525086388 0.2607316377
0.2424964496 0.003730277 0.2596263626
0.252444296 0.5019813605 1.0059545936
0.2525176107 0.0033552782 0.5082040332
0.2422576213 0.0024589205 0.7601836183
0.2626598522 0.2515961788 0.7575889063
0.2525605628 0.0029612971 1.0035663107
0.2623828854 4.4214817152e-04 0.2547609304
0.2625058172 0.0018234058 0.7561318686
0.2725910361 0.2507393566 0.5060832749
0.2725821495 0.2501417411 1.010360883
0.2723640567 0.0010970379 0.5079568736
0.2726106608 0.5004372477 1.0058990522
0.282422986 0.2502085065 0.7522911764
0.2822726537 0.0011638032 0.7528882471
0.2824948196 0.2528909033 0.2521726982
0.3024875247 0.2514921034 0.2481200228
0.3125727436 0.2495938724 0.4941150153
0.3125175724 0.2492790278 0.9943001432
0.3124579579 1.8798158277e-04 0.9947722457
0.2925711519 0.2512486062 0.4979316395
0.3024630865 0.2497863137 0.7458770631
0.2924041572 0.5017437543 0.4956673992
0.302554915 0.5003639367 0.2431842381
0.2924289657 0.2500049376 0.9973641806
0.3025700964 0.0033286375 0.7491151304
0.2924263738 0.0031762554 0.5014668537
0.3124949856 0.5029651678 0.9900234505
0.2924952452 -4.1022301536e-04 1.0015945887
0.3224961517 0.2505410242 0.2390510275
0.3326554259 0.2510561648 0.4849923299
0.322544658 0.2519417878 0.7446792188
0.3325743354 0.2479188471 0.9885145741
0.3224198748 0.0011277369 0.2434906418
0.3325321239 -0.0028764833 0.493318921
0.3225498418 -0.0010420067 0.7422400229
0.3323151419 -8.9996662005e-04 0.9916896944
0.3623882524 0.2503112728 0.2308021945
0.3524826175 0.2473873424 0.4811821855
0.3424118394 0.2505606611 0.7398239693
0.3524322599 -1.5985288867e-04 0.988634914
0.3524707687 0.2500710484 0.986255888
0.3422444745 -8.5676550015e-04 0.2361110327
0.3423611115 0.0011700216 0.7403886408
0.3423485221 0.2499695912 0.2399017376
0.3624549021 0.2471661003 0.7317065844
0.3624400911 -0.0011055647 0.2323804978
0.3722635246 0.2489157457 0.4822485816
0.3823720709 0.2496828929 0.7319500411
0.3725523402 0.2464473908 0.9831085384
0.3825164787 -2.9947105343e-04 0.734979828
0.3824831538 0.2491422243 0.2313742716
0.3924139675 -0.0010287845 0.4803546177
0.3923806426 -0.0029283901 0.9791188099
0.3726152872 5.5563604655e-05 0.4784310317
0.3726856397 1.7711584656e-04 0.9808591091
0.392547267 0.2474704719 0.4836685917
0.3926028084 0.2489988751 0.9792854343
0.4125088689 -0.0023183379 0.4746940169
0.4024114309 0.2476642224 0.7266060267
0.4023521866 -5.4578289311e-04 0.2240103992
0.4024484585 -5.9206045639e-04 0.7278992171
0.4025336221 0.496477145 0.2300412765
0.4024669723 0.2465684849 0.2249647867
0.4127088182 0.2449680797 0.4741913667
0.4125051661 0.2478815371 0.9736387189
0.4125014634 4.1950031169e-04 0.9720095026
0.4125977352 0.4999149069 0.9756382115
0.412601438 0.499219107 0.4749615417
0.4224804129 0.2496567104 0.218701561
0.4424901508 0.2474037065 0.7170241986
0.4324704708 0.4985730539 0.9750365124
0.4324371459 0.4998874153 0.4702729165
0.442423501 0.2490401126 0.2167103996
0.422432277 0.5006113613 0.2208556441
0.4424049872 0.498553417 0.7143998644
0.4323816045 0.2498648612 0.4701229545
0.4224915212 0.2488051247 0.7199928898
0.432592662 0.2439319074 0.9670385416
0.4424642315 0.4993454376 0.2172713683
0.4323779017 -0.0030026175 0.970935701
0.4523506119 -0.0013073663 0.9652982425
0.4723603498 0.2507072831 0.4647187701
0.4624665638 0.2527076258 0.7212231332
0.4723936747 0.2473611599 0.9612714864
0.4624369417 0.2505698249 0.2158772776
0.45242837 0.5021698744 0.9650853335
0.4624110223 0.5016580066 0.714167516
0.4724010802 0.5010754461 0.461893561
0.452491317 0.2487684692 0.4656935228
0.4524728031 0.2499218081 0.9696767611
0.4725343797 -9.0338359372e-05 0.9626044815
0.4823392994 6.0074864655e-04 0.2097390202
0.4825244376 0.2484169691 0.7104888197
0.4824281657 0.25055477 0.2131020558
0.4924256291 0.2501024674 0.4589581947
0.4924145208 0.2511059116 0.9615862213
0.4824577878 0.5025658847 0.2115450435
0.5025267699 0.2485118807 0.2092391471
0.5124612863 -0.0011452312 0.9559950473
0.5223106392 -5.5560132945e-04 0.2072424315
0.5024564174 0.2502726536 0.7080162989
0.5025341754 0.5005688147 0.7071248584
0.5123539062 0.252951123 0.4553609592
0.5023453345 1.979309316e-04 0.7065092739
0.5224920746 0.2504506946 0.2038895784
0.5125390444 0.2519313148 0.9562727547
0.5225291022 0.2507583389 0.7100694817
0.5124946112 0.497483862 0.4608391989
0.5223735861 0.5028807292 0.2081570142
0.5223661806 0.4995241331 0.70831252
0.5525955477 0.2522042673 0.4620861048
0.5522734072 0.0016013128 0.961613992
0.5323858606 0.5041551623 0.9646132311
0.5325487822 0.5007671472 0.4607438527
0.5324043744 0.001685424 0.4549684662
0.5322969943 0.2541064257 0.4542473529
0.5324488076 0.2520628818 0.9568374262
0.5423648102 0.0019314741 0.7054539861
0.5423166742 0.2530525802 0.205503058
0.5424203516 0.2529543959 0.7094066869
0.5526918196 0.2515110857 0.9639282197
0.5623967646 0.5039843215 0.7095705342
0.5623893591 0.5008614041 0.2127493675
0.5622671679 9.730637526e-04 0.2119199484
0.5623930619 0.2535533205 0.2140073817
0.5625596863 0.254324395 0.712803973
0.5724534723 0.0018244531 0.4654833909
0.5724201474 7.3951588017e-04 0.9605401904
0.5724867971 0.2513297719 0.4627803731
0.572268334 0.2543813419 0.9613270278
0.5925409682 0.4984139952 0.9725556603
0.5824842605 0.2519221509 0.7135149038
0.6024606735 0.2475097456 0.2197188955
0.5926261317 0.2513179898 0.4713541236
0.6023977265 0.2483796591 0.7196290932
0.5924780212 0.2513212626 0.9666775221
0.6024495652 0.498065768 0.7229893517
0.5824546384 0.25493772 0.2171741708
0.5924446963 0.5005707784 0.4680068248
0.5824102052 0.5030469881 0.2174602093
0.6125914364 3.6981902381e-04 0.9695101368
0.6124544341 0.5002853892 0.4734859901
0.6223704367 0.2498642067 0.7261450325
0.6223741395 0.4991621601 0.2285000009
0.6123692706 0.5038475179 0.9678438929
0.6223297063 0.5022327124 0.7226209267
0.6123544595 0.2501973789 0.4735415316
0.6123803789 0.250209161 0.974758805
0.6224630058 0.250711865 0.2177943838
0.6423801746 0.2481067065 0.2272466152
0.6524887209 0.2493366293 0.4785032356
0.6426504764 0.2497090754 0.7282824532
0.6524702071 0.2509802356 0.9778228424
0.6324678748 0.5025063195 0.9783412294
0.642357958 0.5003672095 0.7295645353
0.6525368569 0.5000504013 0.9790540115
0.6424616354 0.5009536974 0.2301366226
0.6523739352 0.4992583808 0.4816320714
0.6324456582 0.2502883631 0.4777210267
0.6324937941 0.2523155429 0.9743885286
0.6625417258 -1.989302653e-04 0.7338699244
0.6726243528 0.5015807683 0.4864317795
0.6826366272 0.5006152887 0.7336884889
0.6724577284 0.5010060624 0.9866076506
0.6827477102 0.4984925427 0.2381466273
0.6625639424 0.248237619 0.2306911116
0.6623232627 0.2507341201 0.7334579919
0.682373731 0.0017478038 0.2345725342
0.6823663254 0.0024112029 0.7363072689
0.6624491567 0.5003842281 0.7353473273
0.6625269147 0.501153339 0.231972268
0.6824440835 0.2520196807 0.2365368506
0.6725206754 0.2490302941 0.4892643942
0.6826033023 0.2539958047 0.7359471751
0.6724651339 0.2516380708 0.9818218278
0.7025945264 0.2513847552 0.2398739669
0.6924563579 0.2509965996 0.4895643181
0.7026056347 0.2502503985 0.739345387
0.6924415469 0.2522939424 0.9899308814
0.7026352568 0.500843731 0.7336533127
0.7025797153 0.0017806629 0.7383456406
0.7025723098 0.0027147889 0.2395351639
0.6926340906 0.4982896284 0.9874315156
0.692722957 0.4992092886 0.4868122386
0.7124920152 0.2505148417 0.4906825529
0.7125660704 0.247120281 0.9932448554
0.7224598564 0.4995627523 0.7419678697
0.7225376145 0.2505148417 0.2403062646
0.7323425341 0.4988518975 0.9903844701
0.7324943475 0.24852039 0.4944195676
0.7225857504 0.4999358529 0.2430416816
0.7327350272 0.5008371853 0.4930837955
0.7225598311 0.2508152859 0.7436137484
0.7325276724 0.2488149431 0.9901993318
0.712573476 0.5003017533 0.9906714343
0.7627459312 0.4989055716 0.7440182754
0.7425029192 -0.0045706872 0.740396972
0.752667007 0.4970839244 0.9924672749
0.7624015741 0.5006067794 0.2453975654
0.7624571156 0.2483227121 0.2435443319
0.7525337075 0.2479901944 0.4920053654
0.7623201133 0.2469788955 0.7427824779
0.7525855462 0.2494145223 0.9903289286
0.7424066473 0.4999384711 0.7437007634
0.7526299793 0.5001557859 0.4903909602
0.7424214584 0.2486630846 0.2401118695
0.7424658915 0.2495428165 0.7426639894
0.7825409087 0.5004097561 0.2478793431
0.7824853673 0.4991300865 0.7506591831
0.7823409594 0.2474652354 0.248014494
0.7724842011 0.2506843734 0.5022194405
0.7823965009 0.2501011582 0.7445755415
0.772343496 0.2520582999 -0.0017769427
0.7927864573 0.5026784694 0.5002995572
0.8126073542 0.4991209227 0.5045558847
0.8027357848 0.5011755941 0.7504777476
0.8024173471 0.5000994935 0.2509498603
0.7924235864 0.2538144909 0.5001097906
0.7924124781 0.2485969738 1.0035107692
0.8124518381 -0.0013779936 0.5066322097
0.8026247019 0.2487291954 0.2528521555
0.8125518127 0.2482363099 0.5071811445
0.8024988079 0.2497895865 0.7539657515
0.812485163 0.2497594767 1.0057879692
0.832461576 4.7062163691e-04 0.5059036909
0.8224344904 0.2469533676 0.2565965758
0.8326133893 3.7628594272e-05 1.0105460213
0.8325319285 0.2491108053 0.5069663842
0.822771442 0.2479646665 0.7587608312
0.8327355805 0.2468460193 0.0076052139
0.8326541197 0.4969523574 0.5070302569
0.8326948501 0.496094226 1.0018260115
0.822519654 0.4977267047 0.2534297867
0.8425960416 0.4992413622 0.7533372073
0.8427552605 0.4964941637 0.2553663324
0.8427108273 -0.0043995192 0.2580878641
0.8426256638 0.2496285642 0.2530252597
0.8427034218 0.2477538974 0.754048138
0.8624576689 0.2453025611 0.2553107909
0.8525860995 0.2482932568 0.5100054279
0.8626835375 0.2473245045 0.7592866237
0.8524824221 0.2514547933 0.006529746
0.8926055752 0.4982850465 0.0139747089
0.8725254849 8.9928131848e-05 0.515790997
0.8824562985 0.2479941218 0.2624682341
0.8724625379 0.2506693184 0.5110061
0.8925648448 0.2509547076 0.5145903757
0.8825340565 0.2488175613 0.7616850892
0.8725217821 0.2499165716 0.012836294
0.8923834094 -0.002416195 0.5110986691
0.8725810263 3.6543345558e-04 0.0106254661
0.8925648448 0.2499348994 0.0145548395
0.8724736462 0.5006309982 0.5125899574
0.8926055752 0.4994357672 0.5133592066
0.9124672025 0.4979263462 0.5120586107
0.9025697138 0.4988505884 0.7661135952
0.9127967485 0.4972809477 0.0133556993
0.9025178751 0.4958795295 0.2663626164
0.9125930965 -0.0017260244 0.5125668151
0.9024771446 0.2479024831 0.2616240039
0.9127041794 -0.0013895139 0.0131675063
0.9123561196 0.2491042597 0.514433934
0.902628958 0.2497496582 0.7633198596
0.912600502 0.2474953452 0.0115032064
0.9425817839 0.2480752876 0.7661006356
0.9324584266 0.2508159404 0.0146795301
0.9325287791 0.4998520689 0.5104729019
0.932702809 0.4990790307 0.013265537
0.9226275875 0.501483893 0.7606918227
0.9226312903 0.4990796852 0.2610815489
0.9424040513 0.4993585288 0.7646861796
0.9225128019 0.2510254004 0.2638651019
0.9225165046 0.2468008545 0.7619331744
0.9425558646 0.2498151145 0.2629884725
0.9324843459 0.2513062077 0.5152763128
0.9726482294 -0.0013935721 0.5182505582
0.9626914964 -0.0028800179 0.7729257557
0.9624693306 0.2475189095 0.2712558193
0.9526421943 2.9853717597e-04 0.0178791812
0.9726963654 -0.0011022919 0.0229522459
0.9525274086 0.2503924385 0.5171101068
0.972529741 0.2483626405 0.5233335278
0.9626729826 0.2505573883 0.7693849874
0.9527236551 0.2495676899 0.0181031059
0.952694033 4.4496278994e-04 0.5178210375
0.9726334184 0.2487455595 0.0239380143
0.9726000935 0.4964417987 0.5248294445
0.9627507407 6.4656801614e-04 0.2770663821
0.9527236551 0.4989599003 0.5218292798
0.9624989527 0.5005000857 0.7668958042
0.9826716122 0.2504454581 0.2690128699
0.9824679601 -4.0092822896e-04 0.7774246143
0.9926912922 0.0014160061 0.0297293227
0.9925542899 0.2501725056 0.5246794826
0.982438338 0.2503191275 0.7719565572
0.9923617462 0.2475503285 0.0238312821
0.9924061793 0.5003050261 0.027479338
0.02267315 0.7515090653 0.7745003562
0.002622978 0.5009262058 0.2787687279
0.0025705098 0.7508217748 0.7778893112
0.0124607782 0.5036478764 0.5276046663
0.0024177708 0.4985933454 0.7776726995
0.0223876669 1.0030508587 0.2806191844
0.0225118947 1.0054138291 0.7850782279
0.012476552 0.7511883297 0.0298564201
0.0227693479 0.7501410298 0.2769988066
0.00248368 0.7504617654 0.2815893086
0.0124866235 0.7513323335 0.5293208975
0.0527575539 1.0041897974 0.5334679934
0.0526623929 1.0023504769 0.0307875727
0.0325652698 0.7525956389 0.0295215976
0.0427930451 0.7521047171 0.2820956616
0.0325404613 0.7504814023 0.5299772125
0.0427978587 0.7514894284 0.7810005588
0.0425686576 0.5023557702 0.7844080276
0.0323279226 0.502333515 0.0323849452
0.0324938065 0.500833258 0.5289034109
0.0427052896 1.0020755607 0.2798795572
0.0526483224 0.5039705757 0.5310565682
0.0527253399 0.7504028548 0.0341832852
0.0526901636 0.7531454714 0.5400181834
0.0425416274 1.0027890338 0.7806210255
0.0725906699 0.500540014 0.0440268987
0.0726158487 1.0009693502 0.5394886881
0.072637695 1.0044908961 0.0375643718
0.0724777356 0.7537803969 0.0348350643
0.062561733 0.7531651082 0.285324472
0.0726943473 0.7508414116 0.5339363931
0.062508043 0.7516072497 0.7904907435
0.0925996673 1.0007271621 0.5383343513
0.0922901162 0.747908972 0.0318436011
0.1025304809 0.7519541678 0.2787502141
0.0824685341 0.7519868959 0.2886375203
0.0925108009 0.7529752851 0.5328329694
0.1025093751 0.7499708436 0.7797212538
0.0824503905 0.7488515419 0.7897242713
0.1025945387 0.9983183724 0.7836248929
0.102451612 0.4989382998 0.7812412385
0.0825451813 0.5011677394 0.789080916
0.0926611331 0.4987700772 0.0347748944
0.0824492797 0.5008843138 0.2891170283
0.1123790932 0.7511032366 0.0303607366
0.1224132139 0.7515025197 0.2802100289
0.1123946448 0.7480987951 0.5303752596
0.1225357754 0.7498792049 0.7759286975
0.1223913676 0.9997322273 0.2799193619
0.1224535741 0.9978667244 0.7789677412
0.1223487858 0.5003253175 0.2800933918
0.1124975816 0.9997322273 0.5264225588
0.1424388737 0.7475620539 0.2727137827
0.152515206 0.7515548847 0.5196696426
0.1324469644 0.7493686462 0.523431651
0.1424759013 0.7483802569 0.7722120479
0.1525322387 0.5005256136 0.5184273652
0.1326102563 0.9972645269 0.0277731523
0.1425321833 0.5006460531 0.2719408307
0.1425688407 1.0024224788 0.2690119442
0.1324958409 0.9964005045 0.5274602585
0.142555881 0.9984754674 0.7689295474
0.1525440875 0.9997584098 0.0181527229
0.1526185131 0.7487468119 0.0171098394
0.1324336345 0.7510115979 0.0241020468
0.1724842134 0.7518363465 0.0144572716
0.1625326643 0.7491722775 0.2656433545
0.1723868307 0.7515876128 0.5146857219
0.1624163975 0.748517715 0.7659358626
0.1824657549 0.9992609423 0.7624311962
0.1725367927 0.5043070207 0.0127809377
0.1724279314 0.5013078157 0.5135008374
0.1824079918 0.7504944936 0.2583091042
0.1823791102 0.7498857505 0.7629523603
0.1724790295 1.0006813428 0.0139949815
0.1624067703 0.9985998343 0.767294777
0.1824024377 0.4987982234 0.265473953
0.2025510292 0.4973791321 0.762120164
0.192413231 0.5004575391 0.513651725
0.1924354476 0.7521505365 0.0135972121
0.2024003267 0.7502064861 0.2596606132
0.1924750672 0.750573041 0.5083651034
0.2023440447 0.7474507783 0.7628098039
0.2325956284 0.7495846518 0.0106803596
0.2323079236 0.5029075663 0.0088821121
0.2323738328 0.7539505831 0.5096370029
0.2126699432 0.7515287022 0.0133706955
0.222378591 0.7490086369 0.2607297863
0.2124544424 0.7506123148 0.5123927852
0.2224245053 0.7512734228 0.7552765301
0.2324752885 0.500581906 0.5061767697
0.2224793062 0.499265581 0.7567576357
0.2126777191 0.499989527 0.0078035895
0.2223800721 0.4978909999 0.2628783153
0.2123951981 0.5014845476 0.5124057449
0.2522995179 0.7542124081 0.0051014047
0.2423720367 0.7501083017 0.257263999
0.2524779911 0.7519999871 0.5069978577
0.2422102259 0.7512341491 0.7590413156
0.2425771699 0.4952308582 0.7585562535
0.2625998674 0.5005105587 0.7553320715
0.2623317873 0.7514632459 0.2573834132
0.2424483137 0.501940123 0.2557347574
0.2623225304 0.7517970728 0.7555218382
0.2625713561 0.5007174004 0.2563040574
0.2524305957 0.5003652458 0.5038032979
0.2722725984 1.0021148345 1.0081392245
0.2826251569 0.4983419934 0.2497668272
0.2726399126 0.5027432711 0.5038551366
0.2824777869 1.0003606072 0.2466768704
0.2825033359 0.5007010364 0.7547590688
0.2826577412 0.7502850336 0.2512692237
0.2823933638 0.7509526873 0.7517996344
0.2722614901 0.7537738513 1.0066303481
0.2725684492 0.7483409832 0.5028183626
0.3124050084 1.0026384844 0.4934633288
0.2923793487 0.74857008 0.9987527172
0.3023371925 0.7502915792 0.2514043746
0.2922279056 0.7524254527 0.5011734096
0.3024471646 0.7485111694 0.7472887419
0.3026578519 0.5007350736 0.7451105909
0.2924985777 0.5001243669 1.0009836326
0.3024045828 0.9989991173 0.2462519782
0.3125275699 0.7520523521 0.9948463009
0.3122413462 0.752837827 0.4947694789
0.3124842476 0.5012482505 0.4923080663
0.3324066002 0.5026765057 0.4871130881
0.3225961264 0.50224384 0.740483987
0.3323906783 0.7530931064 0.9929023497
0.3322666357 0.5024644275 0.9874685432
0.3224613458 0.753361477 0.2438599925
0.3324832474 0.7493293724 0.4907353172
0.3223350815 0.7528771008 0.7478561906
0.3226057536 0.4995745344 0.2439072028
0.3523348772 0.4993964934 0.4825114779
0.3523545019 1.0023832051 0.4887978459
0.3624845242 0.7489562719 0.2367442054
0.3624549021 0.7511228735 0.7339300943
0.3623178999 0.5008129665 0.7320472387
0.3626067155 0.498338066 0.2294821591
0.3522697086 0.7509985066 0.9854783075
0.3424596051 0.750887231 0.2401563026
0.3524874311 0.7493228268 0.4827160556
0.3422655802 0.7499773892 0.7430620366
0.3624215773 1.0004260634 0.7315871702
0.342468862 0.4986358919 0.7384428382
0.3523582047 0.5012129042 0.9887274831
0.3423314894 0.4997977402 0.2348974517
0.3723227688 0.499780067 0.9802111254
0.3825572091 0.4976736851 0.2335376116
0.3722746329 0.4975394999 0.4841953099
0.3925768891 0.4997578119 0.983765779
0.3822943128 0.4994796229 0.7339726761
0.3725930706 0.7480857038 0.9779339254
0.3824276124 0.747385322 0.2287554916
0.3724301489 0.7524778177 0.4845683634
0.3825238842 0.9992543967 0.2364535384
0.3825312897 0.7487337206 0.7304411647
0.3925879974 0.7462725659 0.9803036945
0.392436184 0.7481118863 0.4800954243
0.3924769145 0.4961112446 0.4770591576
0.4026113801 0.4945736775 0.726365347
0.4026039746 0.7507366817 0.2252406426
0.4024077281 0.7480202476 0.7236215987
0.4123755694 0.7480922495 0.9710467839
0.4124533274 0.7498137486 0.4746282929
0.4224693047 1.0003802441 0.715270014
0.4423198237 0.9979845456 0.2164623144
0.4322927381 0.9975459888 0.4682160309
0.4422753905 1.0013031771 0.7196901888
0.4224841157 0.4987229487 0.7218627857
0.4323038464 0.7464362065 0.9672792213
0.4225655765 0.7474311414 0.2181183757
0.4323408741 0.7465605734 0.4712217498
0.4224470881 0.7455525473 0.7200317688
0.4423901762 0.7485046238 0.2199068108
0.4425123674 0.7494275568 0.7146451725
0.4225507655 0.9963023202 0.2171001155
0.4724084857 1.000484974 0.465638907
0.4725528935 0.4986365465 0.9619657547
0.46244805 0.5012691965 0.2165030448
0.4723159166 0.7498922961 0.9611511465
0.4623925085 0.7478500614 0.2187617309
0.4725195686 0.7491657318 0.4639374869
0.4624850776 0.7479417001 0.7179739576
0.452380234 0.9969896107 0.46563613
0.4624295361 1.0004653372 0.2147220152
0.4624295361 1.0004260634 0.713562114
0.4523469092 0.751201421 0.9659554831
0.4523617202 0.7497352011 0.4657101852
0.4524616949 0.4997362113 0.466837677
0.4926033618 0.4982451181 0.9576242636
0.4925144955 0.497320876 0.4592710783
0.482439274 0.4985390167 0.7156291821
0.4822837579 0.9964332326 0.7133797529
0.4923552766 0.9996536798 0.4595802591
0.4925552259 0.9986587449 0.9612252018
0.4926552005 0.7491330037 0.4582148648
0.4925959563 0.7494210112 0.9603920799
0.4825318431 0.7485308063 0.2094576101
0.4826503316 0.7487926313 0.7088994082
0.5022860902 0.4997119925 0.2071165375
0.512435367 0.9986129255 0.4607845831
0.5225068857 1.0035810543 0.707869114
0.5023860649 1.0016566408 0.2079348484
0.5225179939 0.7526087302 0.7073646124
0.5026933943 0.7481511601 0.204214496
0.5027489358 0.7503832179 0.7064778004
0.5123835283 0.7502653967 0.9570595921
0.5126130997 0.5009772617 0.9567078295
0.5124612863 0.7480464301 0.4586925214
0.522736457 0.7527200058 0.2123179955
0.5522734072 1.0026057563 0.4568272539
0.5424647848 0.5013123977 0.7104536434
0.5425277318 0.7527134602 0.2113423171
0.5525103842 0.5032008102 0.4603346973
0.5524844648 0.7521832646 0.4615103249
0.5424684876 0.7505141304 0.7100111631
0.5323118053 1.0031490431 0.9574113547
0.5424944069 0.5011310839 0.2058964767
0.5324636186 0.7517905272 0.9583925872
0.5524474372 0.5044968438 0.9639097059
0.5423907295 0.9986129255 0.2112849243
0.5325154573 0.7563331904 0.4590035535
0.5724867971 0.5016449154 0.9653260132
0.5624411978 0.999823866 0.7102407345
0.5523993012 0.7514959741 0.9639097059
0.5623967646 0.7497613836 0.2109850004
0.5624967393 0.7531716539 0.7144600343
0.5724497695 0.7532436557 0.9651223612
0.5725719607 0.5014982934 0.4665562669
0.5725238248 0.7518494378 0.4639661833
0.6024865929 0.5026189043 0.2237484287
0.6024347542 0.9978798156 0.2165187815
0.6025680537 0.9993591267 0.7221358646
0.592496535 0.7502850336 0.9680475449
0.5924558046 1.0005438847 0.4675495334
0.5924039659 1.0000267803 0.9659554831
0.6024014293 0.7502195773 0.2199679064
0.5926039152 0.7526021846 0.4692231828
0.6024606735 0.7503243073 0.7183784846
0.5823546638 0.9999744154 0.2163095753
0.5824027997 1.001218084 0.7167159434
0.5824065025 0.5019558325 0.7142249088
0.5823842859 0.7527527339 0.2186163975
0.5824176108 0.74846535 0.7213342161
0.6123766761 0.7506123148 0.9689084376
0.6123840816 1.0003475159 0.4688288384
0.612284107 0.7507955923 0.4722390843
0.6225666832 1.0020951976 0.7223098945
0.6225518722 0.7495781062 0.216598391
0.6223408146 0.7540029481 0.7210611373
0.6224481948 0.9975459888 0.2214934453
0.6427319372 1.0009824415 0.7244760116
0.6326270936 0.5006093976 0.4709579278
0.6426467736 1.0021344713 0.2282259963
0.652503532 1.0000005979 0.4872315766
0.6526479398 1.0010937171 0.9779246684
0.6326937434 0.9979190893 0.4736822366
0.6325826605 0.9992543967 0.9749069156
0.6323753057 0.7513192422 0.9746106945
0.6324826858 0.7522356296 0.4760057212
0.652644237 0.7531454714 0.9817940571
0.6426430709 0.751044326 0.2292192628
0.6525775873 0.7530211045 0.478061681
0.6425764211 0.7512799685 0.729097987
0.67262065 0.7474965977 0.9861725758
0.6626268894 1.0020559239 0.2303041727
0.6727021108 1.0007140709 0.985941153
0.6826773576 0.7486944469 0.2369969191
0.672557703 0.7485831713 0.4880341507
0.6826847632 0.7514436091 0.7375189985
0.6725725141 0.9991693036 0.4832075976
0.6625565368 0.7503832179 0.2330423669
0.6625935645 0.7527069145 0.7316130896
0.7025760126 0.4981973351 0.2396018137
0.692674821 1.0008384378 0.4873139631
0.6926340906 0.9997911379 0.9854783075
0.6924674662 0.7491788231 0.9864225123
0.702568607 0.7521374452 0.2391000891
0.6925230077 0.7510377804 0.4850432429
0.7026537706 0.7486682644 0.73746068
0.7124364737 0.5025351203 0.4902641405
0.7126475312 0.7505992235 0.4921553273
0.7224413426 0.9980630931 0.7392694803
0.7324980502 0.9988027486 0.9939761514
0.7325609972 0.7454543629 0.9960126717
0.7225005868 0.7516727059 0.2403544005
0.7325795111 0.7503308529 0.4946917208
0.722593156 0.7507104992 0.7424927366
0.722482073 0.9997845923 0.24652228
0.7325647 0.9997845923 0.4918294841
0.712714181 0.7517512534 0.9913471888
0.7125586649 0.998639108 0.4887034254
0.7125771787 0.998691473 0.9907825172
0.7424695943 0.4973882959 0.2426565942
0.7423844307 0.7484522588 0.2416318542
0.7425399468 0.7483278919 0.7418067995
0.7526003572 0.7503177617 0.99101394
0.7623275188 1.0005111565 0.7505767966
0.752478166 0.9995489498 0.9907825172
0.762434899 0.7498726593 0.2435304465
0.75260406 0.748622445 0.4928412644
0.7625681985 0.7511948753 0.7423437003
0.7524189218 0.9994965848 0.4939770873
0.7425954883 1.0002035122 0.2410264522
0.76244971 0.9975198063 0.2445005708
0.7825075838 1.0016435495 0.2477728886
0.7725693647 1.0028675813 0.4959830598
0.7823520677 1.0003409703 0.7487004208
0.7725545536 0.9987176555 0.9946426489
0.7825964502 0.7520785346 0.247798808
0.772721178 0.7516465234 0.4954406049
0.7824409341 0.7490544562 0.7514339865
0.7724916066 0.7482427988 0.9972345839
0.7725693647 0.5006303436 0.4956655478
0.7725656619 0.4975971013 0.9929949188
0.792649455 0.9991562123 0.5023379289
0.7922717731 0.7474704152 1.0029831253
0.7924902362 1.0014013614 0.9995488115
0.8124259188 0.7497679293 1.0024369676
0.7927235103 0.4983328295 1.0014742489
0.8023988332 0.9985016499 0.2504462844
0.8124296215 0.4978563081 0.9997432066
0.8025062134 0.7486028082 0.2561522441
0.812485163 0.7494537393 0.5040467546
0.8025136189 1.0013424508 0.7517718637
0.8024210498 0.7507890466 0.7536084348
0.8124629464 0.9994507654 1.0132212684
0.7924383975 0.7504224917 0.5002514213
0.822645548 0.9991300298 0.7595198979
0.8225603844 0.9986456536 0.2542499489
0.8327652026 0.7486879013 1.0073523871
0.82256779 0.4968594095 0.7550228907
0.8226122231 0.7477191489 0.2563114629
0.8325467395 0.7466063928 0.5032201125
0.8225307623 0.7485046238 0.7558439787
0.8425960416 0.7462463834 0.2551802685
0.8425738251 0.7520916259 0.7543471362
0.8625428325 0.4984833789 0.7601428879
0.8427071246 0.9970616126 0.7573241587
0.8624280468 1.0004587915 0.261818399
0.8626242933 1.0012769946 0.7580582317
0.8525268553 1.0001773297 0.0095835082
0.8626576182 0.7514501547 0.7582915058
0.8526083161 0.4978379803 0.5074505206
0.8526231272 0.7491919143 0.007972343
0.8525712885 0.5014518195 0.004359741
0.8625650491 0.4964404895 0.2584461065
0.862487291 0.7507366817 0.2574426574
0.8526453437 0.7476275101 0.5096388543
0.852641641 1.0009824415 0.5058407439
0.8823970543 0.9992871248 0.7658914294
0.8927870107 1.0003147878 0.0112491042
0.8824118653 0.7490610018 0.7640381959
0.8724218075 0.7492573706 0.0105128095
0.8926166835 0.7504224917 0.0149843601
0.8824822178 0.500896096 0.7615332759
0.8824451902 0.4990757579 0.2666773514
0.8825636787 0.7481642513 0.2662117288
0.8724625379 0.7490544562 0.5098758312
0.892609278 0.7475096889 0.5166778091
0.8725477014 0.5008155848 0.0089661649
0.8825525704 0.9986456536 0.2675678662
0.9126560435 0.7515156109 0.5120678676
0.902566011 0.9979190893 0.2654202629
0.9025845248 0.997297255 0.7630949167