POSCAR file written by Ovito 3.7.11
1
270.0157144731 0.0 0.0
0.0 15.2743954185 0.0
0.0 0.0 10.8006285789
Sr Ti O 
800 800 2400 
Direct
0.0224630564 0.5000890379 0.7691793369
0.0123204615 0.4998959042 0.0178322333
0.0126182219 0.2505249867 0.5184624476
0.022385135 0.2506886593 0.7711014473
0.0023568932 0.2495298573 0.7700922467
0.0123217947 0.2513335294 0.0168941397
0.0025787692 -0.0045536526 0.2656086456
0.0225293858 0.4989269624 0.267602974
0.012427233 -8.6617443119e-04 0.5211113675
0.0025761768 0.0010831662 0.771638453
0.0126524051 -7.3353415676e-04 0.0220504137
0.0223236571 0.2495632465 0.2703935523
0.002414001 0.2486689394 0.2651383026
0.0424236724 0.4991449743 0.2713981235
0.0324201805 0.2515384474 0.5156690916
0.0425725526 0.2476292911 0.7653619665
0.052420498 0.4977125118 0.0190963264
0.0325168416 0.2478001653 0.0219799548
0.0324894358 -0.0017198252 0.523249206
0.0323012986 -0.0018662795 0.0244894384
0.0424673735 0.2482374985 0.2737072483
0.0523001346 0.24844569 0.520977116
0.0525145666 0.2499907593 0.0162942672
0.0625447235 0.2474256824 0.2711796176
0.0624850974 0.4980725915 0.7705792554
0.0624658392 0.4987704914 0.2676520452
0.0725137729 0.5004353691 0.5179041467
0.0726252479 0.2487887478 0.5177495261
0.0625750921 0.2483612349 0.769308959
0.072290823 0.2505020725 0.0176470589
0.0625376869 -7.8329062693e-04 0.2663910075
0.0626276817 -6.763796851e-04 0.7648777354
0.1024594375 0.0015614176 0.2610228014
0.0925707537 0.2501786555 0.512417429
0.082379495 -0.0029164683 0.263709682
0.1025416549 0.2512477649 0.7638814971
0.0823924572 0.2501230068 0.7635444797
0.0924811293 0.2512287789 0.015724393
0.0825717061 -2.4788482029e-04 0.7688256538
0.0926077886 0.0018532131 0.0106792237
0.1025560985 0.2513826311 0.2609635456
0.0825243014 0.2504542801 0.2692038067
0.1024549933 0.5031156716 0.2630097228
0.0924200218 0.4976149629 0.5122257735
0.1126325491 0.0011978025 0.0077549494
0.1226275229 0.2511567629 0.2538954384
0.1124877427 0.251120755 0.5081000877
0.1225482683 0.4981662122 0.7562023144
0.1124758915 0.5012779557 0.0111359563
0.1225312322 0.2486159095 0.7516368394
0.1125840334 0.2509315494 0.0069529591
0.1125003345 0.4996418844 0.5115378506
0.1524076415 0.2498395259 0.4990506144
0.1324569508 0.2505492103 0.5000116696
0.1423545229 0.250082416 0.7522358786
0.1524480095 0.2537990934 -3.7985489205e-04
0.1325032444 0.2474800217 0.0050988077
0.1424922927 0.2491926918 0.2543074515
0.1422482328 0.4990317129 0.7522414338
0.1524839334 0.5038076793 0.0039660033
0.1323813997 0.5027483903 0.002408131
0.1324806531 0.4993786988 0.503612386
0.1523020921 0.0031558506 0.5040642115
0.1823992293 0.2517983595 0.7487046026
0.1824918165 0.2524399561 0.2453588982
0.1623533589 0.5019981151 0.7521516242
0.162546681 0.5004569739 0.2492040448
0.1725423955 0.2526638602 0.4986682293
0.1823995996 0.4992189544 0.7468408222
0.1624807589 0.2494388553 0.7502109964
0.1725605426 0.2487985681 -0.0031703684
0.1625281636 0.0015849209 0.2507409924
0.1622778078 0.2520333934 0.2490873849
0.1725642461 -6.4665674108e-04 0.4963998428
0.1823662682 0.0029727991 0.2491438631
0.2024654688 0.2533539039 0.249231821
0.1925760444 0.5006206465 4.5676308199e-04
0.2025695368 0.5022305302 0.2485170478
0.1924667915 0.2514140563 0.4999338963
0.2023695484 0.2523613933 0.755503281
0.1924993822 0.2481379855 6.9748981201e-04
0.1924256827 0.0012694911 0.4981228906
0.2023384391 -0.0020656327 0.752261803
0.1923653159 5.1856122745e-04 -7.6307332881e-04
0.2022336304 0.0022919866 0.2543065256
0.2125633996 0.2499508232 0.5043688234
0.2224583792 0.2505577212 0.7542681677
0.2126059897 0.2490126519 0.0033984437
0.2225009693 0.002922257 0.2552851724
0.2123974833 -5.4897693385e-04 0.5045697376
0.2123722996 3.4585390072e-04 6.8415725465e-04
0.2224839333 1.8938289585e-04 0.7526136344
0.2326122327 7.8148489087e-04 0.5004940489
0.2221658037 0.2526363632 0.2557990313
0.232411874 0.2482335703 0.4984812031
0.2324181699 0.2502755497 0.00362806
0.2325600135 0.0036089618 0.9984058103
0.2523059013 0.2493707675 0.4982802889
0.2423175938 0.2506716374 0.7507304107
0.2626590025 0.2499023761 0.2440256425
0.2524151542 0.2478702172 0.9962577872
0.2425049903 0.2488254104 0.2515113179
0.2424068478 0.0031576182 0.247929119
0.2522522007 0.4980018849 0.9960448366
0.2524595961 0.002643097 0.4989034008
0.2426405379 6.9061386377e-04 0.7525636373
0.262154217 0.2530331056 0.7461593804
0.2524299682 -1.3455791257e-04 0.9981743423
0.262400499 -2.0807964415e-04 0.2442006323
0.2624267937 -0.0030421689 0.7477537321
0.2724788013 0.2506251543 0.4938046234
0.2723443647 0.247350393 0.9955819006
0.2722610362 -0.0017401861 0.4965090957
0.2724728757 0.4970957934 0.9951837756
0.282350449 0.2501557413 0.7428762382
0.2823897059 0.0011071934 0.7435123122
0.2822452699 0.251571182 0.2379537737
0.3024355763 0.2519279882 0.2404628869
0.3124683257 0.2466452914 0.4911038547
0.3125690606 0.2480135943 0.989610026
0.3123301856 2.8001712996e-05 0.9908877294
0.2926183699 0.2500542643 0.4905140742
0.3024948321 0.252070056 0.7467898993
0.2924817112 0.5023496838 0.4954137891
0.3025555693 0.5002324151 0.242878487
0.2923880129 0.2525695848 0.9929802002
0.3024626117 0.0033416517 0.7494767799
0.2925961489 0.0013026184 0.4938388807
0.3124061071 0.5026089412 0.9927394735
0.2923176466 -0.0010528267 0.9946652873
0.322459596 0.250598312 0.2414017211
0.3325701187 0.2508163239 0.4882484653
0.3223955257 0.2523404432 0.739281077
0.3323908699 0.2486159095 0.9872675697
0.3223984885 0.001184185 0.2435960379
0.3323412431 0.0018450949 0.4900168809
0.3224055251 5.2556641469e-04 0.7436613776
0.3323753152 -0.0011080171 0.9904155346
0.3625761501 0.254523181 0.2441950771
0.3525434007 0.2490977616 0.4895844987
0.342337328 0.2527417684 0.7465426914
0.352400446 -2.4415308502e-04 0.9935079472
0.3524671088 0.2510670704 0.9928228019
0.3424739867 0.0036642176 0.2378667417
0.3423758443 -8.8398200998e-04 0.7422096103
0.3424895414 0.2519063834 0.2409961892
0.362605778 0.2497956616 0.7435845303
0.3625798536 5.5109934017e-04 0.2443830291
0.3726014925 0.2529047863 0.4961165259
0.3826416489 0.2504424957 0.7439493238
0.3724755739 0.250678839 0.9927024386
0.3825490617 0.0011330536 0.7462834473
0.3825860966 0.2565920026 0.2470634287
0.3926595843 0.0031055703 0.4907353576
0.392459596 0.003878105 0.9936005345
0.3724644634 0.0019762949 0.4915186454
0.3726644518 8.8034314081e-04 0.9952208105
0.3926706948 0.255903923 0.4899566993
0.3926077355 0.2543470692 0.9918506363
0.412610275 0.0050735042 0.4894845045
0.4025923396 0.2547667258 0.7375237719
0.4026071535 0.0022526397 0.2411434028
0.4026960372 0.0046078884 0.7381265146
0.4022886535 0.5025886458 0.2416674464
0.4026849268 0.2546979833 0.2425812821
0.4127361936 0.254808626 0.4905927733
0.4127028622 0.2543018956 0.9929153891
0.4126547169 0.0050600176 0.9863602151
0.4124473215 0.5007123032 0.9928413194
0.4125102808 0.5001073692 0.4884428985
0.4226133965 0.2507515096 0.2342808393
0.4426566744 0.2497838772 0.733232355
0.4324313436 0.5022036879 0.9875916249
0.4325276343 0.5030384181 0.4975627381
0.4424566861 0.2493347596 0.236634406
0.4225652512 0.5041546653 0.2397823709
0.4427085233 0.4981105635 0.7348498535
0.4325868901 0.254237736 0.4845116458
0.4224874779 0.2510061842 0.7342285933
0.4324498611 0.2522893773 0.9850547355
0.4425492733 0.5033153522 0.2348882114
0.4326424425 0.00176136 0.9867675988
0.4525338773 -2.0912714879e-04 0.9851750989
0.4724697541 0.2512569306 0.4839829729
0.4625851442 0.2512458008 0.7330675498
0.4724253122 0.2505911104 0.9850177007
0.4625073709 0.251021242 0.2358538959
0.4523412959 0.5033513601 0.9866102006
0.4624481151 0.4996189702 0.7339230555
0.4723697599 0.5009597761 0.4838496473
0.4525005459 0.2535143031 0.4850014321
0.4524042552 0.251994112 0.9849251134
0.4727252947 5.5470013736e-04 0.9813049538
0.4825025035 6.1866338914e-04 0.2338762332
0.4825469453 0.2516733137 0.7287307651
0.4825173174 0.2504222003 0.2362779453
0.4924871075 0.2513793577 0.4803192972
0.4924537761 0.2543313567 0.9782032824
0.48233955 0.504360238 0.2353594802
0.5024531942 0.2492457217 0.225853552
0.5126155657 -0.0019030731 0.9805735149
0.5225001755 -0.0048953421 0.2288181943
0.5025457814 0.2505406993 0.7302751197
0.5026309616 0.4997832975 0.7276724934
0.5126044552 0.2521617127 0.4760501012
0.5025161535 -0.003352754 0.7291112986
0.5225223965 0.2462334912 0.2264053717
0.512519275 0.2461261219 0.9784069743
0.5223224081 0.2474355027 0.7315315281
0.512497054 0.4984752261 0.4814479352
0.5225816523 0.4997590739 0.2304847639
0.522655722 0.4973655258 0.7280196954
0.5522502959 0.2496274062 0.4808942637
0.5522651098 -0.0030598455 0.9825363636
0.5324884831 0.4986991302 0.9854158256
0.5323847854 0.4956220853 0.4814747855
0.5324329308 -0.0041063681 0.4810322187
0.5322588668 0.2482041093 0.4752205199
0.5322736808 0.2507986473 0.9766200413
0.5424286453 8.1251721569e-04 0.7289187172
0.5424434592 0.2514238766 0.2267368339
0.5423693895 0.2493092266 0.7317222577
0.5523206622 0.2442098431 0.9812586602
0.5624608127 0.4989007748 0.7321055687
0.5623089697 0.497709893 0.233328117
0.5623089697 -9.6588377864e-04 0.2325429775
0.5622830453 0.2488201729 0.2339901155
0.5622460104 0.2468816347 0.7305519554
0.5723972714 -0.0024468589 0.4831552433
0.5723343121 -9.4264226955e-04 0.9816753026
0.5723232017 0.2469896586 0.4845097941
0.5723269052 0.2472462972 0.9837677734
0.5926590551 0.4953700295 0.9883878749
0.5824633522 0.2487979134 0.7372395292
0.6022621999 0.2465006048 0.241366538
0.5922664854 0.2462747367 0.4876373898
0.6023733046 0.2488529074 0.7397643822
0.5923516656 0.249236556 0.9854065669
0.6026806941 0.5013434247 0.7372034202
0.5822078116 0.2450995674 0.2364575645
0.5926035028 0.4957818298 0.4929370813
0.5824559453 0.4956522011 0.2343613902
0.6123060598 9.9373551757e-04 0.9858602442
0.6127875132 0.4978742203 0.48861974
0.6225276871 0.2463258025 0.738579266
0.6225758324 0.5021722627 0.241142477
0.6122838389 0.4997558005 0.9876656947
0.6225906464 0.5022920711 0.7405124868
0.6124356819 0.2487272069 0.4821719672
0.6124097575 0.2486093626 0.9871194302
0.6223684371 0.2481229276 0.2402730831
0.6424450464 0.2469896586 0.2408036078
0.6524074295 0.2452252679 0.4938925813
0.6422783894 0.251046775 0.7407883967
0.6524814993 0.2441299709 0.9880360435
0.6327270935 0.4996949143 0.9887767411
0.6423931976 0.4966538774 0.7426771757
0.6526888946 0.4970165759 0.9928320607
0.6423857906 0.494584401 0.2443321061
0.652585197 0.4984071383 0.4893585859
0.63256414 0.246164094 0.4902733475
0.6324085935 0.250919765 0.9912395608
0.6626512778 -0.0024245995 0.7443863354
0.6724581144 0.5006579638 0.4961461538
0.6825464161 0.4972326237 0.7453631305
0.67259144 0.499549573 0.9976095604
0.6823908696 0.4984365993 0.2407480555
0.6625475801 0.2480960853 0.2440386047
0.6626253533 0.2497282285 0.7385885247
0.682416794 -1.6473913987e-04 0.2420729784
0.6825093812 -4.8553743439e-04 0.7478009515
0.6624216615 0.4967003604 0.7433447294
0.6625586906 0.496092153 0.2406156558
0.6824130905 0.2486689394 0.2477513516
0.6724395969 0.2474760935 0.4925759913
0.6824834568 0.2474066964 0.7384913082
0.6725432946 0.2487723805 0.992193209
0.7026489498 0.2498945199 0.236605704
0.6925347237 0.2472279659 0.4919732486
0.702748944 0.248407718 0.739679202
0.692582869 0.2501059849 0.9933320316
0.7025119208 0.4954374626 0.7352053883
0.7025489556 -9.3246948523e-05 0.7451501799
0.702604508 2.0293498707e-04 0.2437691759
0.6925125027 0.4994042317 0.9938875548
0.6926347179 0.4984870105 0.4916038256
0.7124817109 0.2500712863 0.489220631
0.7124668969 0.2509963638 0.9893415231
0.7225663091 0.5003515687 0.7431067803
0.722595937 0.2452468727 0.2416887415
0.7326472039 0.4987888228 0.996396668
0.7325842446 0.2493282127 0.495616555
0.722595937 0.4974093901 0.2385463318
0.7325101748 0.4989073217 0.4911686658
0.7225589021 0.2491029992 0.7426012542
0.7324879539 0.2499868312 0.993119081
0.712596519 0.5003875767 0.9909803166
0.7625269463 0.4979894458 0.7433688021
0.7425429242 -0.0017888951 0.7411161554
0.7525127143 0.4972882724 0.9917580491
0.7624528765 0.499431074 0.2401286471
0.7623158475 0.2502408511 0.2418313258
0.752616412 0.2498702963 0.4949286321
0.7624454696 0.2493203564 0.7432595492
0.7525275283 0.2485085403 0.9957300401
0.7424355231 0.5009565027 0.7483490678
0.7527386271 0.4991043835 0.4888687996
0.7425429242 0.2483095144 0.2458023909
0.7425095928 0.2477130915 0.7430762265
0.7825331893 0.5002507464 0.2450755814
0.7824294916 0.4997904991 0.7419262934
0.7825294858 0.2472613551 0.2450209549
0.7726856143 0.2474872233 0.4916927093
0.7825109684 0.2480908478 0.7456955185
0.7725930271 0.2501138411 -0.0076442562
0.7925511248 0.4975580048 0.4991561638
0.8124684841 0.5004622114 0.5028003962
0.8026023916 0.4974309949 0.7477518803
0.8025579498 0.4985675374 0.2467449287
0.7926622294 0.2498362524 0.4997311304
0.7926251945 0.2470826246 0.9926191101
0.812642548 0.0010434265 0.500862546
0.8024394381 0.2506297372 0.2500651058
0.8126758794 0.2505204039 0.5019893323
0.8026394265 0.2479180096 0.7500110081
0.812627734 0.2510788548 1.0068682808
0.832648791 0.0017163828 0.5041197638
0.8228234369 0.2507940645 0.253825998
0.8326932329 5.1777559897e-04 1.0036647635
0.8325525003 0.2516595652 0.5047595414
0.8224753091 0.2498369071 0.7539135587
0.8325710178 0.2480050834 0.0014625379
0.8327450817 0.5002383073 0.5045706635
0.8327117503 0.4995404073 1.0011371328
0.8227234428 0.5011941553 0.2537019312
0.8425667323 0.5038423779 0.7550060877
0.842488959 0.5024773485 0.2490994213
0.8425556218 0.0010774704 0.2580007551
0.8425445114 0.2510323718 0.2508826508
0.8425556218 0.2522887226 0.7523080966
0.8625692718 0.2515738007 0.2520335098
0.8524476387 0.2525820239 0.504328085
0.8623544695 0.2521263594 0.7513405603
0.8524217143 0.2531280357 0.0077200441
0.8927193689 0.5003181795 4.2713517675e-04
0.8724686956 7.2609808328e-04 0.5049308277
0.8823977474 0.2518932896 0.2544389253
0.8725464689 0.2502873341 0.5045401097
0.8924119794 0.2512628228 0.4984108368
0.8823607125 0.2501642523 0.7518127551
0.8725427654 0.2507606753 0.0028562531
0.8924897526 0.0011670321 0.4982765854
0.8725501724 3.7799919922e-04 -0.0013698899
0.8925045666 0.2500699769 -0.0024799549
0.8726020212 0.4996503953 0.4992422699
0.8922305084 0.4986336611 0.5002181391
0.912529327 0.495667259 0.5051437783
0.9023373276 0.5000608862 0.7488694079
0.9125774724 0.498923689 0.0044628262
0.9024669497 0.5004497723 0.2484457556
0.9125145131 0.0031503512 0.501520841
0.9025706474 0.2494584961 0.2515816842
0.9125922863 -0.0011541727 -8.9213989098e-04
0.9124885886 0.2527339121 0.4990422816
0.9024743567 0.250367861 0.750829479
0.9124108154 0.2490820491 -0.0053788602
0.942542395 0.2505452821 0.7525756736
0.9324800177 0.2525892255 0.0074200615
0.932528163 0.5002075369 0.500985687
0.9324096514 0.5006972453 0.0064940969
0.922543559 0.5027411887 0.7540163305
0.9224694892 0.5008078879 0.2546240997
0.9424461043 0.5001518882 0.7584086675
0.9225657799 0.2481307839 0.2525788484
0.922543559 0.2484280134 0.7547236968
0.9424498078 0.2498297055 0.2597876881
0.9325318665 0.2504176175 0.5035059107
0.9725887944 0.0014468467 0.5082843363
0.9626190043 -0.0059067733 0.7590382605
0.9625227136 0.2522258724 0.2600015645
0.952564034 7.7978269584e-04 0.0064973374
0.9725258351 1.9769746389e-04 0.0138682973
0.9524381154 0.2513309106 0.5072723581
0.9725258351 0.2496136577 0.5142645438
0.9624856787 0.2465791677 0.7659554505
0.9524788537 0.250727286 0.0072186843
0.9524899642 0.0021094589 0.5099601646
0.9727184165 0.246284557 0.0122385774
0.9724962072 0.4991096211 0.5067631285
0.9624782717 1.3353780499e-04 0.2580220501
0.9523159002 0.5004772693 0.5091629888
0.9623153183 0.4984994496 0.7642027747
0.9824734043 0.2490722287 0.2609959511
0.9823919275 -0.0049747364 0.7629815495
0.9926357758 -0.0012949312 0.0174718839
0.99257652 0.2485203247 0.5144960118
0.9824622938 0.2491802526 0.7634454114
0.9924209735 0.2478453389 0.0178642685
0.9924913397 0.4992313935 0.0070364727
0.0224985728 0.7505762025 0.770625549
0.0025015885 0.4982539407 0.2701593067
0.0025722511 0.7472765629 0.7684071596
0.0124408989 0.4987004396 0.516049625
0.0024464436 0.4994133974 0.7643796163
0.0225714945 0.9980622664 0.2738868675
0.022612344 1.0022130035 0.7730957756
0.0125116355 0.7473813134 0.0184558081
0.0225227566 0.7506220309 0.2701167165
0.0025608073 0.7474926108 0.2680010989
0.0126047042 0.751361831 0.5215104183
0.0524316084 0.9991032241 0.5227149779
0.0523319846 0.994546579 0.0205792956
0.0325920224 0.7505500149 0.0216196054
0.0425758857 0.7501244662 0.2740016756
0.0325072125 0.7501964821 0.5210400753
0.0425395916 0.7485270216 0.7688497265
0.0423251596 0.4971422764 0.7714643891
0.0325186933 0.5008766304 0.0197178643
0.0324353648 0.5017237998 0.5226612773
0.0425795892 0.999181787 0.271133324
0.0525038264 0.4966460211 0.5179272935
0.05264567 0.7473289382 0.0206473472
0.0525175294 0.7492275403 0.52141135
0.0425803299 0.9973028255 0.7716708586
0.0724667386 0.4977681604 0.0170280208
0.0726408026 0.9972831848 0.5190948182
0.072633766 0.9998168367 0.015612918
0.072539327 0.7497643864 0.0137354347
0.0625502788 0.7503470609 0.2695074927
0.0723574857 0.7468772018 0.5145182327
0.0625510195 0.7488543668 0.7703320476
0.0927200043 1.000478074 0.514537676
0.0924463165 0.7485924906 0.0152310884
0.1025835043 0.7517939267 0.2629513928
0.0823424602 0.7509166415 0.2619801531
0.0924700189 0.7509428292 0.5158625989
0.102464252 0.7489001951 0.7591271442
0.0825350415 0.7503536078 0.7628667413
0.1024923985 1.0005697306 0.7664443109
0.1025657276 0.4999037605 0.7600798665
0.0825720764 0.5005846385 0.7633778227
0.0924429834 0.4996811658 0.0125742986
0.0823606072 0.5014259157 0.2650160875
0.1126173648 0.7513945655 0.0104490519
0.1226130793 0.7500197157 0.2555592305
0.112519963 0.7476955648 0.510912887
0.1226008578 0.7484615526 0.7585049582
0.1225993764 1.0011458582 0.2606441197
0.122597895 0.9983175957 0.7586123593
0.1225797479 0.4992818046 0.2602561793
0.1125569979 0.9999739624 0.5101416356
0.1424404438 0.7502161228 0.2578229876
0.1523980124 0.7501244662 0.503525354
0.1325291688 0.7511457832 0.5106138303
0.1424734049 0.7507333282 0.7574966835
0.1525046729 0.499226156 0.5047271359
0.1325106514 1.0010149201 0.0082029789
0.1426237665 0.501040303 0.2521927598
0.1425071066 1.0001572757 0.2559064325
0.1325787956 1.0005042616 0.5027337334
0.1425363642 0.9982783142 0.7561282446
0.1524006049 1.0019642212 0.0026856148
0.1524143078 0.7495614324 0.0070009192
0.1326332368 0.7516171603 0.0087230412
0.1725186932 0.7505958432 8.73360253e-06
0.1623763206 0.7523242259 0.2508678369
0.1724694368 0.7495286979 0.4992154196
0.1625607543 0.7484811933 0.7481925954
0.1823462694 1.002723662 0.7517683132
0.1726868316 0.5004360238 8.3248195523e-04
0.172457956 0.4992431779 0.4970405462
0.1825929217 0.7527301339 0.2469912106
0.1826132909 0.7516237072 0.7496017726
0.1724894357 0.9991883339 -0.002769614
0.162451131 1.0011131236 0.7520497783
0.1825395915 0.5008196724 0.2472597135
0.2026510135 0.5018468816 0.7491823526
0.192456792 0.5021244703 0.5001311071
0.1923964252 0.7538692952 0.0016343797
0.2025517601 0.7509362823 0.2459384941
0.1923027269 0.7519837869 0.5002718396
0.2024947263 0.7490245863 0.7503378409
0.232523349 0.7482716923 4.0454389901e-04
0.2325059426 0.5048650043 0.0031256818
0.2326670443 0.7489983987 0.4971285041
0.2124985885 0.7536401536 4.7259549385e-04
0.222492081 0.7531687765 0.2499067817
0.2123615595 0.7485204747 0.5013773309
0.2224717118 0.7537449041 0.7455288615
0.2325618653 0.5003005029 0.4977914284
0.2224450467 0.500202954 0.7490610634
0.2125274758 0.5036623381 0.0048643769
0.2223669031 0.5020288855 0.2498299343
0.212524513 0.5041422261 0.5018384151
0.2523440472 0.7481931295 -0.001770885
0.2423268525 0.7504583583 0.2514066944
0.2523684903 0.7491555244 0.5019939616
0.2424601781 0.7512177991 0.7475898527
0.2424720292 0.4997211019 0.7495499238
0.2622449525 0.4993878645 0.747392642
0.2622031031 0.7505827494 0.2455607383
0.2423357409 0.5013224746 0.2469282513
0.2621386624 0.7484550057 0.7482962931
0.2623801298 0.5008596085 0.2457736889
0.2523944147 0.5012537321 0.4982525127
0.2723358467 1.000955998 0.9971188482
0.282550067 0.4967671388 0.2454431526
0.2722717763 0.5015882789 0.495942462
0.282543771 0.999247256 0.2486800012
0.2825056251 0.5008255646 0.74192259
0.28238341 0.7524093356 0.246648638
0.2824326664 0.7503143264 0.7429966015
0.2723658449 0.749659636 0.9967392407
0.2723576972 0.7490180394 0.5002061027
0.312340185 1.0005108085 0.4912649564
0.2923620885 0.7478265029 1.0000353451
0.3023748391 0.749044227 0.2425109158
0.2925046728 0.7508708132 0.4987302627
0.3024707594 0.7511785177 0.748166671
0.3025444588 0.5007921754 0.7426401408
0.292420974 0.5001040958 0.9928968717
0.3025381629 0.9981015478 0.2436682559
0.3125331367 0.7509755637 0.9938782961
0.3124286984 0.7516237072 0.4968998137
0.312586467 0.4993250142 0.4928000523
0.3326890007 0.5034286136 0.4881827284
0.3226962489 0.5025912646 0.7409782005
0.332506789 0.755453646 0.993517206
0.3325601193 0.5024177716 0.9870361017
0.3223999699 0.7494763227 0.2458357223
0.3325164181 0.751361831 0.4897233795
0.3225121856 0.7515909727 0.7432354765
0.3225047786 0.4980529508 0.2417831804
0.3524734047 0.5013611013 0.4940073894
0.3524782193 1.0001049004 0.4946656844
0.3625131908 0.750000075 0.2490994213
0.3626391094 0.7536401536 0.7430067861
0.3625391152 0.5019202069 0.744707613
0.3626205919 0.499475593 0.2473911874
0.352615989 0.7510541265 0.9955819006
0.3424832454 0.7508118911 0.2447737471
0.3525174762 0.7528741658 0.4945277295
0.3424662094 0.7526515711 0.7385987093
0.3625168943 1.0017809079 0.7417077876
0.3424888007 0.501664223 0.7384190902
0.3523756326 0.4993603675 0.9902673951
0.3427417489 0.5014959676 0.2445256134
0.3725385332 0.5040826493 0.9958596622
0.3824194396 0.504783168 0.2457385058
0.3723422483 0.5001329022 0.4940638676
0.3925484797 0.5041369886 0.9938690373
0.3825416547 0.5010069138 0.7384801977
0.3726459344 0.7542162811 0.9954522785
0.3825157303 0.7519117709 0.2486550027
0.3725163123 0.7527039463 0.4982886217
0.3823379629 1.004157434 0.2412332124
0.3824675849 0.7538038262 0.7428327222
0.3924707064 0.7522325692 0.9901099969
0.3924151541 0.7544061414 0.494719385
0.3926632878 0.5021683346 0.4944610667
0.4024886419 0.503292438 0.7390023895
0.4023701303 0.7536467005 0.2415915249
0.4024219791 0.7543079378 0.7426549547
0.4123658448 0.7508249849 0.9904896044
0.4123584378 0.7527694154 0.4891030452
0.4226059896 1.0046549987 0.7386264855
0.4425603837 1.0006155589 0.2334827376
0.432623925 1.0019314866 0.4886734406
0.4426122326 1.00395448 0.7310435935
0.4224208151 0.5041219307 0.7388301773
0.4325128204 0.7509493761 0.9838048083
0.422480071 0.7526319304 0.2394796108
0.4325239308 0.7533520898 0.4849560644
0.4223282279 0.7528348844 0.7361108912
0.4424900175 0.7529199942 0.2353428145
0.4424455756 0.7513945655 0.7344702459
0.4225911756 0.9999543216 0.2356992753
0.472491975 0.9996073357 0.4808183422
0.4725104924 0.4986028907 0.981462352
0.4625073709 0.5001270099 0.2372232606
0.4725253064 0.7505107335 0.9866657529
0.4623259 0.7491424306 0.2359381502
0.4725586378 0.7504125299 0.4857060207
0.4626481035 0.7491751651 0.7361349638
0.4526931273 1.0007137625 0.4843699874
0.4627258767 0.9994371162 0.2346400776
0.4625925512 1.0009232634 0.7346609756
0.4524153657 0.7516760824 0.984675128
0.4525301738 0.7523373197 0.4863411689
0.4525412843 0.5006887343 0.4836255863
0.4923871134 0.501729692 0.9812494015
0.4925241424 0.4994081599 0.4826256445
0.4824988 0.5026279273 0.7350591005
0.4825654628 0.9996924455 0.7306352839
0.4925537703 1.001977315 0.4840875964
0.4926759854 1.0008905289 0.9777958988
0.4925463633 0.7497578395 0.4800443132
0.4924722936 0.7538692952 0.9784532679
0.4823802884 0.7485270216 0.2344761983
0.4824802825 0.7507071406 0.7329944059
0.5024939325 0.49900618 0.2257637424
0.5124155773 0.997748015 0.4728734343
0.5225223965 0.9994698508 0.7238245692
0.5025531883 1.0013029839 0.2276349298
0.5222705593 0.7523700542 0.7220043048
0.5025346709 0.7507726097 0.225375802
0.5023791244 0.751296362 0.7320472388
0.512504461 0.7467659044 0.9745553466
0.5125785308 0.4992163356 0.9801661312
0.5124229843 0.7492537279 0.4801646766
0.5224631407 0.750203029 0.2276515955
0.5523947319 0.9992014277 0.4849477315
0.5423101337 0.5001990259 0.7336823288
0.5421027383 0.7477413931 0.2329022158
0.5524799121 0.4996026029 0.4763750823
0.5524762087 0.7476170019 0.4793165778
0.5425582674 0.7474598762 0.7320768667
0.5323477505 0.9991359587 0.9803975992
0.5424249418 0.5014311532 0.2320476359
0.5325292215 0.747479517 0.976462643
0.552365104 0.4968515939 0.9797680062
0.5423212441 0.998500909 0.2276247452
0.5322255354 0.7486055844 0.4800322769
0.5723306087 0.4971658453 0.9823974828
0.5622867488 1.0010083732 0.7305936197
0.5524132494 0.7490245863 0.9842307094
0.5625200685 0.7462814335 0.2296042596
0.5626126557 0.7452404758 0.73046122
0.5724083819 0.7494043067 0.9872027587
0.5725972598 0.4973943322 0.4849347693
0.5726305912 0.7492602748 0.4828589642
0.602558479 0.5019398476 0.2407832386
0.6024177464 0.9985598311 0.2388250193
0.602384415 0.9986449409 0.7372311963
0.5925886889 0.7486317721 0.9890637615
0.5922850028 0.9968052608 0.4907455422
0.5924627703 0.9986056594 0.9895637324
0.6026510662 0.7498298555 0.2398073695
0.5925775784 0.7466807947 0.4887975075
0.6024547813 0.7483109738 0.7363256935
0.5823226197 0.9966743228 0.2346687797
0.5822004046 1.0001114473 0.736249772
0.5824374278 0.4964181888 0.736589567
0.5824115034 0.7468051858 0.2349058029
0.5823263232 0.7468902956 0.7371524972
0.6125060481 0.7468902956 0.9886934126
0.6123949435 1.0002161978 0.4908409071
0.6125541935 0.7499607936 0.4890984159
0.6223351057 0.9978789531 0.7378515306
0.6223832511 0.7487430694 0.2403869654
0.6225239836 0.7462028707 0.7368941789
0.6225387976 0.9991228648 0.2394759073
0.6423339417 1.0013291715 0.7418577789
0.6325234016 0.4972777973 0.4925408081
0.6424487499 0.9974926858 0.2436071483
0.6523111388 0.9978724062 0.4924741453
0.6525074237 0.9979837036 0.9921376566
0.6323419307 0.9948019082 0.4876105395
0.6325900644 0.996726698 0.9888508109
0.632412297 0.7490966022 0.9943967844
0.6323863726 0.7497840272 0.4933065043
0.6525000167 0.7492668217 0.9962207523
0.6425524475 0.7463796371 0.2412859871
0.6524074295 0.7498560431 0.4947129039
0.6424931917 0.7478919719 0.7436187875
0.672584033 0.7476366427 0.9961744587
0.662577208 0.9997186331 0.2405952866
0.6726062539 1.0002620261 0.9941005054
0.6824612359 0.7470277806 0.2471504606
0.6724877423 0.7482585985 0.4979275316
0.6826278929 0.748841273 0.7465288033
0.6723840446 0.9984092523 0.4956813661
0.6624920278 0.744003111 0.2470115798
0.662577208 0.7473158444 0.7462677074
0.7026304324 0.4962460053 0.2418868781
0.6924865783 0.999587695 0.4974868165
0.6924606539 0.9991163179 0.9948319443
0.6924754679 0.7476366427 0.9938690373
0.7024934033 0.7513290965 0.2445320945
0.6926791597 0.751564785 0.4949814068
0.7026748742 0.7500131688 0.7407346961
0.7125631876 0.5012818838 0.4934648284
0.7125187458 0.7500131688 0.4914732777
0.7224663149 0.9979182345 0.7467445315
0.7326694248 0.9968576361 0.9890637615
0.7326694248 0.7470605151 0.992952424
0.7225070533 0.7478134091 0.2442034099
0.7324953609 0.7473551258 0.4921426831
0.7225737161 0.7514796753 0.7407180304
0.7225811231 0.9979313283 0.2436478867
0.7327397911 1.0017219857 0.4908946076
0.7125446702 0.7482716923 0.9947763919
0.7125409667 0.9998495712 0.493033372
0.712589112 0.9999543216 0.9960170605
0.7426206975 0.4971475139 0.2449968823
0.7424688545 0.7480687383 0.2398064436
0.74260218 0.7478461436 0.7430225259
0.7525238248 0.7470736089 0.9941375402
0.762312144 0.9973159193 0.7438706247
0.7525571562 0.9968249015 0.985702846
0.7623713998 0.7477152055 0.2409943374
0.7524830864 0.7476235488 0.4919260291
0.7624047312 0.7480032693 0.7427308762
0.752601598 1.0002096509 0.4898224478
0.742457744 0.9992734436 0.2426914609
0.7625195393 0.9979182345 0.235404848
0.7826850323 1.0010934829 0.2399768041
0.7727374631 1.0000263376 0.4912816221
0.7825961486 0.9995025853 0.7396856831
0.7725004399 0.9997775552 0.9909895753
0.7824294916 0.7514011124 0.2422868548
0.7723448934 0.7504190768 0.4916667849
0.7825146719 0.7505369211 0.7435641611
0.7724597015 0.7493519315 0.9953782088
0.7724078527 0.4992084793 0.4922204564
0.7725226608 0.4989420203 0.9919987758
0.7925696422 1.0006744811 0.4941083095
0.7924400201 0.7482520516 0.9986002435
0.7925844562 1.0008119661 0.9941005054
0.8127425422 0.748703788 1.0054331791
0.7924289097 0.4994677367 0.9939338484
0.8026616474 0.9985794718 0.2484633472
0.8125647748 0.4975717533 1.0050350541
0.802628316 0.7486579597 0.2467171525
0.8125721817 0.750746422 0.5021633962
0.8025875777 1.0006286528 0.7479611274
0.8026097986 0.7511785177 0.7523738335
0.8127018038 1.0000525252 1.0006001271
0.7925622352 0.7500524502 0.4923917427
0.8226864079 0.9979116876 0.7505026461
0.8226678904 0.997950969 0.2563202973
0.8325969422 0.752180194 1.0037851269
0.8224641986 0.5018815802 0.7503378409
0.8227271462 0.7491751651 0.2506039633
0.832648791 0.7479836286 0.5016986084
0.8226938149 0.7501899352 0.7523405021
0.8427444997 0.750405983 0.2568832275
0.8427222788 0.7543079378 0.7557458595
0.8625211265 0.5023673605 0.7537219032
0.8426333951 1.0046157173 0.7541191023
0.8625803823 1.0017154388 0.2529158658
0.8626914869 1.0015779538 0.7513470414
0.8527254003 1.0027040213 0.0072720146
0.8625285334 0.7532080579 0.7531747128
0.8524476387 0.4967841608 0.5028105808
0.8526142956 0.750000075 0.0028599565
0.8526402201 0.5002841356 0.0041399746
0.8625988997 0.5009054368 0.2499882584
0.8626581555 0.7500982785 0.2497243849
0.8526142956 0.750543468 0.5019143366
0.8526217026 1.0018791114 0.5039188496
0.8826532881 1.0016106884 0.7535950587
0.8924971596 1.0020558778 5.8388531288e-04
0.8824421892 0.7516171603 0.7518266432
0.8724501782 0.7509821106 0.0015558658
0.8926341886 0.7501441069 0.0028131074
0.8824903346 0.5019935323 0.7519034905
0.8825458869 0.5038895156 0.2478383836
0.8824607067 0.7516891762 0.25195944
0.8725612828 0.7489263827 0.4987839633
0.8926267817 0.7485335685 0.4970646189
0.8723390736 0.4989996331 6.8508312669e-04
0.8825273695 0.9978593124 0.2532426986
0.9124256293 0.750477999 0.5026374427
0.9026558276 1.0008316068 0.248558712