POSCAR file written by Ovito 3.7.11
1
270.0744800191 0.0 0.0
0.0 15.2777196998 0.0
0.0 0.0 10.8029792007
Sr Ti O 
800 800 2400 
Direct
0.0224598821 0.5000497456 0.7685005668
0.0125535037 0.5007946212 0.023476361
0.0122627321 0.2487772995 0.5259637674
0.0224335931 0.2496524301 0.7698048367
0.0025395253 0.2513902549 0.7801723472
0.0124413124 0.2516350558 0.0266514111
0.0023083669 0.0023223917 0.2775026762
0.0223633162 0.5003796378 0.2720328888
0.0122771725 8.4474974872e-04 0.5308679701
0.0023221038 -0.0035216741 0.7774240312
0.0124465332 -1.7116508951e-06 0.0311172162
0.0224110437 0.2484598438 0.2759160768
0.0025040907 0.2497270486 0.2814367762
0.0423432861 0.4998684359 0.2720282604
0.0324878566 0.2520205846 0.5225822928
0.0423284754 0.2482726431 0.7738037336
0.0524567926 0.4991189785 0.0209815862
0.0325082214 0.2505812337 0.0219969543
0.0325359915 -1.046065875e-04 0.5236301519
0.0326548476 -9.6193348297e-04 0.0222523468
0.0424225235 0.25034756 0.2716404044
0.052435317 0.2521842216 0.5199524626
0.0524286522 0.2499751223 0.020145428
0.0624862482 0.2516553468 0.269803874
0.0624610699 0.5008352032 0.774693303
0.062263717 0.5013392051 0.27043333
0.072470531 0.4980186834 0.5236264492
0.0725157037 0.2515388373 0.5178049069
0.0625780747 0.2488787545 0.7750404295
0.0725468063 0.2518562931 0.0214907976
0.0623651705 0.0033056536 0.269005946
0.0624662537 0.001425661 0.7720597702
0.1023289612 -2.3859255139e-04 0.2672980838
0.0925190747 0.2501184683 0.5156703106
0.0823359578 0.0013234207 0.2698316441
0.1024811414 0.2513339638 0.7624050261
0.0825440485 0.250634252 0.7665122264
0.0925124098 0.2521999307 0.0160948787
0.0824018655 -4.6002612044e-04 0.7680256978
0.0925683203 0.0012471004 0.0179021579
0.102527425 0.2521069849 0.2658790308
0.0824759192 0.2493991201 0.2643933295
0.1023759853 0.4970551888 0.26774148
0.0924713101 0.4996295259 0.5201811033
0.1124276569 0.0014575375 0.0162675162
0.1225918901 0.251159854 0.2597686793
0.1125383671 0.2482372975 0.5102829078
0.122517096 0.4973562809 0.7659716348
0.1124358028 0.4991045784 0.0150640519
0.1226115144 0.2503279236 0.7609193248
0.1125528076 0.2503789783 0.008959347
0.1124417271 0.4994514888 0.5146807687
0.1524973444 0.2495490116 0.5061590454
0.132479533 0.2440324815 0.5122055256
0.1424919562 0.249418102 0.7639129435
0.1525028984 0.2467115462 0.0062519457
0.1325280381 0.2514936735 0.0090159055
0.1425308344 0.2507062523 0.2595437413
0.1424949184 0.4978642101 0.7589467208
0.1523940395 0.4971860984 0.0088145721
0.1324032577 0.4996066167 0.0134281143
0.1323817822 0.4976979549 0.5118945003
0.1525480711 -0.0012111853 0.5070754592
0.1826419919 0.2489154091 0.7514691539
0.1826816106 0.249842249 0.2536629562
0.1624608922 0.4941319777 0.752042144
0.1624486733 0.4953592551 0.2530381285
0.1725088612 0.2484310437 0.500787379
0.1825979299 0.4981463202 0.7565825581
0.1624931055 0.2476462407 0.7574813843
0.1726303092 0.2495359206 0.0041871449
0.162583451 6.0767248384e-04 0.2540498865
0.1626052968 0.2473804942 0.2545877011
0.1724925694 -6.1790308424e-04 0.4985602156
0.1825157304 0.0043806177 0.2534648626
0.2025668659 0.2497839943 0.2516237039
0.1923633843 0.5002205827 0.0055083545
0.2025975982 0.4986804313 0.2470027563
0.1926807041 0.2506466885 0.4981547719
0.2024687448 0.2486804264 0.7492864227
0.1926636718 0.2510655991 0.0014387364
0.1923389466 5.1158484584e-04 0.5012094848
0.2025557579 0.0026264947 0.7495937453
0.1925877668 0.0020723544 0.0020519931
0.2025990793 7.1757108344e-04 0.2502935152
0.2125759567 0.2475290766 0.4994534877
0.2224717455 0.2530312066 0.7490735184
0.212498941 0.2497709033 -0.0015574741
0.2224939616 -0.0012958838 0.2494224592
0.2126048377 0.0015536252 0.4976447274
0.2125081977 0.002297388 -0.0011549926
0.2225798638 -4.7553890668e-04 0.7476822355
0.2327363214 0.0022757225 0.4951287548
0.2225746801 0.2505615972 0.2531816075
0.2326737461 0.2486077716 0.5012057821
0.2325489657 0.2484258073 0.0024286485
0.2325734034 5.9746153594e-04 0.998177025
0.2526793386 0.2504660332 0.5026174297
0.242760223 0.2526299687 0.7491568288
0.2625443951 0.2533250986 0.2476905296
0.2525149395 0.2526764416 0.9991952626
0.2426143373 0.2560512908 0.2459382352
0.2426820964 7.8472770237e-04 0.2502851842
0.2526889656 0.5023832091 0.9994822205
0.2525623338 0.0012829696 0.5010039859
0.2426865396 -0.0022950513 0.7467787811
0.2624729333 0.2519603662 0.7502667078
0.2526752656 0.0018162953 0.9985565499
0.2627173103 0.0030493327 0.2475359426
0.2625458762 0.001919452 0.7484755352
0.2725738507 0.2502762143 0.4947862566
0.2726056937 0.2527386237 0.9965756149
0.2727060364 0.003890885 0.4970273051
0.2724275947 0.5011513498 0.991882465
0.2824666773 0.2541393563 0.7442683625
0.282644406 0.0046245023 0.7486014264
0.2826062684 0.2507861072 0.2510655245
0.3025870529 0.2559995815 0.2454207853
0.3127109269 0.2538971735 0.491323323
0.3124876552 0.2527418964 0.9903921354
0.3126531651 0.0051741262 0.993770833
0.2925986971 0.2525978959 0.494071639
0.3024474618 0.256436165 0.742974275
0.292530938 0.5033048126 0.4944178398
0.3027888491 0.5007756393 0.2465769479
0.2926105457 0.2521331668 0.996066496
0.3024693076 0.0055414585 0.745177371
0.2924787302 0.0050835368 0.4931459684
0.3125480089 0.4998834905 0.9971587873
0.2925568568 0.0069969113 0.9961220363
0.3224204707 0.2533977535 0.2399426668
0.3324569614 0.2505838519 0.4923424863
0.3226511478 0.2525376775 0.7434102658
0.3325995147 0.2516900379 0.9939189403
0.3225048919 0.0033649557 0.2435379714
0.3325317556 0.002453694 0.4934320006
0.3224497219 0.0041097658 0.7439897356
0.3323725403 0.0034841489 0.9945206262
0.3624468368 0.2517175289 0.2417847513
0.352513651 0.2506034883 0.4927220113
0.3422686993 0.2515087281 0.7439138306
0.3524836592 0.0019683467 0.9932709709
0.352534386 0.2491975193 0.9908549707
0.3424293957 0.0012119511 0.2400398623
0.3423886662 0.0047418627 0.7385865964
0.3422668479 0.2510466172 0.2414802057
0.3624172153 0.2517875655 0.7424447914
0.3625764307 0.001954274 0.2395686959
0.3724737005 0.2507055978 0.490294903
0.3824709427 0.2520664029 0.7372332661
0.3723848361 0.2493382471 0.9948353542
0.3823931864 0.0021291692 0.7415922488
0.3825709152 0.2504928697 0.2352634021
0.3925977789 1.1368515142e-04 0.4851528029
0.3928125344 9.2637187719e-04 0.9862358745
0.3726440239 -5.7273927619e-04 0.4857082053
0.3725440515 0.0020875399 0.9931784038
0.3925644547 0.2492184648 0.4881445702
0.3926162923 0.247383767 0.9880594455
0.4125663446 0.0027782844 0.4766708834
0.402572805 0.2487707541 0.734690449
0.4025765077 0.0019616049 0.2338776732
0.4027320203 -4.6990979437e-04 0.7355911265
0.4023506441 0.4997964356 0.2325595183
0.4025876157 0.252332804 0.235083822
0.4126144794 0.2534134626 0.4815028838
0.4126996411 0.2511683632 0.979959828
0.4125552365 5.8319239078e-04 0.9803300962
0.4125552365 0.4988447229 0.9761738353
0.4126292902 0.5009157126 0.4813186754
0.4226154244 0.2511074902 0.226173317
0.4425358552 0.2499862496 0.7188799955
0.432386803 0.4992400698 0.976655184
0.43247937 0.4995869802 0.4726266287
0.4425099364 0.2500824681 0.2249606885
0.4223969661 0.4989841416 0.2286865126
0.4426099088 0.502137099 0.7206582087
0.4325645317 0.2491706828 0.4753545799
0.4226857753 0.2487295175 0.7294955857
0.4324275325 0.2507867617 0.9740355363
0.4424432881 0.4995817439 0.2209006974
0.4325682344 0.0022292496 0.9754425556
0.4524960706 0.001786317 0.976655184
0.4724350149 0.25056487 0.4680862145
0.4626932577 0.2507540343 0.7197704906
0.4725609061 0.2518274929 0.9655563938
0.4624785021 0.2508672711 0.2183190021
0.4524109089 0.4991307603 0.9698237352
0.4626451228 0.4992616699 0.7178876767
0.4725905275 0.499467198 0.4693728966
0.4527700691 0.2496668302 0.4667958297
0.4523664767 0.2491503919 0.9720268311
0.4725831222 -0.0011419342 0.9735079041
0.4825470403 -0.0010312501 0.2166398357
0.48264331 0.249930613 0.7202657244
0.4824396625 0.2503115599 0.2193825976
0.4925405798 0.2495791208 0.4690572429
0.4923702564 0.2491026099 0.9673244246
0.4825100134 0.4992407244 0.2139831612
0.5025563355 0.2502277778 0.2243145705
0.5124795241 2.2325647704e-04 0.9699625857
0.5224249288 0.0036032766 0.2248634931
0.5024082282 0.2495241387 0.7190521702
0.5026526052 0.4975945363 0.7173063555
0.5122906873 0.2476272588 0.4685592322
0.5024674711 0.0012866351 0.7201389075
0.5222953349 0.2500955591 0.2279607869
0.5123203087 0.2541969565 0.9714899422
0.5223879019 0.2507311251 0.7213691237
0.5126609555 0.5008214577 0.4735902517
0.5226137656 0.5000013091 0.2226548431
0.5226470897 0.4997211626 0.7229344326
0.552224116 0.2482660976 0.4774373387
0.5525610601 -0.0022378438 0.9820611002
0.5324740086 0.5011461134 0.9775160577
0.5323814415 0.5021384081 0.4796802385
0.5324962246 0.0037551317 0.4794395641
0.532188902 0.2525350593 0.4768439838
0.5323592254 0.2482890068 0.9755073525
0.5423934945 -0.0012456146 0.7309063077
0.5422490899 0.2484028981 0.2334555674
0.5424083052 0.2487550449 0.7298103137
0.5521648731 0.2510433445 0.9820888703
0.5623694655 0.4982805026 0.7331760519
0.5623435468 0.4971383164 0.2342757116
0.5624953567 -8.0911951973e-05 0.2353744825
0.5623435468 0.2480088602 0.2350967814
0.5624990594 0.2508666166 0.7363325886
0.57225933 0.0042468936 0.4847769807
0.5724259507 0.0016982803 0.9881797827
0.5725074097 0.2476351134 0.4851185531
0.57241114 0.2496622483 0.9855323649
0.5924833808 0.4964811503 0.995029745
0.5825787056 0.248080206 0.7406767606
0.6026102169 0.2478969325 0.2360113439
0.5925130022 0.2494992659 0.4891026393
0.6023510291 0.2489762821 0.7381728217
0.5925426237 0.2487242811 0.9883834302
0.6023917586 0.4978118462 0.747388798
0.5825601922 0.2513680003 0.2396547833
0.5925055969 0.4972502441 0.4934875408
0.5823343286 0.5004464017 0.2416070225
0.6122334882 -4.1401140006e-04 0.9878928248
0.612270515 0.4971965712 0.4909798992
0.6224602968 0.2498861037 0.7379793565
0.6223751351 0.4966644237 0.2433574656
0.612422325 0.4966159871 0.9916695608
0.6225491611 0.499009669 0.7440341678
0.6125778377 0.2478478415 0.4892831451
0.6123149472 0.2522594946 0.9836532536
0.6225454585 0.247793514 0.2352754358
0.6425103215 0.2476724226 0.2401861182
0.6525927254 0.2471193296 0.4837013515
0.6426584288 0.2469033288 0.7340156351
0.6525149691 0.2487367176 0.9891609935
0.6323353505 0.4978962829 0.9910215914
0.6424103491 0.4994698162 0.7434741371
0.652503861 0.4997453809 0.9879853919
0.6424362678 0.5006859662 0.2431149399
0.652503861 0.4987432679 0.4948899317
0.6324797551 0.2473700215 0.4884333795
0.6325538088 0.2466506733 0.9885593077
0.6625825623 7.8230587498e-04 0.7407924694
0.6724057785 0.4972960624 0.4906198134
0.6825289119 0.4968300243 0.740543464
0.6724798321 0.5004359289 0.9892535606
0.6825955602 0.4965197686 0.2408775941
0.6625936703 0.249050246 0.2387689166
0.6624603738 0.2469471835 0.7388911421
0.682632587 -0.0010298756 0.2462825846
0.682480777 -8.0078377945e-04 0.7435879946
0.6623344826 0.4951655089 0.7420708205
0.6621641592 0.4957572202 0.2424456801
0.6824733717 0.2504352695 0.2407239328
0.6724502107 0.249309447 0.4897450547
0.682551128 0.248265443 0.7487023245
0.6724205892 0.2464608544 0.9897811928
0.7024974776 0.2453062318 0.2449736864
0.6925705863 0.2490855916 0.4940623823
0.702738152 0.2475094402 0.7460854538
0.6925853971 0.2465230364 0.9934468483
0.7026418822 0.4987668317 0.7467723014
0.7024123159 1.3146587406e-05 0.7466991734
0.7026344769 -0.0014561826 0.2491910416
0.6925298568 0.497665882 0.9920861126
0.6926335319 0.4968339516 0.4999311337
0.7126650432 0.2475055129 0.4984380271
0.7125687735 0.2492911197 0.9976586494
0.7224216111 0.4959725665 0.7480191796
0.722621556 0.2484251527 0.249139204
0.7326150955 0.4971546801 0.9978715537
0.732633609 0.2510014534 0.4967014691
0.7224734487 0.4965498778 0.2520800595
0.7326187982 0.4982759207 0.499536798
0.7227437445 0.2485233349 0.7470305635
0.7325854741 0.247684859 0.9954925803
0.712598395 0.4959051481 0.9986398603
0.7623476345 0.5007219664 0.7491901529
0.7424790412 0.0029531796 0.7447506368
0.7525614452 0.4978727192 0.9923360436
0.7625660928 0.498818541 0.2450301523
0.7624920391 0.2481044242 0.2376090513
0.752598472 0.2538114278 0.4952389096
0.7625697954 0.2487419539 0.7447117587
0.7526540122 0.2488898818 0.9951778523
0.7425197707 0.4987164315 0.7460308392
0.7524651754 0.4986987587 0.4962849173
0.7426493646 0.2503770147 0.2455300145
0.7426382566 0.2506774522 0.7447099073
0.7826827658 0.4998651631 0.2402583205
0.7824272807 0.5000582548 0.7403129721
0.7825568746 0.2500549771 0.240220368
0.7724633626 0.2511074902 0.4896034271
0.7825642799 0.248074315 0.7405990043
0.7724707679 0.2465446365 -0.0053708574
0.7924837658 0.4989671233 0.4908614134
0.8125486013 0.4998808723 0.4956425019
0.8025106295 0.5029520112 0.7479080992
0.8026180073 0.5017214611 0.2439637798
0.7925726302 0.2501394138 0.4857369011
0.7924726578 0.2493330107 0.989429438
0.8124597369 0.0028386337 0.4930043408
0.8027327905 0.2505766518 0.2422170395
0.8125115745 0.2517070561 0.4939040926
0.8023662249 0.2492459559 0.7436315011
0.8126300603 0.2516252376 0.9910123347
0.8325615992 0.0019819613 0.4978937328
0.8227457884 0.2496269028 0.2480071089
0.832517167 -1.2830122303e-04 0.991003078
0.8324023838 0.2511199266 0.4944076574
0.8224532765 0.2492328649 0.7399751023
0.8323468436 0.2507311251 -9.2857354422e-04
0.8325023563 0.4987746863 0.4926146335
0.8325764099 0.4979676286 1.0006855922
0.8225421408 0.5005629112 0.2460419103
0.8424218422 0.4977418096 0.7486254939
0.842447761 0.5001093095 0.2494659658
0.8426514085 7.8296042292e-04 0.2489512929
0.8424958958 0.2468673286 0.2456910811
0.8424884905 0.2496105391 0.7450070476
0.862657001 0.2484330073 0.2461455854
0.8524301925 0.2500968682 0.4997793237
0.862494083 0.2486902447 0.7439286413
0.8526005159 0.2486313353 -0.0034055569
0.8925080258 0.4978327918 0.0084155155
0.8725024333 -0.0016217178 0.4977937604
0.8825959453 0.2481810064 0.2522698219
0.8726468379 0.2484997712 0.5028673608
0.892704268 0.2507213069 0.5068014607
0.8825626211 0.2497283577 0.7504907201
0.8725394601 0.2497434123 -0.0018179578
0.8924858097 3.4055146839e-04 0.5036689915
0.872283975 0.0012558713 0.0011839918
0.8925154312 0.2499999951 0.0082410266
0.8724135689 0.4958691479 0.5011613499
0.8926376197 0.4987177406 0.5070467634
0.9127616981 0.5000844367 0.5129034812
0.9026089432 0.5012665503 0.7577396464
0.9127061578 0.4992976701 0.0127694997
0.9026163485 0.500075273 0.258369991
0.9124951049 6.9341826435e-04 0.5109049584
0.9025941324 0.2504810878 0.2605119928
0.9125025103 6.0066882085e-04 0.0109219538
0.9126135908 0.2507533798 0.5091702518
0.9026311592 0.2502984689 0.7611849923
0.9123840245 0.254176011 0.0096445284
0.9425238585 0.249166101 0.7671324257
0.9325081028 0.2529389154 0.0126337964
0.9325784538 0.5024381911 0.514587276
0.9326302913 0.4989900325 0.017225863
0.9223812667 0.5002166554 0.7660799383
0.9226700759 0.4994953435 0.2625521707
0.9424349941 0.4994004341 0.7684441009
0.9227922644 0.2470591112 0.2642137494
0.922925561 0.2501747594 0.7618477724
0.9426053175 0.2498383217 0.2700982373
0.9324969948 0.2511068357 0.5126942796
0.9725007745 -2.7361086633e-04 0.5281103974
0.9623628303 0.0017892624 0.7699168428
0.9623554249 0.2492734469 0.2733778881
0.9523507773 -7.8887100689e-04 0.0179517738
0.9725192879 0.0013859954 0.0229376207
0.952435939 0.2488434089 0.519487776
0.9725044772 0.2480579513 0.523281174
0.9626627476 0.2517568018 0.7747942011
0.9524322363 0.2470722021 0.0162385427
0.95250629 8.6883711302e-04 0.5193415201
0.9723045323 0.2509130895 0.0290577843
0.9726007469 0.4983302482 0.5239356231
0.962296182 -7.6354000151e-04 0.2721300842
0.9526210731 0.4983263209 0.5169171888
0.9627108824 0.4969772976 0.7738176186
0.9823165853 0.2502559233 0.2775739529
0.9823276933 -2.2798887472e-04 0.772962299
0.992436016 -0.00197033 0.032391124
0.9923360436 0.2487138084 0.532349043
0.9825683677 0.2494665385 0.7744341152
0.9921509095 0.2497532305 0.0270603723
0.9924693402 0.4972247167 0.0269520689
0.0224787288 0.7500831325 0.778073852
0.0025896967 0.4995607983 0.2746469825
0.00233062 0.7503842246 0.7782497294
0.0122804679 0.5003194194 0.5296497876
0.0025246035 0.4987255952 0.7740805091
0.0225420817 0.9996229902 0.2735954207
0.0224892444 0.9961669771 0.7794401417
0.012374479 0.7500045867 0.0271982972
0.0224855047 0.7488918552 0.2750098454
0.0023851235 0.7476547596 0.281473803
0.0124641209 0.7484598536 0.5247076324
0.0526052702 1.0009255406 0.5228553656
0.0525519515 1.0018157258 0.0227022227
0.0324652703 0.7510125906 0.0230273182
0.0424051209 0.7504562248 0.2712803186
0.032521551 0.751837321 0.5259054501
0.0424736205 0.7532445991 0.7712701732
0.0423988264 0.5035535408 0.7724633626
0.0323312332 0.500457529 0.0195281908
0.0324312056 0.5014229872 0.5202181301
0.042533604 0.9975938916 0.2708609898
0.0525545434 0.5001224005 0.5192961622
0.0522701774 0.7513398646 0.0188846646
0.0525101112 0.7500045867 0.5167820409
0.042421783 0.9984513494 0.7700103356
0.0723427885 0.499577162 0.0266163281
0.0726075303 1.0007095398 0.5201366711
0.0725120011 1.0005328119 0.0221393224
0.0723668559 0.7473471221 0.0182593742
0.0624325593 0.7537420555 0.2701584059
0.0724808985 0.7527471426 0.518144628
0.0624544051 0.7537551465 0.771060046
0.0924372454 0.9989488058 0.5136791931
0.0923565269 0.7492649476 0.0188393068
0.1023211856 0.7472816673 0.267595224
0.0825018379 0.7502140421 0.270197284
0.0924372454 0.7462736635 0.519709937
0.1024644794 0.749926041 0.7696706144
0.0823681711 0.7495267668 0.7694308658
0.1023334044 0.9989422604 0.7646451489
0.102610365 0.5005413111 0.7675258357
0.08242186 0.4992171607 0.7706259065
0.0925598042 0.4982975208 0.015376836
0.0822656068 0.5013320051 0.2682533758
0.1124931944 0.7483354895 0.017027862
0.1224360072 0.7500307687 0.2660465771
0.1123332385 0.7488394914 0.5178419337
0.1224485963 0.7490162194 0.7650422616
0.1223852805 0.9991255338 0.2634778413
0.1223786156 1.0001139012 0.7643230155
0.1226166981 0.5002578919 0.267342516
0.1123521222 0.9988375327 0.5148510921
0.1424141999 0.7518307755 0.2584477474
0.1525747304 0.7510191361 0.5053009487
0.1324313981 0.7508031352 0.5114649891
0.1424597429 0.7464111185 0.7594252925
0.1523688613 0.5006093841 0.5096941813
0.1323765984 1.0006506305 0.0088460449
0.1423856892 0.4981358475 0.2579923174
0.1423801352 1.0013837242 0.2591216356
0.1324817546 0.9975349823 0.5120555669
0.1425323155 1.0009975409 0.7576461536
0.1523259102 0.999537899 0.0140318366
0.1525402955 0.751673684 0.0040770827
0.1325450705 0.748970401 0.0134756012
0.1725229314 0.7486103996 0.0020381081
0.1625653078 0.7471769396 0.2505591827
0.1724670209 0.7503645881 0.499685831
0.1624653354 0.7473929405 0.7538120261
0.1825301709 0.9993022617 0.7468130309
0.1723518675 0.4997898901 0.0031565959
0.1725303367 0.4993362884 0.5068171971
0.1824209417 0.7496511309 0.248962401
0.1824583388 0.7466991196 0.7473480685
0.1726603009 0.9980848025 -1.1842665443e-04
0.1625264297 0.9973189815 0.7511303584
0.1824594496 0.4999914909 0.2526632319
0.2025287283 0.4994992708 0.7528770988
0.1923593113 0.5011173133 0.5017926572
0.19230229 0.7519682306 -0.0033088521
0.2022917566 0.7520075035 0.2507119184
0.1922830361 0.7517325933 0.500228274
0.2023398915 0.7517587752 0.7481478478
0.2326641191 0.7486758544 0.0036786741
0.2324327014 0.5018242251 0.0024951117
0.2325389684 0.7503318607 0.4984315474
0.2122304965 0.7502467695 0.0010283866
0.2224961832 0.7497820404 0.2511321728
0.2124522872 0.7508424081 0.5032542911
0.2225669044 0.7466533013 0.7495724549
0.2324630634 0.5021285899 0.4986935122
0.222537283 0.5021161535 0.7496566909
0.2123889713 0.5004804382 3.624592108e-04
0.2225650531 0.5006231296 0.2508229988
0.2124048928 0.5014629147 0.5036939846
0.2527067384 0.7491471289 -5.4719726612e-04
0.2425728672 0.7509078629 0.2475451993
0.252447921 0.7513071372 0.4995664195
0.24265951 0.7482111254 0.7472953052
0.2425443566 0.5015198603 0.7505212672
0.2625673517 0.5005701113 0.7454097143
0.2626636214 0.7523478684 0.2506637835
0.24246623 0.5001963644 0.2517394127
0.2625347681 0.7516998659 0.7493965775
0.2626388135 0.5000831276 0.2472684238
0.2524919829 0.5024113546 0.5001375583
0.2726001397 0.9994266258 0.9967885191
0.2827132759 0.5040503427 0.2420698578
0.2726660474 0.502587428 0.4936643439
0.2823789237 1.0011546324 0.2450421861
0.2825903468 0.501638988 0.7445090368
0.282532585 0.7541216933 0.2445321416
0.2825188851 0.7540431476 0.7467250922
0.2726282801 0.7507638624 0.9979270939
0.2725712588 0.7526096876 0.4962025326
0.3125320874 1.0033146406 0.4955962184
0.2925679649 0.7567267941 0.9946224499
0.3027832951 0.7541347843 0.2457725401
0.2927512476 0.7527275062 0.49368656
0.3025570612 0.7569951588 0.749774251
0.3025803881 0.502519355 0.7485847644
0.2925009463 0.505877186 0.9982788487
0.3025207749 1.0027451839 0.2439711852
0.3124180447 0.7554176982 1.0000283661
0.3125839249 0.7537813284 0.4973364791
0.3124787687 0.5055256937 0.4992553942
0.3325532312 0.5016291698 0.4914029307
0.3226467046 0.5003613105 0.7423226029
0.3325202773 0.7527405971 0.9986213468
0.3324380777 0.503543068 0.9908086872
0.3224241734 0.7514053193 0.2482718507
0.3324517777 0.7548940599 0.4947464528
0.3224852677 0.7540889659 0.7421744956
0.3227077989 0.4995169436 0.2443627439
0.3525499372 0.504320671 0.4904504157
0.3525577129 0.9993218982 0.4903393352
0.3625542146 0.751660593 0.2396927358
0.3626615924 0.7490685832 0.741007225
0.3626023495 0.5018458252 0.7379238163
0.3626023495 0.5034560131 0.2434093032
0.3525114294 0.7553915163 0.9917436144
0.3422398184 0.7528387793 0.243609248
0.3525725236 0.7527340517 0.4897913382
0.3424690144 0.754527513 0.745657794
0.3624616475 0.9984120765 0.7422013401
0.3425782435 0.5025141186 0.7418421799
0.3525084672 0.5035070679 0.9913918596
0.3425804651 0.4990522146 0.2389707127
0.3725514568 0.5014347691 0.9891239667
0.3825301857 0.5012606593 0.2364732535
0.37281805 0.5030495389 0.4875262223
0.3925089145 0.4998703995 0.9832552152
0.3826486715 0.5000261819 0.7335518742
0.3724255656 0.7503580426 0.9892257905
0.3825931313 0.7523347774 0.2303804898
0.3724403764 0.7510976818 0.4906299957
0.3826153474 1.0000484464 0.2428844479
0.3824598347 0.7492911295 0.738719893
0.392619995 0.7514511377 0.9867727634
0.3925792655 0.749939132 0.484849183
0.3924533743 0.5018464797 0.4815075122
0.4024543192 0.501106186 0.7351329195
0.4027023989 0.748027852 0.2353106113
0.4025802104 0.7504889522 0.7312950893
0.4124848856 0.7494416755 0.9763959963
0.4125404258 0.7495333122 0.4813751413
0.4226413431 0.9968542524 0.7265352912
0.4425802874 1.0022608184 0.2256086579
0.4327274498 0.9999371732 0.4749352511
0.442713584 1.0002906291 0.728452355
0.4226302351 0.5004954928 0.7295307612
0.4326756122 0.7497034947 0.9718602104
0.4226376405 0.7499456774 0.2234629535
0.4326682068 0.750240224 0.4750231898
0.422759829 0.7510714999 0.7294215321
0.4425395579 0.748027852 0.2271434198
0.4427691242 0.7508489536 0.7247209769
0.4225635868 1.0009124497 0.2270156772
0.4726904999 0.9968149795 0.4732921858
0.4724794471 0.5015237876 0.9660007157
0.462537745 0.5013202232 0.218687419
0.4724313122 0.7478903969 0.9671485472
0.4628006355 0.7488460369 0.2224993305
0.4724868524 0.7490816741 0.4698764614
0.4625303397 0.7497689495 0.7251412313
0.4526367725 1.0002186288 0.4728654517
0.4624636914 1.0023459097 0.2216912201
0.4625636638 1.0011284505 0.7210321796
0.4524886653 0.7499325865 0.9742576972
0.4527034208 0.7477660328 0.4712399742
0.4526219618 0.5025403006 0.4718555451
0.4927220113 0.4994410161 0.9677872599
0.492433202 0.5013208777 0.4711094546
0.4823730142 0.5003600014 0.7148468488
0.4825692564 0.9999437187 0.7138434219
0.4925590932 0.9965269784 0.4718175926
0.4925887147 0.9962913412 0.9740910765
0.4923702564 0.7523216865 0.4701504599
0.4924480128 0.7466663922 0.9618907383
0.4825359322 0.7468300292 0.2150847091
0.482654418 0.7488460369 0.716700967
0.502759983 0.5003907651 0.2182847523
0.5125535777 0.999361171 0.4753249584
0.5225656307 0.9986149864 0.7271703012
0.5025526328 0.9989488058 0.2215597748
0.5225249012 0.7497165857 0.7265399195
0.5024970926 0.7487347637 0.2240396463
0.5025378221 0.7486758544 0.719474276
0.5126017126 0.7528322339 0.9725729768
0.5125831992 0.5017325884 0.972063858
0.5125276589 0.7491733109 0.470655876
0.5224323341 0.7514642287 0.2244302793
0.5524129528 0.9959837036 0.4808484348
0.5425304937 0.4998082175 0.7325438189
0.5424120079 0.7506918621 0.2263093906
0.5523203857 0.4982759207 0.4814186478
0.5523240884 0.7501944057 0.4841364166
0.5423453596 0.7495725851 0.7291160608
0.5326147105 0.9981109845 0.9823758282
0.5423675757 0.4983636301 0.2292363609
0.5324554951 0.7507573169 0.9811446863
0.552457385 0.4976174455 0.9841808858
0.5422972247 0.9968869798 0.2283338321
0.5322999825 0.7535326002 0.4690285471
0.5724592748 0.499358543 0.9902903116
0.5622954119 0.9987262595 0.7273035978
0.5525018172 0.7477725783 0.9807559047
0.5623139253 0.7479623972 0.2324225191
0.5623065199 0.7481849435 0.7330631201
0.5722630327 0.74752385 0.9834496061
0.572422248 0.4989533778 0.4876752553
0.5722630327 0.7478380331 0.4895154884
0.6024213801 0.5003096012 0.2403388539
0.6025991089 1.0017371801 0.2388383418
0.6024621096 0.998896442 0.7358216184
0.5923797057 0.7490358558 0.9934098215
0.5925055969 1.0022019091 0.4849852566
0.5924759754 1.0001335376 0.9909197676
0.6023251104 0.7463914821 0.2399861734
0.5923945164 0.7484533081 0.493843924
0.6022917862 0.7485318539 0.7411071974
0.5823898688 1.0000222645 0.2393335756
0.5825564895 0.9983597127 0.7323781239
0.5823935715 0.5013712779 0.7404046135
0.5822750856 0.7479820336 0.24211429
0.5824268956 0.7488329459 0.7380626669
0.6121631373 0.7511500456 0.9924934076
0.612503784 0.9958266121 0.4859572107
0.612411217 0.7486889454 0.4893238746
0.6224232699 0.9972077083 0.7397603467
0.6223825404 0.7457303887 0.2380570759
0.6222159197 0.7468431202 0.7406064096
0.6224491887 0.9967822521 0.2413237673
0.6425769698 0.9964287963 0.7427086075
0.6325019712 0.5005707658 0.4882565764
0.6425177269 0.9987131686 0.2426854288
0.652340943 0.9960622494 0.4889276876
0.6525705093 0.9972600721 0.9911511853
0.6323945934 0.998883351 0.4889499036
0.6325427007 0.9974433456 0.9916510474
0.6324834578 0.749611858 0.9932617142
0.6323390532 0.7472554854 0.4930617324
0.6522631867 0.7475042136 0.9915492236
0.6424436732 0.7462409361 0.2392067587
0.6523335377 0.7477922147 0.4972744592
0.6426251046 0.7434918347 0.7409091039
0.6725798045 0.7459987533 0.988392687
0.6624974006 0.995715339 0.2435731469
0.6723391302 0.9966775245 0.9912344956
0.6823919127 0.7497493131 0.2456540543
0.6724539133 0.7472751218 0.487774302
0.6823622912 0.7475762139 0.7438360743
0.6725649938 0.9990404425 0.4907225628
0.6624492657 0.7494547665 0.242103182
0.6624270496 0.7473209402 0.7426891684
0.7025196937 0.4990653055 0.2420504188
0.6924780193 0.9984906223 0.4931774412
0.6924150737 0.9964157053 0.9907346335
0.6926705588 0.7466991196 0.9922527333
0.7024678562 0.7485383994 0.2447617079
0.6924076683 0.7458482073 0.4939587071
0.702586342 0.7506133163 0.7485708793
0.7126317191 0.4984107576 0.4952268758
0.7126465298 0.7492453111 0.4955323471
0.722551205 0.9988702601 0.7460956362
0.7324484748 0.9976724373 0.9941318445
0.7325336365 0.7486234906 0.9954277833
0.7225808265 0.7481718525 0.2462177877
0.7325188258 0.7499784048 0.4962293771
0.7226474748 0.749611858 0.7478895858
0.7224105031 0.9987524414 0.243932307
0.7324966097 0.9963960689 0.4959563043
0.7125539628 0.7488133095 0.9959461589
0.7124799091 0.9980324387 0.497311486
0.7124688011 0.9957807938 0.9960202125
0.7426345539 0.4992786882 0.250237975
0.742493852 0.7484729446 0.2444516082
0.7426160405 0.7484729446 0.7415487423
0.7524910942 0.749297675 0.9935394154
0.7624105801 1.001926999 0.740619369
0.7525355264 0.9994920806 0.9959554156
0.7624772284 0.7509929541 0.2397436477
0.7525577425 0.7514118648 0.4957443257
0.7625290659 0.7486889454 0.7445710567
0.752691039 0.999060079 0.4959220544
0.7424049876 0.9967560702 0.242108736
0.7623439318 1.0012528146 0.2442238933
0.7823902539 1.0010695412 0.2393307986
0.772411525 1.0012069962 0.4883574745
0.782353227 1.0004739025 0.7365584522
0.7724559572 1.0004215387 0.9913733462
0.7824050646 0.7514380467 0.2400296799
0.772492984 0.7508751355 0.4901940049
0.7824013619 0.7517849572 0.73760446
0.7723226607 0.7506525892 0.9922434766
0.7726781182 0.5012344774 0.4920888526
0.7725596323 0.4999221088 0.9944465725
0.79251709 1.0026208198 0.4870559816
0.7924763605 0.7529827799 0.9849399357
0.7924578471 1.0008535403 0.9885778211
0.8122709001 0.7478053057 0.9960572393
0.7925022793 0.5002369464 0.9946317066
0.8024736027 1.0016062705 0.234695966
0.8125448986 0.5028616836 0.9978067567
0.8025328456 0.752465687 0.2420041352
0.8122597921 0.7492584021 0.4898681689
0.8025550617 1.0014557245 0.738169119
0.8025624671 0.7513398646 0.7427012022
0.8123486564 0.9999764461 0.993520902
0.7923430639 0.7498605862 0.4892488952
0.8222829531 1.0022346365 0.7432066183
0.8224310604 0.9997800817 0.2447468971
0.832435708 0.7482176709 0.9957425113
0.8224606818 0.5014026962 0.7476674248
0.8225273301 0.7500373141 0.2444617906
0.8323468436 0.7473405766 0.4967209082
0.8224606818 0.7492649476 0.7471203535
0.8424662744 0.7522955045 0.2450745845
0.8425514361 0.7499064046 0.7489383705
0.8625903527 0.500286692 0.7484884946
0.8425625441 0.9981437119 0.7467399029
0.8625385152 0.9979604384 0.249204001
0.8624570562 0.9978949836 0.7467824837
0.852563489 0.9990797154 -0.0072132103
0.8623570837 0.7517980481 0.7503287277
0.8523709495 0.5007821848 0.4924961476
0.8525005434 0.7512940462 -0.0050507512
0.8525671917 0.4984317031 -0.0025015008
0.8625607313 0.4995490165 0.2497732884
0.8624866776 0.7488002185 0.2495650125
0.852308004 0.7487216728 0.4955851104
0.8523005986 0.9992302614 0.4991804149
0.8824108111 0.9993088072 0.7511192504
0.8924784043 0.9998259001 -0.0018732204
0.8823737843 0.7497100402 0.7516126328
0.8726024057 0.7489180372 -0.0025392496
0.8926042955 0.7504758613 0.0091228204
0.8825218916 0.501085895 0.7509415216
0.8825774318 0.5012861867 0.2545599309
0.8824219192 0.749448221 0.2515774203
0.8725912977 0.7495791306 0.5037643356
0.8924598909 0.750403861 0.5088370103
0.8725912977 0.49952218 -0.0017402015
0.8825959453 0.9991320793 0.2513191582
0.9125580505 0.7479754881 0.5092035759
0.9024089983 0.9972338902 0.259628903
0.9025830244 1.0017175436 0.7585940403
0.9025719163 0.7516933204 0.7586643913