POSCAR file written by Ovito 3.7.11
1
270.0357723076 0.0 0.0
0.0 15.2755300609 0.0
0.0 0.0 10.8014308923
Sr Ti O 
800 800 2400 
Direct
0.022447719 0.4998893655 0.7955734357
0.0123910143 0.4995640086 0.0401525955
0.0125533632 0.2499517212 0.5430291175
0.0224703456 0.2498116278 0.7953438365
0.002562798 0.2529028463 0.7921664796
0.0124168998 0.2523804421 0.0420301245
0.0023653056 0.0020267729 0.2958748259
0.0224065022 0.5003037538 0.2957998359
0.0124450813 0.0016497647 0.5402989237
0.0024261494 0.0027217406 0.7903787535
0.0123567226 0.0041791696 0.0412631891
0.0225855896 0.2507052138 0.2966469459
0.0025405787 0.2483229724 0.2949925354
0.0425269105 0.5007731319 0.3003103494
0.0323715893 0.2472696538 0.5414432165
0.0426317115 0.2504446664 0.7988322632
0.0526292758 0.5020948537 0.0505845467
0.0326756231 0.252716928 0.0437424902
0.032537123 -5.8780084866e-04 0.5490329517
0.0325130521 9.6278364206e-04 0.0443163957
0.0425987529 0.2522986119 0.2998974411
0.0526174255 0.2476827328 0.5507012492
0.052571876 0.247888945 0.0511487312
0.0627071998 0.2510737772 0.3038469179
0.0626205446 0.4998049168 0.8022021871
0.0627027559 0.5012123966 0.2987364838
0.0725358976 0.5011410406 0.5522899276
0.0725103454 0.2492368524 0.5478368139
0.0625235204 0.2513087936 0.8026262049
0.0726099619 0.2494044406 0.0508853402
0.0625072263 -5.4136879721e-05 0.3041033654
0.0625435178 4.0574896201e-04 0.8041463739
0.1026008032 1.9783473663e-04 0.2962664407
0.0924710342 0.2489461914 0.5514168951
0.0825330916 -0.0014456434 0.2984652235
0.1026944945 0.2489625575 0.7947087354
0.0825475341 0.2499137519 0.7991266686
0.0924639981 0.2486568398 0.0460581093
0.082501244 -0.0016073399 0.7981925331
0.092588426 5.7156972174e-04 0.0449077988
0.1026848661 0.251412227 0.2964877077
0.0826097481 0.2495203122 0.2994299105
0.1026159864 0.5018670383 0.2893719838
0.0925206572 0.4997545093 0.5464166316
0.1126687285 -0.0015182432 0.0417600677
0.1225814893 0.2491177076 0.2902959355
0.1124731989 0.2517938831 0.5450112623
0.122476318 0.5039834952 0.7957632253
0.1125909611 0.5005093113 0.0367015712
0.122539643 0.2487753299 0.7921840699
0.112468755 0.2504584139 0.0449131684
0.1125524477 0.5001793718 0.5391805533
0.1524319788 0.2489848153 0.5333128122
0.1325790536 0.2507503841 0.5402572625
0.1426621621 0.2506273115 0.7898806714
0.1524934522 0.2500885413 0.0347654388
0.1325742394 0.2531417905 0.0399218853
0.1425003317 0.2477161195 0.2892164488
0.1425495844 0.4993964203 0.7882993994
0.1527208294 0.4993833275 0.0376669063
0.1326171967 0.4992995333 0.0406800256
0.1326808919 0.5025819071 0.542429197
0.1526271382 -0.0011030039 0.5364929464
0.1825746519 0.2499477933 0.7730810453
0.1822928374 0.2503130834 0.2762755708
0.1627098764 0.4974514796 0.7854331125
0.1625195312 0.4995509157 0.2816230105
0.1725426477 0.2491622232 0.5323564574
0.182519474 0.500411115 0.7776554393
0.1626291463 0.2515222068 0.7805726453
0.1725811611 0.2508701836 0.0328859656
0.162454725 2.6572108792e-04 0.2856289612
0.1626158148 0.2494437192 0.2813739694
0.172514133 -5.1343354386e-04 0.5244325073
0.1825135489 1.8317076103e-04 0.2732518973
0.2025194168 0.2505035842 0.2716752544
0.1923866852 0.501745275 0.0245310541
0.2024583138 0.501216979 0.2737203538
0.1925307402 0.2495753022 0.5207181846
0.2024109127 0.2514606704 0.7715692086
0.1925670317 0.2485737002 0.0236656132
0.1923266932 -0.0019345299 0.5216625039
0.2024894208 0.0028750577 0.7721209873
0.1925518485 -9.4724669312e-05 0.0224918798
0.2026719892 -0.0016915269 0.2700939824
0.2125843796 0.2482332865 0.5242806755
0.22258898 0.2499386283 0.7665902386
0.212438473 0.2498397774 0.0188118118
0.2224386296 9.7921515042e-04 0.2707994445
0.2124936509 5.3229121569e-04 0.5163520964
0.2125384598 9.0563341575e-04 0.0184152903
0.2226260122 0.0010811429 0.767614177
0.2326820872 4.6348836591e-04 0.5080217186
0.222353826 0.250463651 0.2661046961
0.2324798918 0.2524714373 0.5088604963
0.2325613625 0.2499163705 0.013338
0.2325202568 -6.6792900102e-04 1.0128020624
0.2523920684 0.2493376672 0.5090762085
0.2425100444 0.2494555027 0.7627879646
0.2624718441 0.2495641732 0.2573243779
0.2526275928 0.2506148733 1.0099876205
0.2423945041 0.2495065648 0.2603239805
0.2424833812 5.1900198781e-04 0.2594666867
0.2524024374 0.5015318617 0.9993316249
0.252283194 -0.00126817 0.5058044198
0.2425611487 9.9675954979e-04 0.7574534862
0.2623700057 0.2510718132 0.7538243374
0.2525761181 -8.9089998706e-04 1.0096172992
0.2625429458 -7.4799168919e-04 0.2553450105
0.2624592532 -4.1196406989e-04 0.7515681548
0.2725301411 0.2479858319 0.5002857065
0.2723235018 0.2481193789 1.003608836
0.2727349288 -0.001035183 0.4994460029
0.272338685 0.5040044437 1.0001278157
0.2824732682 0.2495000183 0.7547205149
0.2825732549 -0.0018274305 0.7479010481
0.2826402831 0.2513559278 0.2522250535
0.3022821252 0.2493933117 0.2486708948
0.3124207819 0.2505893422 0.4953048849
0.312531508 0.2460899894 0.9967486338
0.312365604 -9.4025997633e-04 0.9935638706
0.2924319487 0.2476598203 0.5017993948
0.3024672858 0.2497481276 0.7482963661
0.2925756334 0.4972046797 0.4999829688
0.3025583849 0.4989231143 0.2454407672
0.2925804476 0.2505553009 0.997933662
0.3024143299 -0.0044332321 0.7408649433
0.2925223071 -0.0018788853 0.4977915925
0.3124333728 0.4992753116 0.9932305814
0.2924338004 -2.6152739169e-04 0.9945174479
0.3223113234 0.2482902404 0.2439585562
0.3323033329 0.2480382033 0.4869448814
0.3223783515 0.2497415812 0.7401354103
0.3324292421 0.2487903867 0.9879812769
0.3225050014 -0.0013353363 0.2401127694
0.3324159105 1.5462837996e-04 0.4900907609
0.3225216659 -0.0021297441 0.7407325534
0.3327095753 -0.0010579646 0.9913697168
0.362504887 0.2488198456 0.2295845347
0.3524865847 0.2497867514 0.4775637169
0.3425049442 0.249754674 0.7340371442
0.3525525019 -0.0022043078 0.9843891602
0.3523414187 0.248046059 0.9745015813
0.342614189 -0.0026986278 0.2370733573
0.3426297425 -0.0021990052 0.7319559384
0.3423338558 0.2464749187 0.2362003248
0.3625308095 0.2525532676 0.7266621953
0.3626344995 -0.0040830642 0.2315426086
0.3725257816 0.2493546879 0.478833919
0.3825429729 0.2516760476 0.7168042422
0.3724850462 0.2511097825 0.9725759105
0.3825170504 0.0015514375 0.7219230084
0.3823207801 0.2508911321 0.2221882924
0.3924675839 -2.9713990385e-04 0.4693286969
0.3925860867 2.2657351022e-04 0.9703632407
0.3724665301 3.2817391255e-04 0.4774979849
0.3724961559 8.5339300269e-04 0.9720852348
0.3925601642 0.2496839727 0.4697943759
0.3926046028 0.2486345819 0.9733072951
0.4123131027 -8.5947718221e-04 0.4617010038
0.4025292138 0.2506580796 0.7163404147
0.4026514198 -1.4617951224e-04 0.2189415003
0.4024551495 -6.1994375945e-04 0.7154053534
0.4025477299 0.4971431433 0.2200469094
0.4025514331 0.2513716392 0.2181166096
0.4125427019 0.2490319495 0.4647765222
0.4127574883 0.2488106806 0.9646510346
0.4124649345 -0.0033947738 0.9607348868
0.4126093598 0.4996386377 0.9633271359
0.4124538248 0.4996530399 0.4673928422
0.4228117118 0.2467407033 0.2108138734
0.4423980057 0.2490535527 0.7087691956
0.4326511489 0.4995162197 0.9588462481
0.4325918975 0.4968583742 0.460471537
0.4424757731 0.2488473405 0.2086067585
0.4225598933 0.4957913081 0.2103222719
0.4425350245 0.5010565918 0.7064528359
0.4326659617 0.2465672232 0.4578635492
0.4224599065 0.2496558231 0.7111623971
0.4326696649 0.2513880052 0.9604201136
0.4425276181 0.4995771014 0.2116600576
0.4325881943 -1.7066311435e-04 0.9582074438
0.4525151838 -0.003050956 0.9524859797
0.4725125343 0.2488525776 0.4510107535
0.4625508912 0.2469246576 0.7005082531
0.4724792054 0.2522809366 0.9536710078
0.4624212787 0.2474876496 0.2022381578
0.4525929512 0.4973238245 0.9586610874
0.4625434847 0.4983830348 0.7045392005
0.4724977215 0.4942659928 0.4503886137
0.452570732 0.2494849616 0.4531197333
0.4524633388 0.2499032777 0.9535691695
0.4724866118 2.9373975558e-04 0.9471070627
0.482448255 -0.001899572 0.1932439791
0.4827111831 0.2487923506 0.6964680476
0.4825038032 0.2454955747 0.1972277105
0.4923506467 0.2522999212 0.4430627324
0.4924061949 0.2502358357 0.9415707591
0.4824297389 0.4976976249 0.1977952279
0.5025900308 0.249168115 0.1924264948
0.5127035057 -6.5555627161e-04 0.9362196163
0.5225503492 0.0034722219 0.1894342986
0.5025122633 0.2476729132 0.6938609856
0.5022160063 0.5008294311 0.6953848578
0.5124183583 0.2471459266 0.4435691468
0.5025529987 -7.1244464121e-04 0.6911020919
0.5224651753 0.2527935211 0.1922228181
0.5125294547 0.2506862292 0.9385711566
0.5224355496 0.2497605658 0.6908502734
0.5125442675 0.4986645308 0.4428442428
0.5224985043 0.5008516889 0.1910433447
0.5224540657 0.5030178985 0.6924315454
0.5524204658 0.2492001924 0.4466252234
0.5525982201 -1.1436392234e-04 0.9459312925
0.5325416181 0.5003960583 0.9436260424
0.5323194253 0.50171778 0.4441690673
0.5324416313 0.0024248606 0.4439302101
0.5325675406 0.2518390534 0.4437783783
0.5327452948 0.2508544722 0.9459868407
0.5424884484 0.0017230846 0.6976141921
0.5425958416 0.2509611788 0.193851306
0.5425254805 0.2521788125 0.6943387001
0.5524463883 0.2501684076 0.950310342
0.5624117347 0.4996844627 0.69690873
0.5624783925 0.5004700328 0.2003652578
0.5626302242 -5.4976616197e-04 0.2019178299
0.5625191279 0.2506823014 0.1973212166
0.5623895154 0.2519850385 0.6992815638
0.5723696746 0.0019626835 0.4526540542
0.5722474686 0.0027851754 0.9556522268
0.5725622417 0.2556484138 0.4528614342
0.5724474421 0.2533682966 0.9512083711
0.592433683 0.5064704792 0.9584018625
0.5823905692 0.2522030342 0.7077424798
0.6023619972 0.2558958684 0.2106648191
0.5923781348 0.2502659492 0.4602493442
0.602410139 0.2539555102 0.7108818787
0.5923373994 0.2518429812 0.959105473
0.6024434679 0.5041543567 0.7143684538
0.5823498338 0.2505526823 0.2065264785
0.5924188701 0.5046990186 0.4600475191
0.5823757563 0.5030794349 0.2084132656
0.6122273568 1.2032515134e-04 0.9628549762
0.6123014211 0.506266231 0.462683281
0.622363051 0.2534403071 0.7123705703
0.6224741474 0.5038931546 0.2149207367
0.612405111 0.5055886768 0.9657064503
0.6222038128 0.5031311516 0.7196066487
0.6123495629 0.2530246096 0.464217337
0.612386595 0.2518730948 0.9632345556
0.6222630642 0.253391209 0.2207190426
0.6425344525 0.2509395756 0.221790197
0.6524516571 0.2508944053 0.4734494472
0.642160428 0.2492250688 0.7186299262
0.6524738764 0.2525493397 0.9731961987
0.6324431969 0.5039363609 0.963641909
0.6424085433 0.5030080789 0.7198584671
0.6524775796 0.5012248347 0.9701132738
0.6422344923 0.5038597679 0.2170056457
0.6524072186 0.5012562576 0.4729319232
0.6324061648 0.2519333218 0.4657736123
0.6322321138 0.2483943284 0.9686134726
0.6624355196 0.0013648646 0.7198001415
0.6723564274 0.4986560205 0.4773109726
0.6822514127 0.5001014695 0.7306061173
0.6726008394 0.4987614178 0.9747793223
0.6824254637 0.5008870396 0.2250814276
0.6622577653 0.2497841329 0.2247083289
0.6624318163 0.2503235577 0.7227941893
0.6824439797 -5.5290844245e-04 0.2274774064
0.6823106641 -0.0017016084 0.7256882503
0.6624503324 0.4996517306 0.724296768
0.662494771 0.5005688837 0.2244463265
0.6825735922 0.2481449099 0.2260424114
0.6723008792 0.2538972471 0.4722995996
0.6826106243 0.2506260022 0.729294254
0.6724786334 0.2522586788 0.9771956688
0.7026079749 0.2512603501 0.2312435741
0.6925685643 0.252691397 0.482005721
0.7026820391 0.2536497925 0.7274046896
0.6923315586 0.2486391644 0.9769271859
0.7023931885 0.5008575807 0.7300811868
0.7023598596 4.3533876991e-04 0.728819317
0.7024265174 -3.0034764851e-04 0.2296595247
0.6924389518 0.5031442444 0.9789269209
0.6925093129 0.5024071178 0.4769397255
0.7125325859 0.2512282726 0.4865217893
0.7124696313 0.2510076583 0.9845372887
0.7224794162 0.4992576362 0.7390799946
0.7224497905 0.2532975952 0.242208788
0.732574375 0.4996543491 0.9890829828
0.7324558722 0.2496086889 0.4886585433
0.7226090286 0.5009367924 0.2360744156
0.7324262465 0.50040195 0.4887890815
0.7225016355 0.2498646538 0.736871028
0.7326299232 0.2485134732 0.9955913797
0.7123918638 0.5033714051 0.9804082062
0.7623222856 0.4989113307 0.7493378947
0.7425026892 0.0020573447 0.7421268131
0.7524606292 0.4988347377 0.9926288093
0.7624778205 0.4976387071 0.2467118951
0.7624222723 0.2477711094 0.2450195267
0.752597648 0.2498705456 0.4966547061
0.7625629944 0.2499052416 0.7462633021
0.7525495063 0.2491183622 0.9958598627
0.7426656306 0.4981532556 0.7392808939
0.7525754288 0.5010579011 0.4968000572
0.7423619671 0.250167753 0.2417986572
0.7425286117 0.247545258 0.7409945557
0.7825566417 0.4972668706 0.2550894888
0.7825825642 0.4994625391 0.7544335159
0.7826973638 0.2468879977 0.2457490597
0.772480199 0.2505814865 0.49822672
0.7826344092 0.246686368 0.7470187576
0.7725801857 0.2497887154 8.742809337e-04
0.7925886459 0.4975627687 0.5015309119
0.8126230286 0.4972289014 0.5058960743
0.8025280698 0.4991188522 0.7531420204
0.8027835915 0.4971850404 0.2531962212
0.792659007 0.2470163075 0.5003468095
0.7926293813 0.2514803097 1.0013591341
0.8125859965 6.5137055321e-04 0.508433701
0.8026132437 0.2479360792 0.2552524302
0.8125859965 0.2499589222 0.5047684459
0.8027650754 0.248879418 0.7547760631
0.8125230419 0.2480755179 1.0056733773
0.8324907667 -0.0010637909 0.5087299581
0.8225920782 0.2492342338 0.2576761832
0.8323833735 0.0023169756 1.0078212409
0.8325944567 0.2478136612 0.508302237
0.8225106075 0.2516865219 0.758701469
0.8325759406 0.2490417691 0.0093389928
0.8325463149 0.497686496 0.5037028463
0.8325759406 0.4978305172 1.0123669349
0.822658736 0.5006991574 0.2570188629
0.8426079448 0.4990344034 0.7568720817
0.8423746424 0.4986429276 0.2579891047
0.8425227709 -0.0024210597 0.2576243382
0.8424264874 0.2480238012 0.2567975959
0.8424783323 0.2497029573 0.7557611178
0.8625275279 0.2491419293 0.2586251315
0.8525214462 0.2472146639 0.505986803
0.8625941857 0.2489023304 0.7643016529
0.8525325558 0.2467060073 0.0124373786
0.8925087409 0.4970259624 0.014481367
0.8724299196 6.3690297015e-04 0.5076662101
0.8824989559 0.2491602593 0.2621413323
0.8726669252 0.2483648695 0.5100390439
0.8924198637 0.2487223039 0.5178083849
0.882465627 0.2489056036 0.7636082263
0.8723558554 0.2494175335 0.012320357
0.8925124441 0.0019523401 0.5167039016
0.8725150935 -5.8033793251e-04 0.0130324849
0.8924568959 0.2494096778 0.017990254
0.8724632485 0.4956832922 0.5106260032
0.8924198637 0.4973081131 0.5144754932
0.9124172143 0.5004903267 0.5163215449
0.9025296354 0.4997741486 0.7692861777
0.9123727757 0.4986691133 0.018379832
0.9023592876 0.5047828128 0.2677600323
0.9123098211 -0.0018114572 0.5172316095
0.9024444615 0.2489821967 0.2674304464
0.912394995 -9.3129138412e-04 0.0206859153
0.9126097814 0.2518514916 0.5168316625
0.9025185258 0.2466045378 0.7672484847
0.9124246207 0.2483629056 0.0187343221
0.9425428526 0.2494692502 0.7758075359
0.9326589769 0.2496054157 0.021434705
0.9325886159 0.4984550454 0.5271136335
0.9324627066 0.4996229263 0.0216650449
0.922526986 0.5009184624 0.7683270455
0.9222973867 0.5018467444 0.2689348767
0.9425391494 0.5037635355 0.7768175873
0.9225862374 0.249089558 0.2688034126
0.9225047667 0.2515483924 0.768400184
0.9424761947 0.2486044684 0.2765403505
0.9324293777 0.2513048657 0.5178843008
0.972583317 0.0026312037 0.5304567091
0.9624920614 5.3864124083e-04 0.7779683608
0.962606861 0.2523293801 0.2747803985
0.9525007925 -8.3923080147e-05 0.0272117174
0.9725796137 0.0010063173 0.0291069293
0.9526192953 0.2486483294 0.529619783
0.9725685041 0.2553407322 0.5303761643
0.9624994678 0.2478378829 0.7766037267
0.9524008058 0.2518259605 0.029501877
0.9526044825 -0.0019129267 0.5248176414
0.9724166724 0.2506063629 0.0309839954
0.9726240523 0.5036358804 0.526461868
0.9624476228 -9.8575757918e-04 0.275757121
0.9525415278 0.5002756042 0.5240862569
0.9625216871 0.5020581937 0.7806948514
0.9822783288 0.2476316707 0.2840300989
0.9827264175 6.4574063401e-04 0.7811244241
0.9925140097 5.2927986356e-04 0.0369393175
0.9923658811 0.2533538944 0.5411228886
0.9824449733 0.249893458 0.7820215275
0.9925399322 0.2529899136 0.0409873923
0.9925214161 0.5017544399 0.0345672244
0.0222820372 0.7477295377 0.7944513621
0.0022213247 0.4983980916 0.2891831199
0.0023275699 0.752122184 0.7903509794
0.0124003094 0.4987745106 0.541073821
0.0024341854 0.5034165754 0.793176531
0.0225367812 1.0011282731 0.2966784232
0.022383209 1.0004016207 0.793614436
0.0123189498 0.7497065558 0.04258681
0.022383209 0.7502040836 0.297535717
0.0025037687 0.751480635 0.2892321875
0.0124646712 0.7485674792 0.5454602769
0.0524792956 0.9973837222 0.5493190249
0.0524874427 1.0028303417 0.0510437451
0.0323223366 0.7496018131 0.0464156546
0.0425524627 0.7483841795 0.2965339979
0.0323623313 0.7510485715 0.5501550252
0.0425717194 0.7468785034 0.7971371174
0.0426580043 0.5012065048 0.7976277931
0.0326219265 0.501366892 0.0438986732
0.0325374933 0.500034696 0.5450464428
0.0424402553 0.9998648145 0.296528443
0.0525815043 0.4983234624 0.5520945831
0.052582245 0.7526197117 0.0527032474
0.0525226232 0.749411967 0.5491551577
0.0425387608 0.9978419714 0.7987554215
0.0724610927 0.5002684031 0.0513201899
0.0725718188 1.0001921354 0.5543896494
0.0726181089 0.9973902686 0.0544914365
0.0726014445 0.7482401583 0.047999704
0.062548332 0.7513366138 0.3012000463
0.0724207277 0.7485347471 0.5503457407
0.062577217 0.7502957334 0.8012458323
0.0925380623 0.9998386288 0.5426393543
0.0925332481 0.7512253247 0.0440126396
0.102502668 0.7488817072 0.2957600263
0.0824090339 0.750806354 0.2981698922
0.0923951183 0.7494316063 0.5440113948
0.1024234193 0.7514675422 0.7916758039
0.0823201568 0.7505903222 0.7945059845
0.1024626733 1.0010431697 0.7928737933
0.1024552669 0.502375695 0.7986146994
0.0825641986 0.4996694059 0.7965779322
0.092505474 0.4989957795 0.0422723146
0.0824779137 0.4990016713 0.3006149387
0.1125665199 0.7512973353 0.0449137239
0.1226774025 0.7528030114 0.2911884098
0.1126250306 0.7543872445 0.5426930509
0.1224748367 0.7517163061 0.7931117248
0.1226736993 1.0006634774 0.2925011988
0.1225111282 1.0014817796 0.7944384009
0.1225951912 0.5018801312 0.2913643124
0.112726869 1.0027452383 0.5470896906
0.1426928988 0.7502564549 0.2933649733
0.1524967851 0.7503284655 0.533751643
0.1326431192 0.752796465 0.5418450151
0.1425458812 0.7509307359 0.7923803402
0.1525634429 0.5010834321 0.5386565487
0.1325086925 1.0006700239 0.0417364597
0.1425473625 0.4993394665 0.2866778963
0.1425521767 0.9971938761 0.2896367635
0.132660154 1.0008336843 0.5447594438
0.1425621754 0.9965457807 0.7884206796
0.1523867996 0.9983722313 0.0375324796
0.1525334469 0.7525280618 0.0361883059
0.1326483037 0.7502760942 0.0428522378
0.1726800369 0.7502302692 0.0322786387
0.1624787959 0.7511598606 0.2864575551
0.1726948498 0.7513693459 0.5320435359
0.1624291728 0.7528291971 0.7851572231
0.1824624445 0.9996946076 0.774353099
0.1726296732 0.4983817256 0.0276396237
0.172738918 0.5015521556 0.5267896024
0.1825054018 0.7515853777 0.2783854764
0.1825820583 0.7507801683 0.7793737301
0.1726637428 1.0025946707 0.0266904902
0.1625880407 1.0018091005 0.7799967957
0.1825431746 0.5000923045 0.2792140704
0.2025742244 0.502516443 0.7741679383
0.1925359247 0.5011102724 0.522080967
0.1925888807 0.7475527844 0.0249814573
0.2025223794 0.7501648051 0.272364052
0.192628505 0.7500862481 0.526330404
0.2025786682 0.7507408898 0.7701842069
0.232442119 0.7497654736 0.0166742246
0.2325876553 0.4991587853 0.0127728897
0.2325243304 0.7487769645 0.513577464
0.212478838 0.7485871184 0.0188145892
0.2223567886 0.7500207839 0.2640503387
0.2126876992 0.7513955316 0.5217087941
0.2224497392 0.750132073 0.766518026
0.2325384026 0.5031625744 0.5116175385
0.2225526885 0.498132307 0.7680335659
0.2125280908 0.5027331294 0.0238116123
0.2225326912 0.5005027649 0.2653186891
0.2126402981 0.4995201476 0.5227605066
0.2528194192 0.7506426936 0.0065899126
0.2424804187 0.7525477011 0.2587390053
0.252240607 0.7495167097 0.5073051469
0.2424956019 0.7520436269 0.7608484068
0.2424178344 0.502812341 0.7596522689
0.2625022104 0.4981113585 0.7538456309
0.2625514632 0.7502368157 0.2512279634
0.2425700364 0.5010723032 0.2586714217
0.2624788802 0.7486722218 0.7514829809
0.2624229617 0.4980688068 0.2555792388
0.2523080055 0.5005420434 0.5084994331
0.2725186611 0.9977503216 1.0011924895
0.2824643805 0.5022637512 0.2506928491
0.2724227479 0.5016621354 0.5006754697
0.2825184474 1.0005063634 0.2497142751
0.2823817988 0.4985768088 0.7505692131
0.2825147442 0.749019182 0.2439372627
0.2823962413 0.750492126 0.7505645841
0.2724434859 0.7467934 1.0012572957
0.2725312521 0.7489013465 0.496909302
0.3124778114 1.0010038912 0.4944161138
0.2924197281 0.7482336119 0.9959894751
0.3025102431 0.749536349 0.24209584
0.2923912134 0.7477098984 0.4940115378
0.302381001 0.7497851128 0.7462494151
0.3026505949 0.4994756319 0.7456226462
0.2925226775 0.5000536806 0.9961190876
0.3025209824 1.0004539921 0.2411144885
0.3124144864 0.7463351507 0.9918511345
0.3125818717 0.7487180468 0.4958196315
0.3125533569 0.4992831673 0.4921756699
0.3324022086 0.4989637021 0.4881215774
0.32253796 0.4966737652 0.742202729
0.3324818277 0.7472909277 0.9898884316
0.3326766167 0.4977781458 0.9910179116
0.3224546377 0.7492744923 0.2379426865
0.3324503504 0.7509241895 0.4889335068
0.3224646364 0.7475986093 0.7394493901
0.322518333 0.5000680827 0.2424615323
0.3523914121 0.5005891776 0.4871911451
0.3526313803 0.9983329527 0.4851673392
0.3623789778 0.7493988742 0.2271283786
0.3625159966 0.747906291 0.7298414038
0.3627011573 0.4990612437 0.7301034061
0.3625493256 0.5019207189 0.2299872591
0.3526417493 0.7477753626 0.9796768216
0.3424545805 0.7509438288 0.2393091722
0.3525262091 0.7483187153 0.4835268158
0.3426264096 0.7498571234 0.7393595871
0.3624826677 0.9988435733 0.7303117118
0.3425086474 0.5007829516 0.7355656454
0.3524621435 0.4971791486 0.9821394583
0.3426275206 0.5010179679 0.2348653165
0.3726072522 0.4997754579 0.9725296204
0.3825133472 0.4976871506 0.2245537197
0.3725628137 0.5014277737 0.4711701196
0.3924861 0.4984792672 0.9731776827
0.3825651922 0.4996916637 0.7230534142
0.3724665301 0.7495101633 0.975538481
0.38252816 0.7465446361 0.2217689035
0.3725109687 0.7481943333 0.4720598165
0.3826281468 1.0014490476 0.2235344103
0.3824466894 0.7479783016 0.7169440385
0.3924157389 0.7501844443 0.9668174142
0.3925305385 0.7484365508 0.4695277446
0.3925490546 0.4998147364 0.4735735049
0.4024995881 0.4978036769 0.7162746827
0.4025662459 0.7504332082 0.2167843787
0.4024144142 0.7488358823 0.7168199808
0.4124686377 0.7498571234 0.9640770365
0.4124538248 0.7475986093 0.4605261594
0.4224043583 0.9996422363 0.7110790748
0.4425794631 0.998509706 0.2061413444
0.4326326328 0.998588263 0.4612316215
0.4424535539 0.9957143857 0.7015645946
0.4224821258 0.4967032241 0.7060445566
0.4324067368 0.7529601254 0.9607626609
0.4225487836 0.7518996058 0.2105472421
0.4322104665 0.7514871814 0.4581366612
0.4224413905 0.7527440936 0.7089849078
0.4423572703 0.7490257284 0.2090483666
0.4424165217 0.746151851 0.7092404295
0.4224599065 1.0012788407 0.2079873961
0.4724273604 1.0018549255 0.4469427739
0.4725051279 0.4965127233 0.9473570296
0.4626101426 0.4995666271 0.1991802296
0.4725680825 0.7475527844 0.9493660226
0.4625064526 0.7496476381 0.2026612499
0.47243847 0.7483383545 0.4475556557
0.4625175622 0.7492875851 0.7009581935
0.4525040741 0.9992756369 0.4517689863
0.4624842333 0.9972266082 0.1974026873
0.4623731369 0.9972266082 0.7012016797
0.4523374295 0.7471665458 0.9540691032
0.4525299966 0.7509438288 0.4539418466
0.4524300099 0.4998513963 0.4524763
0.4926765294 0.4971588547 0.9464127102
0.4926209813 0.4974874849 0.4408537658
0.4824556614 0.5003738004 0.6943285163
0.4824815839 1.0009187877 0.6948432629
0.4927468905 0.9994523902 0.4395743057
0.4925395106 0.997239701 0.9414874369
0.492424711 0.7493072244 0.4455466626
0.4924728527 0.7496869166 0.9449129089
0.4823741907 0.750727797 0.1958667797
0.4825038032 0.7488358823 0.692263975
0.5024233862 0.4996294728 0.1908804033
0.5125442675 0.9993934724 0.4399437012
0.5225207235 0.9959107782 0.6933175391
0.5024974505 0.9974230007 0.1865226473
0.5225540525 0.7477622698 0.695054346
0.5025196698 0.7529732183 0.1925690685
0.5024122766 0.7473171134 0.6929916564
0.5124702033 0.7495952667 0.9388396395
0.512499829 0.4993820182 0.9427372713
0.5123183715 0.7515788313 0.4449680355
0.52242444 0.7503350119 0.1877771108
0.5525463751 0.9999957428 0.4439357649
0.5425032612 0.5026375517 0.6886811164
0.5425625126 0.7493988742 0.1938624156
0.5525167494 0.5016863572 0.4464308047
0.5524389819 0.7464071613 0.4427905463
0.5424217905 0.7533463641 0.6931508945
0.5327378884 1.0008467771 0.9454035847
0.5424699323 0.5009538131 0.1957871606
0.5325453213 0.7521811017 0.9458942604
0.5524797172 0.501997312 0.9450147473
0.5425773255 1.0023459068 0.1924885236
0.5322157353 0.7477622698 0.4356683417
0.572532616 0.5010716486 0.9546801334
0.5623932186 0.9984900668 0.6989251295
0.552527859 0.7475855165 0.9453572945
0.5624265475 0.7520436269 0.2035842757
0.5623895154 0.7486787683 0.6973540413
0.5724215196 0.7493726885 0.9516157246
0.5725178031 0.5030309914 0.4530262272
0.5725437256 0.7517817702 0.4535511576
0.6024212486 0.500805864 0.2138273631
0.6023471844 1.0025619386 0.2101537757
0.6024693904 1.0032493124 0.709727402
0.5923596187 0.7515526456 0.9605034359
0.5924077605 1.0002837852 0.4604372823
0.5924262766 1.0021953392 0.9575038334
0.6024434679 0.75362786 0.2144328384
0.5923448059 0.7528422899 0.4623425854
0.6023916229 0.7515330064 0.7111605455
0.5823090985 1.0057434976 0.2052655345
0.5823979756 1.0024048245 0.7062445301
0.5823053953 0.5034093743 0.704955812
0.5825349945 0.7501844443 0.2057164007
0.5826423876 0.7513758923 0.7053946427
0.6125310203 0.753752242 0.9672710578
0.612456956 1.0022542569 0.4666475706
0.612405111 0.7560827666 0.4670447402
0.6222630642 1.004794267 0.7160737834
0.6224482249 0.7548454937 0.2169908328
0.6224000831 0.7516508419 0.7123270576
0.6224111928 1.0067254602 0.2178129461
0.6424085433 1.0037468402 0.7207870478
0.6323802423 0.5035749987 0.4675817061
0.6424529819 1.0019334825 0.2172185804
0.6524072186 1.0018418326 0.4700619331
0.652588676 1.0003492494 0.9718167519
0.6326283576 1.0034391585 0.4694212772
0.6325728094 1.0005718276 0.9688171493
0.6323654295 0.7545378121 0.9682431512
0.6326505769 0.7534249211 0.4667151543
0.6523812961 0.7512907889 0.9673821542
0.6424344658 0.7495494418 0.2233659141
0.6525220182 0.7483907259 0.4743076668
0.6424418722 0.7515395528 0.7193066884
0.6724971495 0.7515919241 0.9739923895
0.6625206935 0.9984442418 0.220613501
0.6724304916 1.0006765703 0.9727703292
0.6823254769 0.7509045503 0.2273190941
0.6724156788 0.7500666088 0.4737605171
0.6824291669 0.7488293359 0.7289294875
0.6723379113 1.0019072968 0.4791523953
0.6625206935 0.7510747571 0.2223919691
0.662565132 0.7502433621 0.7233098617
0.7025302074 0.5006107808 0.226914518
0.6925167193 0.9988959447 0.4771276636
0.6925500482 1.0006962095 0.9804730124
0.6924945 0.751762131 0.9792509521
0.7024894721 0.7500011446 0.2293391968
0.6924982032 0.7491108318 0.4785635845
0.7025042849 0.7504528474 0.7308125714
0.7124696313 0.5003443416 0.4825389837
0.7123807542 0.7517490381 0.4831213139
0.7225090419 1.0032231267 0.7398900724
0.732504014 1.0013704905 0.9891663051
0.7325780782 0.7555263211 0.9877776002
0.7224979323 0.7512973353 0.2374140529
0.7326040007 0.7514413565 0.4879354909
0.7225016355 0.7489471714 0.7353267881
0.7225312612 1.0015014189 0.2385842682
0.7324040272 1.0007551273 0.4915738978
0.7123177995 0.7521876481 0.9852316412
0.7124659281 1.0045782352 0.479281082
0.7124548184 1.0042640072 0.9827875206
0.7425249085 0.5003613623 0.2402377528
0.7426100824 0.7502237228 0.2402053497
0.7426137856 0.7511794998 0.7407621791
0.7526087577 0.7474545881 0.9940082561
0.7626000265 0.9991119764 0.7444626147
0.7524643324 1.000139764 0.9940638043
0.7626444651 0.7504528474 0.2421717559
0.7525235838 0.7499880518 0.4919618093
0.7625444783 0.7510223858 0.7447125816
0.7525680223 1.0010628089 0.4919192224
0.7425026892 0.9987650163 0.2407654607
0.7625222591 1.0022804426 0.2491532383
0.7823270425 0.9983329527 0.2521056249
0.7725579665 0.995609643 0.4994237837
0.7825047968 0.9985489845 0.7536808379
0.7724987151 0.9984704275 0.9981465967
0.7826232996 0.7479586623 0.2490967643
0.7722394901 0.7485412935 0.502245632
0.7826677381 0.7501189801 0.7505858776
0.7725357472 0.7487704181 0.9979058879
0.7725912954 0.4981107039 0.4973833133
0.7726135147 0.4993839821 0.998229919
0.7924627367 0.9979859926 0.5022789609
0.7926664134 0.7482270654 0.9964894089
0.7925960524 0.9960940779 1.003895835
0.8126008093 0.748063405 1.0048864445
0.7925293945 0.4973814329 1.0028311613
0.8026206501 0.9983002207 0.2558236508
0.8127526411 0.4977591612 1.0095062028
0.8025762116 0.750053516 0.2516380943
0.8125304483 0.7478735589 0.5053415181
0.8024206766 0.9986013559 0.7547455116
0.8026243533 0.7458965407 0.7510200793
0.8124971194 0.998116921 1.0030811282
0.7925330977 0.748299076 0.499582096
0.8225106075 1.0014817796 0.7547593987
0.8224883882 0.9996553291 0.2580492819
0.8326018631 0.7470945352 1.0082285943
0.82253653 0.5003286302 0.7583941023
0.8225587493 0.7469243283 0.2602073293
0.8326425984 0.7518145023 0.5077384228
0.8224476529 0.7482336119 0.7627064939
0.8424487066 0.7516573883 0.2568235184
0.8425635062 0.7489340785 0.7543983354
0.8626386243 0.5002769135 0.7569304073
0.8423635327 0.9996029578 0.7570942745
0.862512715 0.9977175895 0.2554264812
0.8625386375 0.9973378973 0.7622935857
0.852291847 1.0004670849 0.0052878628
0.8624756829 0.7471992779 0.7612900149
0.8526214329 0.4976020472 0.5050582223
0.8525399622 0.7484430972 0.0078652991
0.8525140398 0.4960898247 0.0048838423
0.8624238379 0.4991679503 0.2577585797
0.8625164182 0.7509765609 0.2575150934
0.8526695747 0.7475789701 0.5067191134
0.8524510851 0.9985489845 0.5078884029
0.8823137953 0.9971938761 0.7624065337
0.8924531927 0.9978747035 0.0154041151
0.8824952527 0.7498374842 0.7599753743
0.8724002939 0.7497589272 0.007100956
0.892197671 0.7480699514 0.013956344
0.8823804531 0.4982534158 0.764706229
0.8824730334 0.5008785293 0.2633791313
0.8823323113 0.7520632662 0.2599397722
0.8726410028 0.7474938667 0.5086012714
0.892493928 0.7497523808 0.5150985588
0.8724743582 0.4969749004 0.011714604
0.8823730467 0.9994458437 0.2630078842
0.9123912918 0.7484300044 0.5193544764
0.9021630173 1.0005587348 0.2673915626