POSCAR file written by Ovito 3.7.11
1
270.056883154 0.0 0.0
0.0 15.2767242707 0.0
0.0 0.0 10.8022753261
Sr Ti O 
800 800 2400 
Direct
0.0222775383 0.4979275662 0.7684440038
0.0124734927 0.4981985667 0.0175493307
0.0120806495 0.2492302714 0.5171358379
0.0224783108 0.2477456599 0.7686541447
0.0024133529 0.2466446385 0.7684236377
0.012523297 0.248556043 0.018043023
0.0026400458 -1.5218345148e-04 0.271338548
0.0221485654 0.4989402178 0.27312058
0.0125845063 -0.003197208 0.5203259066
0.0024714517 -0.0053856025 0.7706018825
0.0124677902 -0.0016334565 0.0220125571
0.0225139329 0.2491628485 0.269835161
0.0023290743 0.2505073776 0.2694778289
0.0425149043 0.4984950962 0.2728669297
0.0323459356 0.2473843259 0.5231725291
0.0423223523 0.2485586614 0.7786029747
0.0525427917 0.4979066193 0.0263463662
0.0323314942 0.2506402595 0.0203442974
0.0325018287 -3.75726139e-04 0.5211368468
0.0327813994 -0.0012304251 0.0228431228
0.0423641953 0.2495680401 0.2734631004
0.0524413316 0.2499038451 0.5271522462
0.0522880305 0.2460253958 0.0261527959
0.06241997 0.2521739652 0.2710821205
0.0624240432 0.5001341911 0.7707611083
0.062519949 0.5009589752 0.2727576935
0.0724286022 0.497691259 0.5176838706
0.0723926838 0.2474517487 0.5197889826
0.062338876 0.2507829602 0.7742946231
0.0725500581 0.2477338773 0.0191419581
0.0624973611 0.0011916256 0.2753469628
0.0623944198 0.0016310522 0.7759109492
0.1026066887 -0.0010671047 0.2637892125
0.0924299439 0.2500897488 0.5143512394
0.0826620018 0.0029192211 0.2669570637
0.1024522768 0.2495647671 0.7597069556
0.0826301566 0.251536394 0.7663388918
0.0925054835 0.24790538 0.0130029737
0.0825920165 7.3917255905e-04 0.7646299925
0.0923725485 -6.8089627348e-04 0.0183306476
0.1024533877 0.2504039523 0.2623922846
0.0824387155 0.250311655 0.2647242008
0.1024826408 0.4990266238 0.2586856581
0.0924840065 0.5032860448 0.5119008297
0.1123268631 -8.7864809163e-04 0.0103633446
0.1223099451 0.2497617989 0.2549031217
0.1125575553 0.248743256 0.5060381759
0.1224406583 0.5014027876 0.7529454172
0.1123868505 0.5010434174 0.0045898388
0.1225406372 0.251229391 0.7560530958
0.112463501 0.2503928242 0.0089295726
0.1125808837 0.5008143107 0.5046060702
0.1524654438 0.252179202 0.5014104472
0.1325052046 0.2495798227 0.5025694623
0.1425860437 0.2517851384 0.7525658675
0.1524598894 0.2505315975 -0.0015028591
0.1325833363 0.2545003802 0.0012148091
0.142444592 0.2495929145 0.248685913
0.1425423492 0.5018610011 0.7516966062
0.1525717177 0.4984355285 -7.1311809347e-04
0.1326529512 0.4997204898 0.001042438
0.1323378324 0.500874533 0.5069926045
0.1525461676 -1.3606622938e-05 0.5012484443
0.1824535704 0.2495359652 0.7469300178
0.1825294804 0.2510709801 0.252745243
0.1625496156 0.4991346312 0.7476761569
0.1624696325 0.502561413 0.2493811369
0.1724516036 0.2491392833 0.4968003073
0.1826131664 0.5027126234 0.7492008357
0.1623574339 0.2514264228 0.7477770616
0.1723308882 0.2533587742 -0.0037572083
0.1623689129 -0.0025924317 0.2487386797
0.1625759064 0.249061387 0.2467844617
0.1723575493 7.6437429688e-04 0.501676132
0.1824839344 -0.001924422 0.2466474536
0.2023619688 0.2488787562 0.2468224167
0.1925021941 0.4995732069 0.0025173124
0.2024934225 0.5003187856 0.2488145896
0.1926329073 0.251344599 0.498586968
0.2023730775 0.2504438823 0.7459820694
0.1922248452 0.2530897375 -0.0021298844
0.1925018238 6.2481558245e-04 0.500172745
0.2023434541 0.0044186917 0.7475123026
0.1924103616 0.0019055875 -0.0025088972
0.2025400794 5.4929012152e-05 0.2441479802
0.212194712 0.2508942406 0.5000098164
0.2225162412 0.2527729156 0.74768634
0.2122335927 0.2528462298 -7.5218393721e-04
0.2222100094 0.0017664216 0.2546624317
0.2123535674 0.0036128907 0.5005985812
0.212463174 0.0034747721 7.3870566834e-04
0.2224606973 0.0027993655 0.7501959964
0.2323386163 -1.7607600813e-04 0.5024648547
0.2225484566 0.2488492996 0.2502707643
0.2325719005 0.2526269419 0.4996904392
0.2325581997 0.2511161469 -0.0017516956
0.2322945515 5.1525141069e-05 1.0050598947
0.2527228403 0.2504556649 0.4948173918
0.2425538716 0.2489854545 0.7484297019
0.262434498 0.2508726392 0.2453329157
0.2524543783 0.250907987 0.9987186381
0.2425583151 0.2523232119 0.2469862711
0.2425505389 2.6518351063e-04 0.252779495
0.2525591711 0.4992216918 0.9997461994
0.2524999243 -0.0022189223 0.4972307722
0.2422183867 4.386643113e-05 0.750641273
0.262729621 0.2491294644 0.7469651956
0.2522729351 -1.5897690014e-05 1.0019586962
0.2623645127 3.6867428339e-04 0.2485877855
0.2623948767 0.0039615911 0.7476650482
0.2724975631 0.2509132238 0.4959976987
0.2726497532 0.2521634918 0.9921737207
0.2725382952 -5.7976202685e-04 0.4958634677
0.2725560693 0.5038378646 0.9940529544
0.2826098771 0.2521661102 0.7475576634
0.2825621094 1.6935144781e-04 0.747091095
0.2826657912 0.2511253111 0.2532710581
0.3024534742 0.2483779944 0.25082898
0.3124584034 0.2526563985 0.4968317822
0.3124450729 0.2518185226 0.995330463
0.312607261 -4.6270693531e-05 0.9938678082
0.2924392877 0.2511259657 0.5011716086
0.3025649322 0.2494286123 0.7420088324
0.2925533378 0.4990586987 0.4964846331
0.3023934869 0.5018282715 0.2443701556
0.2925348231 0.2504353726 0.9995980824
0.3024375517 -0.0014025824 0.7429882557
0.2923981853 -3.313448968e-04 0.4968752915
0.3126398467 0.5022354269 0.9932938551
0.2924826119 0.0011232209 0.9971448956
0.3225018431 0.2496243349 0.2407107413
0.3325341739 0.2521445087 0.4921383266
0.3225470187 0.2499751954 0.7430391709
0.3325423203 0.2544355757 0.9930901943
0.3225362803 5.3592217991e-04 0.2415670424
0.3325356551 4.7367061452e-04 0.49209204
0.3223685378 6.9407126719e-04 0.7394630724
0.3324186427 0.003626768 0.9922200072
0.3626674551 0.250853656 0.2417549658
0.3525784695 0.2529640561 0.4888455018
0.3426701866 0.2518597618 0.7353704162
0.3526243858 0.0028663302 0.9893872707
0.3525573629 0.2523395767 0.9877116978
0.3425209588 2.2224236773e-04 0.2443692298
0.3425990905 0.0025085964 0.7417375932
0.3426783331 0.2507914699 0.2400534724
0.3625045265 0.2537161807 0.741012746
0.3625674762 0.0035535194 0.2433703662
0.3726209137 0.2512575384 0.4907525074
0.3826114015 0.2536860695 0.7416755693
0.372750516 0.2541737395 0.9918126856
0.3824040378 0.0037270513 0.7438464082
0.3825743723 0.2517281891 0.2395693152
0.3925759689 0.0053148263 0.4928344762
0.3926574332 0.0027330555 0.9902389431
0.3724802026 0.0025779175 0.4964494553
0.3724579851 0.0036929472 0.994849083
0.392616701 0.2517733558 0.4910330039
0.3925722659 0.2517484814 0.9893687561
0.4124421539 7.8466660527e-04 0.4869847827
0.4026405151 0.2532304745 0.7407896448
0.4025738625 0.0028823022 0.2359006436
0.4024479631 0.0010100421 0.7414496909
0.4025590508 0.5030012979 0.2405931735
0.4025812684 0.2518938005 0.2367541675
0.4125532416 0.2521281439 0.4849037396
0.4123940158 0.2510173037 0.9825924059
0.4122347901 3.0740460389e-04 0.9885818848
0.4125680533 0.5048550984 0.9885355983
0.4126606263 0.5060726369 0.4897675297
0.4225178089 0.2539276134 0.2361070816
0.442572843 0.2524056903 0.7378550779
0.432593464 0.5011186953 0.9899889958
0.4324712675 0.5027551718 0.479652994
0.4427505833 0.2536035911 0.2375984341
0.4224622651 0.499721799 0.2382418171
0.4423247471 0.5060863833 0.7376523428
0.4325786523 0.2498180937 0.4896832882
0.4227436872 0.2543413147 0.7409479448
0.4326304932 0.2504438823 0.9896001888
0.4424062114 0.4999705434 0.2375938054
0.4325119996 0.0035122147 0.9852770255
0.4525114899 0.0027924269 0.980407681
0.4724850597 0.2501270605 0.4801066021
0.4624945719 0.250644187 0.7365877523
0.4726109591 0.2522839365 0.9779544941
0.4624575426 0.2501048044 0.2311303523
0.4525188957 0.4995169121 0.9860731541
0.4624612455 0.5032598612 0.7326543217
0.4726109591 0.5023152869 0.4841103882
0.4527151507 0.2479047254 0.4822959557
0.4526003601 0.2505302883 0.9870081423
0.4724628421 4.6286986973e-04 0.9815648446
0.4824570329 7.4814045017e-04 0.2310701798
0.4824866563 0.2519703876 0.7352176706
0.4825718235 0.249715323 0.2299796688
0.4924919558 0.2517334258 0.4827912217
0.4925623113 0.2488191885 0.9815926165
0.4824866563 0.4997204898 0.2297093554
0.5025639079 0.2502357225 0.2293122168
0.512250756 7.3112109476e-04 0.9785469619
0.5224337958 0.0012817627 0.2285725579
0.5023935734 0.2502206669 0.7283839251
0.5022010214 0.4997263811 0.7340012602
0.51239517 0.2460895457 0.4753974091
0.5025231757 0.002288523 0.7301039331
0.5224819338 0.2513792923 0.2295343923
0.5125173665 0.2520895231 0.9778434064
0.5225485864 0.2490554957 0.725759478
0.5123359232 0.4998127871 0.4801649232
0.5222671642 0.4977842108 0.2260406839
0.5222116204 0.500837876 0.7270953077
0.5523978534 0.2486555408 0.4818664166
0.5525681879 -0.0016541416 0.9836662537
0.5323909573 0.4988780317 0.9741127109
0.5324909362 0.5012561593 0.4792391923
0.5324909362 0.0025666586 0.4768554352
0.5325872123 0.2480729552 0.4837049181
0.5325353713 0.2466060177 0.979778184
0.5424814241 -0.0029299386 0.7347872057
0.5423221983 0.2452680345 0.2352998443
0.5424147714 0.2489016669 0.7309648628
0.5524385856 0.2510781806 0.9832219029
0.5625586757 0.4974346595 0.7345233724
0.5625179435 0.4976827493 0.230890588
0.5625142406 -0.0042408872 0.2336640778
0.5623365003 0.2470524484 0.2304323512
0.5623957471 0.2505551627 0.7343983987
0.5724084524 -0.0043024187 0.4881900843
0.5723455027 -0.0039098608 0.9832311602
0.5724084524 0.248281115 0.482319099
0.5724528875 0.2497395428 0.9819906808
0.5924782982 0.5001289543 0.9859157798
0.582265635 0.2469274216 0.7345909507
0.6024539743 0.2491785587 0.2343518958
0.5925597625 0.2473031566 0.486763533
0.6024169451 0.2478248653 0.7371107902
0.5924301602 0.2456326415 0.9849715343
0.6024724889 0.496423317 0.7357083079
0.5824989192 0.2487347463 0.2318329821
0.5926004947 0.4983969076 0.4805842793
0.582750718 0.4971865696 0.2345888829
0.6125185206 -0.0040054964 0.9880542182
0.6124629768 0.4982214774 0.4890834146
0.6223275652 0.2475761209 0.7467930097
0.6225941757 0.4946297388 0.2403330431
0.6129147334 0.4983661419 0.992423668
0.6226015815 0.4958152023 0.7406655969
0.6123296715 0.2476638361 0.4952228619
0.6123926212 0.2478124281 0.9903407735
0.6223868119 0.2471329631 0.2421937622
0.6424788753 0.2476337249 0.2445719649
0.6523619783 0.2474380023 0.49002118
0.6425455279 0.2431720354 0.740479525
0.6524138192 0.251269321 1.0013569711
0.6323698939 0.497579324 0.9970060359
0.6425047957 0.4969973929 0.7423245066
0.652232376 0.4970301225 0.9944325041
0.6426047747 0.5001472829 0.2405265209
0.6525063923 0.4980460471 0.4993692106
0.6322958354 0.2497421612 0.494431362
0.632462467 0.2463919665 0.9912572471
0.6623228427 -0.0030259016 0.7441667111
0.6724910709 0.497315524 0.4926085979
0.6824926675 0.5001204447 0.7457821115
0.6724503387 0.497576051 0.9952841765
0.6825556172 0.4998559901 0.2491793276
0.6623006252 0.2475538648 0.2461558905
0.6622747047 0.2467375904 0.747263281
0.6825926464 -5.2687110694e-04 0.2484081937
0.6826037552 -8.0703588075e-04 0.7431567387
0.6625709386 0.4979570228 0.7482612189
0.6624376334 0.5008018735 0.2473935927
0.6824037973 0.2490535319 0.2401062391
0.6723984978 0.2500962947 0.4959375261
0.6825593201 0.2513027052 0.7469263149
0.6723355481 0.2505257061 0.9956174396
0.702573622 0.2487969324 0.2464336097
0.6925757284 0.2503568218 0.4945396725
0.7023292291 0.2500792754 0.741882933
0.6923794734 0.2478006455 0.9928032177
0.7026106513 0.5018105976 0.7468170787
0.7025365928 -0.001240964 0.7406517109
0.7024440197 -6.4639934922e-04 0.2419956558
0.6925720254 0.4964468823 0.9923218376
0.6926090547 0.4990547712 0.4912977629
0.7125641098 0.2494201026 0.4925308365
0.712508566 0.2473961085 0.9937844924
0.7223953719 0.5000589132 0.7381040995
0.7225657064 0.2501244421 0.2424761102
0.7323636422 0.4981854749 0.9883411948
0.7325450855 0.2489167225 0.4906192022
0.7225027567 0.4999096665 0.2412698828
0.7324821358 0.4993637379 0.489075083
0.7225768152 0.2471584921 0.7423513528
0.7326006293 0.2468606534 0.9917663991
0.7125196748 0.5002395802 0.9844160958
0.7625313606 0.4981717285 0.7376356797
0.7426318493 -0.0010806547 0.7416515003
0.7524408938 0.4999031206 0.9911461594
0.76241657 0.4982849726 0.2396924374
0.7627276155 0.2481213949 0.2441498316
0.7524038646 0.2470779775 0.4938481515
0.7625832015 0.2489671259 0.7435103679
0.7525408728 0.2486116832 0.9926551007
0.7423726446 0.4977436262 0.7375125574
0.7522594506 0.4994874556 0.4938416714
0.7426577698 0.249617789 0.2424020517
0.742646661 0.2492774019 0.7438343737
0.7824419807 0.4989035608 0.2437850937
0.7825678801 0.4990128774 0.7430206563
0.7826456415 0.2504262084 0.2497088456
0.7724403841 0.24922438 0.4978186113
0.7825271479 0.2482012549 0.7458469127
0.7724626016 0.2491805225 -0.006145631
0.7924694977 0.4995745161 0.4919263342
0.8125800757 0.4998559901 0.4935870954
0.8025007177 0.5007691439 0.7436103468
0.80238963 0.5015991648 0.2440942878
0.792506527 0.2493140589 0.4977343698
0.7925620708 0.2514938456 1.0017272635
0.8127059751 -0.0017745208 0.5019492226
0.8027191902 0.2491216093 0.2473056482
0.8126430254 0.2489029761 0.4965577658
0.8025081235 0.2514702804 0.7474539815
0.8125319377 0.2483131899 0.9944325041
0.8326832478 7.6987285786e-04 0.5090532815
0.8224779904 0.2513603091 0.2510094976
0.8326573273 3.5990276945e-04 1.0033102633
0.8325055074 0.2510618158 0.502512067
0.8227149775 0.2509236972 0.7468087471
0.8325721601 0.2506978635 0.0019989957
0.8324536665 0.5032650979 0.4975038628
0.8325314279 0.5012051013 1.0047729181
0.8225705635 0.5031007956 0.2471316108
0.8425848654 0.5002703459 0.753207399
0.8426663297 0.5009956323 0.252236091
0.8428551788 4.9168614934e-05 0.2531275698
0.8424071251 0.2536579221 0.2567777268
0.8424663719 0.2519108198 0.7522400102
0.8625843557 0.2518826724 0.2493765083
0.8526605205 0.2512719394 0.4975353377
0.862521406 0.2524698402 0.7547385579
0.8526753322 0.2510474148 -0.0010688765
0.8924410285 0.5012090288 0.0011145524
0.8726303873 0.0021565576 0.5023667272
0.8825986576 0.2519893707 0.2475592985
0.8725637347 0.2512791399 0.497895447
0.8925410074 0.2499483572 0.4985573446
0.8825616284 0.2527048382 0.7510615548
0.8724563499 0.2522859002 -0.001315306
0.892511384 -5.9166128213e-05 0.506302935
0.8725044879 0.0011283921 0.0018026482
0.8925039782 0.2500530917 0.0043170259
0.8725267055 0.5026491281 0.5032924581
0.8925780367 0.5008031827 0.4986739867
0.9125997444 0.5026314542 0.5014530308
0.9025796332 0.4993558829 0.7523760927
0.9124849538 0.4996347384 0.0025976659
0.9026499888 0.4996223012 0.254816103
0.9126478824 -0.0036548977 0.5015085747
0.9026462859 0.2484499994 0.2499865649
0.9125293889 0.0014954211 0.0049567059
0.9125182801 0.2461019829 0.5058095204
0.9023907841 0.2487268912 0.7497312795
0.9125775269 0.2491726674 0.0069784096
0.9423194091 0.2497094317 0.75493111
0.9324511177 0.2493415518 8.2618723786e-04
0.9325325821 0.4990037131 0.5071842308
0.9324807411 0.5016908075 0.0061680248
0.9225865293 0.4972317364 0.7561752923
0.9224606299 0.4967643587 0.2524369746
0.942419388 0.500989741 0.7543784486
0.9224236007 0.2494129021 0.253942213
0.9223495422 0.2514899181 0.7516512454
0.9425897225 0.2505630178 0.2495533229
0.9324289002 0.2503188555 0.5002745754
0.9725537801 -0.0014314498 0.5205175329
0.9625373718 0.0042632919 0.7604845696
0.9623485227 0.2487059443 0.2572248548
0.9524913401 -2.5763799602e-04 0.0038754522
0.9725241567 -3.0784509451e-04 0.0181048618
0.9524691226 0.2494063562 0.5056993584
0.9723723368 0.2509178059 0.5117221636
0.9623633344 0.2519284938 0.7554569251
0.9524357963 0.2505283245 0.0043432241
0.9525542898 -5.9755259747e-05 0.5058261836
0.9722501404 0.2532252377 0.0147799142
0.9723760398 0.5010925117 0.5215432427
0.9626040244 9.5747852183e-04 0.2621265999
0.9523839554 0.4994756729 0.5053299918
0.9626188361 0.5004025732 0.7583646458
0.9824591007 0.2494633056 0.2697435137
0.9826590585 0.0011572596 0.77006033
0.9925162411 -5.603861453e-04 0.0199082782
0.9923051745 0.2515089012 0.5157426129
0.9824739124 0.2482182743 0.7660315491
0.9924940236 0.2489906912 0.0141694872
0.9922422248 0.4987019469 0.0267024949
0.0224948258 0.7491764551 0.7741094769
0.0023492552 0.5003142035 0.2674662157
0.002484523 0.7495102963 0.7717683035
0.0124334641 0.5003979911 0.5253063388
0.0022975995 0.4994396705 0.7710499363
0.0225380019 0.9981041659 0.2697611025
0.0225137107 0.9971288259 0.7699955288
0.0125424781 0.7512907828 0.0236456389
0.0225310404 0.7478410903 0.2752747558
0.0024917067 0.7508980284 0.2755172973
0.0124605324 0.7481225643 0.5226763373
0.0524753985 0.9985689252 0.5227235496
0.0526920195 1.0012134712 0.0245616497
0.0324992366 0.7484760432 0.0219058203
0.0424863918 0.7469901226 0.2730622589
0.0325573725 0.7491830011 0.5229494279
0.0424130739 0.747376331 0.7753249616
0.0425715591 0.4990168049 0.7693151166
0.0324014795 0.5009249365 0.0235343661
0.0323688937 0.498623396 0.5219783362
0.0425782243 0.9979601559 0.2712644895
0.0524498483 0.500111935 0.5241010372
0.0523498694 0.7484760432 0.0218798073
0.0525116871 0.7478149067 0.5203157235
0.042586741 0.9996555456 0.775268492
0.0723808344 0.4997591107 0.0191805611
0.0725222861 1.0008730841 0.5176773905
0.0723341776 0.9994722602 0.0234762302
0.0725593154 0.7518930061 0.0198581961
0.0626184467 0.7489997157 0.2735732624
0.0727218737 0.7514282468 0.5211461041
0.062498472 0.7492680978 0.7718682824
0.0924051343 0.9995900865 0.5149446329
0.0926021298 0.7513366041 0.0100166584
0.1024130258 0.7494186537 0.2582949997
0.0826819975 0.7497394031 0.2651037504
0.0926025001 0.7494579291 0.5086172622
0.1025659566 0.751690083 0.759736579
0.0826379328 0.7503350805 0.7643032095
0.1026229816 1.0004410543 0.758174871
0.1025085613 0.5020187574 0.7584044523
0.0823576214 0.4999927995 0.7666101309
0.0924628999 0.5012980531 0.011402385
0.0825353618 0.4970949269 0.2636235067
0.1123949969 0.7508129316 0.0067738231
0.1222836543 0.7495430259 0.2568675227
0.1124475784 0.7502958051 0.5083460231
0.1224321416 0.7512776909 0.7548042848
0.1223203133 0.999066414 0.254754079
0.1223843739 0.9985231038 0.7538387475
0.1223254974 0.5000903335 0.2471890061
0.1124298044 1.0005654265 0.5094300539
0.1424938409 0.7512384155 0.2514168191
0.1525202471 0.7506558299 0.5037266259
0.1323700479 0.7483778546 0.5002643923
0.1423842344 0.7498441375 0.7545469316
0.1523488017 0.5021555668 0.4997163597
0.1324578072 0.9979208805 0.0042613894
0.1423883076 0.4992158005 0.252693402
0.1422790714 1.0001988558 0.2538894464
0.1323226504 0.9976917738 0.5084709967
0.1423997867 1.0009058136 0.7541183182
0.1524258226 1.0007094364 0.0044164494
0.1524946969 0.7496477604 4.9135037333e-04
0.1322741421 0.7476774427 0.0016453665
0.172411612 0.7516049862 -0.0023125034
0.1625425801 0.7484760432 0.2538977779
0.1724760428 0.7513824254 0.4988433954
0.1623789108 0.7516115322 0.7537137738
0.182484675 0.9975608557 0.7445943988
0.1724386433 0.5007213588 -7.2339370639e-04
0.1726100887 0.5014145703 0.4977889879
0.1824032107 0.7493466487 0.2497819784
0.182340261 0.7506231004 0.7468031927
0.1723760639 1.0019662504 -0.0013515947
0.1624333438 0.9983267267 0.7477937248
0.1825528088 0.5000857514 0.2488192183
0.2024182532 0.5010689464 0.7479316587
0.1927036332 0.4988996332 0.4955413133
0.1925706982 0.7479458248 -0.0041923481
0.2024112176 0.7528879838 0.2494866702
0.1926510517 0.7514544304 0.4945739245
0.2025337844 0.7505641872 0.7505496256
0.2325141349 0.7528683461 8.6691939722e-04
0.2323312104 0.4965215056 -0.003193577
0.2324426684 0.7533331054 0.4987239761
0.2125820378 0.7516377158 -0.0014585166
0.2225158709 0.748698604 0.2536163557
0.2125738914 0.7541055223 0.5001153497
0.2226832431 0.7512515073 0.7560854964
0.2323545389 0.4998350432 0.5005865467
0.2225125383 0.5020122115 0.7539257662
0.2126664645 0.5003371142 -0.0056288973
0.2224455154 0.5029155465 0.2536237616
0.2124283665 0.4994992382 0.5003023473
0.2524358637 0.7491044502 -0.0027224633
0.2426016393 0.7511991401 0.2485590879
0.2525313991 0.7492746437 0.4970187798
0.2425834949 0.7483647628 0.75031449
0.2423753906 0.4992151459 0.7520002459
0.2626237174 0.5019297331 0.7438380766
0.2625722467 0.7502499837 0.2465687664
0.2425175829 0.4993676655 0.2473047225
0.262644824 0.7533920186 0.7461653641
0.2626063136 0.5000484397 0.2454773297
0.252475485 0.4981540545 0.4973603745
0.2725057095 0.9997930096 0.9953767496
0.28237289 0.5035727555 0.2460984952
0.2725801383 0.4994907285 0.4986138142
0.2823714088 1.001573496 0.2448904163
0.2824195468 0.5005426556 0.7505662888
0.2824558355 0.7488491598 0.2476926038
0.2823366013 0.7497852244 0.7498340357
0.2723761072 0.7497983162 0.9963672816
0.2723820319 0.7506820135 0.4944832029
0.3124698825 1.0013967565 0.4927298686
0.2924107752 0.750230346 0.9939603813
0.3025034637 0.7481225643 0.247354712
0.2924029991 0.748142202 0.4948803415
0.302344238 0.7504921822 0.7425142815
0.3024742106 0.5010414536 0.74625516
0.2925429696 0.5012699058 0.9980706265
0.3024301458 1.0012003794 0.2441442772
0.3125372757 0.7506100085 0.993830779
0.3123528701 0.7484760432 0.4920846342
0.3124517382 0.4999679251 0.4929335294
0.3325026991 0.5012908526 0.4912885056
0.3223848307 0.4996511032 0.7400888665
0.3323023709 0.7476774427 0.9929698492
0.3324982556 0.4989087975 0.995839615
0.3225336882 0.750924212 0.2429658218
0.3325715734 0.7508783907 0.4914440284
0.3223874227 0.7515002517 0.7406498594
0.3226262613 0.5005511653 0.2402367671
0.352577729 0.5016083291 0.4922762605
0.3525332939 1.0019073372 0.4895333198
0.3625156353 0.7530450855 0.2429287926
0.3624897148 0.7503088969 0.74649585
0.3625082294 0.5010368715 0.7464773354
0.3623638154 0.5037998984 0.2464058378
0.3524155409 0.7516573535 0.9912017032
0.3425931658 0.7513693336 0.2411439834
0.3525151495 0.7490913584 0.4943378632
0.3424994819 0.7512842369 0.7431678475
0.3626415347 1.0011218285 0.7469670471
0.3425661345 0.5011834998 0.7432252428
0.3526003168 0.504049952 0.9931457381
0.3424354213 0.5000530218 0.2385760059
0.3725986962 0.5011376785 0.9957285273
0.3826928658 0.5010918571 0.2420391652
0.3727616248 0.5032722984 0.4966929226
0.3923908227 0.5006617911 0.9920904049
0.3826521337 0.5040407877 0.7485870761
0.3724431734 0.7521679342 0.9943677029
0.3824855021 0.7537978647 0.2378520843
0.3726246166 0.7529141674 0.4972483611
0.3827854389 1.0028368559 0.2400905017
0.3826669454 0.7532611004 0.7461607355
0.3924204461 0.7534182022 0.9907943816
0.3924759899 0.7523119441 0.4889602924
0.3924685841 0.5029410755 0.488339127
0.402647921 0.5024560239 0.7431872878
0.402503507 0.7522661227 0.2395535777
0.4024664777 0.7521221128 0.7369747078
0.4124162334 0.7529927183 0.986369388
0.4126198942 0.7523643113 0.4877411048
0.4224622651 1.0005261511 0.7321710902
0.4424506465 1.003799104 0.2345685169
0.4325342172 1.0039692976 0.4831152275
0.4425358138 0.9997471883 0.7343567408
0.4227436872 0.4998173692 0.7369571189
0.4324675646 0.7544655471 0.9887207444
0.4222771189 0.7504594527 0.2349906502
0.4323194476 0.7523970409 0.4904488677
0.4225215118 0.7502958051 0.7399046461
0.4423988056 0.7528421625 0.2374216195
0.442524705 0.7527897952 0.7352991349
0.4223585832 1.0042114961 0.2365134775
0.4726516912 1.0033343447 0.4861312588
0.4724147041 0.5032290954 0.983555166
0.4624353251 0.5001512104 0.2313571564
0.4723998924 0.7511205892 0.9768436171
0.4625686303 0.7526916066 0.2303906933
0.4724258129 0.7514086091 0.4817062651
0.462194635 0.752737428 0.7343669239
0.4525225987 1.0005196052 0.4824431469
0.4623834841 1.002129898 0.2311433126
0.4624834631 1.0016978682 0.7321460955
0.4523966993 0.7525410508 0.9858787506
0.452459649 0.7525606885 0.480320446
0.452604063 0.5030117713 0.4859627758
0.4925660142 0.4981579821 0.983073786
0.4923771651 0.5009092263 0.4834568222
0.4824125978 0.5020403589 0.7286968221
0.4825829323 1.0023917342 0.7290041648
0.4926585873 1.0013771188 0.4780644398
0.4924290061 0.9997210046 0.9834996222
0.4922994037 0.7519191897 0.4833938725
0.4922734833 0.7477494477 0.9849993062
0.482449627 0.7536996761 0.2334104275
0.4823089159 0.7511991401 0.7306297482
0.5024157909 0.4987294397 0.2353377992
0.5124284963 1.0001530344 0.4831818802
0.5224337958 0.9984052775 0.728910666
0.5024306026 0.9989682254 0.2308674447
0.5225152601 0.7447252391 0.7339096128
0.502219536 0.7498244998 0.2359515588
0.502463929 0.7482731201 0.7353528273
0.5123396261 0.7509111202 0.9850270782
0.5123914671 0.5005066531 0.9782322134
0.5124173875 0.7501321574 0.4797548244
0.522230135 0.7471864997 0.2335678018
0.5523719329 0.9972008308 0.4808055289
0.5424962358 0.4977914113 0.7275118866
0.5424703153 0.7481160184 0.228238369
0.5523534183 0.4992747136 0.4857146799
0.5523645271 0.7472126834 0.4811924845
0.5421666756 0.7488295221 0.7303270342
0.5326094298 0.9977375951 0.9786210204
0.5424962358 0.498872795 0.2265248411
0.5322317316 0.7485218646 0.9816481604
0.5525089411 0.5013785678 0.9848789612
0.542485127 0.9970568209 0.2320597861
0.5322983842 0.7487116958 0.4773571814
0.5725084314 0.4974405508 0.9857861775
0.5624364792 0.9941373469 0.7330227626
0.5523941505 0.7456220282 0.9775564298
0.5625068348 0.7478869117 0.2338871789
0.5622772535 0.7480571052 0.7367155031
0.5725454606 0.7459689612 0.976602927
0.5725047284 0.4975164833 0.4836234538
0.5724602933 0.745360192 0.4836651117
0.6026539322 0.4962819254 0.2337473936
0.6024539743 0.9970830045 0.2377493282
0.6023873217 0.9999370195 0.7391501754
0.5925782771 0.7458380431 0.9826664644
0.5924931099 0.9976328606 0.485831322
0.592389428 0.9970240914 0.9844716396
0.6026132 0.748423676 0.2340028953
0.5925523567 0.7503547182 0.483478114
0.6027761287 0.7485153186 0.738890045
0.5825137309 0.9971091882 0.2354201893
0.5826618478 0.9952043295 0.735051039
0.5826174127 0.4981396535 0.7326061837
0.5825877893 0.7469377553 0.2343250496
0.5825951952 0.7474417901 0.7346918554
0.6125666586 0.7508194775 0.9848604466
0.6124740855 0.9971681013 0.4878595984
0.6124592738 0.7471144948 0.4860035079
0.6225682552 0.9984118234 0.7412414015
0.6226015815 0.7473566933 0.240388587
0.6223905149 0.7504070855 0.7397417174
0.6223682973 0.9989813173 0.2431657797
0.6424899841 0.9937380466 0.738649355
0.6326290986 0.4984414198 0.4893759456
0.6423159466 0.9960029301 0.2402367671
0.6525286099 0.9982416299 0.4938731463
0.6524989865 0.9971091882 0.9923681242
0.6324476553 1.0004083248 0.4932455007
0.6323365676 0.9995900865 0.9914794225
0.6327142658 0.7465319091 0.9882949082
0.6326698307 0.7469508471 0.4921475839
0.6525397186 0.7437106237 0.9907388378
0.6424122227 0.7486789663 0.2418095839
0.652665618 0.7479981921 0.4930075879
0.6425344191 0.7486069613 0.7437501322
0.6724577446 0.7498768671 0.9968949482
0.6622710018 0.9942224436 0.2465965384
0.6723281422 0.9974037539 0.9963024805
0.682514885 0.7506427381 0.2441590889
0.672531803 0.7497917703 0.4955950057
0.6824778558 0.7487771549 0.7439139866
0.6726539995 1.0003821411 0.4955542736
0.6625228006 0.7513038746 0.2413494957
0.6626375912 0.7499554179 0.7450406011
0.7024069905 0.4996969246 0.2398238912
0.6925572137 0.9995508111 0.4936463422
0.6927608745 0.9997537342 0.9940807263
0.6925979459 0.7504659986 0.9966357436
0.7027476594 0.7481094725 0.2400145917
0.6924646407 0.7466039141 0.4941962263
0.7024736431 0.748423676 0.7410266319
0.7125715157 0.4969633542 0.4855637857
0.7124530221 0.7492222765 0.4927483832
0.7225916269 1.0010236399 0.7398611367
0.7324673241 0.9986474761 0.9932475685
0.7324265919 0.7514478845 0.993201282
0.7225805181 0.7488098844 0.2408097946
0.7325413825 0.7494317455 0.4947674023
0.7225064596 0.749464475 0.7452729595
0.7224620246 0.9980387068 0.2457559747
0.7324969475 0.9973448408 0.4916745354
0.7124382104 0.7500666984 0.9894150426
0.7126270595 0.9993740716 0.4924465949
0.7125937332 1.0001464885 0.9906092355
0.7423985651 0.5003148581 0.2393795403
0.7425429791 0.7480898348 0.2451088888
0.7425429791 0.7503743559 0.7464069799
0.7525408728 0.7489669862 0.9910072997
0.7625980132 1.00073562 0.7384318082
0.7526001196 1.0018615159 0.9931179662
0.7628424062 0.7493073733 0.2428954663
0.7524964377 0.7483189415 0.4932779013
0.7626831805 0.7495888472 0.7398046671
0.7524408938 0.9987260269 0.4904886741
0.7426059288 0.9974364835 0.2403284145
0.7624869255 1.0005654265 0.2437415843
0.7825160391 0.9960291137 0.2477101926
0.7724107607 0.9982089004 0.4923438388
0.782571583 0.9982023545 0.7490804907
0.7724774133 0.9981761708 0.9938122644
0.7826086122 0.7477887231 0.2429676733
0.772784756 0.7488098844 0.4920670453
0.7825382567 0.7478214526 0.7434520469
0.772492225 0.7493073733 0.9895261303
0.7724663046 0.499179798 0.491558819
0.7724588987 0.4981664917 0.9900630542
0.7927175936 0.9972270145 0.5024037564
0.7926324264 0.7507802021 0.9942843871
0.7925768825 0.9984052775 0.9981076557
0.812805954 0.7523446736 0.9963857962
0.7925916942 0.5003279499 0.9942288433
0.8026006966 0.9992366076 0.2516621378
0.8126208078 0.5041396309 0.9949971999
0.8026118054 0.7513300582 0.2505179344
0.8127244897 0.7479523707 0.5002273631
0.8026081025 0.9978619673 0.7514420302
0.8026636463 0.7487247876 0.7448767467
0.8126689458 0.9988831287 1.0031343745
0.7925879913 0.7484171301 0.4976464254
0.8225335343 1.0021953571 0.7523585038
0.8227001658 1.0015407665 0.2516149256
0.8328387706 0.7483123956 1.0021808716
0.8225483459 0.4975799786 0.7485241264
0.822640919 0.7518013634 0.2536830084
0.8327721179 0.7545768275 0.5054725544
0.8226261073 0.7511467728 0.7527482365
0.8426996561 0.7524690458 0.2508576777
0.8426478151 0.7496608522 0.754321979
0.8624066153 0.499627538 0.7460431676
0.8426107859 0.9994788061 0.7548996351
0.8625288118 1.0021626275 0.2524110541
0.8624806738 1.0024899228 0.7488092516
0.8525938679 1.0024244638 -0.001957393
0.8626250878 0.7501517951 0.7515855185
0.852586462 0.503547881 0.5001153497
0.8526420059 0.7518799143 0.0021578511
0.8523790983 0.5022845212 5.3384142139e-04
0.8625510294 0.5012352124 0.2506614227
0.8626880375 0.7540662469 0.2506197648
0.8527901228 0.7518013634 0.5052105725
0.8526753322 1.0022739079 0.5022047243
0.882435729 1.0012331089 0.7513726004
0.8926780156 0.9981958085 0.0046177958
0.8826430927 0.7511991401 0.7527667511
0.8725933581 0.7515395272 -7.8578796868e-04
0.8925706308 0.7500470606 0.001935398
0.8824690553 0.5010342531 0.7495322474
0.8825060845 0.4993794481 0.2519805893
0.8826727161 0.7515591649 0.2496125696
0.872745178 0.7521417505 0.5051846521
0.892515087 0.7503350805 0.5030684312
0.8725118938 0.5032565882 -0.0020827277
0.8826393898 1.0029088608 0.2512890683
0.9125553094 0.7496477604 0.5027953406