POSCAR file written by Ovito 3.7.11
1
270.0634752694 0.0 0.0
0.0 15.2770971771 0.0
0.0 0.0 10.8025390107
Sr Ti O 
800 800 2400 
Direct
0.0224969652 0.5011428873 0.7763124517
0.012529901 0.498070314 0.0230911033
0.0124061523 0.2504381915 0.5273506107
0.0223888055 0.2502018901 0.7782943932
0.0023386673 0.2487153511 0.7748377984
0.0125589312 0.2480823775 0.0246867467
0.0026570739 -0.0020413179 0.27369728
0.0224461623 0.500706286 0.2744878349
0.0124840229 0.0016572905 0.5225489617
0.0024498633 -0.0010438771 0.7790506969
0.0122969558 6.8871647743e-04 0.0253021576
0.0225130725 0.2478081107 0.2778333447
0.0024614162 0.2499164955 0.2726419725
0.0424594203 0.5026150256 0.27237722
0.0324954665 0.2485680718 0.5230229244
0.0424627529 0.2507523873 0.7720606735
0.0524107845 0.500052366 0.029146439
0.0324676952 0.2515208579 0.0244712418
0.0322477469 0.0029415005 0.5239736268
0.0323436503 0.00189045 0.0213505866
0.0423287103 0.2511994618 0.2747081535
0.0525940748 0.2515136576 0.5212242732
0.0524107845 0.2481740179 0.0254972043
0.0624047313 0.2524012608 0.2716107335
0.0623862171 0.501241728 0.7730141531
0.0624939696 0.5014662471 0.271561671
0.0723531332 0.4974694145 0.521567711
0.0724071946 0.2480411393 0.5193089827
0.0624387974 0.2543283284 0.7689354823
0.0724431121 0.2497947447 0.0208338562
0.0624013987 0.0011323872 0.2773927075
0.062406953 0.0012387555 0.771300667
0.1023738533 -2.7468644064e-04 0.2644948138
0.0923684278 0.2490046731 0.5132400391
0.082574434 0.0013279086 0.2673700638
0.1024734595 0.2460060668 0.760345835
0.0824681627 0.2513310313 0.7681310418
0.0924476684 0.2480633948 0.0149004363
0.0824148419 -6.4268828908e-04 0.7684059772
0.092349173 -0.0031609677 0.0156734953
0.1025356671 0.2495453517 0.2611326413
0.0823270847 0.2507216223 0.2716190649
0.1025364077 0.5001963724 0.2676459249
0.0923676872 0.5019218311 0.516239334
0.1123252175 -0.0010650198 0.0096231584
0.1224184002 0.252065464 0.2633432327
0.1125210974 0.2489241604 0.5148368859
0.1224369144 0.4991627991 0.7651326726
0.1124933262 0.4997080597 0.0126339321
0.1224709805 0.2473688911 0.762849876
0.1124470407 0.2479442622 0.0176404403
0.1125455361 0.4985494627 0.5175223657
0.152387651 0.2502005809 0.5075413788
0.1325300971 0.2492579935 0.5090382491
0.1424355462 0.2477347984 0.7533160062
0.1524446746 0.2504146268 0.0059100499
0.1325319485 0.2520792101 0.0147148318
0.1424792396 0.2464983069 0.2558755438
0.1424622066 0.4972822062 0.7594775206
0.1523943161 0.5003240144 0.0035225556
0.132437156 0.4990155198 0.0109757108
0.1324471537 0.5011036128 0.5152108721
0.1526501818 0.0021277333 0.4993284948
0.1824857603 0.2497809986 0.7479996634
0.1825616684 0.252174778 0.2509137474
0.1625626663 0.4980022383 0.7558718868
0.1622627368 0.5022537004 0.2551266458
0.1723318511 0.2458967528 0.5015326063
0.1824402154 0.500613991 0.7493724888
0.1624234398 0.2500284278 0.7496668641
0.1724421955 0.2476726138 -0.0042498116
0.1624001119 -0.0015207347 0.2503083341
0.1624349185 0.2476123929 0.25050551
0.1725151413 -0.0011666753 0.4992414782
0.1825861071 -0.002697398 0.2470646523
0.202575852 0.251868437 0.2468073054
0.1925504312 0.4975623641 0.0028623404
0.2025658544 0.501412572 0.2531715499
0.1926267095 0.2530866004 0.5019463979
0.2025802954 0.2503170952 0.7497612863
0.1923330749 0.2501946898 -0.0013954549
0.1926322638 0.0021871032 0.4992127813
0.202381083 4.0646390352e-04 0.7497279608
0.1926022708 1.4496134491e-04 -0.0034203399
0.2026995267 -4.4664319195e-04 0.2467591685
0.212496853 0.252025535 0.5041403265
0.2227333354 0.252183942 0.7518589413
0.2124401997 0.2537516482 1.7112128181e-04
0.2225959603 5.8948296582e-04 0.2513728987
0.2125431384 -5.6647636449e-05 0.5015918516
0.2127397589 7.6962189982e-04 -0.0013297296
0.2225859626 -7.6659926366e-04 0.7464648391
0.2325750957 -0.0019255891 0.4989063718
0.2226255829 0.2523011109 0.2522745386
0.2324477182 0.2514023799 0.4988600864
0.232689143 0.2507916618 -0.0011172795
0.2325639872 0.0033962989 0.9995951446
0.252601869 0.2517905427 0.4935539264
0.2424838773 0.2500015902 0.7478783957
0.2626324739 0.2508518827 0.2447957412
0.2526733337 0.2501089405 0.9968643051
0.2425153514 0.2533589034 0.2495640647
0.2426182902 0.0022771072 0.2468137853
0.2526829611 0.4991850546 0.997188303
0.2526300106 8.5294924828e-04 0.4951998358
0.2426005166 0.0021081615 0.7461713896
0.2625550846 0.2505979077 0.7451207106
0.252490784 1.4607412175e-04 0.9967254489
0.2625310162 0.0024853929 0.2463055715
0.2625521224 0.0027017298 0.7447161761
0.2726841848 0.2530119789 0.498540717
0.2724738639 0.2504800843 0.9982528676
0.2725671753 8.960857154e-04 0.4935974347
0.2726230881 0.5016239996 0.9970216755
0.2823985677 0.2524025699 0.7479209782
0.282510023 9.351638199e-04 0.7440968773
0.2826670231 0.2527553856 0.2459815736
0.3024797727 0.2502398554 0.2502648259
0.3125407407 0.2533078466 0.5004976644
0.312541111 0.2531147471 0.9982250963
0.3125755474 0.0022659795 0.9998080575
0.2924665712 0.2539545663 0.5007540856
0.3025079142 0.2528221523 0.7495502248
0.2925732128 0.5057268733 0.4955664163
0.3023646146 0.5045211469 0.2455400107
0.2925254462 0.252767168 0.9988730921
0.3027645206 0.0041002939 0.7511146719
0.292712069 0.0048616296 0.4998172688
0.3124833468 0.506698262 0.9947907185
0.2924969344 0.0031861805 1.0015576462
0.3225669022 0.2529203384 0.2453113608
0.3325901013 0.2551033448 0.4960459332
0.3225698644 0.2520576091 0.744097803
0.3324816083 0.2552460421 0.9937631823
0.3226035602 0.0024611736 0.2407124419
0.3325067876 0.0016346423 0.4930938494
0.3226446617 0.0025247328 0.7401005945
0.3325938042 0.003116861 0.9909120008
0.3626374818 0.2515575141 0.2384370509
0.3524224759 0.2528228068 0.4945037032
0.3425455387 0.2524693365 0.7427018349
0.3525539265 0.001562639 0.9905417174
0.3525065302 0.250622127 0.994513006
0.3425540552 0.0014205309 0.2424518478
0.3425422061 -1.7852942973e-04 0.7446236053
0.3427014279 0.2530054331 0.2407578016
0.3624042033 0.2509454868 0.742082536
0.3625708308 0.0022479787 0.2403171645
0.3724166643 0.2495793896 0.4925939669
0.3824106111 0.2486610214 0.7411355364
0.3725314521 0.2530008511 0.9863852872
0.3824772621 -0.0016351543 0.7424074596
0.3822032524 0.2514783106 0.2426656864
0.3923601239 0.001055671 0.4874692458
0.3925267514 -1.5581569059e-04 0.9888569283
0.372468504 0.0017447417 0.491958931
0.3723944473 0.0021118271 0.9918562232
0.3923082842 0.2512649192 0.4828370015
0.3924823174 0.2522389263 0.9861816313
0.4125924044 1.6603864751e-04 0.4811549895
0.4025577265 0.2521204483 0.7309268253
0.4025355095 6.158623228e-04 0.2309610307
0.4025095896 0.0035303558 0.7329606064
0.4026317831 0.5004987859 0.2298983176
0.402368882 0.2475174796 0.2318247166
0.4123554231 0.2494177097 0.4772633118
0.4122998806 0.2495132776 0.9788222504
0.4125775931 -2.8173640705e-05 0.9793221329
0.4126257299 0.5031013745 0.982571369
0.4125257534 0.5044812178 0.4754517007
0.4224826719 0.2499374419 0.2294549033
0.4424335371 0.2487618259 0.7273341514
0.4325840008 0.5012201271 0.976776435
0.4325284583 0.5016842205 0.4765690306
0.4425187023 0.2489208876 0.2289976034
0.4226159739 0.5014243544 0.2267259153
0.4424631598 0.4993925548 0.7249708181
0.4325284583 0.2498189639 0.4770226277
0.422478969 0.2536285882 0.7326597512
0.4325765952 0.2497371421 0.9801830416
0.4426297873 0.4998972318 0.2248559845
0.4325173498 -0.0015317315 0.9814142336
0.4525015406 -6.2580026402e-04 0.9731198873
0.472448703 0.2500951944 0.4698483884
0.462391808 0.2495689164 0.7246218261
0.4725931135 0.2514671828 0.9732772577
0.4622214777 0.2507896981 0.2215215832
0.4526755737 0.5012260183 0.9743418222
0.462658412 0.5045335838 0.7239784588
0.472604222 0.5007717435 0.471648891
0.4525237576 0.2494458564 0.4761839359
0.4527051964 0.2513722695 0.9740178243
0.4725190568 -0.0014972354 0.9673342104
0.4824352441 -0.0023400657 0.2208856216
0.4823797016 0.2516635552 0.7186223106
0.4825648432 0.250885266 0.2219687003
0.492381054 0.2509094852 0.4726995699
0.4927106062 0.2514953295 0.9760173542
0.4825833574 0.5003083046 0.2212401679
0.5022416988 0.2498713299 0.2235377759
0.5122282399 0.0012905324 0.9767949492
0.522525819 0.0010115527 0.2290725858
0.5021787507 0.2482859502 0.7276470408
0.502393515 0.4999469795 0.7204228132
0.5123763533 0.2463660828 0.4758830807
0.5024749773 -4.2246994924e-05 0.7225223197
0.5223740029 0.2515077664 0.2227703637
0.5123726504 0.2499459514 0.9765820363
0.5222888377 0.2502922214 0.7279941814
0.5125429808 0.4977017885 0.4768124919
0.5225332247 0.4983223253 0.2285699262
0.522525819 0.5015958529 0.7267648408
0.5523854659 0.2522788553 0.4852753171
0.5524113857 -0.0014546226 0.9829694236
0.5325975253 0.4987693997 0.9788777929
0.5326641763 0.4995922 0.4761691246
0.5326567707 3.7550252424e-04 0.4784343328
0.5325197658 0.2471214619 0.4796590449
0.5322568647 0.2478081107 0.9717220677
0.5425100098 0.0019655952 0.7307370551
0.5422285945 0.2491709351 0.2314618389
0.5423248681 0.2504290275 0.731121224
0.5524669282 0.2481013601 0.9827472536
0.5623868183 0.4962695793 0.7391554464
0.5622350022 0.4999227602 0.2388712081
0.5623831155 2.0590224155e-04 0.2398117278
0.5624756863 0.246402739 0.2372141903
0.562483092 0.247801565 0.7354165105
0.5724622275 -0.0019060173 0.4877071528
0.5725066615 -0.002123467 0.9827009681
0.572428902 0.2503472056 0.4907231105
0.5724326048 0.2506810387 0.9885236733
0.5921761114 0.4984486582 0.9912174845
0.5825302309 0.2494013453 0.7374799143
0.6023996338 0.2501383963 0.2395080954
0.5924538239 0.2466632597 0.4892003203
0.60255145 0.2499328599 0.742637961
0.5925241777 0.2481327797 0.9894216104
0.6023811196 0.4991523259 0.7384833821
0.5825894762 0.2471672822 0.2370281229
0.592250168 0.4976494226 0.4903250559
0.5824228487 0.497508689 0.242254672
0.6125861279 -0.0047414578 0.9873480238
0.6123972834 0.5000229101 0.4908092013
0.6224134472 0.2493306513 0.7415446995
0.6224652869 0.4987870732 0.237526154
0.6123084154 0.5002310648 0.9879497342
0.622350499 0.4969130261 0.7393378109
0.6123898778 0.2482211473 0.4907064477
0.6124046891 0.2489392156 0.9901529199
0.6223986359 0.2487808086 0.2414067232
0.6425346428 0.245933409 0.2350434043
0.6525285896 0.2467025342 0.4888346655
0.6424420719 0.2451570835 0.7378177979
0.6525434009 0.2491768262 0.9929393019
0.6324370167 0.499583036 0.991717367
0.6425346428 0.4971670011 0.7422769347
0.6524730471 0.4962551786 0.9944389494
0.6425679683 0.4972547141 0.2403495643
0.6524582357 0.4963173632 0.4905351917
0.6323740685 0.2474435126 0.4919154228
0.6322111438 0.2484744677 0.9880052767
0.6623633145 -0.0021650979 0.7442598019
0.6725683228 0.4973208261 0.4914840427
0.6824734016 0.4982516312 0.7439959751
0.6726053511 0.4969130261 0.9940316377
0.6826622461 0.5002664119 0.244234762
0.662463291 0.2448114681 0.238861951
0.6624706967 0.2463222263 0.7396553288
0.6826104064 -0.0028826426 0.2436293488
0.6824289676 -0.0020933566 0.7432655912
0.6625373477 0.4993716084 0.7447541301
0.6625817817 0.4984512765 0.2395182782
0.6826289206 0.2487880089 0.2427490002
0.6723609641 0.2474120931 0.4891753262
0.6824252647 0.2495512429 0.7431832032
0.6725164831 0.25101749 0.9913563407
0.7025464603 0.251188334 0.2500583929
0.6925932447 0.2501200682 0.4961949722
0.7024390781 0.2491853357 0.7461075157
0.6925969475 0.2491650439 0.996188538
0.7025686773 0.4998991955 0.74830885
0.7027575218 -0.0033176729 0.7449568603
0.7024501866 5.0787497266e-06 0.2432424027
0.6926043532 0.49689928 0.9944111781
0.692674707 0.5010944488 0.4922968146
0.7124515391 0.2483343887 0.4952220528
0.7124626476 0.246275097 0.996855048
0.722708387 0.4997479888 0.7482088735
0.7223714292 0.2484437027 0.2482634445
0.7325134893 0.4979282713 1.000983707
0.7325616262 0.2505776159 0.4989795028
0.7225343539 0.4974000296 0.2491826729
0.7325579233 0.5005504973 0.4946009025
0.7224825142 0.2497914718 0.7505027787
0.732654197 0.2461481095 0.9959015685
0.7125589213 0.5032466901 0.996855048
0.762776745 0.4993382251 0.7414956369
0.7426000069 5.5020848893e-04 0.743980238
0.7525754396 0.4991922549 0.9956053418
0.7626471458 0.5009628793 0.2429795016
0.7626397402 0.2519646595 0.2427452974
0.7524976801 0.2474592224 0.495573822
0.7625138438 0.249631101 0.7398617618
0.7524421376 0.2490864949 0.9934484415
0.7426185211 0.4986051015 0.7470563667
0.752742067 0.4992950231 0.495456257
0.7425888984 0.2506908573 0.243257214
0.7425407616 0.2487068417 0.7457613008
0.7825350629 0.5016305454 0.246561067
0.7826905819 0.5014518465 0.7433831562
0.7826091196 0.251446891 0.23880178
0.7724078141 0.2529812139 0.4953081437
0.7823869496 0.2508446823 0.7398432476
0.7724522481 0.2513820881 -0.0109806042
0.7927474768 0.5015657425 0.494180631
0.8125354174 0.5015094491 0.4937011141
0.8026562585 0.4990076649 0.7423352544
0.8023637346 0.4994704491 0.2474358613
0.792410519 0.2495257145 0.4894511873
0.7924253304 0.2526565449 0.9870795684
0.8123391673 3.0166650769e-04 0.4897835165
0.8024266828 0.2504715748 0.2396330661
0.8126390967 0.2513002663 0.494269499
0.8025673905 0.2541568299 0.739902493
0.8124317381 0.248095469 0.9952998581
0.8324307402 -3.0826611838e-04 0.4979519666
0.8223960622 0.2510161809 0.2440588774
0.8323381693 -0.0013810485 0.9940131235
0.8324936883 0.2483743177 0.4990729993
0.8225960152 0.2498962037 0.7457131639
0.8325344195 0.2488096099 -0.008312912
0.8325529337 0.5014636288 0.4984444434
0.8325196082 0.4985749911 0.9968180197
0.8225626897 0.5031197026 0.2512553337
0.8425579889 0.5036355074 0.748137594
0.8425283663 0.4992465846 0.2440070378
0.8425431776 -7.1416783702e-04 0.242181541
0.8422765736 0.2499505334 0.2489216231
0.8425690974 0.2507262043 0.7474368328
0.862601425 0.2474651136 0.2461111727
0.8525371244 0.248718624 0.4926374752
0.8625495853 0.252144013 0.7503639224
0.8525260159 0.2496762667 -0.0023798901
0.8926980532 0.5006571929 0.0076631562
0.8725509378 -1.5751758459e-04 0.4973724732
0.8826337526 0.2522886739 0.2510026154
0.8724287443 0.2489352882 0.4961560925
0.892568454 0.2502031992 0.5015566747
0.8827263234 0.2502555652 0.7515479033
0.8725842633 0.2507942801 2.7035721133e-04
0.8925092087 -3.6959975979e-04 0.5049281043
0.8726916454 -0.0026502032 -0.0059763502
0.8926017795 0.2473309258 0.0025363986
0.8726398058 0.4986424122 0.4989387716
0.8924758832 0.4997185329 0.5064231232
0.9125526448 0.5019879431 0.5120301384
0.9026994056 0.4985907009 0.758648086
0.9124304513 0.4995313246 0.0120957253
0.9027882736 0.5002533204 0.262624883
0.9125378334 3.8892130385e-04 0.5108905914
0.9027031085 0.2500945398 0.2587239483
0.9124082343 0.0021029904 0.0109710823
0.9127488949 0.2504597925 0.5178389579
0.9024994526 0.2499361328 0.7611150986
0.9126674326 0.2496140821 0.0134812329
0.9425492964 0.2510220721 0.7634747291
0.9327441941 0.2505350686 0.01732644
0.9326516233 0.4974288309 0.5117061405
0.9326331091 0.5032970923 0.0121286805
0.9228835494 0.5004981313 0.7651993236
0.9225873227 0.4995882726 0.2633034272
0.9424567256 0.5003443062 0.7673228984
0.9224799405 0.2513827427 0.2656269551
0.9224429122 0.2524987924 0.7647383209
0.9426714899 0.251456055 0.2655964067
0.9325442412 0.2503766615 0.5144601226
0.9723904291 -0.0029310157 0.5196672318
0.9625075673 -0.0024118071 0.7701398288
0.9625001617 0.2508747928 0.2694584617
0.9523506959 4.151697459e-04 0.0151923121
0.9723571036 -0.0017089903 0.0224056163
0.9525765687 0.248867867 0.521799138
0.9724718915 0.2477361075 0.5250224543
0.9624668362 0.2463929204 0.7707406135
0.9524988092 0.2516858107 0.0211793305
0.9525765687 -0.0013745027 0.5204290897
0.9725459481 0.2476516674 0.0211307308
0.9723682121 0.4993434617 0.5255871364
0.9624001852 -1.3709485661e-04 0.2699361272
0.9523951299 0.5020376908 0.5180657565
0.9625742183 0.4977561182 0.766394413
0.9826954139 0.2495892082 0.2760532076
0.9824139986 -0.0026619855 0.7755589252
0.992459785 -6.054429935e-04 0.025943766
0.9926523323 0.2495211325 0.5262471664
0.9825473006 0.2467529364 0.7715478311
0.9925893842 0.2486636397 0.0244469883
0.9923672142 0.500829346 0.0255785741
0.0222595025 0.7516381192 0.7757033357
0.0025411012 0.4983760004 0.2738074393
0.0023097111 0.7516512107 0.774036135
0.0127003054 0.500635592 0.5253557093
0.0025391757 0.5013058764 0.7780657432
0.0223020481 0.9994797056 0.2778657445
0.0223781043 1.0033089671 0.7698195337
0.0123827874 0.7519392235 0.0243610825
0.0223726241 0.7476255768 0.2739620326
0.0022303594 0.750276604 0.2739231528
0.0121725406 0.7510097275 0.5214982828
0.0523585746 1.003387516 0.5222545865
0.0525444568 1.0019670891 0.0224020061
0.0322784805 0.7511799169 0.0230797171
0.0423809203 0.751952315 0.2728687711
0.032390306 0.7530847291 0.5242531907
0.042370182 0.7487121706 0.7749748032
0.0425234793 0.5006938491 0.7713589866
0.0324606598 0.5011350324 0.026248972
0.0323166196 0.5006382102 0.5237912623
0.042125795 1.0027722159 0.2735732351
0.0523200651 0.5012456555 0.5219092973
0.0522967373 0.7490852782 0.0263999551
0.0524563294 0.750224238 0.5226739324
0.0425005218 1.0031911436 0.7760338135
0.0723531332 0.4983445808 0.0224327396
0.0723505413 0.9987596735 0.5193043542
0.0722894445 0.9999771823 0.0210350126
0.0723712771 0.7517952171 0.0178342836
0.0623517808 0.7495303889 0.2724188768
0.0722550082 0.7485419812 0.5246447653
0.0623695544 0.7473964757 0.7706239742
0.0922917791 0.9964228421 0.5140037485
0.0924672934 0.7495434804 0.0155595406
0.1024834572 0.7520832299 0.2633969238
0.0823215305 0.7475535736 0.2676181536
0.0923299183 0.7497660358 0.5097732615
0.1023771859 0.7495631176 0.762287971
0.0824963042 0.7494976602 0.7690641558
0.1022860962 1.0005662994 0.7647799778
0.1024316175 0.5001243692 0.7669868663
0.0824270612 0.5014322093 0.7681153048
0.0925169114 0.5004300555 0.0152834944
0.0825585118 0.499526088 0.265795434
0.1123392883 0.7525545236 0.0121732071
0.1224646857 0.7501391433 0.2614779305
0.112521838 0.7494191112 0.5162115627
0.122454688 0.7492096473 0.7598098499
0.1224361738 1.0040224534 0.2589877751
0.1222365911 0.997483253 0.7599431519
0.1224476526 0.5008529107 0.2619343047
0.1123111468 1.0014434294 0.5113728855
0.1423851877 0.7503878817 0.256865126
0.1524331958 0.7480641418 0.5056446025
0.1325045476 0.7490394579 0.5091382256
0.1421926403 0.7487187164 0.7586342004
0.152560203 0.5003645981 0.500860542
0.1324482645 0.9999968195 0.0110281985
0.1425869921 0.4973679555 0.2617519401
0.1423459376 1.0006513941 0.254751734
0.13244234 1.0010048644 0.5103879318
0.1424596146 1.0012077826 0.755423844
0.1525165096 0.999237513 0.002865025
0.1524942926 0.745557121 0.0075407776
0.1322712691 0.7516446649 0.0100574082
0.1724703371 0.7479659556 -7.4477450808e-04
0.1624234398 0.7495434804 0.2550424064
0.1722548322 0.7489936377 0.5026767817
0.162473428 0.7480248673 0.7556413854
0.1825383405 0.9981378276 0.750124164
0.1725155116 0.4986921599 0.0014781288
0.1723214832 0.5005576976 0.4994247685
0.1823731941 0.7502831497 0.2482375247
0.1822695148 0.7500016826 0.7468989963
0.1725714244 0.9996106205 -0.0029032948
0.162626355 0.9973196093 0.7498344173
0.1824583593 0.4988440212 0.2521616022
0.2023592363 0.4999980363 0.7528475978
0.1925441364 0.4991339978 0.4993683003
0.1926448534 0.7463360648 -0.0026519095
0.2024473637 0.7529407227 0.2471396346
0.1925559854 0.7508460839 0.4959524366
0.2024362552 0.7472001033 0.7499991934
0.2326199 0.751952315 -0.0016493767
0.2324958551 0.4976756055 -0.0022808393
0.2326517444 0.7492751048 0.4984944316
0.2126686645 0.7503420614 -0.0011195012
0.2227807316 0.7489936377 0.2480912628
0.2124938907 0.7484634323 0.5012317511
0.222770734 0.7514221095 0.75139979
0.2326528552 0.4986424122 0.5002375404
0.2226392834 0.4997794084 0.7562801242
0.2126297847 0.5008568382 0.0041545367
0.2225648565 0.5036649633 0.2511285117
0.2125697988 0.499890686 0.4991498331
0.252634454 0.7499754996 -0.0057060341
0.2424805448 0.7543022379 0.2506064122
0.2526326025 0.7500540486 0.4978001504
0.2426231039 0.7517559426 0.7472627996
0.2427367808 0.5022838108 0.7494122943
0.2625628606 0.5036701999 0.7499047711
0.2625872993 0.7523974257 0.2487013045
0.2427145638 0.5000988408 0.2448262896
0.2627183796 0.7537458494 0.7468369738
0.2626672805 0.5019015393 0.2473562504
0.2525133713 0.5004837306 0.4981667309
0.27258643 1.0011946911 0.9971605318
0.282618516 0.5036531809 0.2514312183
0.2726486376 0.5021437319 0.4976733284
0.2826633203 1.0055410665 0.2492400668
0.2825663061 0.503202179 0.7486828362
0.2827577425 0.754917538 0.248769807
0.2824937305 0.7538243984 0.746271366
0.272660857 0.7487514451 0.9969846472
0.2725849489 0.7531960068 0.4969596073
0.3125896181 1.0035053395 0.4958617172
0.2926117222 0.75239088 0.9999191425
0.3024856972 0.7523254225 0.2489669828
0.2925924675 0.7539945878 0.4969068419
0.3024231193 0.7560237691 0.7501787808
0.3026367728 0.5044183786 0.7488781606
0.2925391467 0.502206571 0.9949758602
0.3026182586 1.0060058145 0.2436145374
0.3126007266 0.7541058655 0.9974475013
0.3124666841 0.7525348864 0.4970799494
0.3124792737 0.5024291264 0.4937890564
0.3325915825 0.503706856 0.4925106532
0.3225720861 0.5048490887 0.7437876907
0.3324782758 0.7516119362 0.9906898308
0.332516415 0.4982954877 0.9941242085
0.322523579 0.7537000292 0.2440810944
0.3325552947 0.7544331528 0.4891910632
0.3225694942 0.7545706134 0.7411068395
0.3224439681 0.5024147258 0.2444337893
0.3525509642 0.5015735974 0.4933845218
0.3524950514 1.0009655899 0.4914794141
0.3624190147 0.7521552331 0.2421491412
0.3625041798 0.7512977404 0.7399839553
0.3625412082 0.5022301357 0.7386259412
0.3623856892 0.5033920057 0.2381204587
0.3525494831 0.7488561771 0.9879219629
0.3426207062 0.7511995542 0.2427073433
0.3524646882 0.7509377243 0.4900251264
0.3425162863 0.7513108319 0.7389036537
0.3625486138 1.0014892496 0.7454419314
0.3426170033 0.5038024239 0.7417066984
0.3525661458 0.5019237948 0.9880700763
0.3424129772 0.5019087396 0.2431007693
0.372468504 0.5002382652 0.9903750899
0.3825661301 0.5011239046 0.2340815934
0.372579589 0.5006571929 0.4874720229
0.3925637797 0.5005230051 0.984246901
0.3826216726 0.5015729428 0.7357145886
0.3725536691 0.7501587805 0.9861353459
0.3824217196 0.7489543632 0.2391933546
0.3726980796 0.7494845687 0.4860806834
0.3826142669 1.0006317569 0.2344926079
0.3827512717 0.749864222 0.7402533364
0.3925711854 0.7507282605 0.9824325127
0.3924045579 0.7491900101 0.4810818585
0.3925637797 0.4999901814 0.4833026328
0.4027354625 0.5017902616 0.7325662547
0.4024022075 0.750584254 0.2324440154
0.4025725378 0.7497463985 0.7301529332
0.4126294328 0.7547604401 0.9780724267
0.4126923809 0.7527967162 0.4739307619
0.422456752 1.0021700072 0.7317608885
0.4424557541 0.9995124343 0.2282320427
0.4324395903 1.0004877505 0.4795738797
0.4424816739 0.9973916125 0.7256391795
0.422501186 0.5000248738 0.7294688347
0.4325877037 0.751487567 0.9795998454
0.4226604079 0.748908543 0.2243107423
0.432469213 0.7502635125 0.480017294
0.422634488 0.7490394579 0.7333021928
0.4428519573 0.7504075189 0.227869165
0.4425890561 0.7469251819 0.7276664807
0.4225715399 1.0010834134 0.2295983881
0.4724635143 1.0008412208 0.4736835978
0.4726116276 0.5017490234 0.9709444728
0.4626028695 0.5001597162 0.2288365302
0.4727486324 0.7515333872 0.9710555578
0.4625621383 0.7503878817 0.2252808846
0.4725708965 0.7500344114 0.4728939687
0.4625769497 0.7501653263 0.7239951216
0.4525126491 0.999597529 0.4784195215
0.4625288128 1.0008935867 0.2225991077
0.4625621383 1.0010441389 0.7243996561
0.4526570596 0.7512781031 0.9786463658
0.4527866587 0.7529930886 0.4745806092
0.4526496539 0.5007180684 0.4773234829
0.4925624929 0.5003685255 0.9730088023
0.4925513844 0.4979911105 0.4686162706
0.4827055509 0.4975486181 0.7237053749
0.4825241121 0.9995386173 0.7210754376
0.4924847334 1.000422293 0.4699770618
0.4925773042 1.0027002127 0.9717128107
0.492736526 0.7466568063 0.4666815403
0.4925884127 0.7506693487 0.9731661727
0.4826388999 0.7515072042 0.2159303051
0.4825130036 0.74975949 0.7201173295
0.502526817 0.4991038874 0.2242468684
0.5123097023 1.0004942962 0.4783278764
0.5224443567 0.9992440587 0.7243255994
0.5025453311 0.9996629865 0.2211725912
0.5226035785 0.7487318079 0.7268222347
0.5024860858 0.7514810213 0.2191730613
0.5025416283 0.748908543 0.7242626513
0.5125726034 0.7505711625 0.9723793206
0.5124948439 0.4991955278 0.9730273164
0.5126466601 0.7520177724 0.4740307384
0.5224443567 0.7495172974 0.2263972888
0.5524484141 1.0006252111 0.4822491767
0.5424989013 0.497978019 0.731172138
0.5423248681 0.7494125655 0.2300418024
0.5522410554 0.4974216306 0.4817742884
0.5523928716 0.7490263665 0.4818631564
0.5424840899 0.7515530245 0.7303741774
0.5325234687 0.9990018661 0.9745639922
0.5426470146 0.5002389197 0.2297714956
0.5324308978 0.7530716376 0.9740826239
0.5523632489 0.4988034376 0.9831823365
0.5423100568 1.002641301 0.2299566372
0.5323716525 0.7505253423 0.4760404512
0.5722956 0.4971447455 0.9884033313
0.5624053325 0.9991262353 0.7396145977
0.5523891687 0.7491703729 0.9841450731
0.5624793892 0.7497725815 0.2349804561
0.5623868183 0.7483783376 0.7358515934
0.5722474631 0.7507282605 0.9863112305
0.5723659538 0.4968783337 0.4873738978
0.5722215433 0.7508002637 0.4905620372
0.6023107658 0.4979479086 0.2430183813
0.6024033366 0.9979414552 0.2371355051
0.6023440913 1.0005204792 0.7368217357
0.5923945785 0.7471019171 0.9870980826
0.5924242012 0.9960039144 0.4899992066
0.5924427154 0.9970905082 0.98748688
0.60232928 0.7519195863 0.2404263981
0.5923760644 0.7508919041 0.4869378892
0.6023848225 0.7475208448 0.7447754214
0.5824450657 0.9992898789 0.2352637229
0.5825487451 0.9999379078 0.7375743366
0.5823821176 0.498188792 0.7401755769
0.5824154431 0.7479135896 0.2367985472
0.5822228958 0.7499493167 0.7381242073
0.6123343353 0.7484503408 0.9851726093
0.6124935571 0.9957879047 0.4888652139
0.6124083919 0.7482408769 0.4903824498
0.6224134472 0.9964293879 0.7336363735
0.622350499 0.7474684789 0.2405032319
0.622328282 0.7469448192 0.7387351748
0.6225097209 1.0002586494 0.2363032933
0.6424902088 0.9991982385 0.736938375
0.6325481017 0.4970524505 0.4907860586
0.6423902323 0.9965144826 0.238912865
0.6524249102 0.9985502096 0.4892438286
0.6524989669 0.9968417699 0.9902177195
0.6325295875 0.9984258404 0.4925421273
0.6325369932 0.9987858565 0.9915414824
0.6323925827 0.7458778626 0.9891253837
0.6327221348 0.7475077533 0.4930281241
0.6525656179 0.7468400872 0.9882737321
0.6424679918 0.7450203698 0.2383676228
0.6524989669 0.7504598849 0.4862843392
0.6424568833 0.7488627228 0.7424019054
0.6724498321 0.7474619331 0.9924301624
0.6623336918 0.9953558855 0.2431165064
0.672520186 0.9979414552 0.9925782757
0.6825696752 0.7501391433 0.2413123009
0.6723831811 0.7471150086 0.4905740714
0.6825585667 0.748083779 0.7415826535
0.6725053746 0.9970643252 0.4912303986
0.6625262392 0.7471019171 0.2386916207
0.6624781023 0.7490983697 0.7383139775
0.7025501631 0.5000333833 0.2444782233
0.6923932917 0.998798948 0.4967679857
0.6926710042 1.0023925626 0.9968735622
0.6924118059 0.7507282605 0.9943093502
0.702642734 0.747619031 0.2489503201
0.6926191645 0.7483194259 0.4938825529
0.7025020263 0.7453542029 0.7475988317
0.7125959496 0.4976900062 0.499273878
0.7125626241 0.7491834644 0.5012585966
0.722552868 0.997948001 0.7448300382
0.7324061072 0.9973327008 0.9947074048
0.7325949517 0.7494780229 0.9976696713
0.7224899199 0.7432464726 0.2487688812
0.7324505412 0.7476386683 0.4978297731
0.7224232689 0.7463426105 0.7482533075
0.7225195425 0.9947274939 0.2507859996
0.7324357298 1.001247057 0.4946721821
0.7125552184 0.7483259716 0.9995581163
0.7125885439 0.9986418501 0.4995275221
0.7126366808 0.9996564407 0.9977252138
0.7426666579 0.4982607952 0.2461935608
0.7425444644 0.7482736056 0.2440662831
0.7426111154 0.7503682444 0.7475581006
0.7525087886 0.748908543 0.9944852348
0.7624027588 0.9990738693 0.7413160495
0.7523014299 0.999957545 0.991606282
0.7626545515 0.7509180871 0.2448373981
0.7523680809 0.7512846489 0.4938464503
0.7625175467 0.7498445847 0.7378483462
0.7522421846 0.9996629865 0.4903148731
0.7424555964 0.9998659046 0.2437793135
0.7624397872 1.0011357793 0.2440505461
0.7824721147 0.9961741038 0.2370299743
0.772367083 1.0007364888 0.4901149201
0.7824387892 1.0014237922 0.7391582235
0.7723781915 0.9986353043 0.9913378266
0.7824869261 0.7507937179 0.2395932606
0.7726262813 0.7502831497 0.4912535413
0.7825017374 0.7493798367 0.7413419694
0.7725818473 0.7509311786 0.9904398895
0.7725188991 0.502579024 0.4950461682
0.7726559039 0.5006486834 0.9961052243
0.79247717 0.9993095162 0.4865176177
0.7925475239 0.7501849635 0.9899677783
0.792343868 0.9982752883 0.9836544477
0.8127761016 0.7549044465 0.9938002106
0.792610472 0.5005112228 0.9896808087
0.8024266828 1.000448476 0.2394849527
0.8125909599 0.5023492683 0.9957164268
0.8024822253 0.7481885109 0.24255923
0.8125502288 0.7514090181 0.4987240073
0.8024563055 1.0005335707 0.739096201
0.8025044423 0.7485027068 0.737687273
0.8123761956 0.9990084118 0.9936335831
0.7925808494 0.7520635927 0.4864805893
0.8223812509 1.003387516 0.7441912995
0.822377548 1.0017183508 0.2431322434
0.832390009 0.7482801514 0.990606517
0.8224960387 0.498271923 0.7441339056
0.8223183027 0.7496678496 0.2457677349
0.8323566835 0.754118957 0.4931401348
0.822377548 0.7523974257 0.7415474766
0.8424283898 0.7474161129 0.2488938519
0.8424543096 0.7494649314 0.7493956316
0.8623459295 0.5015729428 0.7451531104
0.8424246869 1.0028376733 0.7465555585
0.8624199862 0.9996368035 0.2492641352
0.86249034 1.0017445337 0.7449994428
0.8526408037 1.0000950057 -0.0024195382
0.8625977222 0.7478612236 0.7442320307
0.8525260159 0.4971277266 0.497991772
0.8524519592 0.7502569667 6.460096386e-04
0.8524963932 0.50028474 -1.3575101893e-04
0.8626088307 0.5017837158 0.250172255
0.8625384768 0.7487776281 0.243035044
0.8525223131 0.7482277854 0.4979241953
0.8525223131 0.9982032851 0.4969512759
0.8826448611 1.0002586494 0.748337547
0.8924758832 0.997921818 0.0032777983
0.8826744837 0.7511668254 0.74963539
0.8726101831 0.7486074387 -0.0065416895
0.8925166144 0.7483783376 8.0476861168e-04
0.8825448846 0.5004104183 0.7509267531
0.8825633987 0.4991627991 0.2501629979
0.8825189647 0.7519588607 0.2487651784
0.8724102301 0.7484176121 0.4934493214
0.8925499399 0.7488430856 0.5015002065
0.8726916454 0.497947254 -5.9545775964e-04
0.8825078562 1.000500842 0.2490364109
0.9124341541 0.7516250277 0.5072349694
0.9024439101 1.0007823091 0.2517691018
0.9025031555 0.9997808099 0.7529068431
0.9026179433 0.7498445847 0.757388197