POSCAR file written by Ovito 3.7.11
1
270.0698317399 0.0 0.0
0.0 15.2774567534 0.0
0.0 0.0 10.8027932696
Sr Ti O 
800 800 2400 
Direct
0.0225623751 0.5004955013 0.7803113939
0.0125226014 0.5035516383 0.0293846847
0.0125248971 0.2536566419 0.5306389311
0.0225135729 0.2517296196 0.7792764763
0.002510302 0.2477845912 0.7804946798
0.0126163179 0.2497351777 0.0308282002
0.0026795175 4.3399741178e-04 0.2797482649
0.0225308647 0.5004097541 0.2769749082
0.012620576 2.0254527567e-04 0.5360495688
0.0025531058 8.3196941054e-04 0.781748985
0.0127372125 8.1632544545e-04 0.0277317788
0.0225742979 0.2515430702 0.2769934219
0.0025692497 0.2529156809 0.2757039406
0.0426916134 0.5025848543 0.2810784765
0.0327501105 0.2539093017 0.532481973
0.0425560929 0.2506639972 0.7802280821
0.05258424 0.5011048959 0.0391391063
0.0324683316 0.2492180759 0.0319541127
0.0326423606 0.0022159039 0.5302251493
0.0325845978 0.0018448343 0.029754589
0.0426364425 0.2493502969 0.2815755701
0.0525757237 0.2505703952 0.5308296225
0.0526764384 0.2523062862 0.0329659806
0.062505748 0.2535159117 0.2862613952
0.0626705202 0.5022484109 0.78896286
0.0626086843 0.5034410178 0.287511072
0.0724576185 0.498264109 0.5401957187
0.0723954124 0.2496854312 0.543430993
0.0628115948 0.2521171186 0.7900329536
0.0724383642 0.2519305693 0.0405914158
0.0626671877 0.0025253141 0.2840823292
0.0626753338 0.00189805 0.788387083
0.1024868889 -0.001471359 0.2810016445
0.092558716 0.2507438534 0.536417992
0.0827331091 -5.5608884696e-04 0.2886515178
0.1023498873 0.2488207585 0.7859275339
0.0824990955 0.2505671224 0.7902523413
0.0925753783 0.2491624384 0.040067107
0.0827157062 1.684427409e-04 0.7861200767
0.0927808807 -0.0024146443 0.0344963256
0.1024920728 0.2475044399 0.2827965506
0.0824454057 0.2517001644 0.2921811605
0.1023006408 0.4998671245 0.289250437
0.0924754042 0.4997067575 0.5350276109
0.1125542851 0.0018287322 0.0294573511
0.1225305938 0.2519253328 0.280078735
0.1124454244 0.2495368462 0.5312017485
0.1223399024 0.4975545668 0.7815073808
0.1124269107 0.5001937495 0.0346973847
0.122489123 0.2512229908 0.7812278235
0.1124295026 0.2492514584 0.032439913
0.11234508 0.5011238782 0.5302362575
0.1523995353 0.2491604747 0.5174516011
0.1324391422 0.2496952496 0.5265038895
0.1423799045 0.2497901606 0.7718367339
0.1524091624 0.2488816325 0.0175855141
0.1324306259 0.2471058133 0.0253216614
0.1425817041 0.2513159382 0.2725973367
0.1424528486 0.4991942376 0.7711045158
0.1523058558 0.5013719561 0.0212896487
0.1322947351 0.5004097541 0.0268172931
0.1323354653 0.4965956376 0.526514072
0.1525465343 0.0016325608 0.5166527336
0.1824202893 0.250988004 0.7618819011
0.182580248 0.2525582915 0.2608096446
0.1624039848 0.5014943587 0.763290796
0.162396209 0.5007730344 0.2707311527
0.1722932789 0.2526329113 0.5125926726
0.1825450719 0.4977771169 0.764705245
0.1623858413 0.2486571187 0.7630815908
0.1724154695 0.2493470241 0.013339853
0.1624724856 -8.0944317525e-05 0.2637542534
0.1623095648 0.2541514887 0.2629887107
0.1723780718 0.001320336 0.5141848534
0.1824691656 -7.3733629178e-04 0.2638477478
0.2024676969 0.2501501682 0.2574419971
0.1925273049 0.500426118 0.0137951056
0.2026939347 0.4978419183 0.2662758235
0.1926135789 0.2497345231 0.5117484465
0.2024658456 0.250037584 0.7596074894
0.1924776881 0.2489006147 0.0123667713
0.1925784028 0.0010440466 0.5107644418
0.2025158326 -0.0012274048 0.7611302437
0.1923158781 5.9318621128e-04 0.0114050756
0.2025236084 0.0022475846 0.2588388581
0.2122525736 0.2492370581 0.5094814403
0.2224910367 0.2484653328 0.7565536496
0.2124684437 0.2500709665 0.0100547767
0.2224325333 4.0480407108e-04 0.2583593524
0.2124569652 0.0019421673 0.5109430993
0.2124240108 -7.8891555741e-04 0.0120209348
0.222405133 6.9948662674e-04 0.7585475783
0.2324917835 6.6198038409e-04 0.5072273936
0.2225380616 0.2480883067 0.2604708434
0.232435872 0.2492141485 0.5115883027
0.2324525344 0.2487886851 0.0132093312
0.232480305 0.0016199278 1.0100806709
0.252432552 0.250319699 0.5090908005
0.2422570356 0.2530897936 0.7580514104
0.2625425298 0.2523442507 0.253361571
0.2525443749 0.2473342545 1.0068777956
0.2424680921 0.2539747577 0.2612363861
0.2425088223 0.0037054843 0.2586148419
0.2525258612 0.5010328944 1.007470235
0.2524632848 0.0037342849 0.5097933966
0.2423518259 0.0027879232 0.7615356944
0.2625410487 0.253430819 0.7582689467
0.2526158379 0.0020905559 1.0038230301
0.2624681046 6.0680104282e-04 0.2560673526
0.2624310771 0.0021674011 0.7595093666
0.2725403144 0.250860365 0.508752925
0.2726173315 0.2506875613 1.0087291686
0.2723185199 0.0016968385 0.5065970011
0.2725606795 0.5001512032 1.0070351623
0.2824036893 0.2513643755 0.7522362477
0.2822570605 0.0022888218 0.7516706532
0.282361478 0.252994228 0.2517379168
0.3025144138 0.2524836718 0.2487266586
0.3125540394 0.2504244285 0.4951434819
0.3124696168 0.2501023854 0.9967600421
0.3124703574 0.0020022558 0.9928999293
0.2925577297 0.251215136 0.4993238822
0.3024662781 0.2500061652 0.746249833
0.29239629 0.5018399659 0.4963478
0.3025729172 0.5024401967 0.244827667
0.2924403527 0.2487467933 0.9992871662
0.3024929379 0.0027561771 0.750197886
0.2924077685 0.0036931132 0.5009280969
0.3124544356 0.5018596027 0.9918539036
0.292471826 -6.27173977e-04 1.0005831273
0.3225199804 0.2516720184 0.2411054816
0.3326299582 0.2515483067 0.4852802921
0.3224918395 0.2501364225 0.7435051725
0.3326532855 0.2475312768 0.9887991381
0.3223918654 7.134941938e-04 0.2449563375
0.3325281327 -5.1812441286e-04 0.4909279055
0.3224818421 1.7885023232e-04 0.7423175167
0.3323374413 -0.0011686254 0.9894008343
0.3623481979 0.2481164527 0.2298759785
0.3524855636 0.2473669825 0.4809675187
0.3423896562 0.2505298126 0.7377862813
0.3523959571 -2.5584253803e-04 0.9859943079
0.3525810944 0.2499976559 0.9875124338
0.3421997053 1.9469056516e-04 0.2352940217
0.3424270539 0.0018761877 0.7404902116
0.342352999 0.2505854501 0.2372462945
0.3624185501 0.2468649355 0.7297337343
0.3623444952 -6.4641801773e-04 0.2326113822
0.3722937738 0.2505324308 0.48011311
0.3824059732 0.2496481213 0.7335327518
0.372582588 0.2476798618 0.9823285894
0.3824874336 -3.577973214e-05 0.7339548648
0.3824541089 0.2495512465 0.2322577699
0.3923182244 -0.0012309394 0.478509821
0.3922923051 -0.0026699878 0.9772835979
0.3724900193 3.5545030677e-04 0.4779451522
0.3726677511 -3.5782286271e-04 0.9825229835
0.3924774424 0.2489169787 0.4822486688
0.3925774166 0.2498889991 0.9798107221
0.4125204068 -0.0016005035 0.4743081299
0.4024119101 0.2482113638 0.7277647991
0.4022786112 -0.0012973117 0.222929627
0.4023563689 2.9752181682e-04 0.7265641837
0.4025785336 0.4960484261 0.2270331953
0.4024933705 0.2471666873 0.2261973003
0.4126722193 0.2463556885 0.4729890267
0.4125204068 0.2485759533 0.9703594628
0.4124907848 7.3758197267e-04 0.9724977986
0.412531515 0.4991556186 0.976931837
0.412561137 0.4970433561 0.4724632367
0.4224919018 0.2498379435 0.2174884417
0.4424089728 0.2473375273 0.7170249842
0.4324745052 0.4989415778 0.9731550361
0.432433775 0.5010342035 0.4725854273
0.4425200552 0.2499459457 0.2159740185
0.422577065 0.5004732463 0.2188029165
0.4424867305 0.497722134 0.7155947986
0.4324485859 0.2504656657 0.4702277038
0.4224993073 0.2476104785 0.7205416673
0.4324708024 0.2455427259 0.966230901
0.4425644881 0.4998985433 0.2154685937
0.4323856393 -0.0034855686 0.9698133078
0.4523619542 -0.0022121891 0.963898171
0.4724197295 0.2504152647 0.4649133375
0.4624963701 0.2525641826 0.719550257
0.472412324 0.2469749015 0.9617783488
0.4624112069 0.250849892 0.2159175516
0.4524249008 0.5016763261 0.9637778317
0.4624149097 0.5005223382 0.712552067
0.4724271349 0.5016115248 0.4624223151
0.4525063612 0.250009438 0.4649873925
0.4524841448 0.250114822 0.9684525486
0.4724678651 -9.4011873457e-04 0.9635741807
0.4823023586 5.6680747518e-04 0.2117149349
0.4824800904 0.2485183521 0.7094815649
0.482428252 0.2509978224 0.2123018201
0.4924700993 0.2484352231 0.4596748776
0.4925108295 0.2515188515 0.9624448431
0.4824800904 0.5022444835 0.2110428865
0.5024452971 0.2489811255 0.2062219111
0.5124501169 -0.0016086855 0.9543728568
0.5222586911 -0.0013909137 0.2055109839
0.5024823245 0.2496873949 0.7070608946
0.5025674877 0.4993565683 0.7068007767
0.5123427373 0.2529994644 0.4534200138
0.5022897818 7.6939355021e-04 0.7050225329
0.5224919641 0.248920906 0.203913249
0.5124834416 0.2509408757 0.956418624
0.5225697218 0.2504277013 0.7093556715
0.5123982784 0.4985082596 0.4597952168
0.5223364488 0.5035352743 0.206742147
0.5223808818 0.498783829 0.7079069721
0.5525471538 0.2516104898 0.4602312152
0.5522472313 0.0022856145 0.9605842132
0.532452351 0.5040137571 0.9628614021
0.5325041894 0.5016337798 0.4580734399
0.5323819988 0.0011944643 0.4529118119
0.532219078 0.2528102968 0.4551353109
0.5324116208 0.2529968462 0.955863212
0.5423201692 0.0011816349 0.7065832404
0.5423238719 0.2533732178 0.2058895897
0.5424053324 0.2530151739 0.7092001562
0.5526545334 0.2519718065 0.9621393666
0.5624853241 0.5037545516 0.7101998976
0.5623779445 0.5009870753 0.2122370221
0.5622779703 0.0019949248 0.2141781867
0.5622631594 0.2529477543 0.2127146763
0.5625223516 0.2534831837 0.7116541511
0.5724679275 0.0023176224 0.4662602114
0.5724086835 0.0013860538 0.957992291
0.5723938725 0.2501514773 0.4637821486
0.5723013039 0.253702461 0.9635371532
0.5926145687 0.4978766099 0.9713499474
0.5824690445 0.2508832745 0.713296319
0.6025120088 0.2473080721 0.2199674301
0.5925738384 0.25317685 0.4709145632
0.6024601704 0.2477158625 0.7195530341
0.5924812698 0.2512786283 0.9662031304
0.6024120347 0.4987799016 0.7208397383
0.5824801527 0.2556078829 0.214534576
0.592507189 0.4987844835 0.4679282985
0.58247645 0.5032714869 0.2145364274
0.6124686929 1.1057970688e-04 0.9685080898
0.6124686929 0.5011618426 0.4714320219
0.6223217001 0.2490878186 0.7243406847
0.6223587276 0.5005099016 0.2288077363
0.6124168545 0.5022124101 0.9693689782
0.6223105919 0.503869754 0.72202184
0.6123427996 0.2519567516 0.4720374209
0.6122280144 0.2504637021 0.9738030166
0.622440188 0.2511470619 0.2159434709
0.6423905837 0.247599351 0.2271729739
0.6524287282 0.2510888061 0.4771823865
0.6425275853 0.2502005693 0.7287052966
0.6524879721 0.2507379624 0.9777186705
0.6324820353 0.5009150738 0.9781815138
0.6423165288 0.499458025 0.7280749041
0.6524546474 0.4988100114 0.9805882987
0.6425683155 0.4986712448 0.2301805294
0.6523991062 0.4988492849 0.480249186
0.6323857639 0.2512773192 0.4775341474
0.6324487106 0.2532547425 0.9747749874
0.6625520359 9.373534431e-04 0.7331198956
0.6726123968 0.5008875823 0.4858773599
0.6826949743 0.5013713015 0.7354359632
0.6724902062 0.5022817934 0.9885121753
0.682772732 0.4978399546 0.2377933753
0.6625631441 0.2489863619 0.2306720689
0.6623668986 0.2508937475 0.7318822527
0.6824061601 6.9785022872e-04 0.2338082948
0.6824617013 0.0031066936 0.7367411812
0.6624705754 0.4996707567 0.7338354513
0.6625631441 0.4997558494 0.2309442208
0.6824357821 0.2515692526 0.2371944561
0.6725420447 0.2463000509 0.488024027
0.6825987029 0.2530204103 0.7357951296
0.672493909 0.2508224005 0.9800606574
0.7025898288 0.2514900509 0.2379581475
0.6925294678 0.2496435394 0.4862365263
0.7026120453 0.2495807017 0.7396737561
0.6925035486 0.2531964868 0.9876050025
0.7026712892 0.5016822172 0.7343769779
0.7025750178 0.0015580065 0.7369948193
0.7025676123 0.0017099951 0.2392920617
0.6926109282 0.4985337874 0.9877531123
0.6926368474 0.4994756981 0.486845628
0.712428025 0.2503033351 0.4893866375
0.7126057568 0.2486126086 0.9927055351
0.7224957915 0.4997335944 0.7425415329
0.7226550096 0.2503917006 0.2410147643
0.7323784207 0.4988944495 0.9928721587
0.7324969086 0.2476909893 0.4953017743
0.7225365217 0.5005596481 0.2441019288
0.7326894513 0.4996864661 0.490982521
0.7224920888 0.2520562446 0.7421240483
0.7324969086 0.248959525 0.9898821913
0.712646487 0.4996694476 0.9902709796
0.7627372355 0.5016697805 0.7446595036
0.7425683778 -0.0043673253 0.7384148224
0.752639847 0.4967867688 0.9930665529
0.762452124 0.5010976958 0.2470891192
0.7624743405 0.249158511 0.2444305475
0.7524954399 0.2477682273 0.4909630816
0.7623558526 0.24824671 0.7427396298
0.7524547097 0.2482990748 0.9909559876
0.7423647268 0.4994822437 0.7454907701
0.7525991168 0.498773356 0.489766169
0.7424239707 0.2484960971 0.2420237626
0.7425350531 0.2488796688 0.7437014181
0.7825321158 0.4992112562 0.247142809
0.7824913856 0.4998913432 0.7493943901
0.7823062483 0.2492494947 0.2490145471
0.7724643493 0.2503498088 0.5006152149
0.7823988169 0.2516019805 0.7470227813
0.7724384301 0.2510390596 -0.0012884007
0.7927591004 0.5033290881 0.5013613182
0.8126465493 0.4989245592 0.5041661483
0.8027602174 0.5006100492 0.7521214626
0.802401051 0.5002722966 0.2509797796
0.792355501 0.2541462522 0.5007985008
0.7924332587 0.2480470695 1.0046654049
0.812476223 -0.0026166412 0.5077791028
0.8026454323 0.2488371224 0.2537429538
0.8125687917 0.2478939026 0.50853724
0.8024825115 0.2493214963 0.7511717082
0.812461412 0.25014755 1.0062113013
0.8324155104 -0.0016632757 0.5041707767
0.822536584 0.2478343377 0.2567199616
0.8326006477 -0.0025413015 1.0091549844
0.8325154846 0.2483468576 0.5059953049
0.8226958021 0.2480293964 0.7595158464
0.8327487576 0.2469762106 0.0076988119
0.8326747027 0.4971925956 0.5072755293
0.8326228642 0.4966637117 0.9999444037
0.822506962 0.4965216724 0.255227755
0.8427091444 0.4989356867 0.7527768486
0.8427757939 0.4957970753 0.2537707244
0.8426239813 -0.0028407623 0.2571874333
0.8425203044 0.2482545647 0.2539938149
0.8427572801 0.2477361538 0.7550281182
0.8624410781 0.2458379321 0.2578224543
0.8525954764 0.2479325216 0.5111291622
0.8626558374 0.2472471981 0.7600166428
0.8524806912 0.2501403498 0.0049248997
0.8925925391 0.4978916648 0.0136979085
0.8725791967 -0.0010642232 0.5148133946
0.8823470408 0.2487107925 0.2650178155
0.8723903567 0.249611466 0.5132804577
0.8925703226 0.2506358511 0.5134618922
0.8825395836 0.24924164 0.760506331
0.8726199269 0.2494740085 0.0123315026
0.8923703743 -0.0038651475 0.5109014434
0.8725421693 2.3717145779e-04 0.0118519045
0.8925407006 0.2493784429 0.0141041923
0.8725236555 0.5009124555 0.5131360506
0.8925184842 0.4996190465 0.5147161975
0.9124762853 0.4975833674 0.5124973269
0.9025344122 0.498430367 0.7655263289
0.9127095583 0.4964915626 0.0114489531
0.9024677628 0.4952125539 0.266593334
0.912554043 -2.362712177e-04 0.5102951187
0.9024344381 0.2486852647 0.2619945234
0.9126318007 -0.0024395175 0.0130247493
0.9123837167 0.2487526843 0.5129064803
0.9026491973 0.2496402666 0.762685397
0.9126132869 0.2480523059 0.0115531854
0.9426314491 0.248870505 0.7656050123
0.93241187 0.250285662 0.0150289531
0.932615521 0.5015454143 0.5093897973
0.9326414403 0.5005838668 0.0147695758
0.9226218095 0.5012574082 0.7617189803
0.922599593 0.4985043322 0.2601153798
0.9424092843 0.4979662845 0.7666769573
0.9224329694 0.2496998315 0.2611993587
0.9225662683 0.2472301796 0.760057373
0.9425981244 0.2507929454 0.2656852355
0.9325377634 0.2488672322 0.5153354817
0.972653314 -9.6054098187e-04 0.5184633765
0.9627891985 -0.0030434793 0.7725633978
0.9624781678 0.2474429113 0.2711514143
0.9526362689 7.4211756195e-06 0.0156727681
0.9726977469 -8.8343390711e-04 0.0225207192
0.9525214837 0.2497862333 0.5184309774
0.9724977986 0.2473754917 0.5228252113
0.9627225491 0.2511339707 0.7699770297
0.9527140265 0.248805049 0.0179992034
0.9526732963 8.8446505905e-04 0.5178783426
0.9726162865 0.2481766722 0.0234066012
0.9725385288 0.4971683769 0.5265029638
0.9627743875 -7.7409697799e-05 0.2774368257
0.9527177293 0.4979001741 0.523263061
0.9624744651 0.5006558683 0.7691689053
0.9826766475 0.2502038421 0.2708190929
0.9825211322 5.0645711616e-04 0.7791042986
0.9926629536 0.0015618684 0.029644062
0.9924778163 0.2499197634 0.5244396086
0.9825026184 0.2508878564 0.7727420553
0.9923223009 0.2473041448 0.0248413227
0.9924037613 0.498076905 0.0287637342
0.0226633119 0.7514031008 0.7783989255
0.0025842829 0.5009301286 0.2787429694
0.0025490698 0.7498976146 0.7775565508
0.0124726513 0.5027622399 0.5278063304
0.0024271383 0.4981934166 0.7788987962
0.0224634747 1.0035131255 0.2822041113
0.0225024647 1.0048942455 0.7825460011
0.0124717256 0.7513180081 0.0306190876
0.0228028684 0.7501987118 0.277046186
0.0024771254 0.7502379854 0.2828576459
0.0125951752 0.7512852801 0.5313378244
0.0527601204 1.0041676847 0.5339991732
0.0526790303 1.0022825542 0.0338984247
0.0325590488 0.7533275049 0.0334909375
0.042715311 0.7524045764 0.2841369447
0.03258756 0.7494786967 0.5313702235
0.0426549562 0.7531311371 0.7846630461
0.0426157071 0.5019060764 0.7872077584
0.032335403 0.5019368407 0.0333306086
0.0324498178 0.5006015399 0.5318969391
0.0426812457 1.0013988993 0.2831797848
0.052720501 0.5027340938 0.5317062477
0.0527105036 0.7513900096 0.0358803195
0.0527812261 0.7520969336 0.5409918091
0.0425249898 1.0020992776 0.7850601657
0.0726316476 0.5007998714 0.0415689408
0.0725746253 0.9994483128 0.5397874909
0.0726649723 1.003761858 0.0393023048
0.0724539158 0.7522212998 0.0374954573
0.0625864679 0.7532685945 0.2854865956
0.0726401639 0.7506176297 0.5341880132
0.0625035263 0.7519922041 0.7914187063
0.0926183302 1.0003646957 0.5396671517
0.0923065589 0.74807794 0.035082748
0.1025661277 0.7527187648 0.2797973263
0.0824546626 0.7504998091 0.2887829653
0.0924961395 0.7530787724 0.5327763413
0.1024646724 0.7501267103 0.7802567784
0.0824994658 0.7492234186 0.7895886241
0.1025602033 0.9975697279 0.7853184322
0.1024157962 0.4985115324 0.7820081772
0.0824413327 0.5007802346 0.7880038488
0.0926846093 0.4988041203 0.0358535671
0.0824224487 0.5009366742 0.2884247246
0.1123243446 0.7510103653 0.0299508345
0.122443209 0.7504932635 0.281319155
0.1123769236 0.7484183108 0.5302334804
0.1225350371 0.7493346937 0.7779657042
0.1223613783 1.0003057854 0.281992129
0.1225217072 0.9979559178 0.7777370597
0.1223876678 0.5002173137 0.2800380048
0.1123998806 0.9994352217 0.5274369815
0.1424195239 0.7470306453 0.2727732171
0.1525335747 0.7508990902 0.5232204794
0.1325524462 0.7491448715 0.5243303776
0.1425391225 0.7457411636 0.7723458614
0.1525243178 0.500397972 0.5193372245
0.132587252 0.9975828191 0.0290919826
0.1425872582 0.5002677147 0.2728954077
0.1425765203 1.0012941698 0.2698554532
0.132488759 0.9973995425 0.5275045566
0.1425883691 1.0001290544 0.7689643286
0.1526050377 1.0001552368 0.0186203391
0.1525928186 0.7487324992 0.018966731
0.1324395125 0.7496750645 0.0250357169
0.1724499051 0.7525943986 0.0157531177
0.1625469108 0.7489092302 0.2648493406
0.1723565959 0.750597993 0.5152679066
0.1624724856 0.7476721133 0.7673989927
0.1825524774 0.9995857703 0.7632722823
0.1725528414 0.5046814075 0.0144556755
0.1723739988 0.5011618426 0.5140163785
0.1824099216 0.7496292453 0.2592128354
0.1824254732 0.7500678 0.762576166
0.1724391671 1.00113053 0.0130808459
0.1624187958 0.9995268599 0.769621566
0.182415846 0.4998055959 0.2662286135
0.2024902837 0.4976606054 0.7641831578
0.1924780584 0.4999947635 0.5153956514
0.1924647285 0.7527842207 0.015034137
0.2024962081 0.7496226997 0.259349837
0.1925254535 0.7499434338 0.5100470347
0.2023769797 0.7490794156 0.7630075359
0.2325162216 0.7489746861 0.0096273872
0.232326641 0.503433163 0.0067702558
0.2323777389 0.752731856 0.5087279314
0.21267913 0.7503819884 0.013452509
0.2224358658 0.7499107058 0.2618334539
0.2124554841 0.7494394232 0.5127972493
0.222451047 0.7500808912 0.754783737
0.2324243935 0.4995169353 0.505224208
0.2225262128 0.4992956943 0.7543616239
0.2126147022 0.4989690692 0.0072405045
0.2224865934 0.4970662656 0.2612474944
0.2123025607 0.501614143 0.5113559554
0.2523022153 0.7528693134 0.0049174942
0.242380337 0.7509776373 0.2576086207
0.2525184557 0.7520511144 0.5090343337
0.2421789077 0.7508729078 0.7585040711
0.2425939855 0.4971801589 0.7572016301
0.2624577369 0.5003645895 0.7565740147
0.2623896064 0.7509645461 0.2568291926
0.2424492081 0.501332028 0.2558590732
0.262398493 0.7523914852 0.7564842231
0.2625947385 0.5009419107 0.2572337176
0.2524047814 0.5015624328 0.5040013761
0.2724077561 1.0030025693 1.0074609781
0.2826691762 0.4994338063 0.2518619588
0.2726265883 0.5004856829 0.5038976992
0.2825066256 1.0000177794 0.248353607
0.2824840389 0.5013719561 0.7537923267
0.2825995645 0.7503688972 0.2525617778
0.2824873713 0.7491579627 0.7496026696
0.2722844546 0.7535566006 1.007470235
0.27260178 0.7473710161 0.503499654
0.312370013 1.0028651119 0.4935022397
0.2923718519 0.7475739294 0.9989816897
0.3023711176 0.7496947013 0.2482545585
0.2922755805 0.7508663622 0.5019815281
0.3024573915 0.7469259158 0.7477494452
0.3026406775 0.4996648657 0.7475689363
0.2924958939 0.50103944 1.0024159866
0.3023629715 0.9984010181 0.2477750529
0.3125351554 0.7509841829 0.9953344848
0.3122256059 0.7519725673 0.495473952
0.3124936847 0.5021299357 0.492801495
0.3323574361 0.5027982406 0.4879268299
0.3225825568 0.502669947 0.7432404262
0.3324270477 0.7516583789 0.9932516902
0.3321967369 0.5025573628 0.9879937908
0.322415563 0.752908587 0.2450535346
0.3324492642 0.7496096086 0.4912833692
0.3223726111 0.7533864152 0.7483298506
0.3225184993 0.499961381 0.2442722551
0.3523652243 0.4983439652 0.4806157578
0.3523926246 1.0008883431 0.4876796716
0.362551849 0.7493281481 0.2350653771
0.3625148215 0.7518416555 0.733278188
0.3623074677 0.4997938138 0.7293838248
0.3625925792 0.4963043587 0.2257242745
0.3523033885 0.7500088897 0.9864108669
0.3425033305 0.75106273 0.2372222267
0.3524507578 0.7501594383 0.4848452195
0.3422659845 0.7495899718 0.7429155102
0.3624074419 1.0010323461 0.7300318054
0.3424466785 0.4979846122 0.7391544459
0.3523781839 0.5012142073 0.9868922239
0.3423033822 0.4989487779 0.2340128715
0.3723974507 0.4989749603 0.9822730482
0.3825244611 0.4985802611 0.2322290736
0.3722086106 0.4960948998 0.4832104571
0.3925552001 0.4994815891 0.9817083794
0.382335621 0.498739319 0.733032881
0.3725751825 0.749040142 0.9782000275
0.3824059732 0.7498779778 0.2278357655
0.3724492891 0.7517761995 0.482693924
0.3824170815 0.9988330272 0.2334352432
0.3825503803 0.750741996 0.7301104887
0.3925885248 0.7469848261 0.9804031614
0.3924033875 0.7485361315 0.4780765997
0.3925292809 0.496367851 0.4768343284
0.4025266952 0.4957578018 0.7298892497
0.4025266952 0.7494721511 0.2224001343
0.4024119101 0.748752136 0.7231650628
0.4124167299 0.7488568655 0.9688783644
0.4124167299 0.7505129003 0.4714449816
0.4224363607 0.9984795652 0.7170212815
0.4423793508 0.9984010181 0.2166294046
0.4322153129 0.9954489561 0.4679718058
0.4423793508 0.9997494101 0.716937044
0.4224770909 0.4989186682 0.721679336
0.432404153 0.746408814 0.9654903518
0.4224770909 0.7470764644 0.2178846355
0.4323782338 0.7468211863 0.4703369348
0.4223845222 0.74647427 0.719842774
0.442434892 0.7483004901 0.2208699745
0.4424608112 0.749040142 0.7143117971
0.4225992815 0.9962213359 0.2164868489
0.472367891 0.998355199 0.4650188658
0.472571542 0.4988381574 0.9618894312
0.4624445316 0.5006735414 0.2178855612
0.4723234581 0.7494786967 0.9622134215
0.4624593426 0.7473906528 0.2161434192
0.472586353 0.750774724 0.4627351972
0.4625667222 0.7475215647 0.7169139018
0.4523397377 0.9940612906 0.4648522422
0.4623704767 0.9990555773 0.2169941251
0.4623630712 1.0004301517 0.7118337343
0.4524397118 0.7514423743 0.9666752305
0.4523286294 0.7485557682 0.4643653311
0.452510064 0.4993637684 0.4673284536
0.4925922899 0.4991844192 0.9553725982
0.4924330718 0.4982883277 0.4594897403
0.4825245234 0.4990129247 0.7146172736
0.4823393861 0.9974191793 0.7116171236
0.4923145839 1.0001290544 0.4597674462
0.4925404514 0.9999785058 0.9597510954
0.4925663707 0.7497012468 0.4551103174
0.4925774789 0.7483135813 0.9593900777
0.4825911728 0.7468080951 0.2092757509
0.4826504168 0.7482612166 0.7076394487
0.5023527284 0.5008201627 0.2068097221
0.5123686565 0.9977202765 0.4571301654
0.5224290175 1.0045407835 0.7036691793
0.5024304861 1.0037225845 0.2081204942
0.5225623163 0.7522082086 0.7053891048
0.5026785701 0.7467819128 0.2020590989
0.5027563278 0.748928867 0.7065721322
0.5125389828 0.7505783562 0.9552615158
0.5126648762 0.5005930306 0.9557706434
0.5124538196 0.7485164947 0.4570172316
0.5227881838 0.752522397 0.2094608882
0.5522361231 1.0019618202 0.454919626
0.5423831159 0.5014380666 0.7099508879
0.5424756845 0.7530918635 0.2109429123
0.5525064235 0.5037054597 0.4603413719
0.5524619906 0.7524765779 0.4610856238
0.5424349543 0.7504408988 0.7056603309
0.5323153494 1.0040891376 0.9567518711
0.5425201175 0.5008188536 0.20564058
0.5324967839 0.7518285643 0.9569184947
0.5524286659 0.5026332917 0.9614636154
0.5424645763 0.9994875864 0.2097469254
0.5325412169 0.7554875503 0.4587658534
0.5724494137 0.504416311 0.9619264587
0.5624297829 0.9999523234 0.7108728717
0.5523472055 0.7507943607 0.9633149885
0.5624594049 0.749216873 0.2097376685
0.5625075406 0.7520772968 0.7130713771
0.5723642506 0.7539558817 0.9638704004
0.5725234686 0.5022582293 0.4657612664
0.5725679016 0.7516387421 0.4654622696
0.6023972237 0.5042304162 0.2212587628
0.602334277 0.999350129 0.2170950249
0.6024453594 1.0002272383 0.7208184475
0.5924960808 0.7520772968 0.964990481
0.5923998094 1.0015887215 0.4665740191
0.592318349 0.9989508478 0.9670640188
0.60237871 0.7489419582 0.2180669957
0.5925960549 0.7511674595 0.4669868753
0.6024194402 0.7499761617 0.7200797497
0.5824098006 1.0000243249 0.21649518
0.58247645 1.0020534585 0.7161067032
0.5824246116 0.5008856186 0.7136082753
0.5823690704 0.752843131 0.2172107357
0.5823949896 0.7503819884 0.7217311744
0.6123131776 0.7505390826 0.9699706745
0.6123465023 1.0009668902 0.4698777943
0.612350205 0.7505914474 0.4696584066
0.6225734869 1.0014578096 0.7222967689
0.6225920006 0.749779794 0.2192287323
0.6223142946 0.7543944364 0.7218255945
0.6224179715 0.9982111959 0.2212189583
0.6427090198 1.0015690847 0.7258671418
0.6325375765 0.5010564586 0.4726326373
0.6427312363 1.0020730953 0.2294279463
0.6525064859 1.000489062 0.4862892904
0.6526027572 1.0031596636 0.9802643085
0.6326190369 0.9983093798 0.4749968407
0.6325412792 1.0003974237 0.9741918049
0.6324005749 0.7518023819 0.9740159245
0.6323598446 0.7518482011 0.4754124739
0.6527138396 0.7527187648 0.9810974263
0.6427238308 0.7519071114 0.2271563116
0.6526249737 0.753582783 0.477030574
0.6426053429 0.7511020036 0.7302493417
0.6725901804 0.7476393853 0.9857628863
0.6625631441 1.002943659 0.2312126699
0.6727160737 1.0013007154 0.9854203823
0.6826727578 0.7474102896 0.2376896984
0.6725420447 0.7478684811 0.4853821177
0.6826024057 0.7518612922 0.7357025609
0.6727049655 1.0003646957 0.48087495
0.6625890633 0.7488372287 0.2316440398
0.6625224139 0.7513507361 0.7311204127
0.7025528013 0.4994246425 0.2386607435
0.6926331447 1.001804726 0.4885201949
0.6926072255 0.9988264816 0.9850038234
0.692540576 0.748575405 0.9865867473
0.7025713151 0.7515536494 0.2372879504
0.6925183596 0.7511805507 0.4841953875
0.7026712892 0.7484968579 0.7355498227
0.7125428101 0.5040248846 0.4887673532
0.7126575953 0.7516387421 0.4905770703
0.7223624926 0.9966598906 0.7393331034
0.7324895031 0.998852664 0.9928443881
0.7325820717 0.7446022306 0.9958250987
0.7225957656 0.7511543683 0.2405398871
0.73259318 0.7493739672 0.4967291829
0.7225661437 0.7507878151 0.7418185717
0.7224513585 1.0003777869 0.2438232972
0.7325450443 0.9999195955 0.4892107571
0.7127575694 0.7513703728 0.9885121753
0.7125020799 0.9977791869 0.489128371
0.7125650266 0.9986890242 0.9890583303
0.7424276734 0.4970499016 0.2425153021
0.7423721322 0.749105598 0.2420219112
0.7425683778 0.7476459309 0.7418315313
0.7526139278 0.7508074519 0.9913910603
0.7623817718 1.0000963265 0.7489898651
0.7524843317 0.9986562962 0.9902617228
0.7624854487 0.749570335 0.2454867558
0.7526657662 0.7503427149 0.4949296483
0.7624706377 0.7510561844 0.7428173875
0.7524324932 0.9986890242 0.4941696597
0.7424869174 0.9997952292 0.239474422
0.762452124 0.9977660957 0.2446952939
0.7825543323 1.0016083582 0.2488951336
0.772527296 1.0036309462 0.4957516579
0.7823951142 1.0007443401 0.7490602173
0.7725050795 1.0001486912 0.9951308338
0.782558035 0.7512656434 0.2486239074
0.7727975965 0.7513900096 0.4984518855
0.7824025197 0.7492626922 0.7518872639
0.7725828372 0.749249601 0.9991205427
0.7725235932 0.5021881914 0.4974521441
0.772556918 0.4973974726 0.9946124494
0.7926665317 0.9992781274 0.5025471226
0.7921444445 0.7478030251 1.0038230301
0.7925184219 1.001451264 1.0004535312
0.8124317901 0.7494590599 1.0013329334
0.7927442894 0.5002343322 1.0002313665
0.8024195648 0.997648275 0.2517953094
0.8124391956 0.4984500038 0.999712982
0.8024973224 0.7473121057 0.2541308165
0.812491034 0.7498125219 0.5029266541
0.8025306472 1.0001290544 0.74977855
0.8024195648 0.7508336343 0.7550531117
0.8125317642 0.9984599284 1.0096363414
0.7924887999 0.749891069 0.5013613182
0.8225847197 0.9976351838 0.759047449
0.8225588005 0.9973799057 0.255635057
0.8326709999 0.7501790751 1.008701398
0.8225847197 0.4981174877 0.7570535203
0.8226365582 0.7480517576 0.2538845839
0.8325191873 0.7466640921 0.5044679221
0.8226106389 0.7488634111 0.7552724994
0.8425166016 0.7466248186 0.2559405336
0.8425943593 0.7513114625 0.7548855625
0.8625336467 0.4980467953 0.7605479869
0.8427683884 0.9977988236 0.7553882103
0.8624595918 1.001483992 0.2621907689
0.8626595401 1.000777068 0.7586975395
0.8525103132 0.9995072232 0.0083939099
0.8626928648 0.7527514928 0.7602749093
0.8525621516 0.4979368294 0.5090343337
0.8526547203 0.749393604 0.0053681184
0.8525547462 0.5015905789 0.0051783527
0.8625743769 0.4971546311 0.2603477271
0.862485511 0.7496750645 0.2573133267
0.8526806395 0.7486343153 0.51096439
0.8525325297 0.9991472156 0.5070163371
0.8824099875 1.0009407078 0.7630741854
0.8926851077 0.9997690469 0.0129649499
0.882402582 0.7476982957 0.7631574971
0.8724458979 0.7495572438 0.010681559
0.8925073759 0.748896139 0.0141900034
0.8825543946 0.5009955846 0.7614486798
0.8824840424 0.5 0.2644707348
0.8825543946 0.7487914095 0.2657815069
0.8723940594 0.7502052574 0.5109495791
0.8924703485 0.7491317803 0.5155817144
0.8724940336 0.5002834241 0.0101205004
0.8824581232 1.0004956076 0.2659712726
0.9125429347 0.751416192 0.5121742623
0.9025640342 0.9977202765 0.2642004343
0.9026306836 0.9978380972 0.7633417088
0.9026010616 0.7478422987 0.7667232416
0.9124281496 0.7494066952 0.0098447384