POSCAR file written by Ovito 3.7.11
1
270.0603555578 0.0 0.0
0.0 15.2769206996 0.0
0.0 0.0 10.8024142223
Sr Ti O 
800 800 2400 
Direct
0.0224306109 0.4994364047 0.7792270299
0.0124854636 0.4987792042 0.028935953
0.0124738736 0.2497054495 0.5289690834
0.0224481625 0.2507881284 0.7731607933
0.0026555869 0.2535419556 0.7857663088
0.0123863377 0.2517222172 0.0303873878
0.0025219872 0.0028849629 0.2762431702
0.0224270561 0.4988080059 0.2785139588
0.0123818572 0.0037784021 0.5281100162
0.0024339698 -9.8014845467e-04 0.7784651632
0.0124282912 0.001761569 0.0274956268
0.0224815625 0.2476310786 0.278216803
0.0027156846 0.2517032343 0.2815993802
0.0423785962 0.49975715 0.2739390556
0.03250821 0.2505164768 0.5270491423
0.0424815361 0.2470471913 0.7725618532
0.0525607645 0.4980558909 0.0216540623
0.0325656046 0.2487419045 0.0249908164
0.0324285982 0.0015880393 0.5246237585
0.032451556 -7.4403097209e-05 0.0234087626
0.0424574674 0.2490102832 0.2727957926
0.0524037626 0.2505747346 0.5204608002
0.0524881881 0.2471414511 0.0216455456
0.0624944699 0.2501950769 0.270768468
0.0625659354 0.4998330815 0.7738689684
0.0624737338 0.4985245718 0.2718395249
0.0725840663 0.4983124871 0.5193832633
0.0724933458 0.2504824385 0.518794506
0.0626448066 0.2485808773 0.769544935
0.0726588644 0.2513988536 0.0259045936
0.0624718823 0.0015050382 0.271074881
0.0626107402 7.3532474655e-05 0.7649718831
0.1025592175 4.8663928617e-04 0.2675839947
0.0925462706 0.2510126501 0.5171476519
0.082520734 0.0020837543 0.2684449134
0.1024818274 0.2489677354 0.76969305
0.0824492684 0.2522255908 0.7708279815
0.092589224 0.2521791155 0.018746564
0.0824581553 1.7270167438e-04 0.7715907739
0.0926403237 0.002298981 0.0200508095
0.1026129092 0.2520442716 0.2748712546
0.0824359381 0.2503665775 0.2687846522
0.1025577364 0.4979910873 0.2681375747
0.0925373837 0.500999547 0.5224001815
0.1125421711 9.3961015223e-04 0.0235674308
0.1226773129 0.2505747346 0.2695178217
0.1125488363 0.2478150161 0.5157377819
0.1225462311 0.4968422956 0.767670354
0.1124084973 0.4985415909 0.0229945034
0.1226491711 0.2477652679 0.7702355213
0.1125351357 0.2493951775 0.0178691676
0.1125229162 0.4987242193 0.5225834738
0.1525243447 0.2516705052 0.5131429916
0.132656934 0.2437768987 0.5158368338
0.1426124863 0.2498219651 0.7653597594
0.1525632249 0.2480349558 0.0100673931
0.1325891713 0.249502529 0.0166736941
0.1427146857 0.2490822872 0.2608410576
0.142582493 0.4976408858 0.7616531806
0.1525750741 0.4988217521 0.0113887644
0.1325232601 0.4982935043 0.0170708275
0.1325273333 0.4981527691 0.5144140037
0.1525110143 5.8096457779e-04 0.5146750565
0.1824250681 0.2485612398 0.7607617132
0.1827335177 0.2505511696 0.2606003706
0.162615052 0.4991935548 0.761572643
0.1624658261 0.4996144511 0.2639153703
0.1724639615 0.250992358 0.5098289176
0.1826098416 0.4994429506 0.7628223636
0.1625606197 0.2515291154 0.7597175021
0.1725169126 0.2511978968 0.0112362984
0.1625091497 0.0024552297 0.2695391132
0.1623880657 0.2495476952 0.2642180805
0.1725339458 3.2424713978e-05 0.5116127781
0.1825950301 0.0033834927 0.2608604977
0.2024013434 0.2501433649 0.2570289468
0.192635008 0.4990691841 0.00776837
0.202604261 0.4992289022 0.2524225691
0.1924239441 0.2508372221 0.5073979795
0.2023250641 0.2484427605 0.7571689978
0.1925324383 0.2491614917 0.0087270445
0.1923165607 0.0011808237 0.5096965398
0.2025183542 0.0021334371 0.7556591501
0.192486893 4.1502799608e-04 0.0121785878
0.2025224274 2.5085878624e-04 0.2591414375
0.2124672414 0.2492145128 0.5038922817
0.2223879867 0.2535341006 0.7544566411
0.212343195 0.2515572624 0.0051610824
0.2223479956 0.0015607432 0.2554746646
0.2123080177 0.0010166545 0.5041848089
0.2123705963 0.0015274249 0.0060649544
0.2223794701 0.0014869063 0.7538234493
0.2323039182 0.0019790866 0.5037784182
0.2224387161 0.2512463359 0.2559236383
0.232476102 0.2508116933 0.5030387688
0.2325660818 0.2514492564 0.0024418755
0.2322787387 0.0029415188 1.0013690391
0.2524771865 0.2497172319 0.4966698221
0.2425479246 0.2519958325 0.7466444985
0.2624331091 0.2529489042 0.243669896
0.2522102091 0.2525875748 0.997851307
0.2424857163 0.2558977969 0.2453852533
0.2423909226 0.0038377727 0.2525438383
0.2526016031 0.4998317724 0.9987862831
0.2523112976 0.0010979536 0.4975196321
0.2422731712 9.2894046276e-04 0.7482672839
0.2624171867 0.2537134561 0.7466361671
0.2522605682 0.0023588752 0.9977031919
0.2623264663 0.0044661716 0.2445484033
0.2622927701 0.0030355168 0.7459307692
0.2724590161 0.2499253891 0.4924939037
0.272419025 0.2516403944 0.9940651163
0.2724131004 0.0036549479 0.4963263804
0.2722201806 0.4999286505 0.9946390621
0.2824390074 0.251462348 0.7473073133
0.2823964243 0.0019286184 0.7488069781
0.282538985 0.2505452784 0.2477930484
0.3025559919 0.2515245333 0.2462970865
0.3126185574 0.2526379776 0.4911543884
0.3124663691 0.2504824385 0.9879553709
0.3127625992 0.0030766246 0.9916952757
0.2924008546 0.2505426601 0.4960097845
0.3025778389 0.251868189 0.7397506692
0.2924512137 0.5002382679 0.4933835197
0.302495635 0.4993022154 0.2390237124
0.2924241827 0.2497643619 0.9943798607
0.3024430542 8.1654870307e-04 0.7462631023
0.2925437856 0.0018164884 0.4893631221
0.3124934001 0.4976408858 0.9893624638
0.2924937968 0.0031594947 0.9951019216
0.3225763314 0.2532081187 0.237229669
0.3325952029 0.2528867188 0.4904378819
0.3227233356 0.251876044 0.7426194724
0.3327744221 0.2528579172 0.9903714975
0.3226355774 0.0017120826 0.2387626596
0.3327118435 0.0027827172 0.4868035091
0.3225859589 0.0024770928 0.7403801581
0.3326955508 0.0035568915 0.9860206183
0.3627617928 0.2537389848 0.2335360502
0.3527140389 0.2508660237 0.4871571337
0.3425181699 0.2512607367 0.7419872063
0.3525899925 0.0024070525 0.9899734383
0.3527855044 0.2507082694 0.9833823191
0.3425863028 0.0026733365 0.2382035254
0.3425137265 0.003330537 0.7369161177
0.3424492964 0.2525901931 0.2387302595
0.3626099749 0.2529973432 0.7356589913
0.3627173583 0.0044797215 0.2338258002
0.3725262767 0.2522949766 0.4828729063
0.3826314253 0.2527001629 0.7285022578
0.3726855004 0.2518472423 0.9815771671
0.382549962 0.001137294 0.7334752202
0.3825647735 0.2513268495 0.229751711
0.3925069955 6.915889656e-04 0.478574793
0.3926773278 0.0025601592 0.9814383092
0.3724929509 0.0010741268 0.4811492175
0.3727077177 0.0043299531 0.9876128549
0.3927106536 0.2509210086 0.4784183465
0.3926625162 0.2487013204 0.9783186362
0.4124803084 0.003972944 0.4704969691
0.4025640066 0.2492550969 0.7263786584
0.4025899267 6.5061212136e-04 0.2262885962
0.4026565785 2.7475103568e-04 0.727374732
0.402612144 0.4975557902 0.2258322168
0.4027565561 0.2502585714 0.2287769289
0.4126025033 0.2520207066 0.4779712242
0.4128394874 0.2505276047 0.9721070618
0.4125950976 0.0025707635 0.9709776846
0.4126765608 0.4984538769 0.9753100495
0.4126062062 0.4984368578 0.4797634162
0.4226187828 0.2488080173 0.2266579581
0.4425476613 0.2482300212 0.7135324559
0.4325869249 0.4993637461 0.9741806724
0.432523976 0.498084038 0.466893145
0.4426513418 0.2483825389 0.2178747363
0.4225484282 0.4981959715 0.2253980545
0.4425365526 0.4989526685 0.7180638504
0.4324906501 0.2502526802 0.4710829492
0.4226928403 0.2484754896 0.7228424118
0.4325647077 0.2516809785 0.9739955286
0.4427809424 0.4971820237 0.2154984156
0.4325387875 7.9534024056e-04 0.9717460314
0.4527416788 3.7306927857e-04 0.9583045916
0.4722817553 0.247694573 0.4583145071
0.4625728145 0.2496903941 0.7132723289
0.4724631962 0.250016376 0.9611095202
0.4624209966 0.2499869198 0.2094979051
0.4526565127 0.4989435044 0.9612668924
0.462676495 0.4978438063 0.7134806157
0.4724891163 0.4990901308 0.4625820717
0.4525417235 0.2470419546 0.4640669249
0.4524121228 0.2464063553 0.9630257585
0.4726261227 1.0501787734e-04 0.9591562531
0.4824979901 -3.0475056508e-04 0.2103467895
0.4825016929 0.2507599814 0.7102461535
0.4823683894 0.2513373228 0.2152031113
0.4923402344 0.2511762956 0.4657165562
0.4921699021 0.249574533 0.9670896649
0.4824313383 0.4998186807 0.2094044075
0.5025194404 0.2512823379 0.2186569688
0.5124246336 3.6403604453e-04 0.9606836895
0.5224186959 0.0017583615 0.2198270777
0.5025120347 0.2497951272 0.7191682332
0.5025231433 0.497642195 0.7141730535
0.5123950106 0.2457393361 0.4689463897
0.5023750282 0.0016334673 0.7172973551
0.5224298045 0.2504431636 0.2179191708
0.5124024164 0.2536172326 0.9689596172
0.52238537 0.2506002633 0.7170659253
0.5125727487 0.4981501508 0.4715698774
0.5224705361 0.4980153068 0.218099686
0.5225557023 0.4973083581 0.7177713232
0.5525415918 0.2518485515 0.4770936426
0.5525341861 4.0494743056e-04 0.9801515598
0.532386838 0.5001348439 0.9685800725
0.5324312725 0.4996445619 0.4725409566
0.5326090105 9.6108044762e-04 0.4708043078
0.5324571926 0.2503371213 0.4745118123
0.5323461063 0.2468684903 0.9665064619
0.5424401462 3.1854258328e-04 0.7246114608
0.542506798 0.2525908477 0.2243760608
0.5425586382 0.2502611897 0.7235653984
0.5523416365 0.2531446242 0.9769208006
0.5624764081 0.4983124871 0.7305249537
0.5624208649 0.5004202418 0.226615375
0.5626467403 4.7943888223e-04 0.2315485315
0.5624245678 0.2501217637 0.2274411164
0.5625800886 0.2522648658 0.7290141804
0.5722890294 0.004077808 0.4804188252
0.5724260358 0.0024668813 0.9835859773
0.5725223106 0.2470917028 0.478304483
0.572477876 0.2483982489 0.9800682451
0.592480812 0.4984100199 0.9830675747
0.5823460405 0.2493002631 0.7298010415
0.6023971138 0.2491582188 0.2344626949
0.5924104574 0.2480133545 0.4805076942
0.6022489988 0.2507999109 0.7376557671
0.59236232 0.2482607866 0.9794109847
0.6023860052 0.5005210474 0.74018946
0.5824126923 0.251008068 0.229863723
0.5925067321 0.4992341389 0.4834181547
0.5824089894 0.5004562438 0.2312106441
0.6121690035 1.0652341634e-04 0.986983366
0.6123800675 0.4993552366 0.4898093187
0.6223445067 0.2522884307 0.7418548285
0.622455593 0.4993899294 0.2378341635
0.6124282048 0.4990737662 0.9869370801
0.6226592511 0.4999018127 0.7413077286
0.6124430163 0.2488407464 0.4910719994
0.6122208438 0.2529979978 0.9848542123
0.6223741297 0.2498481484 0.238096142
0.6424918548 0.2498501121 0.2455435512
0.6526525465 0.2477122467 0.4869960586
0.6425288836 0.2493133547 0.7398182467
0.6525266487 0.2495764968 0.9911120727
0.6324829811 0.497869335 0.9917323044
0.6425436951 0.4978307147 0.7406513938
0.6526007062 0.500589124 0.9909269289
0.6426399698 0.4989546323 0.2422803918
0.6525377573 0.4988865557 0.4955348906
0.6324570609 0.2496033346 0.4906841231
0.63254593 0.2488754393 0.9896864655
0.6623874074 0.002089711 0.7390971116
0.6724184984 0.4980375626 0.4912756575
0.6824681037 0.4969548837 0.7424093342
0.6725740192 0.4995588116 0.9914545887
0.6825643785 0.4966099189 0.2401466095
0.6625725512 0.2487072116 0.2437976452
0.662457762 0.2495339489 0.7430712232
0.6826051101 7.1299380277e-04 0.2447687244
0.6824051548 3.9395045e-04 0.7438303128
0.6624503563 0.4951456186 0.7463112397
0.6622837268 0.4937415398 0.242678451
0.6823903433 0.2482483495 0.2396846757
0.672370361 0.2472422567 0.4929160316
0.682371829 0.246651169 0.7468648197
0.6723740639 0.2455272514 0.9931486545
0.7022895988 0.2460626997 0.2388561572
0.6923029423 0.2487851069 0.4890020917
0.7024821483 0.2473554995 0.7338927194
0.692491789 0.2459566573 0.9927876241
0.7024229023 0.49931858 0.7399256301
0.7022933017 0.001164721 0.7397377092
0.7024229023 8.8390520902e-04 0.2436273129
0.692462166 0.4981854982 0.98917732
0.6925399264 0.4972304628 0.4931030268
0.7122762553 0.2480310283 0.4918014659
0.7122281179 0.2494409983 0.9895013217
0.7223221578 0.4980552364 0.7432082297
0.722314752 0.2485180374 0.2397355903
0.732493958 0.4985167168 0.9947686627
0.7324087919 0.2536414521 0.4918625634
0.7222703175 0.4983085597 0.2433736659
0.7323717631 0.5002605237 0.489814873
0.7224776786 0.25008838 0.7425518949
0.7323273286 0.2492636065 0.9904177835
0.7125095365 0.4981534237 0.9906306988
0.7623391383 0.4994305135 0.7477386984
0.7423213909 0.0036529842 0.7435118655
0.7524339451 0.4991856998 0.9914638459
0.7625131735 0.5000562941 0.2447492843
0.762439116 0.2488296185 0.2435708441
0.7526190889 0.250008521 0.4941426093
0.7624798476 0.2495136569 0.7483709645
0.75255614 0.2466289132 0.9916860185
0.7424287743 0.4987098185 0.7414456607
0.752437648 0.497319486 0.4952349577
0.7424250714 0.2508293671 0.2423276035
0.7424213685 0.2497198503 0.7437016379
0.7828086367 0.499434441 0.248410503
0.7825642469 0.4978123864 0.7486181314
0.7825457325 0.2483674835 0.2478791403
0.7724442868 0.2500543418 0.4976973702
0.7823939146 0.2484938179 0.7506473075
0.77249983 0.2468436162 0.0015018078
0.7925360918 0.4981174217 0.4944240278
0.8126612227 0.4976644508 0.4974603861
0.8026264288 0.4979243199 0.7467963165
0.8027004864 0.4975368073 0.2464109499
0.7925694177 0.2472383292 0.4943953305
0.7925101717 0.2482987524 0.9979438789
0.8125612451 0.0015198318 0.4972067391
0.8026079145 0.2484100313 0.2468645522
0.8125982738 0.248430978 0.4981185723
0.8022968729 0.2478169799 0.7476090977
0.8126390055 0.2488191452 0.9929635107
0.8325567753 0.0026459095 0.4937001156
0.8225775245 0.2512299714 0.2457536894
0.8325012321 -3.8984624801e-04 0.9919267054
0.8324567976 0.2505118947 0.4973011625
0.8227071252 0.2487746336 0.7460020496
0.8324086602 0.2493905954 0.0014124759
0.8326160213 0.4994606243 0.491412664
0.832623427 0.4961301102 0.9967867301
0.8225071699 0.5001119336 0.2425164501
0.8425212145 0.4990547833 0.7535253678
0.8424989972 0.5002611783 0.2532409047
0.8426878439 0.001766282 0.250617417
0.8424915915 0.2489579166 0.2507442405
0.8425138087 0.2514099815 0.7491365341
0.8626352367 0.2496210084 0.2576399213
0.8524708422 0.2486875742 0.509122594
0.8624723102 0.2503737779 0.7562006957
0.852537494 0.2482817332 0.0045704737
0.8924989314 0.4978876633 0.0106801265
0.8724478581 5.7834624908e-04 0.5067546048
0.8823752685 0.2494161241 0.2587896643
0.8724589667 0.2470039888 0.5080524628
0.8925729889 0.2486384805 0.5084097904
0.8824530289 0.2493401926 0.7572560153
0.8726033788 0.2493866679 0.0069479978
0.8924952285 0.0017488701 0.5088615412
0.8724737782 0.002489988 0.0103862107
0.8922989761 0.2449407458 0.0124510269
0.8724071264 0.4971106743 0.5095530533
0.892480417 0.4991745719 0.5079839596
0.9125944393 0.4979315203 0.5125172055
0.9024337476 0.4991156595 0.7592055795
0.9126536853 0.4981652062 0.0124107581
0.9023856102 0.4995751762 0.2620426408
0.9124278099 5.3390011931e-04 0.5131624317
0.9023782045 0.2503371213 0.2610447158
0.9124685415 4.06583886e-04 0.0150729408
0.9123722667 0.2485232741 0.5141714654
0.9024078275 0.2499384807 0.7624530018
0.9122315574 0.2525882294 0.0130190481
0.9423766707 0.248319699 0.7729599123
0.9324381516 0.2521254398 0.0176756923
0.9325529407 0.4985998487 0.5165829633
0.9324344487 0.4987301106 0.0182223294
0.9222515398 0.4989939072 0.7670538252
0.9225403641 0.4974864044 0.2624490315
0.9423544534 0.4990790029 0.7723489378
0.9225181469 0.2458872716 0.2657158938
0.9226884792 0.248339991 0.7647941451
0.9423618592 0.2495974434 0.2753526285
0.9324233401 0.2492492057 0.5178234268
0.9724921609 -4.8547101241e-05 0.5358712442
0.9625943735 0.0028901341 0.7816635223
0.9622426002 0.2512476451 0.280674587
0.9522374294 8.3847720598e-04 0.0283468254
0.9725921386 0.0029153355 0.033662489
0.9524336818 0.2492282591 0.5271648571
0.9725069724 0.2502867184 0.5294162057
0.9623944181 0.2519467388 0.780909987
0.9523929502 0.2482568591 0.0236945321
0.9524929278 9.8418719844e-04 0.5307159152
0.9723514516 0.2524926604 0.03291062
0.9724366178 0.4986509061 0.5353158128
0.9625055044 4.4801893777e-04 0.2856975382
0.9523707329 0.4980644005 0.5237461769
0.9625832648 0.4994259314 0.776627611
0.982460303 0.2530261448 0.2850078776
0.9823232966 0.001830562 0.7826919961
0.9925691544 4.032455169e-04 0.0382208219
0.9925432343 0.2524389846 0.5349399709
0.9825232519 0.2507488535 0.7850479509
0.9923210617 0.2532388841 0.0310838062
0.9924543652 0.4989965255 0.0363150442
0.0225085564 0.7495987297 0.7763637811
0.0025340956 0.5005989427 0.2800506524
0.0025401313 0.7512090018 0.7800814685
0.0123664532 0.5004896275 0.5353324758
0.002471517 0.5007134946 0.7806165341
0.0224110227 0.9980912155 0.2750443641
0.0224108005 0.9959245485 0.7766294624
0.0123368302 0.7500700288 0.0311397196
0.0224614558 0.7472095047 0.2753248569
0.0025339845 0.7458021531 0.2809800742
0.0126245066 0.7482764737 0.5257429528
0.0525770572 0.9987654351 0.5241331274
0.0524952236 0.9977311953 0.0225915379
0.032500434 0.7505675113 0.0239475311
0.0423997026 0.7508817107 0.2707518051
0.0325433873 0.7531072901 0.5272528004
0.0424815361 0.7525181662 0.7755759942
0.0424026649 0.5016698391 0.7798704046
0.0323549109 0.4989513594 0.0273270534
0.0323808311 0.5005354482 0.5243062369
0.0423341617 0.9973253543 0.2701186133
0.0525766869 0.4994357502 0.5181659428
0.0523656229 0.7487084979 0.020529036
0.0525259575 0.750063483 0.521130095
0.0423700796 0.9985166939 0.7713556413
0.072667381 0.4998409365 0.0242676447
0.0725651816 0.9973449918 0.5200368209
0.0726007292 0.9996033003 0.0229366459
0.0724766829 0.7459330695 0.0186676002
0.0624400376 0.7525312578 0.2719376511
0.072432989 0.7498540167 0.5217531039
0.062441889 0.7515428387 0.7681674651
0.0924833217 0.9986672478 0.5165311231
0.0925436786 0.750246766 0.0200602519
0.1025318162 0.7494678132 0.2701602707
0.0825414701 0.7512351851 0.2681718263
0.0925318294 0.7473142379 0.5192323711
0.1024614616 0.750469324 0.7723387549
0.0824207563 0.7527407241 0.7717666605
0.1024351712 0.9982155861 0.7666196629
0.102617723 0.5003528198 0.7698356107
0.0825407295 0.5007017121 0.77446976
0.0927406716 0.5003685298 0.0175048972
0.0825255477 0.5025934546 0.2698982922
0.1126306699 0.7470654967 0.0159433018
0.1226351002 0.7505216905 0.2667110417
0.1125751267 0.7481651947 0.5151564304
0.1225362334 0.7489965141 0.7676074051
0.1226510225 0.9984512357 0.264469876
0.1224736548 0.9983334109 0.7681535793
0.1226732398 0.5009746729 0.2689031443
0.1125018098 0.9991974594 0.5181863086
0.1424236396 0.7502598577 0.2622490762
0.1525154578 0.7536375017 0.5163737508
0.132470309 0.7510584479 0.5147574455
0.1424184556 0.7459723444 0.7694727289
0.1525361939 0.5016652571 0.5157840678
0.1324954886 0.9991123637 0.0129984971
0.1425621272 0.4976480862 0.2602643346
0.1424991783 0.9992236426 0.2638561243
0.1326702643 0.9980846697 0.5135308678
0.142592861 1.0014754053 0.7633574292
0.1523173539 0.998843985 0.0196766339
0.1524169613 0.7520075921 0.0156298533
0.1325021537 0.7479164535 0.0185696591
0.1725580145 0.7509013482 0.016916973
0.1624706398 0.7486430397 0.2670581863
0.1726324423 0.7537880556 0.5149055605
0.1625824667 0.74944163 0.7673667182
0.1823473077 1.0005393528 0.762728866
0.1725220966 0.5041624881 0.0130956976
0.1727535264 0.5034391748 0.5163098762
0.1827657327 0.7495529089 0.2602069401
0.1825887352 0.7476546206 0.7602905222
0.172599857 0.998254861 0.0155001601
0.1625920941 0.9998062208 0.7621669546
0.1827020432 0.5013490939 0.2576982416
0.2025539018 0.4996818731 0.7548732147
0.1925261434 0.5005387211 0.5062056534
0.1926235291 0.750102758 0.0025645332
0.2025265006 0.7496641879 0.2538370677
0.1924391259 0.7502991326 0.5047578289
0.2026335137 0.7498016502 0.7534318702
0.2327071614 0.752046867 0.0024529841
0.2325227582 0.5020737163 0.0035625509
0.2325897802 0.7532774815 0.5013780289
0.2125342634 0.7513268266 0.0029520392
0.2226494097 0.7497492836 0.2499259049
0.2126127644 0.7504889614 0.5047217259
0.2226146027 0.7481979238 0.7531245315
0.2325068358 0.5011003526 0.501769608
0.2225964586 0.504970897 0.753600351
0.2125912877 0.500493555 0.0061395674
0.2225623921 0.5047463754 0.2492288385
0.2125394475 0.5011847937 0.5028221505
0.2523942421 0.7518243091 -0.001192127
0.2424305434 0.7538338764 0.2488752139
0.2522431647 0.7535654977 0.4969734579
0.2424483172 0.7516410261 0.7470295976
0.2425231153 0.5044040289 0.7487014461
0.2622705528 0.50280423 0.7473434164
0.2623553487 0.7531989316 0.2485632466
0.2423986987 0.5014931019 0.2494232395
0.2623427589 0.7534738562 0.7473424907
0.2623560893 0.5004235147 0.2467784604
0.2523794306 0.501342548 0.4967966456
0.2724393908 0.9990730887 0.9955370095
0.2824549297 0.5049290038 0.2414065131
0.2724916014 0.5026202925 0.4968077542
0.2822397926 1.0017306924 0.243976309
0.2823845751 0.5016076538 0.7432193383
0.2823486572 0.7543117213 0.2417860579
0.28244234 0.7518832215 0.7444338816
0.272467903 0.752341429 0.9974347334
0.2722020365 0.756124914 0.4936816012
0.3126896526 0.9998978623 0.4899944625
0.2923308702 0.7540433427 0.9912879593
0.302563768 0.7496576421 0.2419795331
0.2925615594 0.7516933926 0.4916228022
0.3025282203 0.7517326676 0.7401052196
0.3024141718 0.4998350453 0.7383009933
0.2923823402 0.5008673214 0.9951296931
0.3024626794 0.999282555 0.2438726285
0.3123204758 0.7530287403 0.9908250998
0.3125193203 0.7510584479 0.4883429798
0.3125256152 0.5019166166 0.4906433915
0.3326737039 0.5026890236 0.487344129
0.32252301 0.5026039279 0.7372697423
0.3328066371 0.7527014492 0.9879183422
0.3325011499 0.5033010579 0.9870481663
0.322614471 0.750541328 0.2370297137
0.3325300323 0.7554376027 0.4866229939
0.3226089167 0.7530156486 0.7313775409
0.3226392803 0.500446425 0.2367973582
0.3526136909 0.5035753278 0.4892279671
0.3526696044 0.99932183 0.4857343037
0.3626581123 0.7520206837 0.2336610223
0.3627284669 0.7483288403 0.7325819013
0.3627173583 0.5035661637 0.7348202899
0.3626210835 0.5042515112 0.2420211905
0.352685897 0.7544688211 0.9875480546
0.3424800303 0.7520795961 0.237252812
0.35271552 0.7526949034 0.486194386
0.3427218281 0.7528585489 0.737564121
0.3625951634 0.9994396548 0.7346462547
0.3427296041 0.5031033741 0.7394794336
0.3525914737 0.5017313699 0.9879183422
0.3425637153 0.4998795569 0.2377462202
0.3726336601 0.5024232632 0.9865019921
0.3824388757 0.5017051866 0.2365002024
0.3727410436 0.5014839378 0.4839883976
0.3926440019 0.502210524 0.984743126
0.3826943741 0.501469537 0.7327124277
0.3724448135 0.7512679142 0.9845487251
0.3824870131 0.7511108145 0.2281890973
0.3725633055 0.7494547216 0.4857380065
0.3825610706 0.9990010847 0.2338702348
0.3825869907 0.7493172593 0.7323282543
0.3926143789 0.7499587499 0.9849467842
0.3926069731 0.747824812 0.4816278142
0.392610676 0.5008483385 0.4818981242
0.4025936296 0.5009609266 0.7336585125
0.4027158245 0.7496772795 0.2345025008
0.4025047606 0.754252809 0.7278885061
0.4125988005 0.7507115194 0.9718108317
0.4125321487 0.7491012472 0.479029321
0.4226817317 0.9963238436 0.7197606933
0.4426957763 0.9992956467 0.2169119885
0.4326387652 0.9978424743 0.4707570961
0.4427328051 0.9964023935 0.7172668064
0.422674326 0.5001348439 0.7259204275
0.4326609824 0.7480931907 0.9714312869
0.422552131 0.749991479 0.2230004424
0.4326572796 0.748780502 0.4719873766
0.422492885 0.7530156486 0.7276394877
0.4426624504 0.7471440465 0.2196419339
0.442643936 0.7487346812 0.7181786396
0.4226224857 0.9988767141 0.2236919544
0.4725927969 0.9969195134 0.4595873707
0.4724854135 0.5016056901 0.9627943288
0.4626098432 0.5000288016 0.2146087997
0.4724631962 0.749768921 0.9584249351
0.4627431468 0.7489899683 0.21101053
0.4724706019 0.7492976219 0.4608898574
0.4625024598 0.7486037648 0.7135676333
0.4526417011 0.99880471 0.4615369349
0.4625802202 0.999027268 0.211623356
0.4625765174 0.9972337128 0.709470401
0.4525491292 0.7482175613 0.9675617816
0.4526713242 0.7468822136 0.4652462909
0.4526046724 0.5006748742 0.4685242619
0.4924883494 0.5010983889 0.96529377
0.492203228 0.5013981875 0.4634050359
0.482231383 0.5004110776 0.7110894835
0.4823609837 1.0002186076 0.7038087037
0.4923291258 0.9989094432 0.4626653864
0.492410589 0.9996229378 0.9676450963
0.492351343 0.7529829195 0.4618572337
0.4924179948 0.7487215896 0.9571289285
0.4824831786 0.7473796961 0.209748775
0.4825276131 0.749147068 0.7087575974
0.5024861145 0.4998494461 0.2156733765
0.5124505538 0.9983726858 0.468201186
0.5225001591 0.9962649312 0.7207447326
0.5023639196 1.0003233407 0.2169767889
0.522622354 0.7470720425 0.7185405957
0.5025675778 0.7492845302 0.2175118545
0.5026046066 0.7503776825 0.7133408321
0.5126505091 0.7506002404 0.9690521891
0.5123987135 0.5008876134 0.9649790256
0.5126097774 0.7480539157 0.4695231127
0.5225594051 0.7476218915 0.2172341388
0.5524860487 0.9995378421 0.4792459392
0.5425105008 0.5001073515 0.7246577468
0.5425623411 0.7508489816 0.2201612622
0.5523490423 0.5010067474 0.4755634291
0.552626758 0.7513202808 0.4799865144
0.5424882836 0.7505151447 0.7250011885
0.5323831351 0.9963434811 0.964951254
0.5425401239 0.5005865056 0.2226468177
0.5324905185 0.7497492836 0.9744121021
0.5525527005 0.501497684 0.9784482369
0.5423179513 0.9980781238 0.2210388438
0.5324831127 0.7509864439 0.4677466579
0.5725889623 0.501071551 0.9836600348
0.5624949224 0.9988898057 0.7254677509
0.5526600839 0.7491012472 0.979864587
0.5625134368 0.751680301 0.2308236936
0.5624430822 0.7506198779 0.7332586019
0.572448253 0.7480015492 0.9788648104
0.5724926875 0.50115141 0.4786756963
0.5724445502 0.747052405 0.4848178419
0.6022823247 0.5025535251 0.2354235912
0.6025341203 1.0003102491 0.238633059
0.6024045196 0.9972009837 0.7349128618
0.5924660005 0.7471440465 0.9834563766
0.5925141379 1.0008142773 0.4771445571
0.5923771315 0.9979079325 0.9840488368
0.6026229893 0.7482241071 0.2341655391
0.5924845149 0.746941126 0.4868349835
0.6026044749 0.74892451 0.7386860924
0.5825052642 0.9977966535 0.2330250533
0.5826163504 0.9957085364 0.72584637
0.5824015836 0.5013654584 0.7276848479
0.5823867721 0.7476218915 0.2347542964
0.5824682354 0.7485121233 0.730382393
0.6123874732 0.7493041677 0.989954924
0.6123171186 0.9948117588 0.4835857099
0.6126577831 0.7497100086 0.4893473849
0.6224222671 0.9964809433 0.7387610756
0.6226999828 0.7480015492 0.2374018527
0.6225185418 0.7480997365 0.7388517961
0.6224741073 0.999282555 0.2386080646
0.6424289059 0.9981763112 0.7372780738
0.6326681249 0.5017778452 0.4889595086
0.6424437174 0.9996687585 0.2404261767
0.6523007732 0.9998454957 0.4915783677
0.6524748084 0.9997276709 0.993074597
0.6324200322 1.0008600981 0.49062858
0.6324459523 0.9984250524 0.9900197243
0.6327643996 0.7494678132 0.98917732
0.6327755083 0.7471113174 0.4911432797
0.6523933451 0.7476873497 0.9896309223
0.6427510561 0.7460901692 0.2393560455
0.6524192653 0.7487150437 0.4920227128
0.6427510561 0.7447417299 0.7395979256
0.6726406709 0.7470065843 0.9873814252
0.6624651678 0.9969522425 0.2429413552
0.6723074121 0.9971027964 0.9912046446
0.6824199664 0.7499325666 0.241423176
0.6725036645 0.7479557284 0.4912117829
0.6823014743 0.7483092028 0.7412512597
0.6724740415 0.9995902087 0.4908377925
0.6625133052 0.7491208847 0.2425905077
0.6625503339 0.7481128281 0.7430212344
0.7024303081 0.5003279457 0.2397633619
0.6923621883 0.9994789297 0.4866711313
0.6924066228 0.9996949418 0.9858817604
0.6925473321 0.7489441475 0.99029744
0.7024747426 0.7488197769 0.2405187486
0.6923807027 0.7473142379 0.4890992922
0.7024673368 0.7496118213 0.7386111091
0.7124762106 0.4997787512 0.4885614495
0.7125132393 0.7499522041 0.4922782112
0.722285129 0.998843985 0.7408735664
0.7321718078 0.9996753043 0.9898253233
0.7323791689 0.750358045 0.9897882945
0.7224850843 0.7479360909 0.2386006588
0.7323606545 0.7497558294 0.488770662
0.7224776786 0.7496772795 0.7412308939
0.7222592089 0.9993480133 0.2429598695
0.7323199229 1.0001924243 0.493972277
0.7123688272 0.7494285383 0.9893161779
0.7124169646 0.9986737936 0.4917033397
0.712342907 0.9981632195 0.9877702271
0.7425324548 0.499912286 0.2427654685
0.7423584196 0.7496903712 0.2410501113
0.7425509692 0.7491274305 0.7403699752
0.7525080026 0.7481521031 0.9925099084
0.7623428412 0.9988701683 0.739593297
0.7524561624 0.9978097451 0.9960368977
0.762409493 0.7497296461 0.2432866483
0.752467271 0.7514446514 0.4919893869
0.7624428189 0.7463781854 0.7426796441
0.7524006192 0.9972860794 0.4923994804
0.7422028988 0.9978424743 0.2394958291
0.7623021096 1.0001007828 0.2439253944
0.7824013203 0.9981501279 0.2473755491
0.7723257948 0.9996425752 0.4941490893
0.7823568858 0.9995640254 0.7472277015
0.7724850185 0.9989028974 0.9978605642
0.7824605663 0.7499783873 0.2462008117
0.7725146415 0.7500372997 0.4955645136
0.7824605663 0.7509340773 0.7476433493
0.7725146415 0.7515624762 0.9972495896
0.7725035329 0.5018570496 0.4976899644
0.772529453 0.5021555391 0.9980734795
0.7925546062 1.0000156871 0.4960292246
0.7925249832 0.7506656986 0.9961387268
0.7923398394 0.9992170968 0.9970366743
0.8124834847 0.7465549226 0.9958980399
0.7924064912 0.5006866567 0.9952592938
0.8024227707 0.9985559688 0.2437393249
0.8125612451 0.5011199901 0.9951667219
0.8027264065 0.750102758 0.2481790732
0.8124871875 0.7482371988 0.4922772855
0.8024857196 0.9988963516 0.7449643186
0.8026930806 0.7490947014 0.7446653113
0.8123501811 0.9993283758 0.9974347334
0.7924842516 0.7476808039 0.496278243
0.8225256843 1.0004542571 0.7494642386
0.8223627577 0.999982958 0.2434171747
0.8324901235 0.749696917 0.9946575764
0.8226997195 0.4996151057 0.7438053184
0.8226219591 0.7511435436 0.2404354338
0.8325012321 0.7491863429 0.4927808766
0.8227848856 0.7514381056 0.7441589431
0.842565649 0.7531072901 0.2506961031
0.8425730548 0.7507966151 0.7524996712
0.8626981856 0.5022360527 0.7537410603
0.8426174893 0.9990796346 0.7502612826
0.862538962 0.9983203192 0.2568595402
0.8626019109 0.9977115578 0.75283941
0.8526004429 0.9997931291 0.0013084251
0.8624871217 0.7541218925 0.7565737605
0.8524078933 0.5018550859 0.5035516171
0.852715232 0.7513726474 0.0032064268
0.852567117 0.5000844411 0.0046450866
0.8626648598 0.5010041291 0.2574297831
0.862568585 0.7492714386 0.2550377252
0.852626363 0.7491405222 0.5036404861
0.8524041905 0.9986345187 0.5066296327
0.8824271088 0.9998585874 0.7567885273
0.8924026566 0.99880471 0.002629889
0.882478949 0.7499129291 0.7553434799
0.8726737335 0.7486823146 2.2662990328e-04
0.8925248515 0.748852506 0.012198861
0.8825567094 0.5016122359 0.7566737381
0.8824752462 0.5011998491 0.2584054909
0.882419703 0.7503711366 0.2561819139
0.8724959954 0.7493630801 0.5054012036
0.8923767365 0.749513634 0.5098418776
0.8727218709 0.4994180764 0.0080309964
0.8825196807 0.999465838 0.2564068636
0.912335238 0.7466334724 0.508697689
0.9022411981 0.9950015876 0.2646679799
0.9024966965 0.9991189095 0.7619373763
0.9025448339 0.7495790922 0.7567996359
0.9125240846 0.7511173603 0.0143582857