POSCAR file written by Ovito 3.7.11
1
270.1205669388 0.0 0.0
0.0 15.2803267696 0.0
0.0 0.0 10.8048226775
Sr Ti O 
800 800 2400 
Direct
0.0226612676 0.4994103529 0.7641094745
0.0123977766 0.5018579446 0.016516641
0.012698235 0.2479929547 0.5163525163
0.0225485031 0.2495426598 0.7676745492
0.0025356619 0.2532277904 0.7641011448
0.0124389434 0.250398008 0.0132006218
0.0023397494 -7.9792895586e-04 0.2648786994
0.0227259424 0.4992794657 0.2646945224
0.0124702257 -0.0011458927 0.5186116927
0.0025766807 8.8691721191e-04 0.7654181493
0.0126823902 -0.0037440701 0.0182288394
0.0225325102 0.2471834171 0.2660078248
0.0026105915 0.2489202909 0.2651184071
0.0425205847 0.5013010193 0.2638263915
0.0325335629 0.2515105497 0.5125699461
0.0427049468 0.2484752743 0.7637392694
0.0525779455 0.4998861281 0.0151247626
0.0327353246 0.2478326178 0.0164830449
0.0327116315 7.7055844375e-04 0.5163266019
0.032555405 -7.6900287288e-04 0.0186762322
0.042559086 0.2507651468 0.2671684176
0.0525586948 0.250469996 0.5140776062
0.052584239 0.2495400421 0.0151467898
0.0625253554 0.2501951328 0.2665427711
0.0625979156 0.5017211674 0.7707222623
0.0625805159 0.4991813002 0.2659430389
0.0725431042 0.5014345243 0.5145921913
0.0728437107 0.2503777205 0.5141562748
0.0625886604 0.2509117405 0.7660160305
0.072466842 0.2484346992 0.0195205774
0.0625242448 0.0011799083 0.2700495385
0.0625072153 0.0016755784 0.7686861345
0.1024675194 7.365277579e-04 0.2639198683
0.0926652299 0.2468575078 0.5166144364
0.0826415578 -0.0011527643 0.264670459
0.102625597 0.250798523 0.7679882979
0.0824690422 0.2478712296 0.765249706
0.0925604619 0.2498312662 0.0167807824
0.082712267 3.429497873e-04 0.767843918
0.0926034057 8.8308636059e-05 0.0164373246
0.1024412349 0.2499785144 0.266867626
0.0825775123 0.2468568534 0.2649545914
0.1022864892 0.4986073596 0.2663326797
0.0925164075 0.4955426346 0.5161183616
0.1125330247 0.0029604985 0.0174379889
0.12256225 0.2505747058 0.2651258112
0.1125296929 0.2503927725 0.5135667232
0.1224704391 0.4986570968 0.7589608476
0.1124826769 0.5012408112 0.0150482227
0.1224763624 0.2496768192 0.7631830363
0.1124141889 0.2508233916 0.0149572448
0.1124241845 0.5000863856 0.5131298813
0.1523234047 0.2512153989 0.5153400055
0.1323919346 0.2509765297 0.5107726006
0.1423063963 0.2503646318 0.7602223214
0.1525177624 0.2521191754 0.0150098139
0.1323930453 0.2495518219 0.0105837348
0.1424818735 0.2511106891 0.2631896388
0.1423915434 0.502187126 0.7625527622
0.1524688953 0.5052544688 0.0104862783
0.1323412165 0.5018677611 0.0101901143
0.1323341826 0.5017597791 0.5088558639
0.1524974011 -1.6083525055e-04 0.5134140137
0.1823940509 0.2527101313 0.7584342309
0.1824373649 0.2527382721 0.2542204958
0.1623781741 0.5031452207 0.7635958149
0.1625181116 0.501078511 0.2613691554
0.1723640853 0.250824046 0.5084671486
0.1824188547 0.4999764403 0.7581806405
0.1624803507 0.2542153347 0.7623204585
0.17228227 0.2476225438 0.0118953713
0.162574753 0.0027870075 0.2566444134
0.1626265817 0.2539633768 0.2621475116
0.1725962039 0.0024211122 0.5046938335
0.1825587922 0.0040705533 0.2529321822
0.2024632373 0.2526028038 0.2547887605
0.1924417864 0.5007323142 0.0041929774
0.2025002578 0.5014901514 0.2512264624
0.1922148507 0.2502959159 0.5019043384
0.2024506503 0.2506460394 0.753827029
0.1924166124 0.247636287 0.0038020409
0.1923640433 0.001807709 0.5009769748
0.2025291338 -1.3053485141e-04 0.7454677988
0.1923151763 6.0649127177e-04 0.0028046159
0.2023677244 0.0022523985 0.2503870224
0.2123595589 0.2527925903 0.5012574051
0.2225501935 0.2492344203 0.751189318
0.2124865392 0.2515701034 3.9013853679e-04
0.2223836012 0.0046090235 0.2468247242
0.2124898711 -0.0014403236 0.5001005143
0.2123828818 3.6323731156e-04 -0.0036625425
0.2223047476 0.0034189311 0.7481277221
0.2324361494 -3.3498074103e-04 0.5006937679
0.2223325129 0.2536525196 0.2496206979
0.2322214304 0.2492475091 0.4968917619
0.2322732591 0.2522232308 -0.0036940099
0.2324520682 0.0013570642 0.9951859182
0.2525353223 0.2496552228 0.4914404925
0.2424024397 0.2507121374 0.7407467588
0.2625952746 0.249325387 0.2428792638
0.2524601707 0.2505616171 0.9941493441
0.2425627385 0.2483116652 0.2442592032
0.242292859 0.0022411422 0.2474836892
0.2523372626 0.4984869434 0.997582996
0.2523428157 5.5629601014e-04 0.4971805219
0.2424935102 0.0017974344 0.7462017303
0.2623961043 0.2526682474 0.7406356973
0.2524231502 -0.0012253413 1.000220707
0.2623761132 0.0029417162 0.2413530935
0.2624027679 -9.676594007e-05 0.7444432563
0.2725178807 0.2499863676 0.4938856969
0.2722846515 0.2508430247 0.9976662921
0.2724386568 -4.987861385e-04 0.49283524
0.2723586926 0.4967566139 0.9932330866
0.2823956921 0.2485956905 0.7456057002
0.2821791221 0.0013700221 0.7422433127
0.2824127215 0.2490793189 0.23857563
0.3024141603 0.2485668953 0.2441499927
0.3124204328 0.2477678287 0.4901308921
0.3123400983 0.2511499553 0.9933719135
0.3123067799 -7.9439500002e-04 0.9944732735
0.2922483295 0.2483947786 0.4964937915
0.3024793164 0.250259922 0.7481008823
0.2923312554 0.5013762795 0.4964410373
0.3023823227 0.4981760861 0.2490228168
0.2923567995 0.2495806171 0.9955561233
0.3024456278 0.0014700854 0.7378064051
0.292371978 -0.0015902549 0.4956728618
0.3122775337 0.498423463 0.9934274442
0.2924345426 -0.0024346086 0.9927703302
0.3225392477 0.2487475197 0.2434317949
0.3323689324 0.2495020848 0.4934812479
0.3222323477 0.2482953043 0.7436426879
0.3323404266 0.249386904 0.9936958429
0.3223115716 -3.0827974136e-04 0.2423998483
0.3324126166 0.0011539927 0.4931832328
0.3222575216 0.0018967124 0.7461267638
0.3324537093 -0.0020494074 0.9949452849
0.3624036687 0.2542565642 0.2360128855
0.3525051258 0.2502631941 0.4910712129
0.3422637731 0.248683385 0.7436621236
0.3524292338 0.0018408235 0.9929091571
0.3524721776 0.2500066551 0.9959540937
0.3422300845 0.0029445303 0.240657108
0.3422045403 -7.6396371363e-04 0.7448606625
0.3424736794 0.2510642241 0.2373891228
0.362648004 0.2511715517 0.7406292187
0.3624147748 0.0019068561 0.2378268903
0.3725213729 0.2531184996 0.4935099387
0.3824983992 0.2485793296 0.741460329
0.3724732462 0.2509038872 0.9928166059
0.3825021012 0.0019416721 0.7399702537
0.3825909505 0.2506715624 0.2386348628
0.3925457645 7.9954997035e-04 0.4862502176
0.392438405 0.0023770031 0.9891978514
0.372458438 0.0024211122 0.4877375164
0.3724288216 0.0029892283 0.989531036
0.3925531686 0.2517068805 0.4916376267
0.392438405 0.2503188212 0.9945010389
0.4125627519 0.0030858885 0.4900309367
0.4024413456 0.2502690841 0.7410345932
0.4024635579 0.0033970075 0.2406006517
0.4026338523 0.0043244746 0.7333556148
0.4025227907 0.5000274863 0.2384405052
0.40246726 0.2526957337 0.2479603282
0.412640495 0.2519169546 0.4904788848
0.4126516011 0.2499811321 0.9938902005
0.4125109232 0.0023340721 0.9895032706
0.4125775601 0.5010117585 0.9899660269
0.4126330909 0.5000955477 0.4875783282
0.4224731413 0.2522559526 0.2455762077
0.4425715739 0.253068108 0.736991954
0.4325908455 0.5051582667 0.9875134184
0.4327648419 0.5058912353 0.4961115548
0.4423901734 0.2526387978 0.2361933605
0.4225916069 0.502562118 0.2449959112
0.4426715292 0.501083092 0.7444386287
0.4325464209 0.2519693095 0.4887213363
0.4225767987 0.2514653936 0.7390132736
0.4323983389 0.2510262668 0.9925852277
0.44258268 0.5048493727 0.2402656161
0.432405743 0.0030472768 0.9857086688
0.4524930694 0.001969682 0.9870691724
0.4727099676 0.24988493 0.4792061408
0.4627181331 0.2508292815 0.7304874511
0.4725989061 0.2496146478 0.9793874174
0.4626144757 0.2532722921 0.2342645921
0.452537494 0.5043166616 0.9868192839
0.4626514962 0.5012146337 0.7331038754
0.4725359712 0.5014181634 0.4797632994
0.452611535 0.2551871726 0.4875542649
0.4526929801 0.2511002181 0.9842463588
0.4724989507 0.0025859646 0.9809515338
0.4826129529 1.5453758622e-04 0.2267744183
0.4825759324 0.2522278118 0.7258626645
0.4824981893 0.2534273935 0.2295444777
0.4926751263 0.2476225438 0.4750246747
0.4925122361 0.2489857345 0.9747413439
0.4825352098 0.4997866538 0.2304959047
0.5024855604 0.2490812822 0.2278924376
0.5126550933 -0.0031626035 0.9777122395
0.5225062499 -3.7293804448e-04 0.2208298506
0.5026891731 0.2502042949 0.7283819099
0.5027187895 0.4965458854 0.7244938313
0.5124588846 0.2509241748 0.4747396168
0.5024670501 -5.5912516226e-04 0.724551213
0.5225395683 0.2480184777 0.2195091441
0.5123922477 0.2478771195 0.9736862595
0.5223877842 0.2505491828 0.7229593313
0.5125329256 0.5004567965 0.4746174491
0.5225543765 0.498967954 0.2249446798
0.5225284622 0.4979804097 0.7245003098
0.5524669452 0.250079952 0.4755855354
0.5523003529 -0.0023423331 0.9773420345
0.5324980844 0.5008959232 0.9763332257
0.5323166839 0.4993822122 0.4742981473
0.5324055331 -0.0041956312 0.475265308
0.5324092352 0.2491369093 0.4730375991
0.5324795741 0.249961499 0.9734826467
0.5424528984 -0.0021800984 0.7275193321
0.5424528984 0.2533056683 0.2230677402
0.5423233266 0.2500891141 0.7243050267
0.5523040549 0.2490982976 0.9759722758
0.5625328207 0.4991387619 0.7291778507
0.5624995022 0.500949587 0.2264458613
0.5623069956 -0.0026480857 0.231762006
0.5622144443 0.2510688052 0.2337120611
0.5622884853 0.2471166646 0.7324680482
0.5723099362 -8.1507518604e-04 0.4807610021
0.5724765285 -0.0021437117 0.985070065
0.5723728711 0.2488430674 0.4823815747
0.5723395526 0.2472370808 0.9824508643
0.5925416426 0.4980982082 0.9780084036
0.5825498081 0.2501283803 0.7352677239
0.6023594808 0.247810367 0.241131896
0.5923750504 0.2473071055 0.4868036741
0.6024668402 0.2506113542 0.7379119136
0.5923306257 0.2505904123 0.9904565486
0.6026556448 0.4997833816 0.7347327776
0.5824424487 0.2477861529 0.2342266461
0.5925749611 0.4975753136 0.484126166
0.5824313425 0.4986832742 0.2308346423
0.6124438665 0.0014971136 0.9910211113
0.6123957399 0.4994136251 0.483026657
0.6224282969 0.2491853376 0.740102602
0.6223172354 0.499317423 0.2347291995
0.6122920824 0.4975936378 0.9842463588
0.6223431498 0.4974725671 0.7391928231
0.6123698255 0.2443680322 0.4882678351
0.6124697809 0.2450918388 0.9921132163
0.6224912318 0.2502965704 0.244572952
0.6422860962 0.2462115792 0.2392725411
0.6522594204 0.2513691914 0.491185051
0.6422379695 0.2497082322 0.742556136
0.6523334615 0.2472514784 0.9815346067
0.6324941724 0.4983586738 0.9848109215
0.6424415823 0.4993141508 0.7336101308
0.6523482697 0.4980249113 0.9852366573
0.6422601818 0.4976695525 0.2347773261
0.6524149066 0.4983056645 0.4823075337
0.6324386417 0.2436599322 0.4904492684
0.6323497925 0.2482913777 0.9958522873
0.6624400595 0.0017259699 0.7391372923
0.6723689592 0.5022669672 0.4886093493
0.6825533003 0.4991963523 0.7435649448
0.672431894 0.5010686944 0.9875041633
0.6824126224 0.4990850981 0.2379564621
0.6623104878 0.24846284 0.2377130523
0.6623438062 0.2481258053 0.7339275816
0.682308965 -0.0012678796 0.239781573
0.6822978588 -7.8065183842e-04 0.742960585
0.6623512103 0.5005196224 0.7365717713
0.6624178472 0.4992683403 0.238349805
0.6823681978 0.2497553516 0.2435363778
0.6723356407 0.2524385403 0.4888083345
0.6824163244 0.2458804345 0.7371529932
0.6722875141 0.2498587525 0.9924001252
0.7025665857 0.2487527552 0.2369097073
0.6924636897 0.247630397 0.4882650586
0.7027183698 0.2481225331 0.7406616116
0.6926673025 0.2502337445 0.9922612983
0.7025258631 0.4969778133 0.7395093484
0.7024518221 4.6408594021e-04 0.74474775
0.7025665857 -0.0022337621 0.2432679791
0.6924636897 0.4998750027 0.9915671638
0.6924710938 0.4987552622 0.4911332223
0.7125695264 0.2477403423 0.4913109207
0.7127176084 0.2510858205 0.9894940155
0.7225502547 0.4986943996 0.7415436252
0.7226576142 0.2468188961 0.2414808142
0.7327197876 0.501314108 0.993779139
0.7327382979 0.2482246252 0.4937366893
0.7225317445 0.4969719234 0.2399139213
0.732601322 0.5002807532 0.4918366119
0.7225761691 0.2510733862 0.7397083336
0.732523579 0.2472985978 0.9924741662
0.7125880366 0.497884862 0.9923075739
0.7625620173 0.5027728465 0.7481860294
0.7427708549 -9.9449128762e-05 0.7411789732
0.7526701382 0.5004306191 0.9958522873
0.762610144 0.5015326897 0.2474087227
0.7623880209 0.2508384436 0.2448052556
0.7525960972 0.2530687624 0.4927676776
0.7625805276 0.2500923863 0.744383098
0.7524443131 0.2502481421 0.9941956197
0.7424969032 0.500903122 0.7435575407
0.7528182202 0.4985641668 0.4922919641
0.7426042627 0.2484235738 0.2474355626
0.7426227729 0.2485590421 0.7443627367
0.7825753027 0.5000327218 0.2497400891
0.7825160699 0.4993743589 0.750573852
0.7825567925 0.2492763042 0.2463082882
0.7725279375 0.2493535277 0.4970666838
0.7825271761 0.2489942422 0.752763615
0.7724353862 0.2501290347 -0.003021662
0.7926411782 0.4980988626 0.4998024992
0.8125730185 0.5003933162 0.4987992435
0.8025848861 0.4993887565 0.7504859283
0.8027884989 0.5008828345 0.2510413598
0.7925671372 0.2493783963 0.5030899201
0.7925190106 0.248585874 0.9989434996
0.812532296 4.1712773894e-05 0.5031870989
0.8025737799 0.2510570253 0.2491968131
0.8126026349 0.2522075243 0.5018599138
0.8025256533 0.2473974177 0.7450531691
0.812606337 0.2525458678 1.0003965544
0.8324086055 -7.9995770828e-04 0.5018469566
0.8227351474 0.2507716911 0.249994605
0.8324974547 -0.0026969721 1.004024564
0.8323937973 0.2499248506 0.4971444269
0.8222834972 0.248647391 0.752144447
0.8325381773 0.2487442476 -0.0012517209
0.832590006 0.4998494797 0.5029103707
0.8326344306 0.4999070701 1.0002762378
0.8226425961 0.5004201481 0.2496012622
0.8424189503 0.4965413043 0.7546636924
0.8425744364 0.4977703356 0.2511255815
0.8425744364 1.9249488966e-04 0.2553449936
0.842548522 0.2466932443 0.25226026
0.8424485667 0.2496526051 0.7541444798
0.8624729582 0.2485655865 0.253910449
0.8523774663 0.2478391622 0.5054694131
0.8625136808 0.2484307726 0.7477297517
0.852281213 0.2469707253 0.0040672003
0.8926557765 0.5025706257 0.0064181875
0.8725943645 -0.0018503934 0.5044087756
0.8826750482 0.248965447 0.2601789462
0.8724055599 0.2479890281 0.5057850129
0.8926520745 0.2511434109 0.5102219205
0.8825010518 0.2495177912 0.7548154765
0.8724907071 0.2497265564 -0.0013055857
0.8928075606 -7.0519533691e-04 0.5021264615
0.8726054706 0.0012912279 0.0043634569
0.8925780335 0.2516728499 0.0077959982
0.8725758542 0.4995006651 0.5012823939
0.8924558658 0.501396567 0.5038960416
0.912524682 0.498372417 0.5091261136
0.9026105905 0.5006577084 0.7583777747
0.9126986784 0.5014947324 0.0100436982
0.9025883782 0.4997801094 0.2575615964
0.9125431922 0.0031452459 0.5094065439
0.9025291454 0.251317491 0.257199721
0.9126579558 -8.1677672033e-04 0.0098495256
0.9128097399 0.2500819153 0.5093547152
0.9026957377 0.2525589566 0.756026047
0.9127023804 0.2509758752 0.0078694839
0.942607545 0.2527153668 0.7546424056
0.9325897961 0.2503201301 0.0064403998
0.9325675838 0.5020195903 0.5085948693
0.9324046936 0.499661002 0.005079526
0.9225831534 0.4999829847 0.7594060192
0.9227164272 0.5011066517 0.262509387
0.9425149937 0.4982912669 0.7592190656
0.922627578 0.2494543109 0.2575560433
0.9226645985 0.2492010441 0.7576068226
0.9424557609 0.2500498479 0.2594107707
0.9326712412 0.2468601256 0.5109030979
0.9725201136 0.0014685802 0.5084810313
0.9626874673 -0.0017651203 0.7589173485
0.9625060668 0.2504876658 0.2612210734
0.9524772118 -0.0014721946 0.0065308224
0.9726311751 0.001425191 0.0107603226
0.9525845712 0.2512055824 0.5062125998
0.9726274731 0.2500819153 0.5157685178
0.9626763611 0.2474536992 0.7620159649
0.952495722 0.2488941135 0.0080969749
0.9525623589 3.2626166251e-04 0.506483775
0.9727126202 0.2496081034 0.0111582005
0.9725238156 0.4982441475 0.5126606464
0.9625282791 -3.9689041183e-04 0.2621567667
0.9526845266 0.4980982082 0.5067299613
0.9624653442 0.4987461001 0.7598854348
0.9825933932 0.2508122662 0.2630258231
0.9826415199 -0.0012630368 0.7658549913
0.9926481626 -0.0012666362 0.0214951587
0.9924963785 0.2467658867 0.5133973544
0.9825600747 0.2483064297 0.7646055492
0.9924149334 0.2503757572 0.016052589
0.9926000359 0.4999214676 0.0140109081
0.0225544264 0.7486857812 0.7710563724
0.0024869059 0.4971924684 0.2680994834
0.0023792133 0.748626882 0.7682733558
0.012459897 0.5004692308 0.5170892244
0.0027517136 0.49635479 0.7611182176
0.0225398773 0.9988571328 0.2671804493
0.0225523903 0.9991712622 0.7685139891
0.0124999902 0.7456884631 0.0170287272
0.0225255134 0.7502760613 0.2657671915
0.0024519956 0.7470955011 0.2687075452
0.0124312431 0.749222419 0.517834262
0.0526442122 1.0045965388 0.5183321878
0.0526405101 1.0004277798 0.016865837
0.0325287502 0.7486726925 0.0209718738
0.0426397907 0.7505116584 0.2686279511
0.0323617877 0.7494318386 0.5185626405
0.0425864812 0.7500928192 0.772057777
0.0425105892 0.4999875657 0.7662002075
0.0326268545 0.4973292456 0.0147366026
0.03252838 0.5002643923 0.5211910964
0.0424450629 1.0000678399 0.2663789554
0.0526053407 0.4984038299 0.5184904505
0.0526453228 0.7484763616 0.0230350266
0.0525605458 0.7502629726 0.5189948549
0.0424302547 0.9987393342 0.7659854886
0.072454255 0.4996466044 0.0158845159
0.0725412532 1.0004146911 0.5136000417
0.0726208473 1.0018544509 0.0118414139
0.072598635 0.7488493903 0.0153976037
0.0623576525 0.7503611381 0.2663965401
0.0726389873 0.7517289099 0.5110002767
0.0625198023 0.7504331261 0.7689027044
0.0925582407 0.9981830634 0.5172567422
0.0925478749 0.7492944069 0.0121278601
0.1025378584 0.7498833996 0.2656848209
0.0823983331 0.748050978 0.2625556626
0.0926485707 0.7486007045 0.5137999524
0.1025374882 0.7477826592 0.7647591843
0.0824779272 0.7496216251 0.7654857118
0.1025689556 0.9990730967 0.7667730998
0.1025126845 0.497463405 0.7641279847
0.082571589 0.4976453383 0.7621770041
0.0925275136 0.4983737259 0.0134793862
0.0824838504 0.5001838966 0.2636274063
0.1124408437 0.7508323322 0.0121216592
0.1225655818 0.7483192969 0.2628490501
0.1125430203 0.7488363016 0.5087318452
0.1225000555 0.7490653543 0.7648600652
0.1225341144 0.9987589673 0.2625353014
0.1225615095 1.0001267391 0.7629729449
0.1224430439 0.5010300827 0.2655626532
0.1124452861 0.9978558453 0.5183877186
0.1424963115 0.7501059079 0.2640244512
0.1524637124 0.7527367417 0.5128374193
0.1325144725 0.7531490366 0.515302985
0.1425859011 0.7497721454 0.7624546578
0.1524866652 0.5019233882 0.5139961611
0.1324345082 1.0005128565 0.0158980284
0.1425662802 0.5033389338 0.2633219871
0.1425781268 0.9996620894 0.2628388695
0.1324282147 0.9993741374 0.5123339404
0.1425155621 1.0013570793 0.7613597764
0.1525470086 1.0014356117 0.0131505516
0.1525547829 0.7530508711 0.0140310843
0.1326943922 0.7524029792 0.0106285296
0.1726339648 0.7514475023 0.0091715876
0.1625977057 0.7527563748 0.2610443005
0.1725688087 0.7502629726 0.5056609942
0.162544026 0.7492616851 0.7597965855
0.1825854469 1.0029539038 0.7517159346
0.1724784787 0.5010634589 0.0144128583
0.1722889337 0.5006851948 0.5114204594
0.1824936361 0.7512511714 0.2616042356
0.1825828555 0.7508323322 0.7614652848
0.1725328988 1.0008924296 0.0074966874
0.162545877 1.001586132 0.7550089086
0.1824928957 0.5025398671 0.2558484725
0.2024902623 0.5022133035 0.7541898299
0.1923899577 0.5022944535 0.507216781
0.1925783921 0.7543401106 0.0039044026
0.2024539822 0.7492747739 0.2523157907
0.1925669157 0.7515980226 0.5048955953
0.2023928983 0.7520037731 0.7505821817
0.2324483661 0.7506360013 -0.0041063813
0.232336194 0.5008376784 4.9527677311e-04
0.23250945 0.749745968 0.499204618
0.2124746927 0.7543139331 -9.9179997884e-05
0.2225598188 0.7524226123 0.2496882603
0.2123258702 0.7503153275 0.5005364307
0.2223565763 0.7490326324 0.7461869221
0.2323121307 0.4970589634 0.4970907472
0.222294752 0.5008200086 0.7515104708
0.212265897 0.4992336551 0.0030452492
0.2223710143 0.5005569253 0.2493809901
0.2124280468 0.5011858385 0.4950536938
0.2524001975 0.7494187498 -0.0046713698
0.242361347 0.7471151342 0.2488043958
0.2524801618 0.7514475023 0.4916394777
0.2423002631 0.7476648606 0.7445876363
0.2423117395 0.5007977578 0.7427310579
0.262274677 0.5000929299 0.7430003821
0.2622235887 0.7506098238 0.2456354405
0.2423061864 0.4980556699 0.2493587778
0.2623109571 0.7479266352 0.7468227493
0.2623290971 0.50186907 0.2422536173
0.2523494794 0.5005608519 0.4949444833
0.2723860877 1.0003688805 0.9989434996
0.2825226724 0.4990438686 0.2454706992
0.2724608691 0.5002068019 0.4891174557
0.2823671863 0.99898802 0.2428459454
0.2823442336 0.5017800666 0.7418943945
0.2823497866 0.7507865216 0.2437159273
0.2823246127 0.748934467 0.745188294
0.2722128318 0.7517092768 0.9934922301
0.2722287506 0.7532668351 0.4961976275
0.3123752678 0.9950221362 0.4923734092
0.2923405105 0.7514344135 0.9902436807
0.3023242005 0.7488886565 0.2420296432
0.2922964561 0.7499750207 0.4931869348
0.3024578445 0.7498833996 0.7433437473
0.3025463236 0.4998992168 0.7410854964
0.292503771 0.4994574723 0.9912339792
0.3022449766 0.9976791475 0.2433096272
0.3121757273 0.7506752675 0.9940105172
0.3125092821 0.7500862748 0.4896385194
0.312370085 0.4995235704 0.4929759179
0.3325296014 0.5002683189 0.4914441945
0.3223622897 0.5033749278 0.7471411256
0.3324522285 0.7533322787 0.997073964
0.3324215015 0.5040620859 0.9881890427
0.3223596982 0.7489213783 0.2444174658
0.3322456541 0.7497197905 0.4950351836
0.3223100907 0.7513493368 0.7463748012
0.3223819105 0.4994502735 0.2413947415
0.3524977217 0.5017414549 0.4947621573
0.3525506611 0.998752423 0.4911582111
0.3624184769 0.7518990633 0.242782085
0.3627035348 0.7519972287 0.7436926655
0.3623592441 0.5028206203 0.7426746016
0.3623703502 0.5016943355 0.243478996
0.3525029046 0.7513362481 0.9972035358
0.3423478097 0.7515587564 0.2441583223
0.3523629671 0.753463166 0.4911276692
0.342400749 0.7516634662 0.7438166842
0.3623370318 1.0008858852 0.7402738218
0.3423974172 0.5030634162 0.7436871125
0.3523507503 0.5007846691 0.9907156922
0.3424551692 0.5013357044 0.246697929
0.3723918011 0.5031373675 0.9955283579
0.3825132074 0.5034056863 0.2414956224
0.3723621847 0.5007303509 0.4933248362
0.3923162373 0.5036412834 0.9875874594
0.3825169094 0.4994738332 0.7376796099
0.3725694996 0.75331919 0.9905490999
0.3825058033 0.7526974755 0.2411402256
0.3724695442 0.7497328792 0.4879892558
0.382339211 1.0030586136 0.2392512543
0.3822096392 0.7527498304 0.7391585791
0.392656826 0.7507472555 0.9865693955
0.3926383157 0.7524291567 0.4873265888
0.392512446 0.5038127457 0.4914219822
0.4025338969 0.5022191934 0.736186758
0.4024191333 0.7495823589 0.2371873611
0.40261164 0.7513820586 0.7391641322
0.4124850088 0.7507668885 0.9891145553
0.4124516904 0.7522197371 0.4858540982
0.4225027577 1.0034512754 0.7384931355
0.4424975329 1.0011149379 0.239086513
0.4324131471 1.0025677864 0.4859586811
0.4426604231 1.0036737837 0.7384986886
0.4225397782 0.503706727 0.7432586001
0.4323576163 0.7519710513 0.9896328424
0.4226286274 0.7521019385 0.2408440615
0.4324982942 0.7547785829 0.4870026593
0.4227174766 0.7538754608 0.7355120593
0.442508639 0.7527301973 0.2321877418
0.4424716185 0.7524815116 0.7377925224
0.4223472716 1.0008727965 0.2391744367
0.4724767384 0.9986935237 0.478959029
0.4725433753 0.5021557131 0.9765275833
0.4625441367 0.5016930266 0.2291141143
0.4725470774 0.7502891501 0.978184251
0.4625700511 0.7504593035 0.2286346987
0.472591502 0.7503611381 0.4757826696
0.4627662597 0.7504985697 0.7345615578
0.4525263879 1.0034381866 0.4848471404
0.46264039 0.9989029433 0.2266698354
0.4626663044 1.0005783001 0.7292787316
0.4524967715 0.7523179025 0.9824508643
0.452393114 0.75198414 0.4843510656
0.4525967268 0.5029377644 0.4849702336
0.4924863218 0.5017309839 0.9758149386
0.4925492566 0.5017911921 0.4788618501
0.4825981447 0.4984961055 0.7297405624
0.4825981447 1.0020246043 0.7239477788
0.4924752156 0.9995312021 0.4813820211
0.4925418525 1.000846619 0.9754354784
0.4926936366 0.7501517185 0.4766461729
0.492726955 0.7504004042 0.9739268928
0.4827351205 0.7467093837 0.2248002998
0.4826462713 0.7509239533 0.7262902513
0.5025373891 0.4986557879 0.2241792809
0.5125070113 0.9977315024 0.4701388935
0.5224099966 1.0002052715 0.7217598669
0.5025114747 1.001226192 0.2251464416
0.5225728868 0.751912152 0.7207825256
0.5029038921 0.7477892035 0.2254407546
0.5027410018 0.7493925724 0.7254341521
0.5127143261 0.7490391768 0.9719185304
0.5125070113 0.4982775237 0.9760740821
0.5125181174 0.7500600974 0.4748127323
0.5226913524 0.7510679292 0.2213425846
0.5523521816 0.9990141975 0.4814893805
0.5423899635 0.5001786611 0.727365697
0.542204861 0.7505443802 0.2266550272
0.5523262672 0.4993233129 0.4776799705
0.5524003083 0.7479855344 0.4773393818
0.5425602578 0.7499422989 0.7271232127
0.5324018311 0.9992432502 0.9742878427
0.5424417922 0.5005327111 0.2269206493
0.5326239541 0.7493729393 0.973575198
0.5523743939 0.4957729962 0.9781564856
0.5424603025 0.9980979867 0.2264949135
0.5324314475 0.7481425991 0.474568397
0.5724839326 0.4992087866 0.9805072877
0.5623625263 0.9989422095 0.7301163206
0.5523929042 0.7487315918 0.9806553697
0.562340314 0.7481098773 0.2302867388
0.5625217145 0.7468271822 0.7305818534
0.5722395973 0.7479920788 0.9822935271
0.5725505695 0.4978861709 0.4813598088
0.5724765285 0.7492093302 0.4784083489
0.6022854397 0.498988896 0.2364432489
0.6023668849 0.9995246578 0.2408329554
0.6024890525 0.997345385 0.7339618256
0.5925416426 0.7526647537 0.9841075319
0.5924009647 0.9979212889 0.4843362574
0.5925083242 0.9977773129 0.9894477398
0.6024705423 0.749078443 0.2357407848
0.5926860226 0.7465654077 0.4839475421
0.6023113541 0.7499946538 0.7328123389
0.5824091302 0.9964422629 0.2353937176
0.5822573461 0.9982157852 0.7338183711
0.5825757225 0.498988896 0.7330529722
0.5824942774 0.7486137932 0.2327652617
0.5823387912 0.7495758145 0.7317119044
0.6124845891 0.7479462682 0.987772562
0.6122994865 0.999131996 0.491334984
0.6123402091 0.7495758145 0.4842196428
0.6222209821 0.9944004218 0.7412113661
0.6224949338 0.7538492834 0.2397936047
0.6224949338 0.7492027859 0.7421007838
0.6224431051 0.9965927833 0.2377426687
0.6424415823 1.000539034 0.7402673432
0.6323312822 0.4992807745 0.4902058586
0.6424637946 0.998176519 0.2380425348
0.6522594204 0.9982026965 0.4884742244
0.6522557184 0.9985626364 0.991141428
0.6324164294 0.9987000681 0.4907759744
0.632464556 1.0005521227 0.9923075739
0.6322757514 0.7499946538 0.9893089129
0.6321757961 0.7499750207 0.4842659185
0.6525370742 0.7500208312 0.9872079992
0.642493411 0.7515064015 0.2354585035
0.6523963963 0.7490588099 0.4879540863
0.6426192808 0.7506425457 0.7384190945
0.6724800207 0.7478677359 0.9889572181
0.6624252513 1.0023518224 0.2398750498
0.6724726166 1.0010560386 0.9878095825
0.6825940229 0.7482342202 0.2372891675
0.6724392981 0.7491373422 0.4892701653
0.6826273413 0.7483192969 0.7387356198
0.6725466576 1.000251082 0.4884705224
0.6625141005 0.7490915317 0.2371762549
0.6623215939 0.7483716518 0.7370474848
0.7026147124 0.4989515931 0.2422980419
0.6925192204 0.9988178666 0.4901669871
0.692411861 0.9984579266 0.9899845372
0.6924636897 0.7476779494 0.9880409606
0.7025073529 0.7470627793 0.2416520341
0.692630282 0.750793066 0.4903122926
0.7027109657 0.7481753209 0.7415223384
0.7125584202 0.5012277224 0.4893432808
0.7125325059 0.7508846871 0.4900244581
0.722720549 0.998156886 0.747385461
0.7326272364 0.9981045311 0.9918263073
0.7326235343 0.7487381361 0.9939642415
0.7226057855 0.7468664484 0.245125483
0.7326864692 0.7498899439 0.4927019662
0.7225243404 0.7496281694 0.741234504
0.7228390147 0.998752423 0.2390356098
0.7328160409 0.9997144443 0.4942438703
0.7127176084 0.7491111648 0.9929554328
0.7125991428 0.9979278333 0.495176787
0.7125769305 0.9968741909 0.9952877246
0.742630177 0.4980059327 0.2451856413
0.7426968139 0.7511399172 0.2450949411
0.7427412385 0.7505116584 0.7440378818
0.752729371 0.7481425991 0.9959263284
0.7625212948 0.9985495477 0.7447227611
0.7526812443 0.9969919894 0.9973145973
0.7624805722 0.7511464616 0.2464110201
0.7527034566 0.7509632194 0.4925677669
0.7625583153 0.7498310447 0.7472586658
0.7526146074 1.0006241107 0.4934988326
0.7425635401 0.9982092409 0.2427580217
0.762536103 0.9990730967 0.2436881619
0.7824531351 0.9998518759 0.2511079967
0.7726686154 1.0008204416 0.5005308777
0.7825567925 0.9987589673 0.7502203062
0.7725353416 1.0018413621 0.9979346908
0.7825493884 0.7490260881 0.2499788713
0.7724724067 0.7478611915 0.4972453078
0.7825790048 0.7506360013 0.7501592224
0.7726241908 0.7503022388 0.9957967566
0.7726945297 0.4989699173 0.504472636
0.7727056359 0.5016086043 1.0013683427
0.7924005449 1.0007877198 0.4963753259
0.79262637 0.7497263349 1.0018681195
0.792696709 0.9996620894 1.0034970218
0.8125989329 0.7482865751 0.999563593
0.7926152639 0.5003481601 0.9988231829
0.8027514783 1.002469621 0.2503833203
0.8125656144 0.5000674069 0.9983419164
0.8027922009 0.7486334263 0.2481491328
0.8125693165 0.7506556344 0.4968445608
0.802655225 1.0018479065 0.7492077954
0.8025737799 0.750721078 0.7512411467
0.8125397001 0.9990011087 0.9978513947
0.7926744967 0.7490195437 0.4962013295
0.8227314453 0.9975875264 0.7500046618
0.8225870653 0.9993741374 0.2497456421
0.8325826019 0.7524029792 1.0009426069
0.8226240858 0.5030941747 0.7501453397
0.82248711 0.7519579626 0.2452171088
0.8325011568 0.7476517719 0.4984401446
0.8225315346 0.7500928192 0.7480527556
0.8425633302 0.7524095236 0.2542676969
0.8425707343 0.7507996104 0.7549580054
0.8624803623 0.4984300074 0.7535077271
0.8425966487 0.9996359119 0.7523943354
0.8625581054 0.9987851448 0.2516947718
0.8625099787 1.0001005617 0.7521472235
0.8524181889 0.9997929766 9.6710311882e-04
0.8625395951 0.7526451206 0.7512411467
0.8524329971 0.4985412616 0.5007428201
0.8525329524 0.7472329327 0.001472433
0.8525070381 0.4978501769 0.0038750638
0.8624211295 0.4976708613 0.2532413034
0.8624655541 0.7475863283 0.2505832311
0.8525292504 0.7475208847 0.5018599138
0.8524922299 1.0006371994 0.5014869322
0.8825417744 1.003680328 0.7546081617
0.8926298622 1.0018086403 0.0074610551
0.8825343703 0.7527629192 0.7554605588
0.8725203235 0.7492355077 0.002854316
0.8925780335 0.7503807711 0.0103996503
0.8823529698 0.501140028 0.7546285229
0.8826417297 0.5011917284 0.2524324053
0.8827083667 0.7516372888 0.2584593437
0.872487005 0.7483127525 0.50373963
0.892618756 0.7499881094 0.5057368863
0.8725906624 0.4992186031 0.0043641047
0.8825528805 0.9989683869 0.2578734942
0.9125691066 0.7474881629 0.5078831501
0.9027623746 0.9977315024 0.2569664918
0.9026179946 1.0004997678 0.7571523959
0.9025143372 0.7527498304 0.7581103015