POSCAR file written by Ovito 3.7.11
1
270.066686236 0.0 0.0
0.0 15.2772788168 0.0
0.0 0.0 10.8026674494
Sr Ti O 
800 800 2400 
Direct
0.0224649851 0.5012476044 0.7779698674
0.0125111843 0.5021430518 0.032262843
0.0126914731 0.2499201235 0.5218507179
0.0224934966 0.2528244365 0.7760583025
0.0027653692 0.2511657642 0.7718815564
0.012427131 0.2513876623 0.0243478534
0.0022626045 5.5588488663e-04 0.2700878998
0.0225341532 0.5016082707 0.2766816416
0.0124004339 -7.747185699e-04 0.5263116531
0.0025056926 5.345460079e-04 0.7661551929
0.0124901895 -1.399851127e-04 0.0231844371
0.0224025931 0.2551422577 0.2757031796
0.0026688745 0.2498566305 0.2750079809
0.0423852503 0.5000674204 0.2787755689
0.0324140093 0.2517790933 0.530116269
0.0423778447 0.2513621342 0.7781022422
0.0524479501 0.5018059499 0.0181811358
0.0324454831 0.2505485076 0.0260160525
0.0324051227 -8.4704820486e-04 0.527657617
0.0323340291 1.8219268212e-04 0.0299390651
0.0424755983 0.2497178623 0.2754532413
0.0522850274 0.2486410999 0.525088807
0.0524709074 0.2528178909 0.0228755319
0.0623995663 0.2467513654 0.2722364432
0.0623799415 0.4995431124 0.7712057973
0.0623410622 0.4986254097 0.2711385662
0.0724526389 0.5020926502 0.5176702689
0.0723919131 0.2517921846 0.5197095801
0.0623954932 0.2455220889 0.7744068586
0.0724178327 0.2503685018 0.0196240201
0.062322178 -0.002574581 0.2686549204
0.0623788307 -0.0020520403 0.7743948245
0.1023589561 2.9052349285e-04 0.2608873944
0.09242067 0.2500549643 0.517199089
0.082195788 -8.1045791894e-04 0.2678504894
0.1022845301 0.25176142 0.7642047487
0.0823157584 0.2471833796 0.7677927514
0.092302551 0.2515205394 0.0169351472
0.082256884 -7.5311786444e-04 0.7676214974
0.0924406651 0.0024432629 0.0128265324
0.1022215827 0.2490482405 0.2652807538
0.0825046006 0.2477332157 0.2626693617
0.1022356533 0.4998199941 0.2573160543
0.0923743852 0.4977063978 0.5128112838
0.1125338505 7.873397185e-04 0.0104606352
0.1223851211 0.2482640694 0.2598191397
0.1122672497 0.2507167313 0.5110006199
0.1223299495 0.5009667952 0.7563696468
0.1122505871 0.4988473078 0.0100317597
0.1223362443 0.2516233064 0.7580692271
0.112233184 0.2504313402 0.0100005637
0.112235776 0.5014969943 0.5059000279
0.1524128898 0.2489912931 0.4998542989
0.1322586084 0.2504477044 0.5069877222
0.1424183213 0.251712982 0.7577128336
0.1524810211 0.2478667473 0.0014318467
0.1323304425 0.2474072414 0.0026501569
0.1423364897 0.2529180396 0.254940715
0.1423324166 0.5008273725 0.7549949864
0.1524191846 0.4996550433 0.0049093211
0.1322167669 0.500102767 0.0078173992
0.1323374778 0.4992950315 0.5015011143
0.1522181231 -0.0027383536 0.5042217387
0.182408074 0.2480814453 0.7497166604
0.182337721 0.2462918595 0.2460567981
0.1624067178 0.5018844979 0.747880077
0.1625540888 0.4975440652 0.2502779778
0.1725138511 0.2516881085 0.4998311564
0.182523601 0.4980526637 0.7483799535
0.1624896603 0.2493349407 0.7523132413
0.1723820318 0.2495404747 0.0052409059
0.1624792924 0.001169214 0.2504501575
0.1623900552 0.2508967372 0.2535327294
0.172480526 6.223234201e-04 0.4970614701
0.1825165657 7.6992824076e-04 0.2471204243
0.2024012841 0.2498808495 0.2518914681
0.1924952123 0.500797917 -0.006469063
0.2025482848 0.4977711999 0.2468843715
0.1923178487 0.2462414579 0.4944676663
0.2023964705 0.2511094714 0.7500674997
0.1926203665 0.2485383329 3.1729538621e-05
0.1925848198 -0.0035354851 0.4919368099
0.2027856336 -8.5091014917e-04 0.745118722
0.1924611466 -0.0030948962 -0.0023259289
0.2025305115 1.8238905217e-04 0.2476017869
0.2125413722 0.2513464246 0.4970244422
0.2223785722 0.2497957558 0.7477754732
0.212681708 0.2485717158 -5.7867525546e-04
0.2226011099 -1.8141919318e-04 0.2475480964
0.212595433 8.5659288935e-04 0.4958414011
0.2124628731 1.9286212148e-04 -0.0042254135
0.2225326083 0.0020863276 0.7510080081
0.2325379149 0.0044482666 0.4978899692
0.2224659581 0.2508757911 0.2490181037
0.2326945428 0.2503429737 0.5002393889
0.2324560832 0.2500287816 -6.5347159662e-04
0.2326527013 -5.8738154252e-04 0.9967750849
0.2526703498 0.2502657348 0.4985157406
0.2426431968 0.2519951003 0.7482188822
0.2626164118 0.2527720712 0.2487607599
0.252528533 0.2519054247 0.9974693578
0.2427102173 0.2486561549 0.2455569216
0.2426683757 -0.0014924511 0.2452736582
0.2524985404 0.5031530484 0.9985616806
0.2526840502 0.0023682495 0.4954276144
0.2425350753 -0.0012201513 0.7494454311
0.2627145357 0.2529546953 0.747880077
0.252691826 0.0030554792 0.9952106564
0.262749342 3.2829199907e-04 0.2442424314
0.26276008 1.4667797412e-06 0.7442513436
0.272520262 0.2513732619 0.4996710108
0.272833518 0.2537833769 0.9959327003
0.2726646708 0.0046541278 0.5011428695
0.2724891586 0.5028971128 0.9994040652
0.2826936752 0.2525298814 0.7501248929
0.282715892 0.0033464997 0.7492223381
0.2824589184 0.2524002772 0.2507926655
0.3025369224 0.2564795377 0.248552478
0.3124833546 0.253857343 0.4977890682
0.3126281337 0.2533245256 0.9971638777
0.3126436854 0.0050730506 0.9935536583
0.2926545484 0.2506316376 0.4975465355
0.3025739503 0.253367727 0.7526548236
0.2925223588 0.5013490622 0.501884353
0.3028353672 0.5021450155 0.2493791257
0.2925941929 0.2518687689 1.0021441292
0.3025354413 0.0019170566 0.7462212274
0.2925197668 0.0017333197 0.4964301446
0.3126773808 0.5003789942 0.9951551146
0.2927856271 0.0025759436 0.9979044356
0.3225367975 0.2549825434 0.2503909128
0.3325369202 0.2508934644 0.4927495721
0.3225093969 0.2540111662 0.7498295955
0.3325869079 0.249709353 0.9971546208
0.3225582737 0.0042499328 0.2502520582
0.3326531878 0.0040370022 0.4941649633
0.3225838229 0.0036327417 0.7493436044
0.3325720967 0.0021228524 0.9982099157
0.3623540002 0.2503901025 0.2454097357
0.3525730827 0.2508437173 0.492483897
0.34250668 0.2522327081 0.7461351376
0.3525516065 7.101008323e-04 0.9936277141
0.3526382518 0.2524362784 0.9891103113
0.3426011012 0.0023061966 0.2407710666
0.3425418565 0.0040752944 0.7401671671
0.3422945102 0.2519499352 0.2468732631
0.3626835485 0.2518380043 0.7398116994
0.3624132449 -4.4219861913e-04 0.2449857663
0.3724663175 0.2530496075 0.4883441787
0.3824268203 0.2533493991 0.7360774365
0.372473723 0.2487909957 0.9933314909
0.3824083064 0.0027499929 0.7325412729
0.3826267709 0.2501079842 0.2344698451
0.3924243511 -6.7345708096e-04 0.4805766528
0.3923095646 0.0012839596 0.9822786653
0.3724848314 3.6475137162e-04 0.4893337491
0.3725514816 -8.9714379987e-05 0.9875736538
0.3925169208 0.2508044433 0.4869186049
0.3923947288 0.2500863835 0.9852779245
0.4123564652 0.0027685171 0.4799943892
0.4022848786 0.2490115847 0.7346592683
0.40236634 0.001921835 0.2320000847
0.4022996898 -9.0399551926e-04 0.7325014679
0.4024959376 0.5021967263 0.2327971101
0.402488532 0.253490131 0.2313881988
0.4124305209 0.2511808192 0.4862382174
0.4125193879 0.251820331 0.9839541774
0.4124601432 0.0028243517 0.9799088802
0.4125008739 0.5000261827 0.9775576091
0.4125119823 0.4978150559 0.4834009552
0.4224465656 0.2507677875 0.2349789786
0.4424897634 0.2504110486 0.7349712282
0.4325959107 0.5007030048 0.9817695318
0.4325551801 0.4995319847 0.4844257021
0.4424305188 0.2503311915 0.233097036
0.4224872963 0.5011481102 0.2323435184
0.4426749028 0.5010996723 0.7336558124
0.4323441211 0.2517044727 0.4844275535
0.4223947266 0.2478654382 0.7286163163
0.432381149 0.2515938509 0.9829081394
0.4426045499 0.5010289791 0.2323351872
0.4324255824 0.0025606922 0.9778723462
0.452613189 6.2585808099e-04 0.9812141134
0.4726489811 0.2517640383 0.4777495732
0.4626107197 0.2505661809 0.7284765361
0.4724305166 0.2494769817 0.9750026846
0.4628551038 0.2510309234 0.2324240541
0.452613189 0.5001957155 0.9835746415
0.4625514751 0.499226302 0.7283163904
0.4725860337 0.5012574229 0.4780828243
0.4523762105 0.2498311024 0.4828862675
0.4523688049 0.247818964 0.9837042391
0.4725564114 0.0021360092 0.9784370215
0.482609484 0.0040789599 0.2235669824
0.4825428338 0.2488335425 0.7276841392
0.482468778 0.250419558 0.2243519737
0.4926107175 0.2491876632 0.4722055721
0.4922663582 0.2486888833 0.9709851583
0.4826539175 0.5003115738 0.2246870761
0.5025934371 0.2492956667 0.2261089472
0.5126168874 -0.0022067799 0.9740307024
0.522388548 -0.0023100705 0.2235790165
0.5027674682 0.2506925123 0.7251458772
0.5026823041 0.4992603395 0.7280970002
0.5125280205 0.252648358 0.4760629528
0.5024749479 3.9217772189e-04 0.7255800292
0.5225922014 0.2472377086 0.2316686851
0.5125280205 0.2497230989 0.9724199891
0.5225922014 0.248548806 0.726852863
0.5124724786 0.5006421301 0.4762721603
0.5224996317 0.4998370129 0.2270688953
0.5225329568 0.4957125872 0.7272685011
0.5526218216 0.2483327989 0.4823206665
0.5524885212 2.6983918095e-04 0.985777801
0.5322861035 0.4992053559 0.9791683224
0.5323453481 0.4984624225 0.4807090275
0.5323157258 -0.0036853809 0.4816384275
0.5324675401 0.2526817409 0.4755593734
0.5326304629 0.2515657045 0.9834172729
0.5423280677 -0.0032557232 0.7297169704
0.5427501856 0.2505576716 0.2295145875
0.5426798327 0.2496196773 0.7327541832
0.5524811156 0.2519244071 0.9851298129
0.5624638352 0.501479321 0.7311101448
0.5625823244 0.4989428746 0.2333747452
0.5624045905 -0.0021512726 0.2326888035
0.5625082686 0.2516848357 0.2374135625
0.5625341882 0.2493676691 0.7358136128
0.5724576631 -0.0016926176 0.4873222089
0.572372499 -0.0031123076 0.9896379587
0.5724354464 0.2480048609 0.4854041641
0.572372499 0.2455770726 0.9855463767
0.5926119446 0.4963193707 0.9811215437
0.5823552186 0.2466819814 0.7385860762
0.6025206084 0.2459279204 0.2430316194
0.5923638577 0.2505269069 0.4888375754
0.6022762243 0.2453610655 0.7405550343
0.592341641 0.248294834 0.9880735303
0.6023910107 0.4979152046 0.7367078364
0.5822959739 0.2486784102 0.239525078
0.5924749414 0.4991575725 0.4841211477
0.5823330018 0.4990980069 0.2311577002
0.6123033773 -5.8725062915e-04 0.9952384274
0.6123811359 0.4973280582 0.4874194071
0.6224749392 0.2470302109 0.7421638962
0.6223860722 0.497727344 0.2415477266
0.6124996252 0.4955247266 0.9894157914
0.6224045862 0.4990174952 0.7402995419
0.6123589192 0.2489042358 0.4916341069
0.6123774331 0.2467526746 0.9932296642
0.6223823695 0.2472743643 0.2418985659
0.6423515114 0.2500156902 0.2483784469
0.6524119896 0.249783319 0.5012048912
0.6424033505 0.2503128636 0.746873844
0.6523268254 0.2455377985 0.992276196
0.6324576588 0.4955666188 0.9856019186
0.642307078 0.4986018452 0.7375196729
0.6525415872 0.4983210361 0.9882679268
0.6422996724 0.4977201437 0.2421725723
0.6524119896 0.4983851836 0.4910425863
0.6325020923 0.2470609756 0.4933873776
0.6325650397 0.2477201244 0.9964325769
0.6626057682 -0.0019520225 0.7426434074
0.6725995961 0.4981698311 0.4968180117
0.6824712321 0.4970740863 0.7443402105
0.6724996208 0.4982104143 0.9940350209
0.6823194177 0.4952386809 0.2446775091
0.6625576319 0.2511081623 0.2468454922
0.6625576319 0.2493761784 0.747993012
0.6825119627 -2.8104426504e-04 0.2470574769
0.6826045325 -0.0011424542 0.7459574037
0.6624946845 0.4963913731 0.7425064042
0.6624724678 0.4964915218 0.2450922215
0.6824305014 0.248872162 0.244531249
0.6726477324 0.2480186068 0.4983361553
0.6825749101 0.2467415469 0.7428729803
0.6724811069 0.2448943593 0.9974971288
0.7024885103 0.2473601126 0.2408904815
0.6923132457 0.2474884077 0.4915739366
0.7025847828 0.2480585354 0.7450196723
0.6924206265 0.2475080447 0.9927020168
0.7023552099 0.4967926225 0.744577189
0.7023441015 -2.3734043299e-05 0.7503868652
0.7026366219 -0.0024138848 0.2495855562
0.6924687628 0.4997002084 0.9978674077
0.692342868 0.4965006857 0.4994488434
0.7125452857 0.2496105134 0.4954081748
0.7125712052 0.2506754936 0.9960715549
0.7223872993 0.4972318369 0.7452659078
0.7226650085 0.2485586245 0.243454663
0.732666242 0.5001688782 0.9911653593
0.7324885081 0.2466021242 0.4929689624
0.7225687359 0.4992158289 0.244913562
0.7326107002 0.4976972339 0.497239204
0.7226094666 0.2463985539 0.7406531582
0.7324144523 0.2507618964 0.9954883656
0.7125489884 0.4943458517 0.9993485233
0.7623737195 0.5033396 0.7471654387
0.742360144 -0.0023850184 0.7463137972
0.7525798421 0.501665218 0.992627961
0.7624996143 0.5009465036 0.2451320265
0.7624218557 0.2483576725 0.2434056011
0.7526094644 0.2509111377 0.4925931293
0.7624922087 0.249484182 0.744806762
0.7525391114 0.2508771002 0.9939517081
0.7425341751 0.5014871758 0.745118722
0.7524687585 0.5004830703 0.4934132971
0.7424453082 0.2455482716 0.2447811872
0.7425082556 0.2466557987 0.7437801637
0.7826724097 0.5009982144 0.2418550581
0.7824613507 0.5011193093 0.7433691541
0.7824428368 0.2496288412 0.2464779904
0.7725304702 0.2495646937 0.4890254919
0.7826020567 0.2506512746 0.7442726346
0.7726156343 0.2509412477 -0.002388108
0.7925181261 0.5006506394 0.4942612358
0.8126575964 0.5007082413 0.4909490909
0.8025563875 0.5021764347 0.7440439874
0.8027970688 0.5014662297 0.237519092
0.7925995874 0.2518766237 0.4952415492
0.7925736679 0.2499796891 0.9966269733
0.8126057573 0.0015758964 0.4940325886
0.802530468 0.2502559163 0.2424475044
0.8122688035 0.2513078052 0.4898549167
0.8025045485 0.2475447005 0.7450853969
0.8125465127 0.2537028652 0.99229471
0.8326637662 5.8527493739e-04 0.4900918952
0.8224959072 0.249440326 0.2417171292
0.8326563606 0.0013683332 0.9959049294
0.8325711965 0.2514216998 0.492282095
0.8224477709 0.2504856692 0.742662847
0.8324860323 0.2515486858 -0.0031460597
0.832667469 0.4988237434 0.4952359951
0.832526763 0.5011252004 0.99159118
0.8224070402 0.4971526343 0.2388817184
0.8425168882 0.4972495102 0.7455260288
0.8424909687 0.5004084497 0.2487403946
0.8424169129 0.0017138136 0.2468667832
0.8427390555 0.2482090858 0.2406275835
0.8425502133 0.247991115 0.7437523928
0.8624638134 0.2506185463 0.2491699181
0.8524144436 0.2504961423 0.4984694557
0.8624601106 0.2474582976 0.7427322743
0.8524736883 0.2488806714 -0.0038855529
0.8925304615 0.4984166028 0.0020570626
0.8725428055 0.0013693805 0.4975391299
0.8823440885 0.2466701992 0.2492254599
0.8725650223 0.2508162255 0.5009817982
0.8924601085 0.2491333342 0.5053992256
0.8824255498 0.2486083716 0.7492075269
0.8724354247 0.2492478833 -0.0025097816
0.8924823252 3.6946425281e-04 0.499887624
0.8724020996 0.0037159372 0.0019259839
0.8925008391 0.2514072993 0.0027842904
0.8724983721 0.5014498655 0.4992627783
0.8926415451 0.5003770305 0.5014307613
0.9125736592 0.4991961919 0.5102730219
0.9023576639 0.500240226 0.7558355195
0.9126329038 0.4996714075 0.011458722
0.9023613667 0.5001191312 0.2517294711
0.9124662783 5.4541181731e-04 0.5089150239
0.9023983946 0.2492177733 0.2575854322
0.9125625509 -0.0023477081 0.0080854811
0.9122996528 0.2508070615 0.5033895368
0.9025724257 0.2491673716 0.7553143519
0.9122996528 0.2507651693 0.0064255207
0.9426143877 0.2504261036 0.7670586735
0.9323761757 0.2502696622 0.0136932627
0.9324354203 0.5032047592 0.5160178993
0.9326020458 0.4968999715 0.0179605421
0.9222860752 0.5000405831 0.7614193256
0.9224971342 0.5018988984 0.264139369
0.9426921463 0.4996890808 0.7639325937
0.922552676 0.2505910545 0.2605967255
0.9226711653 0.2479243492 0.7641010706
0.9424255455 0.2496118225 0.2676996008
0.9324650426 0.2518452045 0.5145988053
0.9725810604 -0.0016183243 0.5175082719
0.9624872572 -6.7365345101e-04 0.7666439611
0.9626279632 0.2477417251 0.2667165103
0.9526119185 -0.0019830489 0.0187300743
0.9726477107 -0.0031236971 0.0161146091
0.9525563766 0.2513483883 0.5115912148
0.9726403051 0.2489094723 0.5155550506
0.9627168301 0.2507985522 0.7665439858
0.9525748906 0.2491673716 0.0133362213
0.9524823209 1.3846761772e-04 0.5135398076
0.97260698 0.2485023317 0.0176435834
0.9726291967 0.4966505815 0.5131167639
0.9625353934 -0.0025675771 0.2646762734
0.952778544 0.4984800958 0.5159475463
0.9624761488 0.4999522166 0.7682667084
0.9824897243 0.2471552332 0.2660185345
0.9825230494 -0.0017537542 0.7654877652
0.992505769 -0.0034499332 0.016535246
0.9926131498 0.2475394639 0.5211462623
0.9826304302 0.2506290194 0.7699209295
0.9925316885 0.2486378271 0.0201948977
0.9927131251 0.4978850946 0.0201669416
0.0224856837 0.749232867 0.7763480458
0.0025084326 0.4996242786 0.2741109802
0.0025597533 0.7483230191 0.7752899738
0.0123352648 0.4993984531 0.524917553
0.002558087 0.4976402866 0.770329162
0.0224482856 1.0020658516 0.2709913804
0.0224445828 0.9989042938 0.7773968608
0.0123659609 0.7501427149 0.0232216501
0.0223725635 0.7538475632 0.27824607
0.0026394003 0.749075771 0.2728594375
0.0126365237 0.7501819889 0.5253517051
0.0523709321 0.9981580877 0.5274049016
0.0522102311 0.9996439544 0.0286965016
0.032425488 0.7508365558 0.0279062338
0.0422934211 0.7489448576 0.2784886027
0.0322640464 0.7486503026 0.5266152819
0.0423074917 0.7515369423 0.7767831235
0.04229194 0.5014020822 0.7804266681
0.0324421505 0.4989651298 0.0266732976
0.0324499264 0.4997807201 0.530590226
0.0424307946 0.9985901018 0.2781460947
0.0524131439 0.4996386791 0.5271170098
0.052430547 0.7502016259 0.0225011799
0.0521954199 0.7496583355 0.5266458299
0.0421890025 0.9983151837 0.7752001811
0.0725729795 0.5002506991 0.0167137204
0.0723371119 0.9999908748 0.5232253784
0.0724415305 0.9992773969 0.0194660962
0.0724267194 0.7471513445 0.0177127329
0.0624299292 0.7496845181 0.27109043
0.0725211405 0.7490037686 0.5131426835
0.0624025285 0.7508365558 0.7752279521
0.0924473301 1.0041670112 0.5146450902
0.0923299517 0.7502409 0.0128041305
0.1023519208 0.7483361105 0.2589665725
0.0825338527 0.7508692841 0.2641773226
0.0924332595 0.750358722 0.5168343643
0.1024589314 0.7491674104 0.7592143146
0.0822750277 0.7501296236 0.7643408262
0.1024944782 0.9999646921 0.7596762376
0.1023004521 0.4998474859 0.7593985284
0.0823920358 0.4984015478 0.763577126
0.0922929238 0.499064624 0.0149087959
0.0823546377 0.5010538526 0.2659972435
0.1124268399 0.7463855013 0.0091079138
0.1223203223 0.7496059701 0.25770207
0.1123550058 0.7507187337 0.5046688505
0.1223073625 0.7497761575 0.7572157342
0.1224343682 0.9964627596 0.2594497865
0.1226161751 1.0035844467 0.7577776324
0.1223084733 0.4987478136 0.2608846173
0.1125234827 0.9996505 0.5081763175
0.1424823795 0.7486633939 0.25225897
0.1523621616 0.7499463449 0.503376577
0.1322848982 0.7489841316 0.506578564
0.1424249863 0.7499005252 0.7549959121
0.1522973628 0.4985998815 0.507153422
0.1323819113 1.0000301488 0.0028052112
0.1422379955 0.5020671221 0.2507908141
0.1426378967 0.9983544577 0.2517007745
0.1324544859 1.0006323503 0.5017973375
0.1424268377 1.0001741535 0.7519966528
0.1523821567 0.9996635914 0.0010054705
0.15237327 0.7512227502 0.0023497681
0.1325185442 0.7475768129 0.0066536125
0.172473861 0.7499921646 0.0033018478
0.1623382162 0.7506009117 0.2525866668
0.1727160234 0.7488532183 0.5000912774
0.162448189 0.7500379842 0.7496398275
0.182478427 1.0006519873 0.7464674629
0.1723313036 0.4999875632 -2.3783351269e-04
0.1725045941 0.4992937224 0.5021268857
0.1826706018 0.7476619066 0.2505232875
0.1826372767 0.7487550332 0.7521771638
0.1724320194 0.9982955467 5.519714165e-04
0.1624374509 1.0026811445 0.7485354707
0.1825339688 0.4997146089 0.2471241271
0.2027412002 0.4999574532 0.7454936294
0.1924733658 0.5000818209 0.4984676043
0.1924770686 0.7512292959 0.0014217566
0.2027911878 0.7470466138 0.2492643392
0.192578525 0.7472429839 0.4995515958
0.2028030367 0.7531471767 0.7474625875
0.2325879025 0.748957949 7.3072356351e-04
0.2326897292 0.5030882463 0.0023445842
0.2326119706 0.7506663684 0.5021592851
0.2126750429 0.750358722 -0.0017974483
0.2225107618 0.7533108184 0.249629064
0.2127094789 0.7525777035 0.499486797
0.2224296707 0.7513078439 0.7465220791
0.2326153032 0.5028571842 0.4985064836
0.2226540597 0.4997650105 0.7440338047
0.2125772893 0.4993401966 -0.0039607196
0.2226836821 0.4961622747 0.2491615868
0.2125180447 0.501449211 0.5017232817
0.2525803721 0.7521456894 -7.7103515266e-04
0.2427524291 0.7484866608 0.2450811132
0.252637395 0.7511245652 0.4953267134
0.2425284103 0.7508365558 0.7489714741
0.2424484301 0.4990397505 0.7486539599
0.2626760267 0.4989886942 0.7463073173
0.2625682756 0.7513143896 0.2447080572
0.2425821008 0.500352157 0.2513730777
0.2624423807 0.7507121881 0.7454177222
0.2624712625 0.5017175834 0.2477397158
0.252737 0.5016082707 0.4952489548
0.2727676083 1.0041539198 0.9938128535
0.2825707426 0.5015329955 0.2488514782
0.2724136217 0.5022759289 0.5004106429
0.2826307278 0.9999974205 0.2467362599
0.2825988838 0.5020533762 0.747678275
0.2823633864 0.7514125746 0.2502483554
0.2825996244 0.7521849634 0.7496620443
0.2725261865 0.7563218258 0.9981636308
0.2725217431 0.7519427737 0.4998774413
0.3125333423 1.0039968238 0.5004958071
0.2925168046 0.7530162633 1.0006907844
0.3025232221 0.7554119779 0.2476684371
0.2925249508 0.751622036 0.4990859701
0.3026472655 0.7510001975 0.7469201289
0.302614681 0.5020055928 0.7462813978
0.292541243 0.50292395 1.0060042869
0.302589502 1.0017058399 0.2514221396
0.3124422537 0.7529311696 0.9935814292
0.312619247 0.7546919544 0.4958978686
0.3126388718 0.5056783673 0.4989174932
0.3326002379 0.5019427544 0.4917535219
0.3226464001 0.502570484 0.7456769174
0.3327335383 0.754384308 0.9943590149
0.332601719 0.5068958616 0.9925816761
0.3226108533 0.7537755609 0.2446876918
0.3326354144 0.7519885934 0.4947055705
0.3226208508 0.7516089446 0.7445845946
0.3227560026 0.5051023485 0.2454773116
0.3525753043 0.5007651886 0.4898743564
0.3525101352 1.002334224 0.4964282932
0.362709468 0.7487419419 0.2400397657
0.3625761676 0.7505092724 0.7410512081
0.3626354122 0.5004915797 0.740846629
0.3628205517 0.4991176439 0.2413116738
0.3526671335 0.7525515209 0.9918596322
0.3425177884 0.7525253382 0.2409025156
0.3526264028 0.7521064154 0.4925903522
0.3425973984 0.7520736871 0.745996283
0.36244657 1.0022033107 0.7363856937
0.3425555569 0.5003973221 0.7420417042
0.3526178864 0.501092472 0.9931278375
0.3427762431 0.5020749769 0.2394713876
0.3726218346 0.5013876817 0.986833096
0.3824527398 0.50203243 0.2403322861
0.3724589119 0.5013241887 0.4894059535
0.3925539487 0.5034057112 0.9855926616
0.3824194147 0.5017980951 0.7371873476
0.3725551844 0.7495601505 0.9918503753
0.3825564179 0.7506009117 0.2367794599
0.37240337 0.7505812747 0.4889829099
0.3823157366 1.0003639779 0.240472992
0.3823416562 0.750594366 0.7324051954
0.3924465678 0.7507187337 0.9876569665
0.3926168961 0.751622036 0.4865205551
0.3925650571 0.5034534946 0.4844460674
0.402347826 0.5014897941 0.7314628355
0.4026070213 0.7511769305 0.2306115388
0.402507046 0.7516940383 0.7333003446
0.4124712516 0.7484604782 0.9841578308
0.41232314 0.7486895766 0.4872824039
0.4224798907 1.0018236619 0.7302585033
0.442497169 1.0011167297 0.2319417658
0.4323959601 1.0017712966 0.4825289483
0.4424194104 1.0031917066 0.7323116999
0.4225021075 0.5023426947 0.7322052447
0.4324663131 0.7485848459 0.9797977965
0.422457674 0.7532649987 0.2350826567
0.4325885052 0.7494554198 0.4785623354
0.4223539959 0.7532453617 0.7272416559
0.4423490574 0.7500118016 0.2302329286
0.442497169 0.7527544366 0.7294948031
0.4223502931 1.0021247627 0.2317658833
0.4725193835 1.0003116125 0.4775079662
0.472704523 0.499842904 0.9784555355
0.4627366145 0.5028388564 0.2227968023
0.4724120026 0.7520278674 0.9761320353
0.4626292337 0.7504503613 0.2266208578
0.4725304919 0.7525711579 0.4751890945
0.4626773699 0.7505616377 0.7265020237
0.4524835913 1.0017058399 0.4782068677
0.4625588807 1.0002657929 0.2276520846
0.4624589054 1.000776355 0.7258068251
0.4525169164 0.7496321528 0.9759561528
0.4524243467 0.7482902908 0.4773385636
0.4524984025 0.4999993454 0.4804405753
0.4925662841 0.4995823864 0.9764097444
0.4926144203 0.5012338585 0.4776329354
0.4824502641 0.5020337391 0.7239045171
0.4824095334 1.0024520461 0.7255513326
0.4924144697 1.0001872448 0.4770951052
0.4923367111 0.9984984624 0.9767985373
0.4923996586 0.7528460759 0.4770580773
0.4924144697 0.7506729141 0.9756599296
0.4825687533 0.7481593774 0.230797604
0.4825539422 0.7516678557 0.7281840157
0.5024934618 0.5004287413 0.2227412604
0.512605779 0.9985377364 0.4724314423
0.5223774397 0.9987341065 0.7268787825
0.5023046196 1.0003312495 0.2241649829
0.5222367337 0.7512489329 0.7260780544
0.5024712451 0.7487681246 0.2294331261
0.5024082977 0.7512358415 0.7258234876
0.5123836117 0.7495012394 0.9787795295
0.5124613703 0.4996308243 0.9817695318
0.5123465838 0.7472757122 0.4767211235
0.5224885233 0.7497303378 0.2285259428
0.552525549 0.9987406521 0.484664532
0.5424576653 0.5013497168 0.730238138
0.5425428295 0.7494096001 0.2324314597
0.5526921746 0.5005609638 0.4829769858
0.5523404096 0.7502016259 0.4830982522
0.5423687984 0.7482117428 0.7298910015
0.5323083202 1.0001610622 0.9815843923
0.5423317705 0.4985331157 0.2326767695
0.5323601592 0.7466145997 0.9804550416
0.5525144407 0.4993742341 0.9828803685
0.542498396 0.9978766239 0.2291933705
0.5326119489 0.747674998 0.4799453272
0.572583558 0.4991680456 0.9840560041
0.5624601324 0.9989959332 0.7335641684
0.5524144654 0.7513863919 0.9831117928
0.5622749929 0.747832094 0.2339236837
0.5624416184 0.7496190615 0.7329633908
0.5725317189 0.7474393539 0.9857130022
0.5724502575 0.5005779825 0.4858660871
0.5725169078 0.7474393539 0.4840452405
0.6024909861 0.4979171683 0.2343393218
0.6024354442 0.9976017059 0.2413977636
0.6025169056 0.9948067055 0.7421657476
0.5924749414 0.7486241199 0.9873144585
0.5924008856 1.0000890598 0.4866223818
0.5924231023 0.9976606169 0.9898045843
0.6024983916 0.7449061803 0.2352363225
0.5924416163 0.7446901732 0.486389106
0.6023984163 0.7477666373 0.7310138723
0.5823774353 0.9965936729 0.2400629081
0.5822404321 0.9964234856 0.7393321882
0.5824107604 0.4972855113 0.73355306
0.5824588967 0.7481659231 0.236583212
0.5826366305 0.7465164147 0.7353211418
0.61262552 0.7471906185 0.9929241841
0.6123774331 0.9994279473 0.49200994
0.6125107335 0.7488073986 0.4877396984
0.622478642 0.9989959332 0.7479337674
0.6225452922 0.7482379254 0.2361138835
0.622689701 0.7485193892 0.7383490977
0.6222935025 0.995467818 0.2432399013
0.6424700007 0.9975951602 0.7449021088
0.63231325 0.4983766743 0.4878304167
0.6425033258 0.999630863 0.2435426043
0.6525601012 0.9967049493 0.4951971158
0.6524527203 0.9986359214 0.9925076204
0.6324169281 0.9964103942 0.4879377976
0.6323280612 0.9956969164 0.9876477096
0.632383603 0.7499332535 0.9880827873
0.632242897 0.7484081128 0.4842377855
0.6523564478 0.749056134 0.9903137178
0.6424848118 0.7487288506 0.2379430613
0.6524156924 0.7456196581 0.4925403646
0.642447784 0.7460254896 0.7317618357
0.672495918 0.7478059113 0.990591427
0.6626353905 1.0014571045 0.243191765
0.6725218376 0.999434493 0.9962752083
0.682560099 0.7475768129 0.2456004293
0.6727106798 0.749134682 0.4929930305
0.6825193683 0.7495339678 0.742763748
0.6725292431 0.9984068231 0.4977335264
0.6625020901 0.7477273633 0.2433704246
0.6625020901 0.746274225 0.7422601687
0.7025144298 0.4971140148 0.2489236826
0.6926279827 0.9984919167 0.4941575577
0.6924391405 0.9958278297 0.9935166304
0.6925798465 0.7469746115 0.9922669391
0.7023959406 0.7490823167 0.2423225352
0.692394707 0.7486437569 0.4935188266
0.7025551605 0.7510067431 0.7440523187
0.7124490131 0.4986745022 0.4942584587
0.7125415829 0.7461694943 0.4905038305
0.7225280053 0.998112268 0.7489483317
0.7326773504 1.0001872448 0.9968028558
0.7324996165 0.747832094 0.9944423277
0.7225428164 0.7519820477 0.2454338038
0.7326181057 0.7495470591 0.4958571379
0.7226687112 0.7481528318 0.7443966781
0.722479869 1.0028251492 0.2430593903
0.7325773751 0.9959129234 0.4973262195
0.7125008522 0.7481201034 0.9924891064
0.7125341773 0.9976475255 0.4940390685
0.7124601215 0.9982039073 0.9958956724
0.7424638221 0.5003796488 0.2444932954
0.7426341504 0.7506990967 0.2447765588
0.7424638221 0.7481004664 0.742418463
0.7525909505 0.7512096589 0.9944423277
0.7625625617 0.9993624906 0.7418843356
0.7526501951 0.9971631461 0.991609694
0.7622959609 0.7497368835 0.238164303
0.752687223 0.7495732418 0.4953581871
0.7625551561 0.7501361693 0.7469182775
0.752687223 0.9968947737 0.494327886
0.742571203 0.9994803127 0.2463761637
0.7624848031 0.9983413664 0.2387308297
0.7824613507 1.004703756 0.2440378523
0.7725971204 0.9986031931 0.4905917718
0.7825057842 1.0007501723 0.7420694751
0.7726933929 1.0007894463 0.9918226044
0.7826501929 0.7515500336 0.2434185608
0.7724675227 0.7501034409 0.4934419937
0.7826798153 0.7514583943 0.7430201662
0.7726193371 0.7493245064 0.99400725
0.7726267427 0.4992557575 0.491526726
0.7725008478 0.5016148164 0.9928686423
0.7925440456 1.0011952778 0.498710137
0.7924736926 0.7510001975 0.9927390447
0.7926143986 1.0023604067 0.9988023619
0.8122465868 0.7469746115 0.9919244311
0.7925958846 0.500994287 0.9953402541
0.8025230624 1.0018563903 0.2434046754
0.8125354043 0.4978157105 0.9918874032
0.8026748768 0.7530751743 0.2413968379
0.8125242959 0.7514322116 0.4851958822
0.8025193596 1.0018302076 0.743054417
0.8025786042 0.7534548231 0.7472191291
0.8126687047 1.0019938493 0.9934703455
0.7926218042 0.7503718133 0.4978270218
0.8226773438 0.9981646333 0.7450752142
0.8225625574 0.9997879591 0.2434537373
0.8325304658 0.7515238509 0.9965992024
0.8226847494 0.5026581959 0.7440782382
0.8227402913 0.7507252794 0.2420226093
0.8326785774 0.7467978784 0.4952591375
0.8227106689 0.74901686 0.7441448884
0.8426316747 0.7513471179 0.2438129079
0.8426131607 0.7495536048 0.7423638468
0.8626748724 0.5000379649 0.750106379
0.8426242691 0.9973202421 0.7458703882
0.8626970891 1.0008025377 0.2464724362
0.8625267608 0.9985835561 0.7504970232
0.8524514715 0.998347912 -0.0025972508
0.8624267855 0.7509609235 0.7466775962
0.8525958803 0.5039418015 0.4963477575
0.8526662333 0.7486044829 -0.0057388822
0.8526217998 0.4995398395 -0.0058288878
0.862489733 0.4995804227 0.2475767931
0.8625971138 0.7495143308 0.2502733493
0.8525699608 0.7519820477 0.4947851805
0.8524699855 1.000953088 0.4946370689
0.8825181196 1.0000301488 0.7528519971
0.8925823005 1.0027466012 0.0033868268
0.8824107387 0.7474720823 0.7475135009
0.8724428302 0.7515696706 0.0011732994
0.8925304615 0.7516482186 0.0042366169
0.88265142 0.4989782212 0.7531843225
0.8825070112 0.500107349 0.2523080319
0.8824588749 0.7485848459 0.2504112782
0.8726131585 0.7522046005 0.5013344888
0.8924452973 0.7509020125 0.502890586
0.87237618 0.5006918771 -0.0010080137
0.8824662805 1.0006454416 0.2517017002
0.9126032815 0.7493703261 0.5076329332
0.9025983452 0.9994803127 0.260622645
0.9023983946 0.999434493 0.7581395801