POSCAR file written by Ovito 3.7.11
1
270.0393730061 0.0 0.0
0.0 15.2757337472 0.0
0.0 0.0 10.8015749202
Sr Ti O 
800 800 2400 
Direct
0.0225238542 0.4995221179 0.7957509495
0.0123980346 0.4991745077 0.0389913047
0.0125875254 0.2499249422 0.5419555521
0.0224619373 0.2496414861 0.7951630723
0.0025861691 0.2529938619 0.7929745025
0.0124422874 0.2517899917 0.0418024688
0.0023702006 0.0015946123 0.2953868785
0.0224396443 0.4996602455 0.2954655708
0.0124536931 0.0012594402 0.539409627
0.0024260813 0.00370384 0.7903637721
0.012327193 0.0038785616 0.0415049196
0.0225562199 0.2513657895 0.2958479224
0.0025786517 0.2486811394 0.2951554308
0.042594483 0.500922378 0.3017109563
0.0323385711 0.2469378516 0.5423971543
0.0425659686 0.2507563261 0.7998660902
0.0526174658 0.5018899256 0.0503163199
0.0326788919 0.2520112577 0.0437970854
0.032471885 -0.0012695381 0.5493229962
0.0325144714 6.3773523169e-04 0.0439659496
0.0426137394 0.2521094526 0.2987910118
0.0526248721 0.2472219624 0.550506157
0.052568584 0.2481947471 0.0516807506
0.0627067353 0.2501697749 0.303762509
0.0626934039 0.4996176943 0.8018121027
0.0627578389 0.5014094249 0.2998343781
0.0724867906 0.5018094057 0.5515411913
0.0725275254 0.2489004415 0.5480315179
0.0626000842 0.2513212745 0.8038423622
0.0725552991 0.2499668387 0.0512308162
0.0625138004 -7.6939848481e-04 0.3054215263
0.0625704588 -1.437002265e-04 0.8057930036
0.1026105459 6.2116400837e-05 0.2965293045
0.0925216467 0.2486706653 0.5508996182
0.0825160688 -0.0019326159 0.2991548476
0.1026564651 0.2497298615 0.7949094056
0.0825164391 0.249818237 0.7984820327
0.0924301786 0.2490496978 0.046528076
0.0824834809 -0.0015744662 0.7985968308
0.0926449621 9.7709699891e-04 0.0463392147
0.1026857201 0.2509874116 0.2967922292
0.0825927243 0.249414983 0.2981614739
0.1026090646 0.5024123227 0.289668268
0.0925320156 0.4999901805 0.5451698981
0.1126779667 -0.001437517 0.0424802404
0.1225654137 0.2488087929 0.291306918
0.1124417048 0.2520688654 0.5442191109
0.1225543042 0.5043552736 0.7952593545
0.1125861282 0.5008798268 0.0369081826
0.1225065334 0.249097486 0.7927773091
0.1124839209 0.2506679507 0.0441499043
0.1125376168 0.5002035909 0.5405557562
0.1524077286 0.2481332116 0.5334067987
0.1325909888 0.2507393057 0.5400669386
0.1426628534 0.25095468 0.7913765874
0.1524995671 0.2501730481 0.0355159782
0.1325787683 0.2526187571 0.0407854875
0.1424617716 0.2480114498 0.2893877534
0.1425969371 0.4997453477 0.7890472975
0.1527087958 0.4992583008 0.039025559
0.1325787683 0.4991542141 0.0403672152
0.1326557941 0.5023462048 0.5428498661
0.1526102917 -8.2131088477e-04 0.5363961776
0.1825370387 0.2510351998 0.7739948629
0.182268189 0.2506162347 0.2772052706
0.1626940064 0.4987188831 0.7854200486
0.1625329188 0.4999738147 0.2823480392
0.1725366451 0.2494248025 0.5324393472
0.1825588873 0.5011816126 0.7777748672
0.1626195728 0.2519935826 0.7803022764
0.1725799722 0.2501795944 0.0327185157
0.1623925689 -4.215919514e-04 0.2859595496
0.1625895772 0.249921669 0.2805186763
0.172555161 -0.0012177567 0.5248895222
0.1825392606 -2.2003043881e-04 0.2739214902
0.2025107927 0.2498476955 0.2722411797
0.1923711602 0.5011161493 0.0251300853
0.2025004238 0.5008359664 0.2737872506
0.1925648356 0.2491282538 0.5220427151
0.2023915508 0.2514312528 0.771864618
0.1925548371 0.2486392429 0.025154341
0.1923630132 -0.0017830977 0.5226065218
0.2024826486 0.0026884387 0.7732310854
0.1925096585 -4.6225367054e-05 0.0232612837
0.202692618 -0.0011327198 0.2699961367
0.2126000621 0.2471132933 0.523650814
0.2225134313 0.2501141311 0.7664515184
0.2123971288 0.2490143476 0.019266033
0.222440479 4.4592775138e-04 0.2722059997
0.2125067424 6.1050249728e-04 0.5177775964
0.2125859901 0.0010017767 0.0193565754
0.2225956415 0.0014258479 0.766267286
0.2326923173 -2.165608837e-04 0.5080401274
0.2223775252 0.2512014766 0.2673483747
0.232444946 0.2520119123 0.5090390558
0.2325501158 0.250155373 0.0127026383
0.2325375251 -5.1042565474e-04 1.0141098479
0.2523783355 0.2492945306 0.5094704744
0.2424790383 0.2503825307 0.7638491202
0.2624205748 0.2494496786 0.2561083471
0.2526290397 0.2498084175 1.0112676697
0.2423705356 0.2490889758 0.2585468804
0.2424597819 7.4424402707e-04 0.2602262651
0.2524224031 0.5018722505 0.9987046869
0.2522961253 -0.0012290818 0.5063542622
0.2425060714 7.8941370674e-04 0.7574972686
0.2623668789 0.2510797149 0.7542468167
0.2525394231 9.9888727165e-05 1.009712341
0.2625301884 -8.4075348602e-04 0.2553047606
0.2624972303 -2.7986389854e-04 0.7509204499
0.2725331742 0.2476677675 0.5001681272
0.2722798778 0.2485063524 1.0048611966
0.2727698063 -0.001108302 0.499088655
0.2723991196 0.503082667 0.9982325336
0.2824561716 0.2498398399 0.752806286
0.2825468991 -0.0017391064 0.7482051052
0.2826528096 0.2515569424 0.2511711041
0.302275874 0.2495393633 0.2475670001
0.3124232831 0.2496650529 0.4953234633
0.3125921473 0.2455133701 0.996149504
0.3123647731 -0.0017842106 0.9931962309
0.2924580464 0.2477077001 0.5007856298
0.3024743635 0.2496087544 0.7473394906
0.2925665491 0.4966810105 0.4981110198
0.30255213 0.4991673068 0.2450793999
0.2925521067 0.2515124273 0.9970475212
0.3024465898 -0.004236466 0.7422291248
0.2925387754 -0.0020852764 0.4958678284
0.312411433 0.4998991865 0.9927148197
0.2924532323 8.2606414946e-05 0.9950385549
0.3223470211 0.2479525328 0.2416002776
0.332311494 0.248772788 0.486894137
0.3223999764 0.2498941744 0.7401377631
0.3324492517 0.248553486 0.9882247337
0.3224910742 -9.7004351115e-04 0.239641304
0.3324340687 -1.7525353896e-04 0.4894743163
0.3225799501 -0.0027738194 0.7410228192
0.3327088434 -4.8587691579e-04 0.9908539799
0.3625104235 0.2499471997 0.2292631878
0.3524892923 0.2498725715 0.4779028556
0.34249038 0.2499046486 0.7350422098
0.3526177921 -0.0025934025 0.9823089297
0.3523748645 0.2481960563 0.9744211911
0.3425996233 -0.0022027175 0.237604564
0.3425985124 -0.0017048036 0.7326064539
0.3423341065 0.2467617553 0.2347512763
0.362521533 0.2513932841 0.7274266537
0.3626252216 -0.0042679538 0.2321794292
0.3725497003 0.2495066317 0.4770955659
0.3825519454 0.2515458136 0.7168004255
0.3724793402 0.2510162155 0.97309731
0.382474179 0.0012070696 0.7220431795
0.3822853176 0.2506882443 0.2224938045
0.3925245652 -9.1853289845e-05 0.468575512
0.3926023316 2.3755805519e-04 0.9707458011
0.3724682307 1.1291592463e-04 0.477639931
0.3724904497 9.8344693938e-04 0.9720511663
0.3925764095 0.2492892935 0.4699327215
0.3925764095 0.2484029204 0.9731158259
0.412269834 -0.0018778231 0.4623606776
0.4024675597 0.2496873104 0.7165689778
0.4026712337 -1.3355341441e-04 0.2168973984
0.4024675597 -7.946673201e-04 0.7147784981
0.4025231072 0.4971032488 0.2207505402
0.4024712629 0.2508263719 0.2178583694
0.4125475713 0.2481188096 0.4641974468
0.4127734642 0.2482706845 0.9660242674
0.4124586953 -0.004369422 0.9604880377
0.4125994155 0.4991162454 0.9628117729
0.4125142428 0.4997322551 0.4680431823
0.4227942252 0.2465129948 0.2102391101
0.4423987737 0.2492251395 0.7075221489
0.4326076089 0.4993951191 0.9587845824
0.4325705773 0.4969860695 0.4603785592
0.4424543212 0.249397308 0.2076607824
0.4225572227 0.496159268 0.2090022534
0.4425320876 0.500993733 0.7050660256
0.4326076089 0.2474104967 0.4576446986
0.4224313151 0.2500034981 0.7118261509
0.4327298133 0.2509461697 0.9596085363
0.4425617129 0.5000720096 0.2095938338
0.4325261393 -2.5505330637e-04 0.9575347646
0.4524750821 -0.0032625684 0.9521466615
0.4725240103 0.249097486 0.4503087314
0.4625439842 0.2476860972 0.699927886
0.4724980882 0.252349703 0.9534520267
0.4624291861 0.2479250383 0.2015885197
0.4525935834 0.4981703007 0.9591086092
0.4626106411 0.4980609769 0.7048669805
0.4724832755 0.4943956866 0.4496606777
0.4525787707 0.2496624343 0.4523399166
0.4524824884 0.2501448989 0.9532668685
0.472494385 2.4547911495e-04 0.9462215996
0.4824410827 -0.0017061784 0.1925259524
0.4827151168 0.2491622947 0.6958210774
0.4825003333 0.2459670308 0.1962226356
0.4924285151 0.2528269304 0.4415396398
0.4923988898 0.250428355 0.9408705281
0.4824855206 0.4978580407 0.1985269292
0.5026159184 0.2484775485 0.1922408088
0.5127218521 -6.4423264783e-04 0.9354268774
0.5225537517 0.0035548455 0.1890366464
0.5024900109 0.2475060731 0.6927835574
0.5022233831 0.5017223395 0.6952813413
0.5124181927 0.2479610431 0.4433356741
0.5025788868 -6.1758908316e-04 0.690478338
0.5225019074 0.2523758883 0.1919584426
0.5125403971 0.2506240903 0.9376487757
0.5224278442 0.249077847 0.6915744745
0.5125515066 0.4978462573 0.4427153942
0.5224982043 0.5014015693 0.1906049362
0.5223982188 0.5034944312 0.6925224844
0.5524790175 0.249267036 0.447852608
0.5526123314 -7.0884492874e-04 0.9450458451
0.5325448873 0.5014388834 0.9441756016
0.5323523228 0.5014676873 0.4433690026
0.5324560114 0.0021131472 0.443265314
0.5325745127 0.2523582132 0.4410082358
0.5327374519 0.2500617605 0.9468603953
0.5425397261 0.001978751 0.6965700423
0.5425989768 0.2515137366 0.1929388552
0.5425508356 0.2515890194 0.6938019274
0.5524753143 0.2498476955 0.9508135226
0.562377574 0.500149911 0.6965080143
0.5624849657 0.4999797064 0.2007793785
0.562625686 -8.5175132107e-04 0.2018847728
0.5625405132 0.2515124273 0.1967632975
0.5623590582 0.2522508534 0.6992539102
0.5723427875 0.0017680246 0.4513224724
0.5722576147 0.0030577826 0.9544333651
0.57257979 0.255179027 0.4536693524
0.5724168508 0.2531175875 0.9508783279
0.5924583726 0.5057142918 0.959432636
0.5824598307 0.2526043552 0.7075628837
0.602331007 0.2545682543 0.2101659726
0.592376903 0.2493835607 0.4598952964
0.6023828513 0.2533159413 0.7113336301
0.5923509809 0.2529211976 0.9590438039
0.6024569146 0.5041634661 0.7138406719
0.5823450326 0.2502372021 0.2067044404
0.5924102315 0.5048239909 0.4591426283
0.5823376263 0.5028129582 0.208929116
0.6122258604 2.5425119767e-04 0.9637097901
0.612351768 0.5052658682 0.4622819854
0.6223836384 0.2530259389 0.7117298686
0.6224095605 0.5037458102 0.2136432433
0.6124184249 0.5061149272 0.9652280872
0.6222355118 0.5024195237 0.7185955341
0.6123147363 0.2532033444 0.4637345513
0.6123999091 0.2526246488 0.9631450576
0.6223058719 0.2526023913 0.2207190633
0.6425362552 0.2510823334 0.2213486012
0.6524533275 0.2500368844 0.4719018788
0.6421844546 0.2491825883 0.7175299488
0.6524977655 0.2527411735 0.9726621883
0.6324414309 0.5037156971 0.9628395466
0.642465895 0.5032044287 0.7197027801
0.6525014686 0.5005786956 0.9699218472
0.642262221 0.5050851894 0.2160438192
0.6524088895 0.5008097811 0.4733183389
0.6324155088 0.2522848943 0.4657537013
0.6322303506 0.2492689999 0.9682831972
0.6624370568 5.0176794957e-04 0.720561914
0.6723578323 0.4997041059 0.4770548311
0.682260092 0.4997257088 0.7281987633
0.6726059443 0.4987077544 0.9742360329
0.6824378439 0.5008235284 0.2247564376
0.6622259765 0.2489272814 0.2252776578
0.6624037283 0.2504421023 0.7230754364
0.6824452502 -1.5260323583e-04 0.2287512254
0.6822934205 -0.0019810588 0.7246353941
0.6624777916 0.4998513983 0.7246659452
0.662555558 0.5004261661 0.2248406845
0.6826007831 0.2480919697 0.2266117226
0.6722948785 0.2535686297 0.4728239666
0.6826044862 0.2511176836 0.7294874643
0.6724948494 0.2514672576 0.9765505102
0.7025830543 0.2515340302 0.232056299
0.6925178554 0.2524112385 0.4824521922
0.7026682271 0.2538599414 0.7279719446
0.6923104783 0.2486163307 0.9766060576
0.7024053025 0.501719721 0.7298364875
0.7023978961 9.4096125518e-04 0.7290319752
0.7024238183 6.3897903446e-04 0.2292965162
0.6923882447 0.5031939546 0.9803832846
0.6925178554 0.5023874467 0.4774251475
0.7125556741 0.2516937607 0.4876199571
0.7124593919 0.2512819965 0.9846696966
0.7224542307 0.4992190228 0.7385055937
0.7224505275 0.2533146321 0.2417484041
0.7325675707 0.4995947821 0.9875211326
0.73243796 0.2492611443 0.4878662175
0.7226319825 0.5005322167 0.2365000954
0.7324749916 0.5002173382 0.4887549768
0.7225134813 0.2501730481 0.7379306775
0.7326268213 0.2482026027 0.9953070342
0.7123890318 0.5037798512 0.9810868857
0.7623298972 0.4984825606 0.7478060893
0.7424735336 0.0012588511 0.7418588084
0.7524424502 0.4982586761 0.9922241505
0.7624335858 0.4976033884 0.2457404146
0.7624113668 0.2477306122 0.2446340944
0.7526127957 0.2491544391 0.4955410242
0.7624965396 0.2486346605 0.7448870705
0.7525831704 0.2491721142 0.9945386278
0.7426290664 0.4987555426 0.7393064028
0.7525535451 0.5008752444 0.4960576155
0.7423883608 0.2497364079 0.2419446718
0.7425253779 0.2476500924 0.7416810565
0.7825195457 0.498617415 0.2549085221
0.7825010298 0.4994573092 0.7543995722
0.7826898912 0.2470720514 0.2465004889
0.7724802689 0.2500067713 0.4988581331
0.7825973121 0.2476389636 0.7467432813
0.7725691448 0.2504748339 5.7949874002e-04
0.7926032604 0.4979071382 0.5023613259
0.8126188601 0.4973415352 0.5057432402
0.8025129264 0.4992622286 0.7538191013
0.8027721479 0.4972138818 0.2547261413
0.7926514015 0.246671416 0.5023585486
0.7926032604 0.2519130627 1.0022319503
0.8126225633 -2.8451179311e-04 0.508205844
0.8026277245 0.2484526725 0.2543123127
0.8125855316 0.2500722346 0.5056636221
0.8027499289 0.2487891539 0.7553864653
0.8124707336 0.2481148818 1.0067590679
0.8325011459 -6.962759744e-04 0.5094565876
0.8225692609 0.2494058182 0.2583617222
0.8323863479 0.0030827242 1.0075459902
0.8326122409 0.2483858999 0.508391928
0.8225655578 0.2518063575 0.7573639547
0.8325789124 0.2489285907 0.0088590321
0.8325196618 0.4975281056 0.5036194758
0.8325826155 0.4981539348 1.0118786917
0.822639621 0.5013478894 0.2580802818
0.8425552353 0.4992465174 0.756477047
0.8424071088 0.4991201732 0.2574109349
0.8426107828 -0.0024167171 0.2575914642
0.8424552499 0.2486130576 0.2573433522
0.8424737657 0.249409746 0.7557216017
0.8625152876 0.248715835 0.2594013854
0.8525574805 0.2474700683 0.5057710139
0.8626004604 0.2483073439 0.7641074158
0.8525389646 0.2474995268 0.0128162328
0.8925146166 0.4972217374 0.0153343841
0.8724212505 8.3340504693e-04 0.5081567771
0.8825457 0.2490857026 0.2630869591
0.8727138004 0.2497442635 0.5094352944
0.8924590692 0.2490627905 0.5179025781
0.8824160893 0.2478981983 0.7645203186
0.8723731094 0.2492159746 0.0135125202
0.8925183198 0.0018603934 0.5173202556
0.8725249391 -0.0012807978 0.0131453515
0.8924923977 0.2487878446 0.0167170529
0.8724693916 0.4958731933 0.5111674492
0.8924701787 0.4969487554 0.5153335083
0.9124265278 0.4996779205 0.5162907761
0.9025242681 0.4994402888 0.7696343876
0.9123969025 0.4994082117 0.019167714
0.9023983605 0.5041176418 0.2675492713
0.9123080265 -0.0026667869 0.5177516742
0.9024427985 0.2489593585 0.267750168
0.9123783867 -4.1779507977e-04 0.0202411686
0.9126227955 0.2511451782 0.5180655173
0.9024835333 0.2470779431 0.7669477424
0.912385793 0.247975445 0.0185199381
0.942544358 0.2502103622 0.7751289567
0.9326606142 0.2499884416 0.0212808318
0.9325532224 0.4980806159 0.5264124483
0.932475456 0.499596746 0.0213116606
0.9225250552 0.5014061518 0.7694279362
0.9223028653 0.5017354322 0.2707108473
0.9425221391 0.5037844336 0.7779405838
0.9225991184 0.2494824103 0.2682834235
0.9224695077 0.2519968558 0.7666459345
0.9425073264 0.2486844126 0.2762831829
0.9324199085 0.2508532118 0.5183154809
0.9725955314 0.0025512276 0.5306238712
0.9624599723 -3.5841986317e-04 0.7793820402
0.9626006926 0.2534985839 0.2755369954
0.9524873525 9.7729338882e-04 0.0274248433
0.9725288744 9.8482166876e-04 0.0300140027
0.9526058538 0.248521409 0.5293684987
0.9725362807 0.2556372701 0.5315089273
0.9624784882 0.2483498951 0.776650957
0.9524577272 0.252044644 0.0295524034
0.9526206664 -6.4914239562e-04 0.5255098021
0.97240667 0.2498260926 0.0310867167
0.9726473756 0.5023998847 0.5273336102
0.9624821913 -4.7789039272e-04 0.2768108837
0.9525799316 0.5006683803 0.5255162827
0.9624784882 0.5014061518 0.781428964
0.9823237424 0.2485881815 0.2855494242
0.9827310904 7.0168387212e-05 0.7818196477
0.9925666931 0.0011596087 0.0374706005
0.992359316 0.2536380208 0.5419305557
0.9824570563 0.2499426173 0.7838258367
0.9925778026 0.2526894575 0.0415699102
0.9925074425 0.5019580074 0.0352273166
0.0223291049 0.7474447423 0.7939363993
0.0022465519 0.4984812514 0.2898469457
0.0023592392 0.752472324 0.7915941483
0.012444176 0.4987503055 0.5414167417
0.0024220819 0.5030374973 0.7929911668
0.022496673 1.001239425 0.2958979151
0.0223554344 1.0013899906 0.7952241745
0.0123200459 0.7497686896 0.0427228902
0.0223927993 0.7499258015 0.2974495407
0.0025138093 0.7514183648 0.28995156
0.0124376954 0.7487343694 0.5449523373
0.0524745237 0.9979728061 0.5502108297
0.0524611923 1.002784359 0.0518383202
0.0323033911 0.749598485 0.0460568484
0.0425463418 0.7489896762 0.2967644554
0.0322989473 0.7512743455 0.5512754893
0.0425604139 0.7466788216 0.7971812965
0.0426526226 0.5018441013 0.7977802832
0.032602977 0.5018519569 0.0436829354
0.0325059541 0.4999941083 0.546795587
0.0424574659 0.999851603 0.2971421781
0.0525941359 0.498280279 0.5521022206
0.0525693247 0.7521384612 0.0543878558
0.0524645251 0.7499323478 0.5489554572
0.0424833881 0.9979335282 0.7988495717
0.0724830874 0.4999319182 0.0513558905
0.0725264144 0.9999759832 0.5538454849
0.0725682602 0.9974032754 0.0541934397
0.0726138091 0.7492842611 0.0483579944
0.0624741766 0.7515427451 0.3025737935
0.0724316134 0.74878674 0.5508209259
0.0625623119 0.750292396 0.8013464298
0.0925416438 0.9997795933 0.5428554208
0.0925123888 0.7508750194 0.0445578078
0.1025350014 0.7492318905 0.2957590465
0.0823990488 0.7506328052 0.2991816955
0.0924335114 0.7507637318 0.544997701
0.1024446442 0.7518045983 0.7929800573
0.0823553515 0.7507571854 0.7956241162
0.1024935259 1.0012066934 0.7936244078
0.1024531614 0.5021170832 0.799268955
0.0825964274 0.4993931552 0.7960536832
0.0925431251 0.4985257664 0.0429343408
0.0824631135 0.4982069601 0.3009712494
0.1125446528 0.7505084249 0.0454445303
0.1226491052 0.7532513373 0.2926122832
0.1125935346 0.7540892676 0.5437219611
0.122473205 0.7513267162 0.7936170014
0.122676879 1.0002967534 0.2925391457
0.1224602439 1.0018285947 0.7949371793
0.1226250347 0.5016601494 0.2908079166
0.1126998154 1.0038514108 0.5483444352
0.1426943303 0.7493169928 0.293671388
0.1525128985 0.7504429616 0.534787153
0.132622836 0.752531241 0.5427683965
0.1425191706 0.7513332625 0.7916876532
0.1525939977 0.5007665753 0.5381644382
0.1324928549 1.0005913383 0.0427115955
0.1425906417 0.4991470132 0.2872547311
0.1425228738 0.9984768736 0.2906607159
0.1326124671 1.0007549966 0.5452152619
0.1425384271 0.996899208 0.7897564533
0.1523855096 0.999059497 0.0376054883
0.1525821476 0.7519158859 0.0375875279
0.1326365377 0.7506197125 0.0429096222
0.1726651449 0.7496966799 0.0323032059
0.1624751494 0.7505411565 0.2871565973
0.1726318165 0.7524199534 0.5323837997
0.1624351552 0.753244791 0.7846210911
0.1824537175 1.0001854658 0.7748910285
0.172597377 0.4987090636 0.0280300328
0.1726966218 0.5016765152 0.5281446031
0.1825066727 0.7519551639 0.2783912088
0.1825799954 0.7514838281 0.7791829952
0.1726529245 1.0025945154 0.0270276789
0.1625984648 1.0024374035 0.7807466561
0.1824996367 0.4993460216 0.2796863903
0.2025830044 0.5012935549 0.775446503
0.1925096585 0.5010022432 0.5224880206
0.1925670575 0.7477589661 0.0264008259
0.2024882034 0.7504691469 0.2720384315
0.1926133471 0.7500960061 0.5259115954
0.2025485649 0.7502465717 0.7701963427
0.2324664243 0.7496835873 0.0164582017
0.2325697426 0.5001544934 0.0135227965
0.2325045669 0.749598485 0.5135430287
0.2124848937 0.7492646221 0.0192351116
0.2223216074 0.7498537918 0.264424727
0.2126856052 0.7511761506 0.521954765
0.2224201116 0.7506917221 0.7666737083
0.232525675 0.5033039329 0.5103129442
0.2225871243 0.497391942 0.7680540625
0.2125234066 0.5027370207 0.0242673407
0.2225208376 0.4997099976 0.2665262724
0.2126682003 0.4989473501 0.5229185133
0.2528175307 0.7505607955 0.0063234759
0.2424660773 0.7517260423 0.2592625168
0.2522661296 0.7493693634 0.5074179959
0.2425001464 0.7517849593 0.7619919836
0.242478668 0.5010709797 0.7601431791
0.2625609247 0.4974894823 0.7542357072
0.2625361135 0.7497555969 0.2520968951
0.2426193882 0.500506686 0.2578877173
0.262523893 0.7481517459 0.7517573649
0.2624683456 0.4977186039 0.254939999
0.252316863 0.5001125969 0.509534354
0.2724916987 0.9979924451 1.00063959
0.2824657998 0.5011109123 0.2492426816
0.2724109698 0.5028208138 0.5006504643
0.2825094971 1.0006568016 0.2487862667
0.2823602596 0.4975876773 0.7502807284
0.2825839307 0.7491206028 0.2426927109
0.2824006241 0.7505477029 0.7498002429
0.2724368919 0.7470061381 1.000537753
0.2725242866 0.7487932863 0.4975268457
0.3125021605 1.0011870544 0.4932228437
0.292400277 0.7480862826 0.9965846257
0.3025032482 0.7492908074 0.2428556501
0.2923380639 0.747935717 0.4930228729
0.3024673275 0.7490420469 0.7454036618
0.3026880361 0.5002271577 0.7453657044
0.2925128532 0.4999397738 0.9948533967
0.3024773261 0.9995962961 0.242174268
0.3124062485 0.7462205785 0.9910946856
0.3125765941 0.748033912 0.4954873283
0.3125384515 0.4982972995 0.4919859871
0.3324407344 0.4991535595 0.4868885823
0.3225758766 0.4965710321 0.742449463
0.3324681378 0.747994634 0.9903170212
0.3326584804 0.498273078 0.989826352
0.322530698 0.7496312166 0.2375582744
0.3324607315 0.7511957896 0.4884902006
0.322437008 0.7474840202 0.7404932668
0.3225266246 0.4997230902 0.2432907718
0.352364866 0.5002147196 0.4867543426
0.3526114967 0.999118414 0.4841695343
0.3624104381 0.7492515295 0.2284531207
0.3625326425 0.7480404583 0.7298346359
0.3627178007 0.4990350709 0.7296244814
0.3625511583 0.5017930399 0.2306231746
0.3526285312 0.7481386533 0.9799111312
0.3424855659 0.7514118185 0.2380600531
0.3524829969 0.7480208193 0.4833955731
0.3426281377 0.750331674 0.7384389367
0.3624882045 0.9986994488 0.7313288624
0.3425529635 0.5003587389 0.7346431939
0.3524759609 0.4962424064 0.9809202433
0.3426462832 0.50045497 0.2354882059
0.3726200604 0.4992969241 0.973310242
0.3825149138 0.4972413764 0.2250054753
0.3726533889 0.5005747678 0.4725730772
0.3924764241 0.4987503055 0.974634123
0.3825963834 0.4996910132 0.722731968
0.3724645275 0.7492187978 0.9748470549
0.3825408359 0.7462140322 0.2210893797
0.3724793402 0.748767101 0.4708862862
0.3826186023 1.0016976681 0.2238500882
0.3825223201 0.7480470047 0.7164560313
0.3923986576 0.7504167763 0.9667463843
0.3925467842 0.7491729735 0.4689661958
0.3925097525 0.4988897424 0.4734451723
0.4024823724 0.4975929143 0.7156829959
0.4026045768 0.7518700616 0.216062335
0.4024342312 0.7492384368 0.7163504911
0.4124661017 0.7492908074 0.9640338169
0.4124698048 0.7478244294 0.4603415276
0.4223794708 1.0000152612 0.7098662515
0.4425876351 0.9986536245 0.2061739622
0.4326446406 0.9984834199 0.4608220131
0.4424172895 0.9969384859 0.702314575
0.4225164879 0.4974600238 0.7052447032
0.4324372634 0.7531596887 0.9587382928
0.422564629 0.7513594478 0.209664194
0.4322113704 0.7517849593 0.4579594675
0.4224424246 0.7520991832 0.7084627525
0.4423506326 0.7493497244 0.2084717752
0.4424321022 0.7460961982 0.7087756698
0.4224572373 1.0006764406 0.2064794732
0.4724462439 1.0024635888 0.4463639362
0.4725277135 0.4965350273 0.9465734001
0.4626143443 0.4995378291 0.1988898392
0.4725277135 0.7477916978 0.9496840576
0.4624773272 0.7488783886 0.2038289338
0.4724314312 0.7480208193 0.447923894
0.4625069525 0.7483874138 0.7005870491
0.4524935979 0.999138053 0.4508558738
0.4624402956 0.998345947 0.1962402256
0.4623773418 0.9973116268 0.7010453156
0.4523010334 0.7475625762 0.9526928781
0.4525565517 0.7513594478 0.4544655326
0.4524195347 0.5002834561 0.4518862791
0.4926655176 0.4972426856 0.9468603953
0.4926099702 0.4971333619 0.4410286032
0.4824521922 0.5004333671 0.6955248243
0.482470708 0.9998777883 0.6944175784
0.4927284714 0.9992297016 0.4389029872
0.4925359069 0.9967093644 0.9415556133
0.4924692499 0.7492580758 0.4452779835
0.4924581404 0.7500109038 0.9451754558
0.4823262846 0.7508750194 0.195419049
0.4824966301 0.7493039001 0.6923928737
0.5023270717 0.4995430661 0.1903549727
0.5125403971 0.9997468617 0.4398121139
0.5225463454 0.9956030345 0.6935806634
0.5024640887 0.9969057543 0.1852714547
0.5226241118 0.7476607712 0.6934797522
0.5025455583 0.7519878956 0.1921398976
0.5024048381 0.7475102056 0.6917429684
0.5124589275 0.7498079675 0.9369729483
0.5125033655 0.4995496125 0.9427683994
0.5123256136 0.7514118185 0.4439966889
0.5224611726 0.750154923 0.1874433603
0.5525752997 1.0000545392 0.4437837569
0.5425397261 0.5023795911 0.6873843448
0.5425693514 0.7497294116 0.1919547394
0.5525419713 0.5023206741 0.4459760299
0.5524938301 0.7457426964 0.4438050501
0.542491585 0.7531531424 0.6924113895
0.532741155 1.0006698943 0.9456383513
0.5425063977 0.5018408281 0.1947034127
0.5325634032 0.7511892432 0.9455087406
0.5524975333 0.5032777476 0.9444718547
0.5425989768 1.0019071507 0.1932638078
0.5322338216 0.748092829 0.4357858492
0.57257979 0.5002972034 0.9550814187
0.5623849803 0.9986470782 0.6996612582
0.5525567839 0.748092829 0.945666125
0.5624368246 0.75183733 0.2017681232
0.5623960898 0.7491009639 0.6959414303
0.5724427729 0.7489373056 0.9522392406
0.5725464615 0.5021917114 0.4530648109
0.5725279457 0.7514838281 0.4528694691
0.6024346956 0.5010277739 0.2120610666
0.6023606323 1.0028367296 0.2089207838
0.6025309779 1.0034651773 0.7095570373
0.5923880125 0.7509404827 0.9588030982
0.5923583872 0.9999039736 0.4606488902
0.5924509663 1.002705803 0.956988548
0.6024606177 0.7544820474 0.2153976171
0.5923509809 0.7532775226 0.460649816
0.602353226 0.7510583166 0.7110068259
0.5822709693 1.0052195939 0.2050343136
0.5823672516 1.0022410136 0.707043515
0.5823042978 0.5039559475 0.7051076862
0.582489456 0.7495722996 0.2063998552
0.5826005509 0.7497555969 0.7049512275
0.6125184103 0.7535000979 0.9660057516
0.6124295344 1.0024308571 0.4661897488
0.6123628774 0.7563215663 0.4663813876
0.6222244023 1.0052195939 0.71564689
0.6224577017 0.7553919874 0.2167418655
0.6224465922 0.7514445501 0.7125177167
0.6224095605 1.007281688 0.2188480399
0.6424251602 1.0039954301 0.7205535819
0.6324784626 0.5031586044 0.4659444142
0.6424473792 1.0023261159 0.2163974713
0.6523792642 1.0023653938 0.4706391
0.6526088604 1.0000479929 0.9722270666
0.6326117765 1.0040936251 0.4692300462
0.6325636354 0.9997403153 0.9683850342
0.6323673677 0.7527996405 0.967903623
0.6326562144 0.7536375708 0.4666008
0.6524125927 0.7513725405 0.9672740851
0.6424140508 0.749441373 0.222345678
0.6524977655 0.7487212767 0.4734081406
0.6424288634 0.7518504226 0.7194500391
0.6724800367 0.7514380038 0.9742452908
0.6625333391 0.9983786786 0.2207088796
0.6724763336 1.0010561278 0.9723937089
0.6823008268 0.7511761506 0.226605242
0.6724281924 0.750312035 0.4745894499
0.6824304376 0.7484463308 0.7286329593
0.6723245039 1.0017238535 0.4801516017
0.6624481663 0.7514576428 0.2217263239
0.662555558 0.7508750194 0.7226069862
0.7025423195 0.5009420169 0.2276162057
0.6925400744 0.9979989915 0.4764900986
0.6925511839 1.0009775718 0.9798000363
0.6924215732 0.7520926368 0.9779391966
0.7024534436 0.7498276065 0.2296353557
0.6924586048 0.7491860661 0.4784833265
0.7024719594 0.7496835873 0.7305549012
0.7124297666 0.500292621 0.4824327506
0.7123594065 0.7511761506 0.4834159405
0.7224727465 1.0033866214 0.7384259757
0.7324861011 1.00133762 0.9894652935
0.7325638675 0.7553919874 0.9888357557
0.722461637 0.7515492914 0.2357853848
0.732597196 0.7514183648 0.4875421906
0.7225097781 0.7496246703 0.7350718351
0.7225171845 1.0005978846 0.2388386433
0.7324268505 1.0001200025 0.4915277206
0.7123408906 0.7533364396 0.9859843197
0.7124445792 1.0048529994 0.4784537012
0.7124779077 1.0044405806 0.9824940879
0.7424624241 0.4996569723 0.2403115766
0.742573519 0.7491729735 0.2400218041
0.7426179569 0.7515034671 0.7417180882
0.7526239052 0.7478833464 0.9946404648
0.7625557902 0.9993475355 0.7447046897
0.752460966 1.0004538654 0.9941035061
0.7626150409 0.750174562 0.2412244065
0.7525350293 0.7493039001 0.4924609178
0.7624891333 0.7515820231 0.7439186932
0.752505404 1.0012066934 0.4916545539
0.7425031589 0.9986601708 0.2394367042
0.7625150554 1.0017173071 0.2480030476
0.7823306843 0.9992362479 0.2514127356
0.772572848 0.9955899419 0.4991349446
0.7824899204 0.9983721323 0.7531432739
0.7725210037 0.9981822887 0.9972511952
0.7825899058 0.7494675584 0.2490788166
0.7722617823 0.7484135992 0.5012207515
0.7825936089 0.7509797607 0.7519638163
0.7725617385 0.7489765836 0.9972789689
0.7725580353 0.4980413379 0.4973083591
0.7726283955 0.5003430277 0.9984639813
0.7924736497 0.9971937928 0.5024418697
0.7926921363 0.7477786051 0.9962420831
0.7926032604 0.9965915304 1.0043705274
0.8125633127 0.7484463308 1.005833277
0.7925291971 0.4977971598 1.0043334957
0.8025980992 0.9977436846 0.2556787801
0.8127817993 0.4981107291 1.0087587763
0.8026055055 0.7503578593 0.2526542212
0.8124966557 0.7478113368 0.5060959665
0.8024721916 0.9985816149 0.7549754142
0.8026277245 0.7463253198 0.7500076201
0.8125299842 0.9983524933 1.0034354785
0.7924699465 0.7478768001 0.4988618362
0.8225433388 1.0015209172 0.754099616
0.8224989008 0.9999694369 0.2574303766
0.8326418662 0.7468621189 1.0071756739
0.8225211198 0.4996327509 0.7599237666
0.8225618546 0.7466788216 0.2589412673
0.8326455693 0.7513921795 0.5071504424
0.8224285407 0.7474054643 0.7622549082
0.8424663594 0.7512088822 0.2568832341
0.8425663448 0.7492711684 0.7550828059
0.8626930395 0.4999738147 0.7582110534
0.842366374 0.9995177401 0.756153946
0.862500475 0.9988761997 0.2542410268
0.8625041781 0.9976585823 0.7615476039
0.8522575242 1.0000283539 0.0056425567
0.8624486307 0.7466984606 0.7611782133
0.8525722931 0.4978652417 0.5054368034
0.8525093393 0.7485117941 0.0079396291
0.8524871204 0.4961926542 0.0057463379
0.8624708497 0.4991260649 0.2572979884
0.8625338034 0.7511368726 0.257423896
0.8526944975 0.7474709276 0.5065310882
0.852479714 0.9990856823 0.5079734705
0.8823124007 0.9971807002 0.7627178036
0.8924961008 0.9982739373 0.0144401627
0.8825382937 0.7496901336 0.7614735406
0.8723990315 0.7490682322 0.0069981924
0.8922368794 0.7493366317 0.0126929175
0.8823901671 0.4981585173 0.763783389
0.8824790431 0.5012058341 0.2641692087
0.8823790576 0.7511565116 0.2624703823
0.8726841751 0.747974995 0.5083224937
0.8924886945 0.7492122515 0.5158538028
0.8725212359 0.4973572464 0.0126031158
0.8823901671 0.9995962961 0.263078627
0.9124265278 0.7488129253 0.5198476649
0.9021761707 1.0009382938 0.2683111973