POSCAR file written by Ovito 3.7.11
1
270.0586159245 0.0 0.0
0.0 15.276822291 0.0
0.0 0.0 10.8023446369
Sr Ti O 
800 800 2400 
Direct
0.022315744 0.4982319622 0.7686783413
0.0124894328 0.4983779349 0.0190961652
0.012098888 0.2488476381 0.5175310125
0.0224520477 0.2482277448 0.7692680281
0.0024397997 0.2471516048 0.7674360184
0.0125414585 0.2480667166 0.0189564733
0.002595988 5.6753592858e-04 0.271798249
0.0221761447 0.4990855428 0.2735219489
0.0126105547 -0.0024379975 0.5199619662
0.0025135985 -0.0054398391 0.7705733003
0.0124444796 -0.001897571 0.0212207965
0.0225051103 0.249289484 0.2701273155
0.002384034 0.2504042446 0.2701430528
0.0424956223 0.4987503946 0.2730942639
0.0323715239 0.2470730544 0.5237944676
0.0422949251 0.2487533777 0.7798583216
0.0525523279 0.4982993846 0.0257587928
0.0323444927 0.2506516782 0.0206842463
0.0325100123 -6.4050325971e-04 0.5204840751
0.0327818052 -8.690193695e-04 0.0221710532
0.0423426925 0.249547391 0.2733405068
0.0524641989 0.2497313298 0.5266919867
0.05231238 0.2463418814 0.0261280645
0.0623883407 0.2521290797 0.2710252687
0.0624449951 0.5003718051 0.770887121
0.0625397893 0.5010388286 0.2726971279
0.0724072767 0.4979144878 0.5179661032
0.0723769129 0.2481275931 0.5199166057
0.0623246508 0.2505135605 0.7744243161
0.072569834 0.2483193869 0.0202443418
0.0624812835 4.6110018107e-04 0.276038995
0.0623883407 9.5930588479e-04 0.7765368204
0.1025703581 -9.6314889282e-04 0.263094583
0.0924655148 0.2503250396 0.5140419552
0.0826543114 0.0034924243 0.2669465245
0.1024300182 0.2495912483 0.758319479
0.0826113578 0.2512944821 0.766471413
0.0925066169 0.2482519645 0.0125472166
0.0825602577 3.2265515895e-04 0.7649069378
0.0923740531 -6.8586609674e-04 0.0185430445
0.1024366834 0.2508068152 0.2619587185
0.082432878 0.2498033343 0.2637703622
0.1024855617 0.4982123246 0.2581725034
0.0924914351 0.503280787 0.5118350269
0.1123141687 -0.0011161257 0.0107834328
0.1223186634 0.2497274023 0.2550796563
0.1125322695 0.2489530266 0.505934456
0.1224504866 0.5012718614 0.7534233197
0.1124063709 0.5004287541 0.0040759075
0.1225500946 0.251498713 0.7560162753
0.1124322912 0.2500010194 0.0081627054
0.1125244934 0.5007665207 0.5039395187
0.1524606382 0.2519628148 0.5013947008
0.1324746067 0.2491022723 0.5037488194
0.142599816 0.2518305883 0.7520310294
0.1524913723 0.2494446209 -4.3431706105e-04
0.1325505162 0.2541294958 6.9367879629e-04
0.142440221 0.2500946252 0.2484996033
0.1425650087 0.501992561 0.7519217939
0.1525550621 0.4983596065 -9.5772195045e-04
0.1326030973 0.4989487343 0.0013660328
0.13233834 0.5008136509 0.506008514
0.1525743172 -0.001171962 0.5002347675
0.1824615325 0.250058623 0.7468849244
0.1825326282 0.25075183 0.2524422659
0.1625554837 0.4988165078 0.7474968286
0.1624692061 0.5016482485 0.249352196
0.1724111218 0.2485026711 0.4974270437
0.1826148326 0.5025424136 0.7492918093
0.1623932967 0.2522848713 0.7474875713
0.1723292878 0.2530808484 -0.0027595715
0.1623366423 -0.00266671 0.2496095476
0.1626395395 0.2489818284 0.2462528689
0.172327066 0.0013006072 0.5019334727
0.1824752333 -0.0024650974 0.2470036318
0.2024038698 0.2491140548 0.2472350631
0.1924760251 0.4993879617 0.001687352
0.2024638568 0.4995424441 0.2492901725
0.1925852606 0.2509815898 0.4976658807
0.2024016481 0.250335513 0.7455278116
0.1922468156 0.2533557746 -0.0018291069
0.1924712113 2.6374238358e-04 0.4996747039
0.2023523995 0.0044737148 0.7477115968
0.1924090026 0.0014527986 -0.0013028322
0.202561243 -1.4980502555e-05 0.2443255095
0.2122058159 0.2515144231 0.4992896023
0.2225272789 0.2525735439 0.7471256129
0.2122254413 0.2531626717 -0.0013475447
0.2221855012 0.0015879707 0.2532550524
0.2123887392 0.0030962032 0.500074617
0.2124635377 0.0033302833 9.6574936048e-04
0.2224195245 0.0030368322 0.7494445539
0.2323221895 5.600736437e-04 0.5031665384
0.2226005963 0.2492947207 0.2499863176
0.2325521395 0.2528838178 0.4999348326
0.2324991881 0.2513782691 -0.0025142822
0.2322873822 -8.0635517773e-05 1.0052695709
0.2527536798 0.2501548472 0.495420072
0.2425595966 0.2489576087 0.7481513161
0.2624197295 0.2502726727 0.2465037403
0.2524567072 0.2513252476 0.9986784092
0.2425303437 0.2523496753 0.2464111678
0.2425151618 -2.4028913903e-04 0.2528588422
0.2525652022 0.4998520635 1.0004743156
0.2524670754 -0.0025607324 0.498284265
0.242194861 -5.5695776199e-05 0.7495241662
0.2627666912 0.248286003 0.7470709951
0.2522997043 -6.7085579438e-05 1.0015759283
0.262406399 5.9679594034e-04 0.2490383753
0.2623997338 0.0041993122 0.7470672922
0.2724956902 0.2507099364 0.497173395
0.2726956468 0.2526363842 0.9932536609
0.2725641938 5.6825597361e-04 0.4961088113
0.2725130938 0.5041114571 0.9942719584
0.282593498 0.252021073 0.7484651369
0.2825649857 6.1820091539e-04 0.7482013053
0.2827034741 0.2503976987 0.2531763658
0.3024673316 0.2485452192 0.2504214083
0.3124559039 0.2528347239 0.4972132012
0.3124299836 0.2519346676 0.9960678648
0.3126158691 -1.3673357165e-04 0.9945404186
0.2924095151 0.2509770077 0.502127875
0.302538057 0.2493857082 0.742093372
0.2925409681 0.4993081022 0.4960773367
0.3024188236 0.5016796687 0.245528952
0.292524305 0.249664562 1.0008631201
0.3024669613 -0.0016856159 0.7417490023
0.2923865571 -1.9086786635e-04 0.4971011885
0.3126580822 0.5006657144 0.993068516
0.2925198615 0.0018257819 0.997558282
0.3225270508 0.2496102313 0.241045666
0.3325074767 0.2519412134 0.4927780529
0.3225488979 0.2493987999 0.7442623456
0.3325785724 0.2546525103 0.9937165234
0.3225207559 4.9756064316e-04 0.2418695612
0.3325785724 1.596631471e-04 0.4927132522
0.3223807863 4.8342157708e-04 0.7407047846
0.3324615607 0.0030436399 0.9925315955
0.3626387131 0.2508670372 0.2406281641
0.3525579386 0.2534022503 0.4900101353
0.3426737881 0.2512892454 0.7338729344
0.3526364401 0.0029290218 0.9897636779
0.3525842292 0.2522089393 0.9883380614
0.3424890134 -3.658388092e-04 0.2451993939
0.3425767722 0.0028691271 0.7417369679
0.3426708258 0.2504553023 0.239197919
0.3625609522 0.2541013485 0.740080846
0.3625202203 0.0033373528 0.2436386216
0.3725995136 0.251604756 0.4909627063
0.3825603141 0.254290524 0.7420674517
0.3727365209 0.2545392668 0.9920131895
0.3824121981 0.0039063847 0.7429255988
0.3825788286 0.2512584798 0.2391831074
0.3925285204 0.0044081907 0.4932436926
0.3926470132 0.0024486863 0.9902080258
0.3725069411 0.0026055907 0.4971706179
0.3724439918 0.0038531014 0.9936794944
0.3926247958 0.2517618568 0.4909432661
0.3925581436 0.2512545523 0.9891249276
0.4124167953 5.432507734e-04 0.4863572247
0.402596705 0.2525054669 0.7409269586
0.4025485673 0.0036956734 0.2358097657
0.4024078571 0.0010748404 0.740706636
0.4026041108 0.5028513783 0.2405902093
0.4025337557 0.2517913132 0.2375556829
0.4125500997 0.2523804409 0.483858693
0.4123982808 0.2504808312 0.9830706864
0.4122501649 3.3797248055e-04 0.9893933879
0.4125649113 0.5045807956 0.9880140577
0.4126278606 0.5057426864 0.4901610285
0.4225294148 0.254301652 0.2367465993
0.4425250738 0.2528458518 0.7376221205
0.4326050052 0.5014250346 0.9891897284
0.4324717008 0.502269451 0.4786514901
0.4427472478 0.2538951538 0.236852132
0.4224590597 0.4995614271 0.2373325832
0.442332523 0.5066584528 0.737862809
0.4325642733 0.2495689924 0.4897277892
0.4227219655 0.2540646917 0.7415092396
0.4326568458 0.2507459387 0.9887268659
0.4423954723 0.5002133952 0.236868795
0.4324679979 0.0034348862 0.9854590568
0.4524858743 0.0028468712 0.9810248343
0.4725518884 0.2502510714 0.4808056521
0.4624911096 0.2504736307 0.7350874856
0.4726259464 0.2522514874 0.9780810289
0.4625022183 0.2505619999 0.2306756951
0.4525080917 0.4991856945 0.9859034048
0.4624651893 0.5033894483 0.7332962078
0.4725852145 0.5020265995 0.4831588449
0.4527524831 0.2484051377 0.4820053916
0.4526413961 0.2504808312 0.9868939305
0.4724482072 7.8132384453e-04 0.9814784395
0.4824756599 0.0011406263 0.2308682459
0.4824830657 0.2519516868 0.7347051612
0.482546015 0.2505580724 0.2286076255
0.4925549532 0.2512322964 0.4816045527
0.492562359 0.2478775411 0.9817006135
0.4825126889 0.4990855428 0.2297953306
0.5025379711 0.2505829467 0.2309672984
0.5122469745 8.347380942e-04 0.9783309747
0.5224373548 0.0018665626 0.2289205205
0.5023898551 0.2504500656 0.7289767751
0.5022158189 0.4995339345 0.7342524817
0.5123580615 0.2462757682 0.4770990494
0.5025194566 0.0028189204 0.730027473
0.5224558693 0.2510535943 0.2299471495
0.5124913659 0.2523077818 0.9783124602
0.5225484418 0.2495716107 0.725136868
0.5123247354 0.5000693862 0.4799299163
0.5222744272 0.4975793395 0.2263266392
0.5222003692 0.5007259363 0.7276178109
0.5524456549 0.248115156 0.4810796667
0.5525604448 -0.0015802929 0.9826170812
0.5323685321 0.4986888635 0.9734524042
0.5324574017 0.5019899426 0.4794087331
0.5324870249 0.0025314915 0.4772943774
0.5325833003 0.2482938581 0.4839716314
0.5325721916 0.2463274805 0.9801824246
0.5424552312 -0.0035787452 0.7345922227
0.5423034123 0.2450955489 0.2345174536
0.5424219051 0.248316114 0.731340151
0.5524123288 0.2516793789 0.9830614292
0.5625471656 0.4979891106 0.7347727391
0.5625471656 0.497980601 0.2320550252
0.5625175424 -0.0043153513 0.2338101998
0.562347209 0.2465690229 0.2304831443
0.5624249699 0.2498406457 0.7346005542
0.5724116907 -0.004009463 0.4869200654
0.5723820675 -0.0039308472 0.9834965199
0.5724079878 0.2485576564 0.4825108375
0.5724487197 0.249547391 0.9820801607
0.5924665961 0.4998311167 0.9845333319
0.5823095419 0.246524511 0.7343043223
0.6025273749 0.2491127456 0.2346803812
0.5925591686 0.2480555886 0.4866673425
0.6023903677 0.2475554846 0.7375517654
0.5924480816 0.2457959564 0.9846999624
0.6024459112 0.4962053627 0.7361687323
0.5825354188 0.2488378194 0.2313662859
0.5925480599 0.4981861411 0.479978054
0.5827205638 0.4978437924 0.2348109084
0.61250669 -0.0031116324 0.9904301998
0.6123919001 0.498855783 0.4894547004
0.622337889 0.2482408366 0.7462174767
0.6225748746 0.4944484528 0.2408845899
0.612873277 0.4983236042 0.9925963962
0.6225674688 0.495196645 0.7399392101
0.612358574 0.2471993896 0.4953515683
0.6123696827 0.2474821709 0.9906060876
0.6223860267 0.2473787463 0.2422074508
0.6424557437 0.2473879105 0.244667102
0.652386921 0.2484751785 0.4902554524
0.6425742365 0.2433726776 0.74117135
0.6524313558 0.2515792272 1.0006872323
0.6323468272 0.4968939876 0.9959567778
0.6425260988 0.4975302455 0.7420581945
0.6522684282 0.4970897089 0.9943923026
0.6426186713 0.5005361063 0.2403347092
0.652460979 0.4975341731 0.4989461583
0.6322986895 0.2492888294 0.4938148649
0.6324542113 0.2455216847 0.9901617396
0.6623143954 -0.0020385034 0.7443771355
0.672530696 0.4969326082 0.4928252649
0.6824766849 0.500598292 0.7456185327
0.6724381235 0.4979760189 0.9943089874
0.68254704 0.4997794044 0.2491707539
0.6623329099 0.2474579512 0.2458816532
0.6622699606 0.246103612 0.7478430497
0.6825877719 -6.0083532429e-04 0.248430174
0.6825803661 -7.3116347514e-04 0.7430385372
0.6625921129 0.4983085488 0.7482707346
0.6624476998 0.5004097711 0.2479099165
0.6824211414 0.2489288069 0.239568209
0.6723788771 0.2502916557 0.4958560884
0.6825655545 0.250884711 0.7481614991
0.6723381452 0.2500566592 0.996373354
0.7025389962 0.248316114 0.2471961826
0.6925522753 0.2501849581 0.4942101494
0.7023501483 0.2504409014 0.742770077
0.6923634275 0.2478605219 0.9922446207
0.7025908368 0.5018060039 0.7469876799
0.7025315904 -0.0012759757 0.7408630836
0.702472344 -0.0010913169 0.2422898403
0.6925448695 0.497170223 0.9918187873
0.6925818985 0.4990554318 0.4925743935
0.7125812605 0.2489988476 0.4927465783
0.7125516373 0.2472733579 0.9941238424
0.722356916 0.499105835 0.7373823577
0.7225457639 0.2512159317 0.2430267174
0.73237326 0.4988989857 0.987615996
0.7325509992 0.2483017131 0.4905711247
0.7225013291 0.4998029695 0.2414215103
0.7325139702 0.4995254249 0.4894778435
0.72257909 0.248009113 0.7420452343
0.7325917311 0.2463929392 0.9918280445
0.7125034996 0.4994959685 0.9857460316
0.7625185674 0.498238508 0.7383793635
0.7426080751 -8.5939694952e-04 0.7420313485
0.7524837089 0.5003757326 0.9914577545
0.7624482123 0.498056533 0.2407809087
0.7627703646 0.2479888208 0.2439774369
0.752405948 0.2474206398 0.4932946075
0.7626111399 0.2490937626 0.7425145769
0.7525725785 0.2486866099 0.9928278275
0.7424303359 0.4972749568 0.7367760079
0.7522689407 0.4992596628 0.4938472653
0.7426414012 0.2492927569 0.2422935432
0.7426525099 0.2496095767 0.7436097095
0.7824660887 0.4984735045 0.2424685053
0.7825697699 0.4987909789 0.7427478596
0.7826253134 0.2510673406 0.2486606795
0.7724164186 0.2497188926 0.4972196813
0.7825364438 0.2486964287 0.745327855
0.7724682592 0.24889215 -0.0051098761
0.7924824328 0.4998959208 0.4914727808
0.8126002875 0.4998036241 0.4927512069
0.8025321029 0.5011108331 0.7450306973
0.8024506391 0.5016515215 0.2448846474
0.792512056 0.2493071578 0.4968466141
0.7925675995 0.2515739905 1.0022146785
0.8126706426 -0.0017886478 0.5012002986
0.8027283566 0.2491952235 0.2465111461
0.8126002875 0.2489621908 0.4969632555
0.8024876681 0.251608029 0.7466442359
0.8125854759 0.2490826347 0.9950495674
0.8326737074 8.7146039085e-04 0.5096753105
0.8224018633 0.2512375331 0.2512008688
0.8326440842 8.1863526893e-04 1.0035477224
0.8325255914 0.2508225253 0.5018020198
0.8227055011 0.2511327992 0.7470145259
0.8325626204 0.25191503 0.0012650362
0.832429316 0.5030045515 0.49809912
0.8324811566 0.5017981488 1.0042049872
0.8225055445 0.502201374 0.2470008546
0.8425530441 0.4995856468 0.7516412992
0.8426530224 0.5007560473 0.2519701462
0.8428455732 8.3571997379e-04 0.2515563471
0.8424271455 0.2527371905 0.256080365
0.8424789861 0.2519759065 0.7528197471
0.8625746234 0.2518986653 0.2494188482
0.8526064171 0.2515530437 0.4972465273
0.8625672176 0.2518685544 0.753267798
0.8526323374 0.2510758502 -0.0018285514
0.8923977786 0.5014374717 0.0019685872
0.8726613225 0.0021920884 0.5014113639
0.8826110144 0.2513592861 0.2477821665
0.8725576413 0.2515687538 0.4976492177
0.8925718149 0.2500069106 0.499909838
0.8826073115 0.2523817501 0.7514080165
0.872424337 0.2519320492 -0.0020911981
0.8925236772 -6.3747188833e-05 0.5066333783
0.8724983949 0.0017410784 0.0027480476
0.8925199743 0.2503643148 0.0043168737
0.8725169094 0.5023499652 0.5030860003
0.8926532787 0.5014904932 0.4996321205
0.9125600681 0.5029692039 0.5010336681
0.9026251879 0.4994494928 0.7520958302
0.9124674956 0.499545717 0.0017714078
0.9026548111 0.499355887 0.2541122737
0.9125933942 -0.0035185233 0.502175087
0.9025955647 0.2487965804 0.2508888994
0.9124934159 0.0014511621 0.0050549542
0.9125341478 0.2459425837 0.506146447
0.9024030139 0.2489255339 0.7503082553
0.9125933942 0.2496076129 0.0079608974
0.9423276797 0.2499938189 0.7547730267
0.9324779662 0.2487219576 0.001495264
0.932485372 0.4990547772 0.5066824418
0.932485372 0.5011926564 0.0053845123
0.9225504918 0.4968540578 0.7564800635
0.9225171657 0.4971721868 0.2529680777
0.9424313609 0.500337112 0.7542546208
0.9224023758 0.2498943218 0.2535568388
0.9223690497 0.2518044049 0.7516190818
0.9425202305 0.2505613453 0.2497354462
0.9324335314 0.2498701021 0.5014030323
0.9725396394 -0.001792248 0.5209043542
0.9625195924 0.0050777016 0.761416029
0.9623344475 0.2485628931 0.257403226
0.9524736252 -5.5134859298e-04 0.0045033147
0.9725396394 -1.6553537294e-04 0.0175352078
0.9524588136 0.2490859076 0.5052790427
0.9723952263 0.2508742376 0.5116211844
0.9624344257 0.2526874419 0.7555321212
0.9524477049 0.2501018257 0.0043514032
0.9525291687 -1.961045575e-04 0.5053910555
0.9722434074 0.2535554235 0.014627228
0.9723544944 0.5009884255 0.5210404358
0.9626047591 5.4560728441e-04 0.2617069213
0.9524328933 0.4997381654 0.5049318959
0.962608462 0.5007226634 0.7578621709
0.9824189761 0.2502582718 0.2691247553
0.9826670704 0.0013569017 0.7699771334
0.9924871607 -7.2180288972e-04 0.0197328788
0.9923057186 0.2511969487 0.517364382
0.982459708 0.248645371 0.7660826085
0.9924686462 0.2488024717 0.0140282839
0.9922501751 0.4986482791 0.0268521666
0.0225069617 0.7487035542 0.7735856093
0.0023707777 0.5002585616 0.2676843273
0.0024536115 0.7500061811 0.771819326
0.0124057843 0.500280163 0.5246063283
0.0023569659 0.4989467705 0.7716249238
0.0225250689 0.998768648 0.2687350251
0.0225291051 0.9963401325 0.7701446896
0.0125463464 0.7510862486 0.0240101909
0.0225279572 0.7476365783 0.2745856068
0.0024858268 0.751066611 0.2745115488
0.0124936541 0.7478722294 0.5223660739
0.0525319619 0.9983693503 0.522325342
0.0527396946 1.0020743093 0.0250739415
0.0324785377 0.7483500775 0.0221105108
0.042483773 0.7466481529 0.2723777528
0.032552966 0.7486970083 0.5233769656
0.0424200831 0.7476169407 0.77562961
0.0425648665 0.4993048293 0.7703029886
0.0323748565 0.4998514089 0.024038981
0.0323841137 0.4979976202 0.5225447389
0.0425519064 0.9975838466 0.2717686258
0.0524105068 0.5000229105 0.5252108267
0.0523579257 0.7487428293 0.0228322059
0.0524908598 0.7474009272 0.5209811894
0.0425330216 0.999442872 0.7748649611
0.0724013521 0.5000713499 0.019325097
0.0724687449 1.0013280808 0.5174569545
0.0723354405 0.9996130645 0.0228473878
0.0725816833 0.7513349915 0.0201725056
0.062585335 0.7487166459 0.2721814991
0.0727423892 0.7519633944 0.5207247636
0.0625101661 0.749528333 0.7713379491
0.0923759046 0.9994756013 0.5139984461
0.0926058547 0.751983032 0.0088687559
0.1024148363 0.7494628744 0.2579697696
0.082685786 0.7497181631 0.2654357414
0.0926380699 0.7495152413 0.5082043336
0.1025788747 0.7521532244 0.7602366554
0.0825928433 0.750732772 0.7651402205
0.1025918349 1.0000909125 0.756969772
0.1024888943 0.5017641103 0.7586212654
0.0823910352 0.4997106728 0.7666065688
0.0924625524 0.5009628966 0.0114734682
0.0825776614 0.4980159486 0.2633797063
0.1124004462 0.7503596577 0.0067657865
0.1222783018 0.7496134292 0.2572995448
0.1124478433 0.7514724546 0.507586875
0.1223971649 0.7510797028 0.7549461373
0.1222927431 0.998624639 0.2547871272
0.1223701337 0.9991875833 0.7539454286
0.1223253286 0.5004287541 0.2475840614
0.1123852643 1.0003985681 0.5097651059
0.1425050217 0.7507720472 0.2505037979
0.15256506 0.750490575 0.5022519221
0.1323690741 0.7485529993 0.5001681153
0.1423683847 0.7490832143 0.7533177871
0.1523673251 0.5020207082 0.4982324244
0.1324164712 0.9979438692 0.0035643519
0.142354684 0.4994259277 0.252438563
0.1423224688 1.0002087381 0.2528736538
0.1322942755 0.9980682406 0.5087282939
0.1423994891 1.0014524522 0.752813267
0.1524043541 1.0003003802 0.0046310647
0.1524969266 0.7501109149 2.6071723496e-04
0.1322750204 0.7479769633 0.0016608762
0.1724096407 0.751695014 -0.0017738411
0.1625665924 0.7482191602 0.2532309836
0.1724774038 0.7514986381 0.4989813359
0.1623784851 0.752172862 0.752611459
0.1824785659 0.997276191 0.744681699
0.1723866827 0.5008738728 -0.0012498807
0.1725999697 0.5015219134 0.4987545333
0.1823948803 0.7490504849 0.2505315696
0.1823226738 0.7507655013 0.7475570007
0.1723737226 1.0017928371 -8.0627334786e-04
0.162433288 0.9986442766 0.7479272907
0.1825248521 0.5000026183 0.2489291397
0.2024164597 0.5008889283 0.7486984196
0.1927048643 0.4987242111 0.4954404379
0.1925486019 0.7484089903 -0.003641269
0.2024342336 0.7524674259 0.2501881257
0.1926659839 0.7511058862 0.4947470699
0.2025575401 0.7507524096 0.7497296772
0.2324917823 0.7534296679 9.6824881786e-04
0.2323251518 0.4964076299 -0.0027105266
0.2324003207 0.752991095 0.4992405389
0.2125872146 0.7510731569 -0.001534356
0.2225246868 0.7487035542 0.2533180017
0.2125831414 0.7541758964 0.4999190952
0.2227002043 0.7501960111 0.7556311738
0.2323629214 0.5000890237 0.5006124632
0.2225309818 0.5018983005 0.7528799192
0.2126583103 0.5000595674 -0.0067355695
0.2224817332 0.5023957862 0.252755161
0.2124428015 0.4991012529 0.5001718182
0.252501142 0.7497967134 -0.0032216656
0.2425981068 0.7505102126 0.2482829837
0.2525340978 0.7498425345 0.4955654108
0.2425855169 0.7483893527 0.7505535724
0.2423577886 0.499420691 0.7510988244
0.26266301 0.5018079676 0.7443271463
0.262609318 0.7501370984 0.2470027061
0.2425240488 0.4990855428 0.2483496359
0.262665602 0.752991095 0.7459564223
0.2625822868 0.5002971822 0.246164925
0.2524741109 0.4982365443 0.4971391432
0.2725375329 0.9997898028 0.9955309443
0.2823731754 0.5042914684 0.2461399304
0.2725982605 0.4992380614 0.4976205202
0.2823628073 1.0016946492 0.2444440023
0.28241724 0.5011481445 0.7508192554
0.2824516769 0.7488279256 0.2467777549
0.2823872465 0.749914539 0.749663025
0.2724016365 0.7500847314 0.9964011258
0.272377938 0.7516426471 0.4937500641
0.3124744184 1.0002938343 0.493626017
0.2924446927 0.7511124321 0.9940034982
0.302535465 0.7488410173 0.2476220161
0.2924028499 0.748376261 0.4945471133
0.3023521714 0.750444754 0.7426247382
0.302486957 0.5009282035 0.7458555182
0.2925165289 0.501508167 0.997743427
0.3024051229 1.0017339244 0.2448578014
0.3125103365 0.7506934968 0.9940590417
0.3123840676 0.7489850263 0.491418163
0.312454793 0.5004837393 0.4928011961
0.332513031 0.5006591685 0.4919125001
0.3223711587 0.4994737125 0.7416073664
0.3323497331 0.7475645738 0.9924482802
0.3325041441 0.499355887 0.9952254551
0.3225600066 0.7510338817 0.2419482478
0.332544876 0.7511517073 0.4920865364
0.322405966 0.7512891704 0.7412305964
0.3226244371 0.5014518726 0.2402634284
0.352582748 0.5018511703 0.4919171287
0.3525172067 1.0019172086 0.4894908036
0.3624980029 0.7537307777 0.2424046302
0.3624720826 0.7503203825 0.7475310804
0.3625128145 0.5010565024 0.7451001267
0.3623869159 0.504466243 0.2445726781
0.3524168581 0.7520615824 0.9912078088
0.3425627011 0.7517735643 0.2403448922
0.3524927676 0.7494759661 0.4939648323
0.3425201178 0.7513218997 0.7434597421
0.3626276044 1.0007585906 0.7468145693
0.3425634417 0.5017294173 0.7439994397
0.3526475488 0.503905917 0.9931888602
0.3423842214 0.5002683804 0.239309006
0.3725698904 0.5010146089 0.9948829369
0.3826714011 0.5011291615 0.2417899489
0.3727883615 0.5034156318 0.497617743
0.3924026218 0.5010322827 0.991957646
0.382638075 0.5041605511 0.7473172379
0.3724513976 0.7517277433 0.9933740052
0.3824751474 0.7539402453 0.2384554876
0.372584702 0.7526048891 0.4954913528
0.3828195171 1.0021724973 0.2406466785
0.3826232634 0.753135104 0.7470737723
0.3924655711 0.753619498 0.9904116853
0.3925359262 0.7521663162 0.4880346383
0.3924100276 0.5034621074 0.4894806207
0.4026670601 0.5026327465 0.742453479
0.4025115383 0.751695014 0.2408383036
0.4024930238 0.7522579583 0.7374888161
0.412427904 0.7533903927 0.9861996368
0.4126019403 0.7526638018 0.4871681597
0.4224294365 1.0000712749 0.7327018924
0.4424769361 1.0037565963 0.2345202308
0.4324717008 1.0039267888 0.4835198777
0.442517668 0.99954106 0.7353281741
0.4226997481 0.4999489423 0.7377665336
0.432427266 0.7543068137 0.9886528079
0.4223331611 0.750732772 0.2350228994
0.432316179 0.7522055914 0.4890001694
0.4225405235 0.7505036667 0.7407751397
0.4423880665 0.7521466786 0.2370289454
0.4425213709 0.7529780033 0.7359548899
0.4223664872 1.004686109 0.2361402495
0.4726074319 1.0029580009 0.4858314129
0.4723852579 0.5033619557 0.9828207407
0.462439269 0.5008699453 0.2311367061
0.4723963666 0.7512891704 0.9772478765
0.4625799792 0.7530696454 0.2308654687
0.4723630405 0.7513218997 0.4814490309
0.4621652544 0.7531874709 0.7333239795
0.4524821714 1.0008960538 0.4830459065
0.4623837255 1.0024146942 0.2313986863
0.4624911096 1.001511365 0.7309180204
0.4523747873 0.7526048891 0.9853849988
0.4524340337 0.7522317748 0.4803094635
0.4525636352 0.502992769 0.4857758694
0.4925438445 0.4988682201 0.982718911
0.4923624024 0.5013739768 0.482159062
0.4824090077 0.5012338954 0.7280695647
0.482583044 1.0025914325 0.729414643
0.4926290112 1.0008764162 0.4778942471
0.4923920256 0.9998159862 0.9838205237
0.4923179676 0.7520484906 0.482879276
0.492303156 0.7470147213 0.9860515208
0.482471957 0.753377301 0.2323882862
0.4823312468 0.7516819222 0.7296331141
0.5023972609 0.4989120774 0.2345535569
0.5124395253 1.0001040043 0.4834948831
0.5224558693 0.9979438692 0.7304162774
0.502430587 0.9987555563 0.2311950268
0.5224966012 0.7451164207 0.7344357752
0.5021973044 0.7493646864 0.2363689035
0.5024602102 0.7484024444 0.7341358403
0.5123358441 0.7514593629 0.9858756331
0.5123136267 0.5005649081 0.9784050327
0.5123913876 0.7501370984 0.4801696791
0.5222188837 0.7475907573 0.2328381886
0.5524012201 0.9968507099 0.4799799054
0.542536695 0.4978536112 0.7278242476
0.5425107747 0.7480686054 0.2278929658
0.5523530824 0.4983929904 0.4859693459
0.5523493795 0.7473092851 0.4825608266
0.542166405 0.7489653887 0.7299376776
0.5326092206 0.9977016722 0.9787660654
0.5424848544 0.4981377017 0.226381257
0.5322463364 0.7487559211 0.9817746715
0.5524974955 0.5010316282 0.9852553973
0.5424959631 0.9972892828 0.2316578892
0.5323611263 0.7487297376 0.4764149386
0.5725375893 0.4974405672 0.9852553973
0.562458296 0.9941538139 0.7337942478
0.5524012201 0.7460524793 0.9780439999
0.5624323757 0.7477740415 0.2332593934
0.562273151 0.7483435316 0.7363835005
0.5725227777 0.745823374 0.976710956
0.5724783429 0.4970222865 0.4833217725
0.5724413139 0.7449462283 0.4848538473
0.6026495706 0.4961759063 0.2333704804
0.6024718315 0.9976820346 0.2368104743
0.6023829619 0.9999076283 0.7385904288
0.5925887918 0.7465172356 0.98275594
0.5925332483 0.9980616947 0.4847677549
0.5924184584 0.9970667234 0.9850054516
0.6025644039 0.7476823994 0.2353293144
0.5925480599 0.7495348789 0.4828533557
0.6026977083 0.7485726369 0.7394235813
0.5825020927 0.9971387279 0.2349340299
0.5826835348 0.9949524093 0.7341275088
0.5826613174 0.4984303018 0.7335757767
0.5825983681 0.7467528867 0.2346359464
0.5826353971 0.7475449362 0.7334656154
0.6125733422 0.7509553313 0.9862644375
0.6124881755 0.9971059986 0.4882818068
0.6124881755 0.7474271107 0.4859637916
0.6225563601 0.9980420571 0.7415370113
0.6226378239 0.7475842114 0.2416612731
0.6224415702 0.7510076983 0.7410584115
0.6223230774 0.9985984555 0.2427156738
0.6425038814 0.9933617644 0.7389579416
0.6325875157 0.4984983788 0.4900971535
0.6423483596 0.9960979355 0.2397098449
0.6525239283 0.9979700526 0.493652863
0.6524683848 0.9969161685 0.9928370847
0.6324764287 1.0008698703 0.4943527111
0.6323283127 0.9995476058 0.992216849
0.6327134143 0.7469819919 0.9877363402
0.6326615737 0.7469492626 0.4913885398
0.6525202254 0.7441738163 0.9913003813
0.6424631495 0.7487101 0.2423648241
0.652646124 0.7473027393 0.4924290546
0.6425372075 0.7481275181 0.7431533271
0.6724381235 0.7494235992 0.9964659265
0.6622477432 0.9940818094 0.2474868602
0.6723159278 0.9978129519 0.9959012343
0.6825322284 0.7507916848 0.2444986201
0.6725343989 0.7494301451 0.4951719777
0.6824766849 0.7493057736 0.7440272115
0.6726454859 1.0002872884 0.4945693307
0.6625217578 0.7514659087 0.2416714561
0.6626032216 0.7500127269 0.7451167897
0.7023760686 0.5002284507 0.2400199628
0.6925781956 0.9993708675 0.4930104099
0.6927374203 0.9994690555 0.9937905814
0.6926189275 0.7505822171 0.9961326656
0.7027204382 0.7473878355 0.2406263126
0.6924411884 0.7465565108 0.4940833251
0.702472344 0.7485726369 0.742187796
0.7125405286 0.4967833625 0.4851722967
0.7124701735 0.7490701225 0.4924725637
0.7226346335 1.0008175034 0.7395911375
0.7324399122 0.9995606975 0.9933832624
0.7324325064 0.7513808125 0.9924112512
0.7225605755 0.7491159436 0.2404717165
0.7325361876 0.7497639841 0.4940851766
0.7224828146 0.7490308474 0.7443336264
0.722468003 0.9986770059 0.2443134751
0.7324547238 0.9967328843 0.4922170636
0.7124701735 0.7499734518 0.9892175001
0.7125886663 0.9991286705 0.492360551
0.7125738547 0.9997374359 0.9902635693
0.742389604 0.5001315719 0.2386508155
0.7425784519 0.7487886504 0.2444801056
0.74253772 0.7504120246 0.7449788567
0.752554064 0.7492206774 0.9907727181
0.7626333573 1.0006800403 0.7378711405
0.7525836872 1.0019303003 0.9942349294
0.7627999878 0.749482512 0.242691605
0.7525096292 0.7483958986 0.4928011961
0.7627111182 0.7495545165 0.740938993
0.7524688973 0.9984020796 0.4909053114
0.7426339954 0.9972500076 0.2408318235
0.7624852413 1.0000909125 0.245000363
0.7824623858 0.9961175731 0.2481913369
0.7723793896 0.9985460886 0.4924188717
0.7825586612 0.998094424 0.7491094415
0.7724941795 0.9982973458 0.9942441866
0.7826142047 0.7474860235 0.2439755855
0.7728015202 0.7483828068 0.492377214
0.7825586612 0.7482257061 0.7442364253
0.7725349114 0.7489392053 0.9894952176
0.7725312085 0.4991536198 0.4925679134
0.7724534476 0.4984460119 0.9906338593
0.792693498 0.9974267459 0.5021204692
0.7926749836 0.7508636893 0.9936609799
0.7925527879 0.9981140616 0.9983544054
0.8127558093 0.7517473809 0.997187992
0.7925935198 0.5000896783 0.9945774476
0.8026431899 0.9998159862 0.2517516751
0.8126113962 0.5042816496 0.9939664692
0.8026135667 0.750778593 0.2498715277
0.812766918 0.747747858 0.4998533688
0.8026505957 0.9978915022 0.7513987593
0.8026431899 0.7483435316 0.7442762315
0.8126076933 0.9990828495 1.002455367
0.7926083314 0.7481406099 0.4986971383
0.8225647909 1.0026437995 0.7527355061
0.8226943924 1.0019303003 0.2514933978
0.8328181205 0.7482977106 1.0014833558
0.8225758996 0.4980656972 0.7489279994
0.8226277402 0.7519175733 0.2539789693
0.8327514683 0.7543264513 0.5059594506
0.822635146 0.7507458637 0.7522550549
0.8426752398 0.752801265 0.2505075008
0.8426382108 0.7492926819 0.7546693455
0.8623968842 0.4996052844 0.7461628589
0.8426159934 0.9992203126 0.7546276879
0.8625561089 1.0022445018 0.2520423527
0.8624598335 1.0017928371 0.7503499129
0.8525767939 1.0021070386 -0.0017213525
0.8626338698 0.7496527044 0.7517357232
0.8525953084 0.5045114094 0.4997570934
0.8526545548 0.7522383207 0.001663746
0.8524064605 0.5021751906 -5.5880699558e-05
0.8625079712 0.5013523755 0.2503806764
0.862663493 0.7536325897 0.2512795554
0.8527397215 0.7523037793 0.5037812198
0.8526249316 1.0019303003 0.5017760995
0.8824184636 1.0012822598 0.750383239
0.8926532787 0.9986050014 0.0041358019
0.8826554491 0.7510338817 0.7524642687
0.8725798587 0.7512760787 -0.0011371274
0.8925755178 0.7501305525 0.0012840136
0.8825221448 0.5009589691 0.7491316589
0.8824962245 0.4991804578 0.2515359812
0.8826850723 0.7515248215 0.2507231947
0.872753895 0.7527881732 0.5047448994
0.8925088656 0.7510404276 0.503632178
0.8725650471 0.5026680941 -9.730889847e-04
0.8826036086 1.0034620324 0.2507213432
0.9126267203 0.7489915722 0.5022574765
0.9025511299 0.9992530419 0.2559683523
0.9026622169 1.0013346267 0.7545054922