POSCAR file written by Ovito 3.7.11
1
270.0310555237 0.0 0.0
0.0 15.2752632393 0.0
0.0 0.0 10.8012422209
Sr Ti O 
800 800 2400 
Direct
0.0226120611 0.4991358578 0.7742069827
0.012468339 0.4992353651 0.0266172301
0.0125897695 0.2471402005 0.520572267
0.0223178357 0.249791546 0.7734070747
0.0025481096 0.2530837969 0.7671003927
0.0124651912 0.2480128532 0.0246763422
0.0023669083 0.0018917919 0.2727146646
0.0226368361 0.4990422424 0.2715851649
0.0125386272 4.9796979292e-04 0.5217952745
0.0027084245 -5.6629991853e-04 0.7690594266
0.0125565511 -0.0018397313 0.020053448
0.0222906907 0.2500743562 0.2723748889
0.0024913014 0.2496998945 0.2699307255
0.0422993152 0.4992419116 0.2756633995
0.032471927 0.2491159439 0.5252754297
0.0423456062 0.2498249333 0.7776399212
0.0524003756 0.5010448265 0.0223353152
0.0323908253 0.2490367308 0.0207961404
0.0325889506 -0.0031311002 0.5235728478
0.0324878511 -0.0012200366 0.0213665377
0.0424152278 0.2484711105 0.2743015191
0.0524977718 0.2485156269 0.5208805649
0.0524903653 0.2517031333 0.0226096355
0.0623536752 0.2485339572 0.2738682356
0.062503658 0.5003443476 0.7720072357
0.0623870047 0.4990834855 0.2728813121
0.0724251094 0.5001885401 0.5217387995
0.0724462181 0.25361603 0.5171541416
0.0624484791 0.2476030403 0.7723914508
0.0725710185 0.2519447004 0.0177700995
0.0623710806 -0.0026486208 0.2707121171
0.0623699696 -0.0033776426 0.7732237625
0.1022264964 0.0010190083 0.2571757111
0.0925798282 0.2507152616 0.5112113067
0.0822684217 6.71125565e-04 0.2674245323
0.1024598029 0.2508691051 0.7549230896
0.0824139605 0.2475919112 0.7673170345
0.0924946528 0.2511152547 0.0090797102
0.0822302779 -1.1655316835e-04 0.7648876843
0.0924635453 5.8765728167e-04 0.0096896401
0.10241129 0.2502471846 0.2555110878
0.082509505 0.248573891 0.2604336697
0.10245647 0.4975241016 0.255294446
0.0924665079 0.4977689419 0.5126666948
0.1123838467 8.4375761453e-04 0.0079786332
0.1225460111 0.250520175 0.2542186439
0.1124316189 0.2513201612 0.505636022
0.1224682423 0.500856941 0.7556665227
0.1124560606 0.4981761362 0.0051036861
0.1224200997 0.2534634958 0.7555137624
0.1123745885 0.2492907363 0.0029592105
0.1123112624 0.5009138959 0.5028076436
0.1524418318 0.248398444 0.4993571146
0.1324156167 0.2503669861 0.5061081899
0.1424507587 0.2508291713 0.748824717
0.1526199594 0.246405025 0.0010710943
0.1323304413 0.2486000771 7.6094482841e-04
0.1424707564 0.253355478 0.2512921286
0.1425707449 0.5005616924 0.7503291736
0.1524151682 0.5010330428 -0.0010716222
0.1322682262 0.4984903697 0.0039871478
0.1325174568 0.4999325707 0.4955001508
0.152359619 -0.0032626855 0.4999264935
0.1825239273 0.2514275243 0.7477091046
0.1823595017 0.2483041739 0.2478277123
0.1625091923 0.5007351755 0.7485553036
0.1624925276 0.4962920443 0.2486692822
0.1723525046 0.2494458891 0.5017355447
0.1825331855 0.4995718568 0.7490098809
0.1625839985 0.2526864224 0.7495987021
0.1724369393 0.2485915667 0.0035869161
0.1624484586 0.0012665981 0.2533178215
0.1626202907 0.2513777707 0.2482646991
0.1723925 0.0018640346 0.5007523245
0.1823306162 1.4432613288e-04 0.2533502252
0.2025805092 0.2519787423 0.2509403172
0.1923857559 0.500634359 -0.0057806824
0.2024890383 0.4986114806 0.2472898112
0.1921998514 0.2486138249 0.4948085637
0.2025249601 0.2511604258 0.7485404904
0.1925472188 0.2502151066 3.0053482201e-04
0.1923420572 -4.0807023946e-04 0.4969518357
0.2025131096 0.0010794328 0.7515845848
0.1924183448 -5.7481041016e-04 0.0021045866
0.2024408957 0.0016006676 0.2515226577
0.2124960354 0.2522779188 0.4962648777
0.2224374845 0.250714607 0.7490339522
0.2125763965 0.2511781015 -0.0037823937
0.2224134132 4.4906719869e-04 0.2457714673
0.2124930728 6.0585664071e-04 0.499462658
0.2124001205 0.0013579222 -2.8143527656e-04
0.2222026967 0.0021367632 0.7503486158
0.2323696755 0.0046061805 0.5009976666
0.2226219078 0.2536376335 0.2490099837
0.2325004012 0.2500088908 0.4990802946
0.2323552327 0.2509830148 -0.0028882188
0.2323515294 4.1090091697e-04 1.0016363792
0.2525866094 0.2497496482 0.4997329973
0.2425944253 0.2521286579 0.7470156658
0.2624758423 0.2501928484 0.2495951016
0.2525992005 0.2522183454 0.9960073971
0.2424874006 0.2506746731 0.2460732844
0.2423311223 -0.0018991084 0.2498024851
0.2525866094 0.5034663887 0.9981923309
0.2523799665 0.0013942555 0.5023262175
0.2423351959 1.1185533403e-04 0.7474461719
0.262694706 0.2489444247 0.7455491678
0.2525051372 0.0018036101 0.9977479376
0.2625984208 0.0012736684 0.2494969647
0.2625750901 3.0255581195e-04 0.7460954013
0.2725402402 0.2501666623 0.5016401853
0.2726602264 0.2529908362 1.002386293
0.2725687554 0.0056524472 0.5000153722
0.2723869245 0.5008549771 0.9977016466
0.282546867 0.2506229555 0.7494227964
0.2825383495 0.0022997718 0.7518752921
0.2825901954 0.2494210123 0.2483600585
0.3025264208 0.2525109754 0.2455307543
0.3125430465 0.250503154 0.4950215022
0.3124563898 0.2501692809 0.9981830727
0.3125360102 0.0013844357 0.996099979
0.2924198055 0.2494262495 0.4998005821
0.3023671799 0.2502727161 0.7503495416
0.2923746255 0.5014219068 0.4964880002
0.3026660344 0.4993728422 0.2477258721
0.2926008958 0.2481542583 1.0005809451
0.302601227 -0.0011480902 0.74329202
0.292387587 0.0021715252 0.4969379484
0.3124593524 0.4951758606 0.993192906
0.292629411 0.0025742024 0.9985811751
0.3225322679 0.2523473121 0.24575758
0.3324992696 0.249676327 0.4927273216
0.322481533 0.2491814092 0.7463805537
0.3327022092 0.2497980925 0.9929799675
0.3225511546 6.3957128064e-04 0.2436365277
0.332692951 7.3521611354e-04 0.4949187362
0.3226748441 7.2938970003e-04 0.7480599902
0.3326585106 -9.685188462e-04 0.9947297662
0.362458046 0.2525207952 0.240230438
0.3524984508 0.2538327202 0.4955168156
0.3425436699 0.2503309802 0.7397776095
0.3525447418 0.0029697439 0.9943038893
0.352707686 0.2525057381 0.9939057869
0.3425114513 -2.3065922156e-04 0.243240277
0.3425188579 0.003227219 0.7413107665
0.3424107222 0.2509064204 0.2399915766
0.3627283852 0.2540644674 0.7386703294
0.3624173099 0.002050218 0.2432125024
0.3725087418 0.2546752589 0.4897526637
0.382444636 0.2548932584 0.7399433311
0.3725124451 0.2527564703 0.9923041193
0.3826335032 0.0032287902 0.7344745157
0.3826668327 0.2500678096 0.2390564989
0.3923731236 -0.001332637 0.4895082474
0.3924138597 0.0012489879 0.9897210831
0.3726309499 0.002351293 0.4917829858
0.3725050385 0.0029578947 0.9876194729
0.3925212547 0.2518209709 0.4893110479
0.392591617 0.2516285029 0.9891841078
0.4124485923 0.0022174819 0.4850013584
0.4024497424 0.2505712379 0.7389767756
0.4024015998 0.0036505832 0.2412451361
0.4024164129 0.0017096674 0.7364844697
0.4027089718 0.5034251456 0.2387065392
0.4024201162 0.2525391255 0.2391000124
0.4125708005 0.2527931309 0.4852531813
0.4127041185 0.2525993536 0.988860071
0.4126189431 0.0027250345 0.991526431
0.4125411743 0.5005950798 0.9854715719
0.4124411858 0.4997551597 0.4889546074
0.4226511225 0.2521365137 0.2372696674
0.4425229109 0.252607864 0.732837667
0.4325129512 0.5027043724 0.9837958387
0.4325092479 0.4998317541 0.4875381036
0.4424377356 0.2524415821 0.2350717721
0.4225252111 0.5033596802 0.2350921401
0.4425451306 0.5035547669 0.7355160626
0.432524061 0.2520088564 0.4847189835
0.4225066947 0.2504972621 0.7377408067
0.4326351593 0.2536101381 0.9803054994
0.4424451421 0.502835303 0.2368465679
0.4323796332 0.0020047851 0.9855086046
0.4523958494 9.3842046762e-04 0.9876194729
0.4726675918 0.2516324308 0.4850059875
0.4625613469 0.2505195203 0.7270772184
0.4725268673 0.2498360624 0.983906937
0.4628279829 0.2522203094 0.2315786553
0.452469915 0.5011057093 0.9845550106
0.4624613584 0.5020484099 0.7345217325
0.4723120772 0.499675292 0.4799510134
0.4526180461 0.2538615249 0.4836070743
0.4527032215 0.2511231106 0.9801573683
0.4723861427 0.0020574847 0.9814072245
0.4825146074 0.0013443055 0.2300353143
0.4825257172 0.2480704627 0.7297435784
0.4824257287 0.2510085463 0.2268069819
0.4925838196 0.2472338159 0.4770133883
0.4923912491 0.2472364345 0.9824256259
0.4825183107 0.4980969231 0.23204712
0.5023567696 0.2510569906 0.2358938997
0.5125000473 -0.0014083149 0.9808239583
0.5224211284 4.6438608363e-04 0.2311259296
0.5024752745 0.2504913702 0.736431698
0.502508604 0.4995057368 0.7328848837
0.512363026 0.2502164159 0.4871131525
0.5024345384 8.5082786911e-04 0.7324275289
0.5222544809 0.2483696392 0.2354615421
0.5123037736 0.2502642056 0.9837402895
0.522402612 0.2507977479 0.7295750793
0.5123296965 0.500715536 0.4804361427
0.5224655678 0.4992831547 0.2331840262
0.5224766776 0.4978527375 0.7319414737
0.5525843257 0.2461798243 0.4796232733
0.5525176667 -0.0017629405 0.9811757697
0.5322570341 0.4981145988 0.9805832452
0.5323236931 0.5000360059 0.483526528
0.5324125718 -0.0025263971 0.4847939748
0.5323273964 0.25115257 0.4774624107
0.5324829341 0.2492455652 0.9818423597
0.5423892021 -0.0031560425 0.728458541
0.5423929053 0.24868911 0.2293353948
0.5424299381 0.2472730951 0.7307490183
0.5524028651 0.2511211466 0.9803054994
0.5623498691 0.4995338869 0.7328515542
0.5626572412 0.497976467 0.2374048371
0.5625424396 -0.0027290777 0.2342811223
0.5625905822 0.2463336678 0.2349254926
0.5625794724 0.2445824704 0.732934878
0.5725116633 -4.7910011194e-04 0.478850214
0.5726597944 -0.0026018786 0.9861566782
0.5724931469 0.247001414 0.4846078851
0.5724190813 0.2463965145 0.9845364942
0.5925352861 0.4966992386 0.9832310888
0.5826697542 0.2459015966 0.7344235957
0.6026415311 0.2481464025 0.2403313523
0.5925130664 0.2511073989 0.4827349524
0.6024785868 0.2463408689 0.738400916
0.5925315828 0.2500088908 0.9854530555
0.6024859934 0.4988844709 0.7393637682
0.5825919853 0.2478262771 0.2349865967
0.5924241877 0.4983181959 0.4848735953
0.5823586788 0.5000857596 0.2346625599
0.6124774368 3.6586077664e-04 0.9957111348
0.6123218991 0.5000333873 0.4896860047
0.6224985064 0.2495597987 0.7382787078
0.6224244408 0.4985100093 0.2430227094
0.6123330089 0.4968118389 0.990239542
0.6224207375 0.4981486407 0.7396989148
0.6125663154 0.2482249609 0.4891082934
0.6124885466 0.2486053144 0.9888322964
0.6225429457 0.2485863294 0.2403322781
0.6424110308 0.2475310285 0.2444521746
0.6525172758 0.2502406381 0.496206551
0.6425258324 0.2489352596 0.7463574082
0.6524098808 0.2469346394 0.9923411521
0.632519576 0.4949486959 0.9883971613
0.6425295357 0.5001531888 0.7450640385
0.6526580004 0.49834831 0.994766799
0.6424776898 0.4987260449 0.2437096674
0.6524580234 0.4963025187 0.4926514044
0.6325640153 0.2462812955 0.4904368443
0.6324566202 0.2457837591 0.9914523654
0.6625161257 3.1970772585e-04 0.7474702432
0.6726149642 0.4975169004 0.498996045
0.6824286502 0.4996229198 0.7465185008
0.6725297888 0.4997924749 0.9952297087
0.6824471666 0.4979869414 0.2447243655
0.6625124225 0.2480743906 0.2438957571
0.6624642799 0.2459958667 0.7464268447
0.6824027273 -0.0017166565 0.2448336122
0.6823656945 -0.0011186308 0.7460065226
0.6625309389 0.4987365193 0.7443215313
0.6624013241 0.4957107122 0.2475175628
0.6826027043 0.2493679853 0.2442355329
0.672492756 0.2480973035 0.4962278449
0.6824953092 0.2473699838 0.7495366722
0.672492756 0.2463585446 0.9984052694
0.7022930321 0.2481313454 0.2449595237
0.6923830608 0.2477385535 0.4927550962
0.7026263271 0.2492475292 0.747245269
0.6924275001 0.2490720821 0.9930170003
0.7024226468 0.4988406092 0.7433762696
0.7024300533 -7.4050313574e-04 0.7436993806
0.7025633713 -0.0026525487 0.2448336122
0.6924052805 0.5027934052 0.9944520204
0.6923608411 0.4988883989 0.5001931295
0.7125437049 0.2467212225 0.495335355
0.7126696163 0.2500357316 0.9926096397
0.7224610827 0.4953257761 0.7379250448
0.7225610712 0.2525201405 0.2435994949
0.732611767 0.5015986631 0.9847957237
0.732504372 0.2461621486 0.4906757057
0.7225018188 0.4983136134 0.2405646588
0.7326562063 0.4987653241 0.4902192767
0.7224944122 0.2510164021 0.7411209735
0.7324710425 0.248022673 0.9917578858
0.7125140787 0.4957827241 0.996720278
0.7623861201 0.5017237019 0.7447307435
0.7424069367 -3.6414300957e-04 0.7431087078
0.7526502029 0.5014232161 0.9894525954
0.7626564594 0.4989564828 0.2456511108
0.762530548 0.2486760169 0.2424237042
0.7526057636 0.2500115094 0.490033187
0.762663866 0.2486491761 0.7419301397
0.7526835324 0.2494432705 0.9940261435
0.7426698694 0.4980641905 0.7374408412
0.752531698 0.4992013231 0.4882917207
0.7424587826 0.2470531316 0.240214699
0.7425328481 0.2488874699 0.7405330781
0.7826726756 0.4975057713 0.2400221286
0.7825282478 0.4987895462 0.7441446997
0.7824541823 0.2511126361 0.2403674593
0.7724738487 0.2501064342 0.4923375516
0.7826615658 0.2514235964 0.7444946595
0.7725627274 0.2475290645 -0.0021271674
0.7926159764 0.4998324088 0.4938290467
0.8125951599 0.4994874065 0.4947270916
0.8026037165 0.500536161 0.7491867124
0.8027777706 0.4987653241 0.2469389256
0.7925530207 0.2487454102 0.4922042336
0.7925345043 0.2487617765 0.9965351141
0.8124433255 9.3992616999e-04 0.4972777241
0.8024926182 0.2497051317 0.2443688509
0.8123100075 0.250357821 0.4976804556
0.8024444756 0.2484678372 0.7439687941
0.8126321927 0.2521915046 0.9979979088
0.8325854532 0.0019225606 0.4997117034
0.8223532968 0.2500795934 0.2488674075
0.8325113876 0.003290393 1.0022289037
0.8325928597 0.2524049216 0.4967824107
0.8223903295 0.2514844792 0.7492904042
0.8324595417 0.2564460958 -0.001353349
0.8325150909 0.4998644868 0.501642037
0.8323373336 0.501927299 0.9968591509
0.8223236705 0.4971372015 0.2469259641
0.8423843261 0.5001466423 0.7443678222
0.8423917327 0.501298832 0.2491257111
0.8424324687 0.0031294138 0.2460316226
0.8426731818 0.2487650497 0.2475453374
0.84256949 0.2514569837 0.7531455163
0.8624931243 0.2514969176 0.2502079941
0.8523572531 0.2511368583 0.501282819
0.8626634751 0.249043932 0.7428439234
0.8524202088 0.2507735258 -0.0021308152
0.8924193118 0.4995587637 0.0048140897
0.8726660283 6.048746609e-04 0.4965907661
0.882568593 0.2490164366 0.2523327497
0.8725030841 0.253353514 0.4991812089
0.8926600249 0.2506517603 0.5073311974
0.8826426585 0.2500776294 0.7515086676
0.8724956775 0.2511211466 -0.002424448
0.8926378052 0.0013163518 0.5020040324
0.8725882594 0.0026250035 0.0033839765
0.8926155855 0.2523604051 0.0026585969
0.8724919742 0.5005878786 0.5002755275
0.8927674199 0.5026461082 0.5049657287
0.912435528 0.4996366675 0.5041639691
0.9026662813 0.4997459946 0.7524205997
0.9124873739 0.4984196672 0.0024999115
0.902488524 0.4998743066 0.2493580918
0.9123614625 2.5411147495e-04 0.506902543
0.9023403929 0.250746685 0.2590856766
0.912435528 -0.0020395315 0.0062869759
0.9124762641 0.2489332956 0.5024660163
0.9026403584 0.2501758274 0.7577903524
0.9125095936 0.2501771367 0.0059356274
0.9425172532 0.2502393288 0.7542222443
0.9324776672 0.2461398904 0.0048162191
0.9323924918 0.5006958964 0.5008013929
0.9325295131 0.4955162802 -4.682656391e-04
0.9223380928 0.4978488096 0.7542703869
0.9227047172 0.5010428626 0.254243641
0.942554286 0.4973231231 0.7532862409
0.9224640042 0.2496507955 0.2525614271
0.9226602779 0.2479035261 0.7554369194
0.9422765402 0.2496835282 0.2550611395
0.9324776672 0.247227924 0.5079348317
0.9724693637 7.4163171492e-04 0.5163847857
0.9623297892 0.0023924707 0.7622352116
0.962433481 0.2501692809 0.2611539573
0.9524309278 -6.0944156458e-04 0.0107524808
0.9726063849 4.4507381415e-04 0.0149719955
0.9524827736 0.2493241236 0.5057202716
0.9724619571 0.2489424608 0.5122111917
0.9626001285 0.253421598 0.7583143662
0.9524309278 0.2479401867 0.0060338569
0.9524975868 1.8249241459e-04 0.5060007949
0.9723360457 0.2498275519 0.0132716355
0.972513803 0.5002723357 0.5102466028
0.9624223711 -7.7814569488e-04 0.2605549521
0.9527864424 0.5011613548 0.5063340899
0.9623890416 0.5005119388 0.7589068907
0.9822497202 0.2518275174 0.2639147508
0.9825126529 0.001927536 0.7673466607
0.9924448439 -8.169666298e-04 0.0200661317
0.9923967012 0.2482760238 0.5237311629
0.9824274775 0.2525967349 0.7643821868
0.9923189324 0.2504115026 0.0207272594
0.9925226127 0.4992412569 0.0179815567
0.0225250711 0.7459335686 0.7713100937
0.0024812655 0.4986108259 0.2706213868
0.0024386778 0.7496061731 0.7716035785
0.0123005435 0.4982946284 0.5190465166
0.0026674292 0.4971902285 0.7733228251
0.0226070987 1.0002466982 0.2691604438
0.0226571671 0.9963907909 0.7733061604
0.0125368496 0.7481266568 0.0223068925
0.0224915935 0.7476422135 0.2707445208
0.0024791916 0.7483754251 0.2664681608
0.0126034346 0.7478255164 0.5202741531
0.0526222019 0.998459495 0.5229127385
0.0525173992 1.0018047728 0.0245209897
0.0324785929 0.7483099597 0.0239122634
0.0424415211 0.7487747635 0.2734016226
0.0324656315 0.7460710458 0.522002658
0.0425659512 0.7504179431 0.7750791046
0.0423507908 0.5006775661 0.7775593749
0.0322904664 0.4948040175 0.0243831352
0.0325022939 0.4956740516 0.5258040726
0.0424722583 0.9974447825 0.2765475571
0.0523677868 0.4986298108 0.5294203234
0.0525810956 0.7505946994 0.024794199
0.052421114 0.74846053 0.5251930318
0.0423685665 0.997549527 0.7702509563
0.072560279 0.5010860697 0.0200481708
0.0722851255 1.0014381671 0.5186011974
0.0725225056 1.0005281991 0.0175020748
0.0724747333 0.7465816753 0.0189621846
0.0624151496 0.7491675554 0.2681735202
0.0725013969 0.7511118754 0.5142331813
0.0625125458 0.7507190835 0.7709231012
0.092282455 1.0019749827 0.5100438484
0.0925220571 0.7511707942 0.0073604635
0.1024383239 0.7492330208 0.254776913
0.0825302434 0.7500251511 0.2664431637
0.0925405735 0.7499858719 0.5100373676
0.10252424 0.7504506757 0.757074694
0.0823376729 0.7498156621 0.7675864479
0.1022127943 0.9997033361 0.7576385181
0.102432769 0.4984949523 0.7585745215
0.082598754 0.4982416015 0.7637628136
0.0925205758 0.4974514351 0.0113850932
0.0825391313 0.5014494022 0.2646665162
0.1124216201 0.7482968667 0.005736854
0.1224545402 0.7506339786 0.2536279711
0.1124479134 0.7540185357 0.5022873331
0.1223382572 0.7503852104 0.7524530034
0.1223471451 0.9979357724 0.2553731407
0.12233011 1.0036967206 0.7580393979
0.122553788 0.501702753 0.2573719849
0.1123327414 1.0002008725 0.5074802543
0.1424333533 0.7484867161 0.2497821171
0.1524636811 0.7497305572 0.4964444866
0.1323522906 0.7510856893 0.5023039979
0.1425259353 0.7492068346 0.745261238
0.1525555224 0.5000039279 0.495806597
0.1322693372 1.0015560046 0.0011172927
0.14236188 0.5008150432 0.249546959
0.1425103815 0.9987802751 0.249500668
0.1323219237 1.0017851333 0.5021123532
0.1423278099 1.0014774462 0.7474239522
0.1523885046 0.9986427979 -4.8684269909e-05
0.1525351544 0.7527877876 -0.0022714471
0.1325444907 0.7515766792 0.0022936389
0.1725550739 0.750110256 0.0021138448
0.1625965897 0.7501757214 0.243773549
0.1725250773 0.7500775234 0.5005347569
0.1624354971 0.7521200414 0.7492459649
0.1824372706 1.0010846543 0.7508467067
0.1723206564 0.5012687179 -0.0027931649
0.1725091532 0.5013361472 0.5033816517
0.1825539238 0.7480219123 0.2503542735
0.1826657628 0.7489907991 0.750660617
0.1724447162 0.9997753479 0.002468341
0.1623177329 1.0029569625 0.75356769
0.1823898686 0.5005558006 0.247936959
0.2024808911 0.4995077008 0.7518836244
0.1924409347 0.5009034214 0.4987775516
0.192468339 0.7516159584 9.5928726268e-05
0.2027119756 0.7476814927 0.2503200182
0.1925972131 0.7486831121 0.4997681784
0.2025660664 0.7513540971 0.746640709
0.2323893028 0.7499269532 9.0222487461e-04
0.2325811326 0.5021865417 0.0027375693
0.2323756007 0.7500709769 0.5026326638
0.2125560285 0.748152843 -3.3448473034e-04
0.2225267335 0.7507387231 0.2478267865
0.2125782482 0.7499400462 0.5001042509
0.2224656294 0.7460514062 0.7481266492
0.2325940941 0.5029524859 0.5000505533
0.2225945035 0.5003927919 0.7446039062
0.2124078974 0.4997531957 -0.001064123
0.2226463494 0.4971633877 0.2479888049
0.2125482516 0.4997446853 0.5005986385
0.2527384437 0.7532394984 -0.003847738
0.2425818342 0.7483295993 0.2469926231
0.2526236421 0.7529972767 0.4926180749
0.2424288888 0.7504768618 0.7506134002
0.2425633178 0.5018755814 0.7446983398
0.2626706347 0.4997342108 0.7489034117
0.2626302689 0.7504965014 0.2471444575
0.242573687 0.5000229129 0.2522049866
0.2625999021 0.7500251511 0.7457778452
0.262449549 0.5011764118 0.2493395754
0.252652898 0.5019849085 0.4965750272
0.2725417215 1.0016672957 0.9998310313
0.2825350165 0.5017747648 0.2488331522
0.2725757917 0.5006265031 0.4937327615
0.2824561367 1.0009864563 0.2478378963
0.2826101931 0.5016124108 0.7475757866
0.2824428049 0.7522247859 0.2443512603
0.2826090821 0.7535602784 0.7465129459
0.2726728175 0.7544964325 0.9974146426
0.2726087508 0.7538548724 0.4962296965
0.3126060022 0.9986427979 0.4980757805
0.2926149682 0.7543262227 0.9954704218
0.3025079044 0.7540709079 0.2451446876
0.2925053512 0.7523098908 0.4957334573
0.3025216065 0.750097163 0.7455250965
0.3024612431 0.4990167109 0.7468166146
0.2924172132 0.5015993178 0.9970720894
0.3024734639 1.0005805714 0.2483276548
0.3123634375 0.7502804659 0.9943316639
0.3126334064 0.7522902512 0.4919413009
0.3124686106 0.5027678737 0.4949807661
0.3324111316 0.4987280088 0.4939419967
0.3224611649 0.4994435448 0.7478164996
0.3326788786 0.751020224 0.9909339065
0.3324448314 0.5035920821 0.9893137225
0.3225555985 0.7515112139 0.2386259929
0.3324240931 0.7516552376 0.4966416862
0.3225678193 0.7490300783 0.7447631471
0.3224707935 0.5040490301 0.2442012775
0.3525410385 0.5030421734 0.4904396218
0.3525388165 1.0035003246 0.4928624912
0.3624617492 0.7543065831 0.2420691154
0.3624654525 0.7521593206 0.7445113242
0.3626024738 0.5038199014 0.73813428
0.3626839459 0.5039325018 0.237574262
0.3525136342 0.7528139738 0.9942390819
0.3424170178 0.7521724136 0.2390222436
0.3525040057 0.754489886 0.4911173216
0.3424840471 0.7513148179 0.7451168102
0.3624802656 1.0019684361 0.7396257751
0.3424473846 0.5021158392 0.7447214853
0.3526106601 0.501326982 0.9932206805
0.3423785037 0.5022781931 0.2415719503
0.3725124451 0.5027279399 0.9896655339
0.382511295 0.5035586948 0.240871105
0.3725494778 0.5040614685 0.4935124165
0.3926656826 0.5040372463 0.9915356892
0.3824261196 0.5029688523 0.7369131241
0.3725494778 0.7505946994 0.9909709393
0.3825298114 0.7530758351 0.2439401965
0.3723457976 0.7513606437 0.4862854699
0.3825075917 1.0010322821 0.245737212
0.3823261311 0.7511380616 0.7430772299
0.3926249465 0.752152774 0.9910450049
0.3927471547 0.7524146353 0.4900007834
0.3924249695 0.5040752162 0.4955871778
0.402457149 0.5034965028 0.7374408412
0.402697862 0.7510398636 0.2424736985
0.4026274997 0.7523622631 0.7422958383
0.4125819103 0.7528008807 0.9896470175
0.412404153 0.7526764966 0.4885065108
0.4224067062 1.0013923413 0.7400192483
0.4424562519 1.0011501196 0.2362021976
0.4323092709 1.001830959 0.488592612
0.4424710651 1.0020077153 0.7376278567
0.4223733767 0.5034447852 0.739554487
0.4324240725 0.7509874913 0.9852123424
0.4227177815 0.7537828605 0.2384473097
0.4324870282 0.7506928974 0.4820183682
0.4225400242 0.7543262227 0.7393369194
0.4423414503 0.7494425098 0.2369243368
0.4424340323 0.7523884492 0.7388869712
0.4225326176 1.0033759405 0.2349116053
0.4722824509 0.9992450788 0.4794334803
0.4724453952 0.5008301003 0.9796111348
0.4625798632 0.5051278985 0.2318767692
0.4723750329 0.7516159584 0.9822126874
0.4625280174 0.7518058078 0.2324618871
0.4722898575 0.7521920532 0.4800824797
0.4624243256 0.7524211819 0.7305564479
0.4522810478 1.0026427289 0.4861993687
0.4624613584 1.0011042939 0.2318425139
0.4623613699 1.0001223141 0.7300444697
0.4524513986 0.751426109 0.9817775523
0.4523328937 0.750195361 0.4852281841
0.4523143773 0.500856941 0.4859105131
0.4923431065 0.502008476 0.9830088921
0.4923616229 0.5018127347 0.478465999
0.4823849927 0.4988039486 0.7313878337
0.4823590697 1.0012614107 0.7322257003
0.4922801508 0.9970650837 0.4797741818
0.4923505131 0.9992581719 0.9840550681
0.4924727212 0.7516879703 0.4797862175
0.4925541934 0.7494425098 0.9816294212
0.4824886844 0.7489056942 0.2284817893
0.4825257172 0.7522444255 0.7285131644
0.5023382532 0.5011390966 0.2268810475
0.5125778162 0.9986558909 0.4823674021
0.5224359415 0.998472588 0.7345337682
0.5025011974 0.9982434594 0.2285003057
0.5222655908 0.7513671902 0.7307962351
0.5024567581 0.7489515199 0.232513733
0.5023123302 0.7512689922 0.727981744
0.5123593228 0.7513802833 0.9810368967
0.5121037966 0.4991862661 0.9841106173
0.5123333998 0.7481332034 0.4803018989
0.5223877989 0.7499924185 0.2285845553
0.5525769191 0.99610929 0.4804565108
0.5425410364 0.4988772698 0.7310063961
0.5425706627 0.7486307398 0.2304787818
0.5525250733 0.4956197154 0.4820729915
0.5523473159 0.7501233491 0.4859762463
0.5424077184 0.7488598684 0.7304101684
0.5323718357 0.9987933681 0.9840180353
0.5424040152 0.4956917273 0.233200691
0.5324384947 0.7489122407 0.9792685816
0.5524473044 0.4959601351 0.9818145851
0.5425336299 0.998472588 0.2293992764
0.5326940209 0.7490955436 0.4787150444
0.5726338714 0.4972432554 0.9814349991
0.5625239232 0.9985642395 0.7337801511
0.552388052 0.7504703153 0.9839347116
0.5622646937 0.7468631762 0.2322924621
0.5623906052 0.748977706 0.7286325951
0.5725116633 0.7467126059 0.9857863505
0.5723931584 0.4965866382 0.4827840208
0.5724264879 0.7468893623 0.4864558207
0.6025230262 0.4991875754 0.237861266
0.6025230262 1.0002401517 0.2328729509
0.6025933885 0.9972549331 0.7342088055
0.5925315828 0.7500251511 0.9856289612
0.5926019451 1.0008686188 0.4814202888
0.592561209 0.9985380534 0.9868417846
0.602400818 0.745815731 0.2411858836
0.5925241762 0.7457109865 0.483039547
0.6023415656 0.7485521814 0.7381926066
0.5825068099 0.9980274239 0.2339598629
0.5825142165 0.9973531311 0.7307897544
0.5825734689 0.4990730111 0.7364872472
0.582480887 0.7475571086 0.2333571545
0.5826290181 0.747550562 0.7296991391
0.612640381 0.7484081577 0.9941094672
0.6124959532 0.9996444173 0.4902924165
0.6127255564 0.749494882 0.4896860047
0.6224022211 0.9980077843 0.7400609102
0.6226762637 0.7494359632 0.2428838365
0.6227947686 0.7488205892 0.7453769654
0.6224244408 0.9967115709 0.2378279365
0.6425184259 0.9986624375 0.7452788286
0.6323158957 0.4978167316 0.4953409099
0.6426184144 0.9997622549 0.2422394662
0.6524876496 0.9963973374 0.4945030433
0.6523913644 0.9983023782 0.99747945
0.6325492022 0.9995724054 0.4945085982
0.6324677301 0.9979095863 0.9925911233
0.6324714333 0.7496258127 0.9908968738
0.6324862465 0.7478713421 0.4890323762
0.652413584 0.7494425098 0.996479565
0.6426517439 0.7475243759 0.2432319446
0.6524654299 0.7439368763 0.4952131468
0.6425961947 0.7443885871 0.7403312495
0.6724631298 0.7473607126 0.993766914
0.6624976094 0.9993236372 0.2464824966
0.6724779429 0.9991534274 0.9944427622
0.6825545617 0.749187195 0.245993664
0.6724668331 0.7467584317 0.4933735436
0.6824804961 0.7498680344 0.747711882
0.6723742511 0.9975822597 0.4934235378
0.6624642799 0.7476618531 0.2472749981
0.6623716979 0.7471053978 0.7457509965
0.7024263501 0.5008602143 0.2453076318
0.6925941476 0.9989177522 0.4915709731
0.6922941821 0.9980274239 0.9920263735
0.6925237854 0.748670019 0.9932299387
0.7023819107 0.7479433539 0.2468991154
0.6923867641 0.7483034132 0.4965315137
0.7025374484 0.7494294167 0.7479794439
0.7124289033 0.4992739896 0.4912524912
0.7125437049 0.7478386094 0.4915385694
0.7225277417 0.9978375744 0.7417977475
0.732437713 1.0023088558 0.9914893982
0.7325562178 0.7476880392 0.9904524804
0.722572181 0.7513737367 0.2412738365
0.7325821408 0.749383591 0.4908534631
0.722531445 0.7474981898 0.7390397314
0.7225684778 1.0017065749 0.2360142563
0.7324414162 0.9967050244 0.4924458725
0.7126362868 0.7481986687 0.9931651314
0.7123696508 0.9979946912 0.4923792135
0.7124511229 0.9975037013 0.9911561032
0.7425032219 0.4985479792 0.2374650153
0.7427106054 0.7513540971 0.2405229969
0.7425069252 0.7493115791 0.7352438717
0.752665016 0.7510267705 0.9938317214
0.7626786791 0.9981779941 0.743891951
0.7525909505 0.9990683225 0.9950630612
0.7624157464 0.750195361 0.2422922379
0.7526131701 0.7503721173 0.4923819909
0.7626231299 0.7501888144 0.7460583685
0.7526539062 0.99724184 0.493453164
0.7425698809 0.998878473 0.2434097019
0.7625564709 0.997844121 0.2463565852
0.7824097429 1.0004300011 0.2465871142
0.7725553208 0.9993498233 0.4959630605
0.7825060282 0.9986166118 0.7458926468
0.7726441995 0.9999390112 0.9952297087
0.7826319396 0.747956447 0.2499728359
0.7725108815 0.7467518851 0.4949057747
0.7826652691 0.749691278 0.7484219856
0.772744188 0.7474654571 0.9962388519
0.7727701109 0.4997126072 0.4943512089
0.7725553208 0.5007751094 0.9947482826
0.7924419224 0.9990159502 0.4960149064
0.7926789321 0.7479760866 0.9960722044
0.7925493174 0.9979815981 1.0009512729
0.8123359304 0.7476094808 0.9976553557
0.7925900535 0.4976131344 0.9974053844
0.8025926067 1.0004692803 0.248187856
0.8124359189 0.498995762 0.9923133775
0.8025444641 0.7484670765 0.2441142505
0.8125581271 0.7507452697 0.4945085982
0.8027111116 0.999271265 0.7464490643
0.8025333542 0.7489187872 0.7455399096
0.8124174025 1.0014512601 0.9949519629
0.7926418994 0.748362332 0.5002662693
0.8226939983 1.002151739 0.750978173
0.822623636 1.0028456714 0.2491414501
0.8324447286 0.7537828605 0.9985626587
0.8225754934 0.5036883161 0.7484645732
0.8225940098 0.7519825642 0.2483526519
0.832555827 0.7504375826 0.4995283912
0.8225977131 0.7506928974 0.7488034232
0.8424732048 0.751845087 0.2503653834
0.8426435555 0.750908933 0.7510485353
0.8625857062 0.5020124039 0.750537483
0.8426546654 1.0002336052 0.7485460454
0.862756057 1.0014381671 0.2494793742
0.8625857062 0.9996967895 0.7543935209
0.8524720547 0.9993301837 0.0027087763
0.8626375521 0.75121662 0.7505985871
0.852475758 0.5038775109 0.4992413872
0.8526164825 0.7533900686 -0.0013152978
0.8525905596 0.5005374703 2.5924327509e-04
0.8624153555 0.502461496 0.2501496674
0.8625782997 0.7500775234 0.2562572983
0.8524720547 0.7536912091 0.4944169421
0.8524720547 1.0010257355 0.4996181957
0.8826204389 1.0000633953 0.7495718533
0.8925007839 1.0020339015 0.0016492686
0.8826463618 0.749998965 0.7515605134
0.8727104676 0.7522247859 0.0019497896
0.8926600249 0.7508500142 0.0022024457
0.8826315487 0.4998965648 0.7487367642
0.8825500766 0.5011246942 0.2493303172
0.8826685815 0.7499596858 0.2546361884
0.8727067643 0.7540905475 0.5010337736
0.892674838 0.7520480295 0.5049036988
0.872662325 0.5004726596 0.0018460052
0.8825204504 1.0020600876 0.2493256881
0.9128280755 0.747439271 0.5052740266
0.9025811059 0.9972222004 0.2559860332
0.9025588863 0.9978179348 0.7544953611