POSCAR file written by Ovito 3.7.11
1
270.0806922245 0.0 0.0
0.0 15.2780711152 0.0
0.0 0.0 10.803227689
Sr Ti O 
800 800 2400 
Direct
0.0226328918 0.4984402481 0.7694348507
0.0126167001 0.5013476832 0.020279484
0.0126953802 0.2497347688 0.5193105288
0.022566208 0.2500063999 0.7709732798
0.0026496048 0.2488694763 0.7717563791
0.0128241566 0.2475473199 0.0195183226
0.0026703393 -9.9779889114e-04 0.2637183965
0.0225421041 0.4973746686 0.2672497486
0.0124055039 -0.0022687054 0.5184857752
0.0025350094 1.0018002738e-04 0.7645270581
0.0128068654 0.001433529 0.0148359257
0.0225695404 0.2507427494 0.2696008977
0.002524531 0.2530473597 0.2681976134
0.0426337292 0.5022548658 0.2681837287
0.0325345252 0.2511060152 0.5168899559
0.0427122242 0.2491594344 0.7730198903
0.0525533572 0.4973844866 0.0198089765
0.0325837697 0.2499579645 0.0189446978
0.0326722618 -3.4490233602e-04 0.5188773249
0.0325908047 9.5447635193e-04 0.0184599352
0.0426685336 0.2494153567 0.2732785024
0.0524296904 0.2493374673 0.5214765481
0.0525496546 0.2501294521 0.018955713
0.0624914982 0.2498846568 0.2710911931
0.0626632987 0.5002474134 0.7694746536
0.0625529613 0.5006296606 0.2735293533
0.0723929835 0.4987701327 0.5224549594
0.0726044018 0.2474412856 0.5192364768
0.0626940302 0.2498584755 0.7709121869
0.0726158798 0.2500554899 0.0174169136
0.0624589153 -8.7271765637e-04 0.2701997928
0.0624381808 4.1186858833e-04 0.7707233545
0.1023577319 -0.0011526614 0.2604406724
0.092536593 0.2507650036 0.5127328649
0.0824603451 -0.0017124834 0.2659334753
0.1023999415 0.2511361237 0.7683120381
0.0824792283 0.2527855466 0.7649297156
0.0925488115 0.2489676563 0.0157407479
0.0824477563 0.0023843689 0.7722784453
0.092508083 8.9216482106e-04 0.0132557498
0.1024943577 0.2483288322 0.2641451208
0.082494409 0.2511812865 0.2668295038
0.1024991711 0.5012475397 0.2657825944
0.0923784921 0.5000189815 0.5176073341
0.1124673031 8.106100233e-04 0.0131172727
0.1225339243 0.2487588603 0.2654900893
0.1124187991 0.2502099597 0.5131521841
0.1224461727 0.5004045013 0.7702633068
0.1124125047 0.4991995063 0.0214914366
0.1225487347 0.2518102926 0.7660849259
0.1123988051 0.2493760848 0.0120667533
0.1125902294 0.5001832692 0.5181340285
0.1524316557 0.2486691893 0.513722384
0.1323750572 0.2525034429 0.5175795646
0.1424531564 0.2521689766 0.7676862992
0.1524442445 0.2516741497 0.0114107457
0.1325457469 0.2486089722 0.0182717507
0.1425760826 0.2475087024 0.2672117969
0.1423172711 0.5017862202 0.7663496616
0.1523224291 0.5017063672 0.0156563287
0.1323398825 0.5018143652 0.013044239
0.1324213397 0.4999214561 0.5167159338
0.1523031756 0.0040143521 0.5149775644
0.1824830449 0.2514974259 0.7616390324
0.1824934122 0.2495292455 0.2630593342
0.1623157388 0.5033872077 0.7607226396
0.1623187008 0.4995673538 0.2636980322
0.1724963999 0.2516250598 0.51209139
0.1823964041 0.5002899581 0.7570885405
0.1625493726 0.2473378694 0.7615140697
0.172502324 0.248794205 0.0129318651
0.1622372437 -0.0016957273 0.2666804742
0.1623760911 0.2492091789 0.2612737568
0.1723893948 -6.9723738927e-04 0.5187921652
0.1823238332 -9.3070927018e-04 0.262165157
0.2024641104 0.251599533 0.255049691
0.192360093 0.5013620829 0.0092664791
0.2025418649 0.4990404548 0.2569509746
0.1926470443 0.2511786683 0.5081407188
0.2024596673 0.2523385006 0.7569043363
0.1923997108 0.2479570575 0.0085026333
0.1924359963 -3.3141895854e-04 0.5114332533
0.2024211603 0.0023297154 0.7563702366
0.1923989703 -6.8100497366e-04 0.0083192622
0.202497804 0.0018457538 0.2566344025
0.2124289101 0.2496248073 0.5024692656
0.2225880961 0.2514071003 0.7520752239
0.2124874111 0.2518796731 0.0039987016
0.2223096608 0.002054877 0.2503612773
0.2124796357 0.0017264324 0.5037216691
0.2122830278 -8.9791717253e-04 0.0076409464
0.2223774184 0.0024600984 0.7512208496
0.232588811 -0.0036237848 0.496878344
0.2225221899 0.2478281145 0.2517886285
0.232424786 0.2520020707 0.4946123545
0.2324825465 0.2516086965 -0.0048899012
0.2323585095 -0.0016740623 0.9955644918
0.2523132865 0.2507250771 0.4946540087
0.2422607353 0.2511956862 0.7447977692
0.2624180444 0.2480781461 0.2443454826
0.2523414263 0.2491293259 0.9967400663
0.2425769371 0.2498342578 0.2477065152
0.2424425328 0.0034250107 0.2420313594
0.2523862277 0.4991333985 0.9997854525
0.2525043406 2.6217811107e-05 0.4931905572
0.2424162444 0.0027478965 0.7441794355
0.2623802779 0.2509567817 0.7451550699
0.2525147078 -0.0014804514 0.9948980243
0.2622969695 -4.7305987536e-04 0.238804546
0.2625846613 0.0012600123 0.7415320786
0.2722388131 0.2480663645 0.495880494
0.2724306076 0.249440229 0.9981748227
0.2724894789 -0.00264336 0.4935247166
0.2725735279 0.4991000173 0.9962957547
0.2824439113 0.2484636659 0.7450671332
0.2824361359 0.0017073201 0.7446783605
0.282268038 0.2504763546 0.241325089
0.3023057532 0.2522449024 0.2475463778
0.3122168652 0.2484276666 0.4928582491
0.3123179461 0.250066617 0.9938705536
0.3124308753 0.0013563595 0.9960735989
0.292380201 0.2502793402 0.4936561588
0.3023927642 0.248386431 0.7449773452
0.2922383916 0.4981961074 0.4947206555
0.3022509548 0.5049227418 0.2438558141
0.2923379914 0.2518286195 0.9943796607
0.3024064638 0.0024022376 0.7494232387
0.2924679526 5.3086266725e-04 0.4980668776
0.3123223892 0.5035822585 0.9954811833
0.2924268537 -0.0025745686 0.997239917
0.3224019695 0.2496477159 0.2420406159
0.3323130815 0.2511125605 0.4943772396
0.3223819754 0.249688297 0.7453688949
0.3323341863 0.2480041838 0.9950553846
0.3223982669 0.0013361999 0.2420230286
0.3324867333 -4.8889957123e-04 0.4915456784
0.3223830862 1.2361230474e-04 0.7417597883
0.3324267512 -0.0029644739 0.9889553558
0.3625055397 0.2523830089 0.2429894064
0.3523522778 0.2488642401 0.4895610863
0.3425081827 0.2525407513 0.7413006662
0.3524248487 1.5051360641e-04 0.9917600732
0.3522930362 0.2512303764 0.9982581312
0.3422241935 2.2329766349e-04 0.2384157733
0.3424126557 3.3568096024e-04 0.739770568
0.3422627005 0.2497786225 0.243718818
0.3624833241 0.2494788464 0.741364536
0.3624351903 -0.0011595994 0.2418721477
0.3723026117 0.2511132151 0.4929406319
0.3824551331 0.2488053321 0.7371824526
0.3724285 0.2496549158 0.9908714499
0.3823773785 3.847054735e-04 0.7413987851
0.3823440552 0.2525505693 0.2403411238
0.3924077142 0.0010429692 0.4883086829
0.392455848 -0.0018056888 0.9880482195
0.3723322325 2.7422032212e-04 0.4869970378
0.372447013 4.7280560014e-04 0.9936669107
0.392418822 0.2520433063 0.487379331
0.3924854687 0.2510916155 0.9863542814
0.4125165193 0.0023638166 0.4889112805
0.4022677304 0.2512401944 0.7355745998
0.4025454252 -3.3573887559e-04 0.238804546
0.4025676408 0.0024579384 0.7391124313
0.4022232992 0.4993467762 0.2387915869
0.4023417823 0.2499756369 0.2393451252
0.4125535453 0.2499291651 0.4853216126
0.4124017388 0.252186649 0.9857248398
0.4125313297 0.0029783575 0.9909084758
0.412583166 0.502676385 0.9891219727
0.4125609505 0.5009732904 0.4813903801
0.4224468848 0.2509109644 0.2254937092
0.4424112886 0.2484734839 0.7333484132
0.4325142465 0.4999194925 0.9811891583
0.4325216517 0.5018490554 0.4835128939
0.4425556899 0.250704132 0.2289824814
0.4225209368 0.5019675259 0.230868029
0.4423964783 0.498397049 0.7354153881
0.4324475997 0.2524157355 0.4809016373
0.4223543199 0.2478614957 0.7308287959
0.4323291166 0.250046981 0.9825220933
0.4424335042 0.5021514496 0.2326175062
0.4325660828 0.003883511 0.9872984436
0.4524157061 0.0014908661 0.9804116129
0.4724652697 0.2507054411 0.4820383346
0.462508986 0.252455662 0.73367887
0.4724245411 0.2500207997 0.9766719898
0.4624941756 0.2501752694 0.2292490684
0.4524157061 0.5020081069 0.9795415026
0.4624238262 0.5006021703 0.7291302294
0.4723541918 0.5011945225 0.4785291981
0.4526489698 0.2500548354 0.4802333185
0.452582323 0.2510562707 0.9810965934
0.4724837827 0.0031467034 0.9774958177
0.4825178209 -8.564185934e-05 0.2229074451
0.4824141482 0.2512133586 0.7239447421
0.4826029807 0.248673771 0.2270821234
0.4925296436 0.2478785135 0.472271809
0.4923889449 0.2505856615 0.9690816657
0.4825881703 0.5005412987 0.2216365287
0.5023230131 0.2494435017 0.2205951732
0.5124014825 -0.0020080049 0.9695074643
0.5223651714 -0.0059125031 0.2247207921
0.5023563364 0.25184891 0.7232653156
0.5026118156 0.4974800484 0.7181159286
0.5124829396 0.2531409579 0.4654599559
0.5025414663 -0.0012796408 0.7176355166
0.5225058701 0.2482103617 0.220023122
0.5124570214 0.2487771872 0.9718586135
0.5225169779 0.2497478595 0.7222591348
0.5123385383 0.5005949704 0.4710879035
0.5223577662 0.5014052821 0.2226639994
0.5225465987 0.4972398348 0.7220027299
0.5525746615 0.2497112056 0.4732048635
0.552496907 -2.1825022231e-04 0.9797081195
0.5322140798 0.4986333353 0.9711828896
0.5323992097 0.4949031524 0.4724217642
0.5325028824 -0.0014748879 0.4726337378
0.5325288006 0.2493741212 0.4732761385
0.5325658265 0.2514339362 0.9729508797
0.5425665414 9.4118933432e-04 0.7252267664
0.5424998947 0.2497400051 0.219632498
0.5424739765 0.2484113033 0.7232162561
0.5526635238 0.24896242 0.9737376816
0.5623643284 0.5010904518 0.7242178087
0.5623532206 0.5004509732 0.225916731
0.5626235102 5.41007927e-04 0.2255298096
0.5624939193 0.2494781919 0.2269303169
0.5625716738 0.2489827105 0.7270484442
0.5725316601 -0.0022577747 0.4792900819
0.5727056822 -7.8245637713e-05 0.9773662268
0.5724094744 0.2485919544 0.4747997572
0.5724909316 0.2516538592 0.9741819932
0.5923442574 0.4982883965 0.9808836941
0.582587914 0.2488603129 0.7311629553
0.6024893736 0.2500849439 0.2369217753
0.5925479003 0.2492582689 0.4851124159
0.6024819684 0.251539316 0.7335039223
0.5926034392 0.2491149262 0.9793100903
0.6023894035 0.4981646898 0.7305853501
0.582606427 0.2509240551 0.2284474561
0.5922294769 0.4989514383 0.477951593
0.5823805685 0.4984873745 0.2307421407
0.6125308171 4.3765718409e-04 0.9841604925
0.6123086613 0.4987184246 0.4835878715
0.622475993 0.248714352 0.7417857065
0.6223278891 0.4987779871 0.2366875861
0.6122494197 0.5013057931 0.9857618658
0.6224093463 0.5000477809 0.7330318412
0.6124271444 0.2493237221 0.4836036075
0.6124530625 0.2463488702 0.9851416808
0.6223204839 0.2526291132 0.234702994
0.6426440397 0.2494925916 0.2386545908
0.652604026 0.2471860177 0.4892778377
0.6426218241 0.2499285105 0.7382432467
0.6527002935 0.2477102986 0.9917785862
0.6324693027 0.5009307458 0.985521197
0.6423404267 0.4972201988 0.7356912316
0.6524670299 0.497383832 0.9861136125
0.6424218838 0.4982203251 0.2350519638
0.6526003234 0.5001138887 0.4870396177
0.6325914884 0.2499370195 0.4855956048
0.6326248118 0.2495920806 0.9828090446
0.6625529045 -0.0027423908 0.73953823
0.6725165934 0.4993925935 0.4823428732
0.6823321785 0.4994050296 0.7340630145
0.6725795376 0.5009608543 0.9834477426
0.6824432564 0.4996602974 0.2312105192
0.6627343318 0.2467952616 0.2437863904
0.6625677149 0.2476657903 0.7358920975
0.6825728473 -6.7118698035e-04 0.2353204021
0.6824210408 -4.0538117481e-04 0.7378609535
0.6625269863 0.4970127119 0.7376637902
0.6625417967 0.500944491 0.2357998884
0.6824802823 0.2472874703 0.2360933192
0.6727202363 0.2461819643 0.4923621011
0.6827172486 0.248613554 0.7318803335
0.6726646973 0.2474890665 0.9863079989
0.7024409836 0.2519614897 0.2376965438
0.6925772648 0.2495043732 0.4912087421
0.7025816822 0.251459463 0.7408109978
0.6923662167 0.2507067501 0.9890571773
0.7025039277 0.5000039272 0.7374258983
0.7025187381 -4.402677777e-04 0.7375184633
0.7025224407 -8.2107381748e-05 0.2365626234
0.6923773245 0.5011925589 0.9881407845
0.6924958076 0.4986333353 0.4835962023
0.7124046725 0.2496071349 0.4915688196
0.7124565088 0.2497105511 0.9924820796
0.7224683315 0.4999914911 0.7431889908
0.7224831419 0.2490121645 0.2433022759
0.7324801542 0.500856129 1.0000168648
0.7324875594 0.2478438233 0.4937838984
0.7225571938 0.4993703394 0.2422414818
0.7325616113 0.4994482288 0.4947549045
0.7224016848 0.2502269775 0.7427585639
0.7325060724 0.2509665997 0.9906122681
0.7124491036 0.50113496 0.992583901
0.7626341053 0.4991419074 0.7486086674
0.7424919769 -9.3712369248e-04 0.7464000682
0.7526630112 0.4972319804 1.001016566
0.7624378677 0.5001845783 0.2480027229
0.7623675184 0.2492661232 0.2493902712
0.7526333905 0.249073036 0.4973967076
0.7624452729 0.2500921438 0.7503970218
0.7526444982 0.251539316 1.0008314362
0.7422105795 0.5004850089 0.7492705066
0.7526963346 0.4990162371 0.4969912732
0.7424808691 0.2497956404 0.2475056493
0.7424697613 0.2482247614 0.7484161323
0.7825799962 0.4995968077 0.2482396892
0.7824911338 0.5011035424 0.7468082795
0.7825022416 0.2471742361 0.2508694588
0.7725681735 0.2488112229 0.496447917
0.7825836988 0.2498558574 0.7479098022
0.7726755488 0.252813037 -0.002410781
0.7925918188 0.4995136821 0.4987407503
0.8123859032 0.4963117072 0.4983760445
0.8027110168 0.4972712524 0.7483661472
0.802451835 0.4996825515 0.2458255958
0.7924474176 0.2520557424 0.4980863163
0.7926621682 0.2503290847 1.0015904686
0.8123822006 -0.003103693 0.4998311652
0.8024777532 0.2479564029 0.2492921524
0.8126747058 0.2488046776 0.4994729389
0.802507374 0.2467769347 0.7459187305
0.8125636278 0.250167415 1.0016089816
0.8326205966 0.001188341 0.5021897196
0.8225384246 0.2509450001 0.2498188468
0.8325206265 -7.0338999841e-04 0.9998872739
0.832635407 0.2520236703 0.4973967076
0.8226013687 0.2482627243 0.7500045465
0.8325909758 0.2466597733 -0.004728033
0.8326205966 0.4981712351 0.5015954527
0.8324132511 0.4948907163 0.9981748227
0.8224754804 0.4986935524 0.2479277454
0.8425213413 0.498098582 0.7509838834
0.8425768803 0.497900913 0.2437688031
0.8427620102 -6.8813938214e-04 0.2516257142
0.8426361219 0.252574787 0.2458977965
0.8426287167 0.2478935678 0.7449190293
0.8628337893 0.251062816 0.2502668611
0.8526997809 0.2510471072 0.5002430791
0.8627412244 0.2485003198 0.7556584123
0.8525368666 0.2507983847 0.0037961695
0.892798908 0.4985070105 0.0089372256
0.8726086458 5.851888969e-04 0.5081333136
0.8825093905 0.2515020076 0.261331147
0.8725197834 0.2485134104 0.5064764014
0.8926952353 0.2506772962 0.5090126804
0.8826204684 0.2496287345 0.7588111738
0.8726715899 0.2497642228 0.0053750495
0.8925434288 -0.0017165415 0.5079083808
0.8727012107 -4.5977285774e-04 0.0052169486
0.8924878898 0.2483975581 0.0103597635
0.8728567198 0.5012449216 0.5110120829
0.8926433989 0.498786496 0.5130022289
0.9126041001 0.4982687605 0.5125995714
0.9025404411 0.497214308 0.7615038876
0.9125966949 0.4988768216 0.0111797036
0.9026181956 0.4985868635 0.2676838781
0.9125337508 -8.2964939238e-04 0.5066337618
0.9026922476 0.2492857592 0.2646301611
0.9125152378 -8.022244644e-04 0.0103003368
0.9125374534 0.2500135998 0.5125449581
0.902577467 0.2505575166 0.7627822092
0.9125374534 0.2488046776 0.0106630062
0.9425988396 0.2499893821 0.7659312681
0.9325462883 0.2528006008 0.0174263552
0.9327462286 0.4993906299 0.5080675925
0.9324833442 0.500487627 0.0128316173
0.9228195656 0.5000517081 0.7633098293
0.9227121903 0.4979081129 0.2602240705
0.9425507058 0.5005687891 0.7651342841
0.9225122501 0.2477639703 0.2638452105
0.9225566812 0.2479354579 0.7602644432
0.9426247578 0.2491666342 0.2639590653
0.932686987 0.2485297737 0.5155209206
0.9725935791 7.286625058e-04 0.5147211596
0.9626447005 -9.6107959616e-04 0.7579567995
0.9625521356 0.2491784158 0.2636073186
0.952466261 -7.4521464991e-04 0.011749163
0.9726157946 -0.0017103888 0.0203489077
0.9527550636 0.2514627356 0.5127189802
0.9727490881 0.2511249966 0.5132678902
0.9626521057 0.2513396834 0.7663579924
0.9526847142 0.2487817689 0.012699342
0.9525366103 0.0012075842 0.5146211895
0.9727861141 0.2484486117 0.0159895624
0.9727453855 0.500975254 0.5169427179
0.9625447304 8.6297265428e-04 0.2658177691
0.9526106623 0.4998985474 0.514717457
0.9626261875 0.5029879426 0.7594480205
0.9826905615 0.24782746 0.2655076766
0.9825128368 -0.0011905588 0.7652814623
0.9925616855 0.0032283236 0.0166123393
0.9927801387 0.2504279191 0.5152950622
0.9825794836 0.2502642859 0.7642576942
0.992602414 0.2471552547 0.0199161667
0.9926875738 0.4997951312 0.0190615147
0.0225994574 0.7492068515 0.7635162491
0.0027372082 0.5008613653 0.2668109908
0.002696961 0.7478977858 0.7633968404
0.012616589 0.5005098811 0.5210081695
0.0027404665 0.5002107596 0.7693191445
0.0225907192 0.9997554955 0.266836909
0.0225979393 1.0002725765 0.7670938836
0.0126235499 0.7490301276 0.0143693985
0.0227735905 0.7476097913 0.2650124542
0.0026174292 0.7516482592 0.2692287867
0.0127359977 0.7503522841 0.5186773846
0.0524400577 1.0008354747 0.5183071249
0.052461903 0.9980668006 0.0175417837
0.0324952777 0.7528525997 0.0155209062
0.0425955924 0.7499268377 0.2652540487
0.0325182338 0.748441048 0.5151164118
0.0424400833 0.7500642896 0.7625582021
0.0425985545 0.5019779984 0.7680223098
0.0324878725 0.5033197908 0.0205076566
0.0325152717 0.5003416662 0.521748689
0.0426996354 0.9977002622 0.2643413585
0.0527458922 0.4980252743 0.5155375823
0.0525044829 0.748460684 0.0178462298
0.052413399 0.7489646744 0.5174434941
0.0426289158 0.9968297335 0.7710510343
0.0725807051 0.4997133146 0.0205145064
0.0723685463 0.9982697058 0.518109036
0.0724366741 1.000004218 0.0190118073
0.0725851483 0.748958129 0.0197451993
0.0625755471 0.7512948114 0.2710847135
0.072576262 0.747007621 0.5193327443
0.0624789093 0.7502082868 0.7703438383
0.0924329203 1.0028121641 0.5193410752
0.0924703165 0.7474134314 0.0180998577
0.1024810284 0.7511769955 0.2675802053
0.0823955496 0.7508431837 0.2688363114
0.0925088235 0.7538671257 0.516351228
0.1023666181 0.7503981014 0.7644696679
0.0824614559 0.7513799007 0.771706394
0.1023788367 1.0007045682 0.7638457803
0.1026343159 0.5019164723 0.7614196535
0.0825292134 0.5012697938 0.7713694577
0.0926154583 0.4990155825 0.0182333363
0.0825632773 0.5000556353 0.2675376255
0.1124365716 0.7525449693 0.0109466251
0.1223680479 0.7491937609 0.2660880587
0.1124136155 0.7493508488 0.5143768181
0.1223902635 0.7501166522 0.7669346719
0.1223750828 1.0018107287 0.2669155892
0.1224632047 1.0003576657 0.7623536336
0.1225124492 0.5000071999 0.2675866849
0.1123969538 1.0010972879 0.5159087676
0.1423443 0.749036673 0.2645042728
0.1525031158 0.7517726204 0.5137816256
0.1324909485 0.7545674759 0.5126301179
0.1424405676 0.7515893512 0.7629969599
0.1524279531 0.5002539588 0.5171556172
0.1322691629 0.9992449598 0.0176706341
0.142522395 0.5000445082 0.2691899095
0.142267286 0.9996245889 0.2673080645
0.132491689 1.0015881876 0.5156468089
0.1425168411 1.0006325695 0.7636976764
0.1521128621 0.9995722263 0.0177300608
0.1524379501 0.7491021263 0.0125098616
0.1324579954 0.7511049969 0.0139991388
0.1723971703 0.7540569402 0.0081768047
0.1622494623 0.7500446536 0.2623919411
0.1723168239 0.7503326481 0.5093681298
0.1623705372 0.7512948114 0.7627192651
0.1824023283 1.0012805571 0.7614576051
0.172529353 0.5044927137 0.0146157137
0.1723686603 0.5017692024 0.5091302379
0.1824056606 0.750509372 0.2570824168
0.1824212115 0.753474406 0.760328313
0.1723827301 1.0006391149 0.0153990907
0.1623227737 1.0008158387 0.7672780878
0.1823308682 0.4991229259 0.2576341038
0.2025359408 0.5013136475 0.752159458
0.192407116 0.5019400355 0.5082592019
0.1924030432 0.7532584101 0.0055562916
0.202469294 0.7467130812 0.2511184584
0.1923708306 0.7516220779 0.5027367783
0.2025222412 0.7480352377 0.7553955279
0.2324888409 0.7470141664 -0.0060224332
0.2323551771 0.5037249467 -4.9365955512e-04
0.2325547471 0.7508759104 0.4965664001
0.2126073753 0.7503457387 0.0031289615
0.222411112 0.7479108764 0.2489450339
0.2125307315 0.7488468584 0.5014566053
0.2224570242 0.7502671948 0.746479674
0.2325636334 0.5004594821 0.498453799
0.222248568 0.500198978 0.7505367948
0.2126651358 0.4988630764 0.0048983401
0.2223718645 0.4989913648 0.2505584406
0.2124333532 0.5015335706 0.5053711762
0.2524965651 0.7528853264 -0.0072593413
0.2425473163 0.7510526343 0.2462430636
0.2525880192 0.7515173526 0.4961359732
0.2424243901 0.7508300931 0.7430436639
0.2424543811 0.5024217717 0.7484374222
0.2625076473 0.5040155593 0.7439359898
0.2623913857 0.7526038772 0.243330971
0.2423122014 0.5043500256 0.2452507676
0.2625098688 0.7542336641 0.7448023975
0.2624269306 0.504836998 0.2470020961
0.2524791629 0.5021704311 0.4960961703
0.2725202105 1.0013394651 0.9959532645
0.2824583515 0.500319412 0.2492467956
0.272349891 0.4983747948 0.497303217
0.2825834992 0.9997227688 0.245516429
0.2823520869 0.5009955445 0.7502220741
0.2825386978 0.7519100724 0.2456654585
0.2823891129 0.7492592142 0.7447274199
0.2723832144 0.7550256489 0.9975546377
0.2725987055 0.7505813706 0.4931248361
0.312389036 1.0008420201 0.4948928262
0.2923920493 0.7499857457 0.9963235242
0.302432382 0.7503981014 0.2427691019
0.2923746471 0.7511704502 0.4949400343
0.3024849589 0.7477276072 0.7457049056
0.3023864698 0.5007677671 0.746727748
0.2923672419 0.5003521387 0.9967030404
0.3023886914 1.0002202138 0.244075193
0.3126008246 0.753336954 0.9904734207
0.3123060978 0.7543842067 0.4907968281
0.312273515 0.4985934088 0.4940588162
0.3323845416 0.500865947 0.4926758962
0.3223830862 0.502467589 0.7478505606
0.3324308241 0.7526562398 0.9908807064
0.3324230486 0.4984337028 0.9884740182
0.3224956452 0.7516089872 0.2413028734
0.332427862 0.7517464391 0.4889658939
0.3224489924 0.7496126619 0.7431991729
0.3222945941 0.4999168743 0.2458728039
0.3523208057 0.500068726 0.4861352583
0.3525200054 1.0014245543 0.4901368402
0.3624092721 0.7507122772 0.2401569196
0.3624611085 0.7520737056 0.7394604755
0.3622759786 0.5029951425 0.7446839144
0.3626166176 0.5019524716 0.2400162209
0.3524726122 0.7500577443 0.9878908592
0.3424133962 0.7490955809 0.2376187892
0.3524485453 0.7510591796 0.4872515914
0.3423919212 0.7477276072 0.7360874095
0.3623389228 1.0005736616 0.7432537862
0.3422264151 0.4984454844 0.7438341683
0.3523589424 0.5012318309 0.9895014889
0.3424178394 0.5006584601 0.2445250586
0.3723211247 0.5046020207 0.9921210764
0.3823847837 0.5019164723 0.240952978
0.3722803961 0.5001407246 0.4873913644
0.3922744207 0.5027588561 0.9949998457
0.3824736461 0.5016939311 0.7377230318
0.372484039 0.7505420986 0.9863913073
0.3822774084 0.7501166522 0.2413704458
0.3724988494 0.7520540696 0.4922232537
0.3823107318 1.0007503855 0.2388748953
0.3823884863 0.7522307935 0.7394984271
0.3926631934 0.750411192 0.9853360671
0.3924484428 0.7531013222 0.4893620717
0.3924299298 0.5017358212 0.4923806141
0.4025083992 0.5006132973 0.7345637907
0.4025935589 0.7511246329 0.2417851367
0.4024565629 0.7530358689 0.7395141631
0.4124720881 0.7503326481 0.9887332
0.4125387349 0.7521064322 0.4877005313
0.42245429 1.0015816422 0.7384181944
0.4425038536 1.0005474803 0.2338588018
0.4325475699 1.0006194789 0.4869507554
0.4425630951 1.000442755 0.733483558
0.422472803 0.5005458804 0.731530438
0.432610514 0.7489908557 0.9823462199
0.4226246095 0.749992291 0.2327017402
0.4323920608 0.7484868653 0.4863861093
0.4226023939 0.7488206771 0.7330457259
0.4425816081 0.7516678952 0.2354027849
0.4426852808 0.7497893858 0.7284906058
0.4226023939 1.0008551107 0.2340254187
0.4723319762 1.0040950485 0.4820549963
0.4724615671 0.4986438079 0.9744874575
0.4626126587 0.5002330137 0.233515386
0.4724541619 0.7510460889 0.9758851879
0.4625941457 0.750489736 0.231187378
0.4727281541 0.7521326135 0.4803258834
0.4626015509 0.7520409789 0.7326893509
0.4524120035 0.9980602553 0.4853567873
0.4626089561 0.9997947674 0.2335709249
0.4624275288 1.0028579814 0.7291293038
0.4526563749 0.7502017415 0.9802449961
0.4525045685 0.7481857802 0.4791216137
0.452582323 0.5002205776 0.4820883197
0.492488915 0.5001655968 0.9717197661
0.4925000228 0.4997866223 0.4745489062
0.4824956053 0.5018778549 0.726204252
0.4824363638 0.9988653307 0.7224905471
0.4926851527 1.0019939979 0.4734464579
0.492507428 0.999964946 0.9748114348
0.4925481566 0.7513537194 0.4695022663
0.49229638 0.7501559242 0.9736543731
0.4823993378 0.751883891 0.2234970837
0.4822697469 0.7523747907 0.7226941899
0.5024081728 0.4993886663 0.2174831403
0.5124014825 0.999886402 0.468096205
0.5225651116 1.0005867522 0.7180529844
0.5024600091 1.0026027135 0.2200795866
0.5225169779 0.7531995021 0.7126388617
0.502378552 0.7523355187 0.2213847521
0.5024674143 0.7507908211 0.7240780356
0.5125236682 0.7493573941 0.9685447891
0.5124940474 0.5029270711 0.96991475
0.5124829396 0.7499595643 0.4696077903
0.5225836246 0.7521849762 0.2185976221
0.5524117472 1.0003773017 0.4742480702
0.5423295752 0.5002546133 0.7189582694
0.5423369804 0.7518184377 0.2223363195
0.5525228251 0.5022247573 0.47402684
0.5525635537 0.7511573595 0.4745979656
0.5424665713 0.7493573941 0.7228043422
0.5324029123 1.0016012782 0.9744504315
0.5425480284 0.5008652925 0.220144382
0.5325176928 0.7486766799 0.9675173184
0.5523747213 0.5010714703 0.969970289
0.5426146752 0.9984660657 0.2209200761
0.5324140201 0.7515369886 0.4712360074
0.5724390952 0.4996033531 0.9789120611
0.5623013842 0.9977918968 0.7221101052
0.5523451005 0.7500708349 0.9742838147
0.5625457556 0.7495799353 0.2256668057
0.5623606258 0.7480483283 0.727180812
0.5723502329 0.7506468239 0.9818093434
0.5722909913 0.4997414595 0.4771851554
0.5724576082 0.7490301276 0.4794502192
0.6024523477 0.5019537807 0.2358646839
0.6025375074 0.998433339 0.2321407968
0.6026078567 1.001476917 0.7321219279
0.5925553055 0.749017037 0.9825961453
0.5925627107 1.0002594858 0.4829195527
0.5927367327 0.999408593 0.9836606419
0.6024486451 0.7493312128 0.2346354216
0.5924294172 0.7487355878 0.4826649992
0.6023301619 0.751006817 0.7318636718
0.5824546205 0.9985446096 0.229500845
0.5824916464 1.0010187439 0.7314101036
0.5822324646 0.4985037378 0.7298679719
0.5822768958 0.749455574 0.2279522338
0.5821991413 0.7492592142 0.7321783925
0.6124345496 0.7484148667 0.9846973691
0.6125900586 1.0023998083 0.4913762846
0.6122531223 0.7477014259 0.4829306605
0.6226352047 0.9997816768 0.7311638809
0.6223612125 0.7487617692 0.2348446183
0.6223204839 0.7496781152 0.7344527128
0.6225167216 0.9993104131 0.234966804
0.642695876 0.9986493349 0.7329216889
0.6324989235 0.5017174943 0.4834758679
0.6425292591 0.9997489501 0.2335181629
0.6523781676 0.9990944173 0.4894712984
0.6526521597 0.9994151384 0.9872521612
0.6325285443 0.9987475148 0.4837433806
0.632632217 1.0010449253 0.9824480414
0.6322434443 0.7505617346 0.9803097915
0.632347117 0.7508562744 0.4848439776
0.6524300039 0.7484083214 0.9837994893
0.6423663449 0.747046893 0.2302672826
0.6525447844 0.7526104225 0.4853382743
0.642521854 0.7476883352 0.7371315419
0.6723721921 0.7477210619 0.984280827
0.6625640123 1.0007045682 0.2372124292
0.6723684895 0.9972486345 0.9826424277
0.6825173083 0.7493966661 0.2382269408
0.6723832999 0.7476490633 0.4860630577
0.6825247135 0.7504373734 0.7363225244
0.6725277012 0.9985380643 0.4869109524
0.66247515 0.7467327172 0.2338041885
0.662493663 0.7481792349 0.7350784517
0.7023965524 0.4983276685 0.2373410945
0.6926179933 0.999964946 0.487112744
0.6926253985 0.9976086276 0.9840956971
0.6926031829 0.7492395782 0.9904456512
0.702400255 0.7503391934 0.2381649223
0.6925365362 0.7501166522 0.4857751808
0.7027705147 0.7468898051 0.7386412758
0.7123528361 0.5005399896 0.4943948269
0.7125490738 0.7492919408 0.4917743138
0.722372064 0.9989569653 0.74092115
0.7323394555 0.998433339 0.9958421865
0.7324801542 0.7484345027 0.9938890665
0.7223202276 0.7473676141 0.2435586807
0.7325171802 0.7480352377 0.4957231336
0.7224387107 0.7504373734 0.744703353
0.7223942796 0.9994936823 0.2423497828
0.7324949646 0.9978638954 0.4948002613
0.7125342634 0.7497173872 0.9914638654
0.7124120777 0.9974449944 0.4887733588
0.7125268582 1.0003053031 0.9925653881
0.7425882444 0.4994416834 0.2461532757
0.7423586834 0.7515369886 0.2469169363
0.7424475457 0.7501428336 0.7510301659
0.7525186099 0.7498941111 0.9984710305
0.762297169 0.9998078581 0.7524204911
0.7525667437 1.0013852824 1.0002482771
0.7625008118 0.7499792003 0.2534381356
0.7524297476 0.7472694342 0.497907666
0.7624711911 0.7525711506 0.7509089058
0.7524741788 0.9996507702 0.5027969455
0.7425586236 1.0018107287 0.2468206688
0.7625119196 0.999506773 0.2467919737
0.7825799962 0.9998929474 0.2429570087
0.7726385228 1.0014638263 0.4991008279
0.7824948364 1.0001940325 0.747099859
0.7725866865 1.0017976381 0.9997484265
0.7826059143 0.7506730052 0.2488793128
0.7725385527 0.7503588294 0.4967394966
0.7826799663 0.7507057318 0.7550187887
0.7725089319 0.7503850107 0.9981840792
0.7724682034 0.5015139346 0.4991119357
0.772682954 0.4984657749 0.9973972773
0.7926029266 0.9988064228 0.4991165639
0.7925140643 0.7499202924 1.0044507249
0.7924844435 1.0025699869 0.9963512936
0.8127857837 0.7507908211 1.0024790919
0.7926251422 0.5017057127 0.9971103261
0.8025184818 0.9982631605 0.2505704741
0.8123822006 0.4966232648 1.0024698354
0.8024962662 0.7488075865 0.2485007223
0.8125673304 0.7478257871 0.5032134877
0.8026739909 0.9995591356 0.7476811668
0.8025147792 0.7511573595 0.7505108766
0.812415524 0.9987606055 0.9973972773
0.7926658708 0.7488926757 0.5017278206
0.8226272869 0.9996180436 0.7462926928
0.8225939635 1.0008485654 0.249010755
0.8324465745 0.7488730398 0.9992485759
0.8224939934 0.4962253088 0.7513078607
0.8225125064 0.7498352031 0.25034369
0.8325835706 0.7462745442 0.5002356739
0.822497696 0.748061419 0.7537154745
0.8425990959 0.7483690494 0.2504140393
0.8424065608 0.749036673 0.7517753136
0.8625820127 0.5000903255 0.7558065162
0.8426213115 0.9983809764 0.7460834961
0.8625486893 1.0046906734 0.2536121576
0.8627819529 1.0009729266 0.7494611904
0.8527664277 1.0022296298 8.079839196e-05
0.8625783101 0.7515631699 0.7559333302
0.8527108887 0.4970866741 0.5022434072
0.8523961679 0.7482185069 -3.5694115553e-04
0.8526220264 0.4990509273 0.0028025776
0.8627041984 0.5027843829 0.2571416583
0.8627782503 0.7520867962 0.2531789538
0.8526553497 0.7500970163 0.5024257601
0.8526294316 1.0017649114 0.4978012163
0.8825279035 0.9987606055 0.7584899735
0.892569347 0.9991205986 0.0088299429
0.8825649295 0.7491283076 0.7582428251
0.8725197834 0.7495668446 0.0054395672
0.8925656444 0.7467523532 0.0081017346
0.8827981931 0.5013863007 0.7603690415
0.8825723347 0.5031181947 0.2579173524
0.8825056879 0.7520278883 0.2579090216
0.8726160509 0.7503784654 0.505007396
0.8927396664 0.7465363573 0.5085711457
0.8726456717 0.5000556353 0.0093035976
0.8824871749 0.9991075079 0.2574119479
0.9126707469 0.7503261028 0.5103576489
0.9025700619 0.9981518899 0.2622521681