POSCAR file written by Ovito 3.7.11
1
269.9974389081 0.0 0.0
0.0 15.2733615964 0.0
0.0 0.0 10.7998975563
Sr Ti O 
800 800 2400 
Direct
0.0225578822 0.4981425176 0.7720188801
0.0128067157 0.4971217862 0.0212146287
0.0123610448 0.2500209776 0.5178664694
0.0226231421 0.2482577771 0.7706225706
0.0026549527 0.2460395359 0.7691947793
0.0127431595 0.2489629263 0.0215119464
0.0026223968 -0.00179726 0.2639909131
0.022378325 0.4983756032 0.2721271014
0.0124874904 -0.0022405154 0.5170849805
0.0023916539 -0.0034895528 0.7642280655
0.0123708226 8.7111132111e-04 0.0180303393
0.0225879195 0.2505146476 0.2701576382
0.0025360997 0.2503077514 0.2668668663
0.0425952945 0.4977902703 0.2731780373
0.0325218656 0.2469247372 0.5225720696
0.0423767739 0.2502141244 0.7715059123
0.0525894634 0.4987553493 0.0215987991
0.0323344564 0.2505585148 0.0180889509
0.0323333453 -9.5690799368e-04 0.5195313
0.0324374204 -5.3774683131e-04 0.0184375654
0.0425119604 0.2492444623 0.2706141241
0.0524690919 0.249639922 0.519517411
0.0524353878 0.2491920835 0.0191156273
0.0625325207 0.2509297494 0.2676427996
0.062508076 0.4988790942 0.7635586147
0.062493261 0.5009984704 0.2675140947
0.0725407637 0.4968677491 0.5180544341
0.0722211311 0.2470157453 0.5143960661
0.062553632 0.2494912973 0.7671669823
0.072652987 0.2485668118 0.0113993505
0.0624984463 2.6011288824e-04 0.2612177386
0.0624858536 -1.4169780427e-04 0.7627632368
0.1026369751 -0.0023976517 0.2641270255
0.092390952 0.2509651051 0.5134145753
0.0824949322 -5.7120377508e-04 0.2619760792
0.1024143804 0.2477562503 0.7629910167
0.0826738228 0.2500727017 0.7632271301
0.0924124337 0.2468566448 0.0145527137
0.0824190056 -0.0016295824 0.7616493373
0.0924457674 -0.002532789 0.0130568662
0.1025821598 0.2493027337 0.2653205553
0.0825049323 0.2504930414 0.2658288935
0.1026288269 0.4991259292 0.2673844638
0.0925309534 0.5017704027 0.5152016293
0.1125296616 -0.0020958845 0.0105998984
0.1223660512 0.2502887641 0.2635455385
0.1124629943 0.2505938705 0.5165692348
0.1225527196 0.5024192448 0.7680855095
0.1124826241 0.4994552607 0.0173064435
0.1225842014 0.251448954 0.7664410495
0.1125448469 0.2500458576 0.0180296911
0.1126363293 0.500426887 0.5161821941
0.1525748562 0.2518273907 0.5051404227
0.1325461477 0.2508996316 0.5145127339
0.1426284656 0.2526654511 0.7635308367
0.1524818924 0.252821278 0.0012191613
0.1326635563 0.2531695969 0.0164459724
0.1424136487 0.2497158713 0.2586241955
0.1425980949 0.5012322107 0.7571974433
0.1526418939 0.4986446991 0.0053069778
0.1327165197 0.5007424692 0.0134117769
0.1326376301 0.5000936271 0.5157460789
0.1526144862 0.0031565283 0.5018005762
0.1824469914 0.2508112424 0.7562252118
0.1824051392 0.2509520104 0.259737169
0.162644211 0.5007928837 0.7524964727
0.162567914 0.5033260523 0.2555176846
0.1725765275 0.2529417492 0.5074237777
0.1825258811 0.5037712719 0.7556705769
0.1624301349 0.2498173551 0.7540946361
0.1725583791 0.2559960866 0.0057970751
0.1624953207 -4.27227612e-04 0.2575167776
0.162327171 0.2486080601 0.2554565729
0.1725409716 0.0013048076 0.5083469346
0.182625882 -6.967698599e-05 0.2556704638
0.2022216235 0.2498684245 0.2493537372
0.1924241231 0.5010475755 0.0056396662
0.2023549581 0.4996045402 0.2500157805
0.1926415326 0.2531597758 0.505476537
0.2023056983 0.2515458548 0.7480343934
0.1923800486 0.255810142 0.0033881634
0.1926633847 0.0015488272 0.5037672616
0.2024627369 0.0037294867 0.7520279498
0.1926837552 0.0032905525 -4.277987712e-04
0.2026186643 0.0012129483 0.2491204017
0.2123465343 0.2496294463 0.4960514476
0.2221044047 0.2526713438 0.7479297628
0.2122406074 0.2516185303 -8.8474755004e-04
0.2224277411 -0.0011699587 0.2496435548
0.2123380157 0.0044422309 0.4954319973
0.212319497 0.003268226 2.7637457493e-04
0.2223884814 -0.0010519755 0.7482566177
0.2322570936 5.4276186324e-04 0.495706074
0.2223944074 0.2482387898 0.2457379622
0.2324511695 0.251288544 0.4992116628
0.2324811698 0.2482315877 -9.4548886695e-04
0.2322952421 6.9976724708e-04 0.9974858336
0.2523376544 0.2492555928 0.4991774032
0.2422890406 0.248882394 0.7515927605
0.2621733032 0.2497453343 0.2475083493
0.2521543193 0.2483946166 0.9997914111
0.2422760775 0.2508734422 0.2502722644
0.2423901526 1.9149669047e-04 0.2493018849
0.2523835808 0.5000995197 0.997495093
0.2523639509 6.4300174759e-04 0.4947995839
0.2422508921 -9.1794986383e-06 0.7485631021
0.2623877497 0.2480345125 0.7498520032
0.2522039494 0.0015651956 0.9946246954
0.2622399705 -0.0022612705 0.2485518777
0.2622977489 0.0013095872 0.7471214218
0.2722819177 0.2482296235 0.496542193
0.2725111791 0.2479101129 0.9929302349
0.2723437701 -9.2227252744e-04 0.4951986618
0.2724689565 0.5032363537 0.9934580176
0.2823546058 0.250326084 0.7453334418
0.2825294223 -0.0018079976 0.7459501144
0.2823649763 0.2501997202 0.2503241168
0.3022822022 0.2510921236 0.2440157236
0.3124089649 0.2519950028 0.4958940387
0.3123985945 0.2498245572 0.9922913399
0.3124574839 8.5526674109e-04 0.9921524497
0.2924872945 0.2502671579 0.4916439984
0.3023492399 0.2503280482 0.7373083657
0.2923158114 0.4978983016 0.487977297
0.3022822022 0.5025266213 0.2349211929
0.2924758129 0.2501774592 0.9905968794
0.3023925736 -0.0013018222 0.7448047331
0.292372849 4.3158790921e-04 0.4919236307
0.3124267429 0.5029600556 0.9892542741
0.2923617378 0.0014322844 0.9931431998
0.3223638742 0.2515602589 0.2437573878
0.3325591561 0.2521102361 0.4939838354
0.3225446166 0.252362309 0.7434741649
0.3325191557 0.251952445 0.994374693
0.3225423944 5.9396211769e-04 0.2479315015
0.3324147103 3.6362644615e-04 0.4969514562
0.3224590603 -0.0014245195 0.7445732494
0.3323087833 0.00293896 0.9979395416
0.3624890696 0.2506632724 0.2472389023
0.3524174926 0.2532023336 0.492486599
0.3425511027 0.2547232823 0.7435843512
0.3524071221 0.0012997007 0.9955228521
0.3524171222 0.2540272993 0.9897727975
0.3426511037 -5.346041047e-04 0.2473027918
0.3426870299 0.0015486963 0.7460186335
0.3424644352 0.2517507867 0.2490916977
0.3622261042 0.2528507411 0.7421269299
0.3624927734 0.0011365408 0.2455379603
0.3723632373 0.2511386098 0.4906115812
0.3824522219 0.2537536202 0.7420352624
0.3725299056 0.2526870574 0.990319099
0.3824077771 9.4463802922e-04 0.7441075043
0.3822262939 0.2537673697 0.2437323876
0.3925300953 0.0034046728 0.4930986418
0.3925708364 0.0010788586 0.9913283678
0.3723854598 8.6554607606e-04 0.4923995611
0.3725150906 -4.2349562414e-04 0.9923098586
0.3923671308 0.2524199256 0.4950995868
0.3923560196 0.2531407885 0.9920043002
0.4124858402 0.0021049589 0.4900134274
0.4024450042 0.254351393 0.7439278729
0.4026227836 9.4902475179e-04 0.2407073589
0.4024079668 3.6866790343e-04 0.7490668106
0.4025116715 0.5044397561 0.2441555397
0.4024413004 0.2525214095 0.2391360477
0.4123784317 0.2541608652 0.4940810586
0.4123154682 0.2561335809 0.9902357649
0.4124413953 0.0031353149 0.9894579797
0.4125932486 0.5041732791 0.9912728117
0.4125080626 0.5057963664 0.4935532758
0.4224377864 0.2535447599 0.2367045431
0.4425972369 0.250992604 0.7392944957
0.4325230673 0.500449148 0.9926894918
0.4324045476 0.5007968121 0.4829161379
0.4428194612 0.2533908972 0.2393416052
0.4224933425 0.5022077654 0.2374415872
0.4424527911 0.5031309414 0.7343555599
0.4325638084 0.2534583349 0.4899439823
0.4224785275 0.2539650995 0.7418361864
0.4325526972 0.2544214496 0.9887820474
0.4425379771 0.4992234846 0.2372138072
0.4326749205 0.0018615285 0.9892542741
0.4527084439 0.0022225492 0.9796708498
0.4724530756 0.2512852704 0.4815309395
0.4625122406 0.2520152996 0.7350972336
0.4725160392 0.2509795093 0.9814856819
0.4625048331 0.2490198883 0.2327711725
0.4525825168 0.5008164542 0.9856894254
0.4625900191 0.5020349155 0.7305194124
0.4727086336 0.5012112592 0.4813726047
0.452593628 0.247551973 0.4823726142
0.4525825168 0.2517376921 0.9862542456
0.4725975215 -0.0013043757 0.979568997
0.4825865051 -9.5153916905e-04 0.2264775943
0.4825272453 0.249232677 0.7338249993
0.4827494696 0.2469116425 0.2274757519
0.4924532654 0.2524317108 0.4813698269
0.4924903027 0.2502534085 0.9798930742
0.4826420612 0.4998638152 0.2259248113
0.5025533612 0.2493439819 0.2266340773
0.5124164177 0.0023463596 0.9725041152
0.5224794761 -0.0019804548 0.225049803
0.5023755817 0.2483880693 0.7234684196
0.5024496565 0.5011562615 0.7264786334
0.5124867887 0.2478184501 0.4726771518
0.5026681771 -1.5570912709e-04 0.7246647273
0.5223979938 0.2501774592 0.2297507735
0.5125608635 0.2504393531 0.9739578327
0.5225350322 0.2475257837 0.7286453206
0.5125423448 0.4986335687 0.4773290478
0.522353549 0.4992313414 0.2213247676
0.5224313275 0.4999122655 0.7226619305
0.5523167962 0.2481923036 0.4805466709
0.5525205018 -0.0010601597 0.9812634575
0.5323906812 0.4964533021 0.9740226481
0.5325758682 0.4986505918 0.4754308817
0.5324980896 0.002659912 0.4720688127
0.5324091999 0.2489085834 0.4758808859
0.5324054962 0.2486087149 0.9756985899
0.5424500359 -5.1561679806e-04 0.7267221542
0.5423685536 0.2445087661 0.230097999
0.5424463322 0.2483684272 0.7282879098
0.5524019821 0.2479487423 0.9803560415
0.562316891 0.4981379345 0.734070372
0.562231705 0.4963046773 0.2351174911
0.5624761518 -0.0014309359 0.2310813417
0.5625428191 0.2468114681 0.2301517032
0.5624761518 0.249469691 0.7311583074
0.5723799494 -0.0018825065 0.4846994881
0.5723021709 -8.7944084444e-05 0.9817634623
0.5723762457 0.247993919 0.4833513272
0.572513284 0.2492333318 0.9834394041
0.5922245821 0.5003502831 0.9896987227
0.5822726359 0.2476266128 0.736382431
0.6024209751 0.2487259124 0.2323878355
0.5924505102 0.2479232076 0.4884421162
0.6024024564 0.2464683871 0.7369241028
0.5924356952 0.2459105531 0.9825782848
0.6020913424 0.4968461429 0.7370194741
0.5823355994 0.2482394445 0.2350526756
0.5922875457 0.4991769985 0.4868893237
0.5823504144 0.498756004 0.2379369622
0.6124321812 -0.0050651915 0.9871338836
0.6123284765 0.4965822848 0.4903902828
0.6223544975 0.2468088491 0.7396620917
0.6223396826 0.4968153704 0.2411925487
0.6125618121 0.4992391983 0.9901987275
0.6223433863 0.4991082513 0.7376741099
0.6122840316 0.2507601731 0.4912680689
0.6122988466 0.2496471241 0.9876709257
0.6222730153 0.2460552495 0.2346156344
0.6424917256 0.2525417063 0.2379425179
0.6524918204 0.2481019502 0.4872550679
0.6426102452 0.2483553325 0.7345435247
0.6525103391 0.2524035573 0.9984210277
0.6322731101 0.4993256232 0.9901894681
0.642188019 0.4985504173 0.7402333935
0.652299226 0.5000242252 0.990559842
0.6424028359 0.5006730673 0.2387545626
0.6524288569 0.5006108675 0.4929699369
0.6322842214 0.2527512214 0.4891884196
0.6324434821 0.2497564648 0.9850505305
0.6625030265 -0.0045165697 0.7433250895
0.6725068251 0.4960349266 0.4888773055
0.6824106228 0.498437803 0.7390407896
0.6725290475 0.4974262378 0.9903283583
0.6824809938 0.499548233 0.2413462538
0.6625252489 0.2503751891 0.2417610726
0.6625289527 0.2507798152 0.741644518
0.6826809957 -0.001116074 0.2414656994
0.6826550695 -0.0013874615 0.7401361703
0.6625215452 0.4968428692 0.7391657907
0.6624585816 0.5004759921 0.2387999334
0.6825365499 0.2471800837 0.2354267532
0.6725253438 0.2469528908 0.4891180485
0.6825476611 0.250874097 0.7419334096
0.6725216401 0.2488620972 0.9859023904
0.7025182209 0.2481039144 0.2492055877
0.6925477559 0.2491947024 0.4945088404
0.7023589601 0.2483808672 0.7445639901
0.6922551606 0.2464867197 0.990772807
0.7026034069 0.5006488421 0.7485825467
0.7025997031 -0.0026928061 0.7410778459
0.7024626648 -3.227974255e-04 0.2429101576
0.6925662746 0.4974065958 0.993948763
0.6925996083 0.4980004402 0.4918634449
0.7124664634 0.2494192764 0.4958097787
0.7123738699 0.2477294062 0.9971339784
0.7226517452 0.5000694019 0.7453538124
0.7225110031 0.2491789888 0.2397925354
0.7325481354 0.4976593234 0.9903931738
0.7325333204 0.2492379149 0.4893708287
0.7226517452 0.5008707972 0.244620359
0.7326592475 0.4976226583 0.4891236041
0.7226221153 0.2460375717 0.7432121254
0.7326481363 0.2496923008 0.9906616948
0.7125442419 0.5011687015 0.9922172651
0.7628299041 0.4976521213 0.7431232357
0.7425482302 -0.0017186264 0.7438732428
0.7527001784 0.4987291599 0.9926894918
0.7625780499 0.4984751229 0.242463857
0.7627854592 0.2483095011 0.2441462804
0.7526038812 0.2468795605 0.4936060541
0.7626817545 0.2487311503 0.7447649179
0.7528075868 0.2493551124 0.992587639
0.7426297125 0.4979074679 0.7401583927
0.7525038802 0.4997053694 0.4940856882
0.7427408246 0.2504550668 0.2375073285
0.7425926751 0.2498887212 0.7380509653
0.7826782405 0.4995312099 0.2488102135
0.7827375003 0.5000654735 0.748139024
0.7825560171 0.2497427154 0.2482120597
0.7726077746 0.2494932615 0.4959153352
0.7825819433 0.2489537601 0.7435750918
0.7726374045 0.2501898992 -0.0058961192
0.7926709279 0.5010665628 0.5006088983
0.812622969 0.5000779134 0.5015802038
0.8026043554 0.4997570934 0.7478214284
0.8024413909 0.4996929294 0.2493657744
0.7924449998 0.2502285285 0.4937764261
0.7925487045 0.2499784199 0.9988469577
0.8126748213 -3.034827515e-04 0.4994024053
0.8026080592 0.2490892901 0.2504028212
0.8124451895 0.24831212 0.4953338482
0.8025080582 0.251888281 0.7514103513
0.812382226 0.246461185 0.9960228568
0.8326527886 2.8140379923e-05 0.5028904014
0.8223749134 0.249684444 0.2502055971
0.8324898241 5.9789052596e-04 1.0011432757
0.832534269 0.2507817794 0.5047885675
0.8227563985 0.2513225902 0.7496492235
0.8323935269 0.2501807329 0.0050744756
0.8324972316 0.5006671747 0.4991616623
0.8324713054 0.4989556981 1.005791468
0.8224860255 0.5015019614 0.250760232
0.8426417723 0.5014528563 0.7542242669
0.8425417713 0.5005165857 0.2550936065
0.8425121414 -0.0018024324 0.2547704553
0.8424491778 0.2523380838 0.2545936017
0.8424343629 0.2493249946 0.7485714355
0.8625827022 0.249726347 0.249342626
0.8527122382 0.249363624 0.5004792674
0.8624271451 0.2502913831 0.7574085564
0.8527048307 0.2505231592 0.0016832398
0.8924422446 0.5004700995 8.7054687763e-04
0.872512426 2.8270123579e-04 0.5029441056
0.8824569647 0.2528572884 0.2476416839
0.8726198344 0.2492208918 0.5002616728
0.8925163194 0.2513042577 0.4992468483
0.8825014096 0.2507496974 0.7519723937
0.8725346484 0.2493577314 0.00619319
0.8923866886 0.0017222664 0.5061487656
0.8724531661 -0.0030888552 0.0016427764
0.892408911 0.2506809502 8.7869510307e-04
0.8725198334 0.5006586631 0.5056524646
0.8926163204 0.500686162 0.5024626196
0.9126979923 0.5046774248 0.5020209487
0.9025127105 0.5018928381 0.7513251653
0.9124794717 0.5019098612 0.0034452009
0.9024793769 0.5036213377 0.2511204206
0.9125905839 9.2238908189e-05 0.5035811487
0.9026016003 0.2517200142 0.2514806092
0.9125720652 0.0031177025 0.0046425271
0.9123313222 0.25219928 0.5023320628
0.9023793759 0.2508243371 0.7531992572
0.9124091007 0.2516303156 0.0031563093
0.9424204965 0.2479192792 0.7615058175
0.9324092904 0.2511052183 0.0083295991
0.9326055886 0.5005434298 0.5084737877
0.9326352185 0.5020866395 0.0114605547
0.9225906788 0.5015261866 0.7544316763
0.9223980843 0.5003037969 0.2501528189
0.9425871647 0.5008308583 0.7585224558
0.9224758629 0.2518581632 0.2568843642
0.9223388245 0.2532219756 0.7552400173
0.9425908685 0.249790511 0.2575621484
0.932372253 0.2543802014 0.5040293011
0.9725615231 -9.5762820186e-04 0.5153720013
0.9624355012 0.0011096312 0.7618289687
0.9625614283 0.2470838377 0.2590297549
0.9525354073 6.6835201379e-05 0.0107724001
0.9724281885 -0.0027877427 0.0126348251
0.9524279988 0.248058083 0.5112497399
0.9725689306 0.2486990683 0.5079311899
0.9624206862 0.2494271333 0.7590002381
0.9525539259 0.2492601759 0.0086474725
0.9524613325 6.7620883033e-05 0.5120469697
0.9724615222 0.2489904252 0.0108526786
0.972705969 0.5006003917 0.5136479108
0.9625429096 5.2954825493e-05 0.2613473695
0.9524094801 0.4995816245 0.5111145535
0.9626206881 0.4989602813 0.760491919
0.9825986554 0.2470281853 0.2619399677
0.9824134684 5.6580852509e-04 0.7603113617
0.992417267 1.6301573051e-04 0.0069119005
0.9926209727 0.2528723473 0.5113997414
0.9826245816 0.2492182729 0.7612122962
0.9927802334 0.2485124689 0.010932772
0.9926394914 0.4991344407 0.0180445061
0.022547734 0.7494604725 0.7690827412
0.0027549907 0.5014227385 0.264857588
0.0027298053 0.7491527472 0.7650049247
0.012751567 0.4982400731 0.5214776147
0.0025440628 0.5014567847 0.771623506
0.0224299551 0.9982662102 0.2657983376
0.0224135846 0.999411996 0.7667327189
0.0126156027 0.7521972636 0.0186253449
0.022503215 0.7473456793 0.2708150519
0.0026494341 0.7508550574 0.2655779652
0.0126302325 0.7488908533 0.5164655302
0.0523457574 0.9970287616 0.5142108791
0.0524416842 0.9992286702 0.0172930175
0.0324877912 0.7500955651 0.0121388945
0.0424341819 0.7483146867 0.2677613192
0.0326414964 0.7496568929 0.5174090576
0.0425101085 0.7496110615 0.7629224976
0.0426638137 0.4993112191 0.7665077168
0.0325059395 0.5022686558 0.0213274076
0.0326374223 0.4986113077 0.5192803717
0.0425612201 0.9993727119 0.265382593
0.0526042783 0.5004373628 0.515815524
0.0523846466 0.7505997109 0.0102595248
0.0525027959 0.7503247223 0.5117793746
0.042554183 1.0003482666 0.7668336458
0.072622246 0.4983703653 0.0161956922
0.0725411341 0.9986917878 0.5162886766
0.0724596519 0.9977686118 0.01845701
0.0725744678 0.7510121937 0.0136540015
0.0627669673 0.7504622166 0.2674566867
0.0724948374 0.7480527928 0.5185498092
0.0626080769 0.7493164308 0.7644354749
0.0926165097 0.9992090282 0.5122025268
0.0924539156 0.7480658875 0.0149269765
0.1025014183 0.7482688553 0.2637325773
0.0826508596 0.749545588 0.2664483438
0.0924224338 0.7493622623 0.5153007043
0.1025425298 0.7503443643 0.7627373106
0.082614563 0.7483081394 0.7656225232
0.1025006776 0.9994971115 0.7628502747
0.1025243815 0.5016460031 0.7656160416
0.0824319687 0.4999463118 0.7678355071
0.0924928049 0.4988116565 0.0150506814
0.0825238214 0.4967498969 0.2663446391
0.1125178096 0.7501283019 0.0166369001
0.1224141998 0.7518633489 0.2627575681
0.1124426237 0.7502592488 0.519616486
0.1225304972 0.7524198734 0.762065082
0.1225456825 1.0018737985 0.262574233
0.1225334602 1.0009899066 0.76107248
0.1225379047 0.4986355329 0.25983717
0.1126344774 1.0019130826 0.5108821439
0.1426617992 0.751752044 0.2547019361
0.1527178206 0.7502003227 0.5028866977
0.1325498515 0.7491200104 0.505675613
0.142522909 0.751941917 0.7565937338
0.1525093001 0.5009604958 0.5051348671
0.1327083715 1.000073278 0.0072176441
0.1425221683 0.4993969893 0.2572815902
0.1424695752 1.0008196756 0.2564584342
0.1326650378 1.001487505 0.5097043549
0.1426406879 0.9999947099 0.7572094804
0.1525496708 1.0013958421 0.0037514075
0.1525581894 0.7489104953 0.0037534446
0.1323765165 0.7491396525 0.0107022142
0.1724757858 0.7526621252 0.0065783788
0.1625464323 0.7502592488 0.2560593564
0.172492823 0.7521841689 0.5083821202
0.1626234701 0.7534347122 0.7548400135
0.1825647703 1.0009637172 0.7570779977
0.1724376372 0.5030674321 0.0046234528
0.1726272687 0.5031126088 0.5027654002
0.1824651398 0.7518437068 0.2509796786
0.1824373617 0.7530418713 0.7518677631
0.172572083 1.0032683834 0.0047791951
0.1625538398 1.0010815695 0.7567446612
0.182442547 0.5008505004 0.255695464
0.2023819954 0.5010279335 0.7483121738
0.1925148647 0.500204932 0.5006218614
0.1924504197 0.7474438896 0.0029235293
0.2022923649 0.7520990534 0.2527759919
0.1923937525 0.7505669741 0.5041848581
0.2024127364 0.7502199647 0.7520205423
0.2322974643 0.7493688096 0.0024286172
0.2323682057 0.4999960716 -0.003047731
0.2321674631 0.7509139835 0.4999348178
0.2122883856 0.7481379083 0.0019828722
0.2222066278 0.7487926431 0.2502667088
0.2124380167 0.7507633945 0.4995468512
0.2222429245 0.7532906705 0.7540770433
0.2324093172 0.5031374887 0.4988551779
0.2223732961 0.5011523331 0.749627927
0.2124846838 0.5018515898 -0.0010579899
0.2224647784 0.5015445192 0.2480685398
0.2123676456 0.5013494082 0.5032598493
0.2522783946 0.7496503455 -0.0016723476
0.2422420031 0.7529174717 0.2498509641
0.2523187653 0.7472016377 0.5012033484
0.2424208937 0.7512740876 0.7505992325
0.2425508949 0.4990945019 0.7525103618
0.2625384919 0.5001951109 0.7448862154
0.2623381196 0.749375357 0.2451083266
0.2423916341 0.5018974212 0.2456444428
0.2624162685 0.7521972636 0.7436547222
0.2624433058 0.4992071163 0.2459796311
0.2524735816 0.499378002 0.4969338634
0.2723296959 1.0006821813 0.9923376367
0.2823275685 0.4996831084 0.2395610517
0.2723722889 0.4988764752 0.4987727697
0.2824486808 0.9998703103 0.2434962742
0.2823979395 0.4981392439 0.7436806484
0.2824438659 0.7491134631 0.2419953341
0.2822957163 0.7501283019 0.7408204361
0.2724000669 0.7485438439 0.9945506206
0.2724508081 0.746055852 0.4906615817
0.3123697053 1.0048201047 0.4923467829
0.2924587757 0.7470706908 0.9903376177
0.3023251656 0.7488384745 0.2385693757
0.2923747008 0.7480200561 0.4888874908
0.3022899801 0.7492575047 0.7371018823
0.3022688688 0.4992922318 0.740438951
0.2923372931 0.4995351384 0.9920135595
0.3024951672 1.0007476548 0.2415555151
0.3125811888 0.74924441 0.9905228046
0.3122315559 0.7497681978 0.4930069743
0.312311927 0.499368181 0.4902467629
0.3323298946 0.5009480559 0.4957607041
0.3224309119 0.4983625085 0.7377491106
0.3323310058 0.7476926887 0.9953006277
0.3324335993 0.4968893554 0.9983932496
0.3224083191 0.7522561897 0.2439073892
0.3325724895 0.7508026786 0.4960116324
0.322401282 0.7499908076 0.7408296954
0.3224709122 0.5001669574 0.2435157189
0.3523808256 0.5006783052 0.490416209
0.3523678625 1.0032356467 0.4950199564
0.3624001799 0.752072864 0.2414842181
0.3622594378 0.7510449305 0.7408148805
0.3624964771 0.5006665199 0.7397741298
0.3625001808 0.5013906565 0.2408656937
0.3523582328 0.7512871823 0.9899672438
0.3424685093 0.7512348035 0.2469990852
0.3524541596 0.750036639 0.496543119
0.3423144338 0.7503181749 0.7474464248
0.3626149967 1.002299376 0.743076013
0.3424585092 0.4992149731 0.7422621164
0.3524989749 0.5022817505 0.9916246669
0.342532584 0.4998343521 0.2376906636
0.3726113878 0.5005859876 0.9858190563
0.3824892593 0.5007202082 0.2403629112
0.3726150916 0.5024009122 0.4874356252
0.3925856514 0.4995737677 0.9930876438
0.3825522229 0.503595803 0.7436760187
0.3724299046 0.750999099 0.9910413281
0.382522593 0.7511889721 0.2372656596
0.3724928682 0.7540959942 0.4957968156
0.3826225939 1.0003613613 0.2414768106
0.3828114846 0.7516865705 0.7400009838
0.3924337981 0.7540043314 0.9927357886
0.3924078719 0.7525966517 0.49442921
0.3925782439 0.5004013524 0.4885985992
0.4025561163 0.5024644215 0.7460093742
0.4027079696 0.7546721608 0.2417157018
0.4025227827 0.753676964 0.7393546814
0.4127265832 0.7540959942 0.9891339026
0.4126525084 0.7528912824 0.4941532815
0.4225748247 1.0029344687 0.7382324486
0.4425601995 1.0050558092 0.2360980559
0.4327341804 1.0033665936 0.4867532113
0.4424527911 1.0018410617 0.7363768754
0.4226933444 0.5014391069 0.7367500271
0.4327304766 0.7544364563 0.9880505589
0.4223822303 0.7525049889 0.2367739883
0.4326341794 0.7512937297 0.4899328711
0.4225192687 0.7521252427 0.7414352567
0.4426046444 0.7526948619 0.2411305111
0.4426305705 0.7531400815 0.7358629816
0.4226007509 1.0055665023 0.2390443802
0.4726715962 1.0028035218 0.4820216849
0.4726271514 0.4999993453 0.9852449768
0.4626085378 0.4999567875 0.2367888032
0.4726086327 0.7507437525 0.9783745412
0.4626603902 0.7523871366 0.2336758107
0.4726938187 0.7507764892 0.4815540879
0.4624418696 0.7529174717 0.7305092271
0.4525158495 1.0004530242 0.4864476528
0.4625196481 1.0031898153 0.2375471437
0.462449277 1.0031177944 0.7338907407
0.4526602953 0.7527734301 0.9859579465
0.4526602953 0.7526293885 0.4853439387
0.4526195542 0.5022824052 0.4871421039
0.4926384523 0.4976436098 0.9795782564
0.4926532673 0.4980102612 0.4780197951
0.4825531714 0.5023216893 0.7295064399
0.482460578 0.9980763372 0.7318823883
0.4927903056 0.9993006911 0.4732817872
0.4925866 0.997506718 0.978235651
0.4925791925 0.7499449762 0.4756429207
0.4924495616 0.749093821 0.9791893638
0.4825679864 0.752583557 0.2284637242
0.4825013191 0.7496437982 0.7310777511
0.5024941013 0.499795068 0.2296174389
0.5125719747 1.0012321585 0.479652218
0.5225868845 0.9989995131 0.7253758451
0.5025681761 0.9990387972 0.229006322
0.5226683668 0.7456171797 0.727108269
0.5024200266 0.7522954738 0.2282146478
0.5026533621 0.7492378627 0.7262767796
0.512553456 0.7502985329 0.9750967324
0.5125941971 0.5007981216 0.9751245104
0.5127201243 0.7505342374 0.4740484611
0.522523921 0.7481051716 0.2258886998
0.5524871681 0.9984757253 0.4776614584
0.5423907761 0.497334575 0.7253193631
0.5426981864 0.7462653671 0.2274933447
0.5524797607 0.4991305123 0.4827068766
0.5524945756 0.7478170883 0.4807068576
0.5423500349 0.7471165222 0.7274795688
0.5325980906 0.9995560376 0.9792726979
0.5424352209 0.4970261949 0.2251868413
0.5324054962 0.7478170883 0.9762911881
0.5523982784 0.5012178066 0.9799301116
0.5424167022 0.9984298939 0.2251849894
0.5324906822 0.749375357 0.4736151237
0.5723095784 0.4985779162 0.9868375845
0.5623835583 0.9972775608 0.7307471924
0.5524316121 0.7465927344 0.9775319407
0.5625131892 0.7476795941 0.2329943228
0.5622946686 0.7488974006 0.7350185292
0.5724836541 0.7481902871 0.9830875489
0.5723169859 0.499419905 0.4847411552
0.5722466148 0.7471165222 0.4864745049
0.6024283826 0.4979932381 0.2369989904
0.6023839377 0.9970614984 0.2351489728
0.6022506031 0.9997197213 0.7409565485
0.592269027 0.7442095001 0.9868098064
0.5923690279 0.9999685205 0.4867726559
0.5923134718 0.9990584392 0.9829949554
0.6024802349 0.7479414879 0.2371258434
0.5922097672 0.7505407847 0.4868791384
0.6025654209 0.7473063953 0.7399065385
0.5823911555 1.0010357381 0.2335480317
0.5824578228 0.9989471343 0.7352277904
0.5822059686 0.4986892211 0.7348824168
0.5823022658 0.74828195 0.2354211976
0.5823948592 0.7469462912 0.7368278056
0.6123321802 0.7491658418 0.9905413233
0.6124247737 0.9972775608 0.4852207893
0.6122877354 0.7462915565 0.4916625171
0.6226433892 1.0011208536 0.7399648724
0.6222952377 0.7439410588 0.2383304845
0.6222285704 0.7490348949 0.7353148283
0.6224285723 1.0002958878 0.2421962619
0.6424139471 0.9973168449 0.7382435598
0.6324508896 0.4986538654 0.4831661402
0.6423213536 1.0001583935 0.2411712522
0.6527066373 1.0001387515 0.4937801298
0.6526955261 0.9998310262 0.9914302206
0.6324212597 0.9985281041 0.487438403
0.6324212597 0.9983971572 0.9873653673
0.6324916307 0.7477057834 0.9899209471
0.6325138532 0.7478498251 0.494174578
0.6522807073 0.7468415336 0.9899950218
0.6422843162 0.7470968802 0.2396351265
0.652539969 0.7487664537 0.4905412102
0.6423065386 0.747830183 0.7385185624
0.6724142316 0.7507895839 0.9899024284
0.6624696929 0.9949139685 0.2430897889
0.6724401578 0.9970287616 0.9926894918
0.6823958078 0.7492378627 0.2411666225
0.6724697877 0.7492771467 0.4887837861
0.6823439555 0.7484259916 0.7403065423
0.6725216401 0.9989078502 0.491919001
0.662425248 0.7489366847 0.2382230761
0.6626548798 0.7493033361 0.740182467
0.7024404424 0.4984980386 0.2457574068
0.6924996073 0.9988489241 0.4929597516
0.6926551644 0.9980239584 0.9930320877
0.692618127 0.7498402186 0.995467296
0.7026478518 0.7494932092 0.2440972059
0.6923921989 0.7465403557 0.4904050978
0.7024589611 0.7478170883 0.7429084188
0.7126183167 0.496853345 0.4969560858
0.7124812784 0.7467695128 0.4962070047
0.722485077 0.9999816152 0.7412259955
0.7325888765 0.9994709221 0.9929765316
0.7326036915 0.7499318815 0.9915413328
0.7225369293 0.7494080937 0.2387869703
0.732596284 0.7477319728 0.4913597365
0.7226443377 0.748903948 0.744523249
0.7222887788 0.998318589 0.2455361084
0.7325333204 0.9981941894 0.4905402842
0.712359055 0.7480527928 0.9935691298
0.7125479457 0.9994840168 0.4918699265
0.7126109092 1.0014220315 0.9923098586
0.7426778611 0.5007346123 0.2400564268
0.7426593424 0.7466516606 0.2406166173
0.7425852676 0.7485438439 0.7414584051
0.7526112886 0.7504949533 0.991652445
0.7627224957 1.0012190638 0.7485742133
0.7526816597 1.0024106809 0.993495055
0.7628039779 0.7478694671 0.2419518151
0.7525520288 0.7470641434 0.4941227256
0.7627780517 0.7493491676 0.7423278578
0.7526853634 0.998619767 0.496032003
0.7427445284 0.9993923539 0.2445573954
0.7627224957 1.0003089825 0.2473731629
0.7826374994 0.9986786931 0.246293523
0.7725448111 0.9975001706 0.4936967957
0.7826449069 1.0005512344 0.7499668191
0.7726929606 0.997866822 0.9970136069
0.7826893517 0.7504360272 0.2454935154
0.7727522204 0.7515949076 0.4956579254
0.7826782405 0.7493295255 0.7455325178
0.7726114784 0.7502527015 0.9962728592
0.7726374045 0.5015058898 0.4915949239
0.7726892569 0.498178528 0.9922820806
0.7927635214 0.9974805286 0.5039839303
0.7925746307 0.7509270782 0.9974765743
0.7925301858 1.0006298025 0.9975413897
0.8125007456 0.7524526101 0.9972913873
0.7926857428 0.5003155821 1.0013192033
0.8024154648 0.9979715796 0.2503444873
0.8126785251 0.5008570477 1.0028932923
0.8025006508 0.7523805893 0.2507759729
0.8125340793 0.7496110615 0.5025681761
0.8024562059 0.9973888657 0.7514705371
0.8026339854 0.7503443643 0.7468843825
0.8125600054 1.0005184976 1.0018192081
0.7925190746 0.750016997 0.5006116761
0.8223563947 1.002109503 0.7524733244
0.822423062 1.0010488327 0.2509380115
0.8324416755 0.7475028157 1.0040599701
0.8225267666 0.4967296001 0.7545659368
0.822563804 0.7499515235 0.2538574836
0.8325527877 0.7526555779 0.5053904251
0.8225749152 0.7512871823 0.7546316782
0.8425343638 0.7482295712 0.2531037728
0.8424195479 0.7487009802 0.7505946029
0.8625234423 0.4981745996 0.7545594553
0.8423862143 0.9986655984 0.7522742484
0.8624641825 0.9997262686 0.2526528426
0.8625530722 0.9980697898 0.7520640612
0.8525751998 0.9980697898 0.0015258309
0.8625086274 0.7470117646 0.7567641058
0.8526677933 0.4991298576 0.5063089523
0.8525122363 0.7499842602 0.004632064
0.8525085325 0.4999450023 0.004525489
0.8626938143 0.4990584915 0.255724168
0.8626493695 0.7511234986 0.256106579
0.8525344587 0.75020687 0.5068135868
0.8525344587 0.9980566951 0.5037135574
0.8824495573 0.9966686575 0.754179822
0.8924903932 0.9991173653 0.0029940855
0.8825717806 0.7475617418 0.755471501
0.8726161307 0.7495914194 0.0057487413
0.8925422456 0.7496045141 8.9706137611e-05
0.8826569666 0.4999757748 0.7532696282
0.882538447 0.4995718035 0.2556445376
0.8825606694 0.7497681978 0.2511500505
0.8726753905 0.7490414423 0.5065867328
0.8926311353 0.7507372052 0.5047061594
0.8724642774 0.4998147101 0.0023200051
0.8825902993 1.0013631054 0.2521676528
0.9125720652 0.7549798861 0.5034700365
0.9024164133 1.0041326332 0.2539287806