POSCAR file written by Ovito 3.7.11
1
270.0299896187 0.0 0.0
0.0 15.2752029427 0.0
0.0 0.0 10.8011995847
Sr Ti O 
800 800 2400 
Direct
0.0226580973 0.5007882056 0.7619575739
0.0125444059 0.5010035873 0.015201907
0.0126594671 0.2475084282 0.5166616715
0.0226639485 0.2498200178 0.7658154788
0.0026042507 0.2520046042 0.763537954
0.0124269004 0.2500556939 0.0133494275
0.0023361693 5.6794475065e-04 0.2669616285
0.0227464949 0.5010769088 0.2617279506
0.0126724657 0.0012979514 0.518553128
0.0026786869 9.7723554852e-04 0.7677161936
0.01258055 -0.0028889651 0.0189126985
0.0226259898 0.2469218567 0.2641378681
0.0026939444 0.2466914178 0.2662172668
0.0425778477 0.4987136014 0.2635768193
0.0326526539 0.2498115073 0.5130833652
0.0426274719 0.2495908883 0.7641527005
0.0526252503 0.5012916359 0.0169558788
0.0327230164 0.2486180698 0.0148223195
0.0327037593 0.0010076116 0.5154488432
0.0325889572 -9.7154379744e-04 0.0166507275
0.042585995 0.2510154193 0.2658978578
0.0526393228 0.2500301623 0.5120501466
0.0526548766 0.2485565322 0.0152610671
0.0625404453 0.2501473457 0.2663005909
0.0625682199 0.5001630093 0.7680263443
0.0625448892 0.497073034 0.2628111636
0.0726289543 0.5019993188 0.5148340967
0.072689318 0.2509689387 0.5151396183
0.062560443 0.249770264 0.7653109052
0.0725285951 0.2488727309 0.0209549717
0.0625378529 -1.9996648719e-04 0.270140905
0.0625222991 -2.34335916e-04 0.7679087648
0.1025445204 7.3285254333e-04 0.2658089788
0.0926256221 0.2472531125 0.5189678968
0.0826252514 1.2952177027e-04 0.264902598
0.1026422873 0.2504380129 0.7631778088
0.0825489636 0.2476773294 0.7687632995
0.0925541486 0.25117581 0.0153420766
0.0826819118 -0.0016520585 0.7640693764
0.0925408167 -4.3734467546e-04 0.0184742287
0.1024667513 0.2515568196 0.266226525
0.0825567405 0.2477198821 0.2663515111
0.1023482459 0.4985905261 0.2673356611
0.0926304364 0.4984890544 0.5151488765
0.1125260043 0.0012190654 0.0192019256
0.1224652707 0.2508131306 0.2628389383
0.1124852681 0.2494900713 0.5130102252
0.1224237939 0.4994304495 0.7597939254
0.1126241416 0.5015456423 0.0109410839
0.1224500872 0.2496412968 0.7638647695
0.1124549011 0.2511692634 0.0149866531
0.1123201013 0.5005197967 0.5092134247
0.1523645423 0.2521767787 0.517082921
0.1324026855 0.2504687817 0.5114900237
0.1423445442 0.2494023474 0.7614576295
0.152486751 0.2490311576 0.0174431395
0.1322841801 0.2505650161 0.0090770317
0.1423863914 0.2532104801 0.2647563179
0.1424578649 0.5014670836 0.7659728687
0.1524075005 0.5032169785 0.0137766023
0.1323478767 0.4999613753 0.0154138279
0.1323315823 0.5017145435 0.5111187686
0.1526219211 -0.0010998563 0.5141045481
0.1824219445 0.2517250662 0.75734142
0.1824186115 0.2527221069 0.2520882806
0.1624186108 0.5009538335 0.7639943848
0.1624723085 0.5009963861 0.2633740641
0.1722608509 0.2496491527 0.5093180427
0.182437128 0.4999829789 0.7594698873
0.162425647 0.2551358228 0.7629880151
0.1722993651 0.2497257474 0.0111771688
0.1624926766 0.0045126387 0.2588967836
0.1626633984 0.2547921285 0.264405431
0.1724500891 0.0035521932 0.5049916714
0.1826696948 0.0042784028 0.2514235396
0.202601555 0.2504596165 0.256685918
0.1923775054 0.5008602177 0.003474043
0.2024523123 0.5021439977 0.253964924
0.1922282627 0.250650776 0.5022419768
0.2024923078 0.2493231341 0.7552814636
0.1924930481 0.2505545416 0.0046740023
0.1923856526 0.0012533694 0.5005838276
0.2025878528 -2.757756273e-04 0.7491867702
0.1923604702 7.3095404155e-04 0.0048965701
0.2024871232 5.9550575927e-04 0.2513735451
0.2124134281 0.2545014614 0.5028770914
0.2225104547 0.2480511379 0.7497542998
0.2125441543 0.2509650108 8.8729323382e-04
0.2224574977 0.0022784949 0.2467148033
0.2124923082 -0.0013738952 0.5012300522
0.2124519423 5.4103839782e-04 -0.0033926295
0.2223782472 0.0023601959 0.7478461784
0.2323789882 0.0030449659 0.4996533754
0.222363434 0.2525453499 0.2493209953
0.232339363 0.249467813 0.4998459466
0.2322204873 0.2504871121 -0.0018478659
0.2324615717 0.0014720244 0.9968240793
0.2525504514 0.2486907366 0.4917607336
0.2424560171 0.2496687923 0.7421014461
0.2624556475 0.2503980789 0.2436679195
0.2525367493 0.2512366929 0.9928708147
0.2424500918 0.2491876203 0.2419264463
0.2423986161 1.5079808334e-04 0.2473517696
0.2523608429 0.5014179844 0.9969814692
0.2522645573 5.1773265181e-04 0.4968444282
0.2424937907 8.9645102444e-04 0.7453436786
0.2623956542 0.2504982412 0.7406682719
0.2524767559 4.3603160962e-04 0.9969074034
0.2624486113 0.003673239 0.2447103963
0.2623438081 3.6401947308e-04 0.744561358
0.2724974951 0.2508327703 0.4937762505
0.2723171448 0.2515856245 0.9930467211
0.2723689909 0.0028078495 0.4938299482
0.2722264141 0.4998605583 0.9930374628
0.2822912221 0.2494232964 0.7461815485
0.2821708651 0.0011512431 0.7436966393
0.2824971252 0.2493630681 0.240734912
0.3023845459 0.248185997 0.2434984939
0.3124526868 0.2502756582 0.4944058102
0.3123312188 0.2519031325 0.995527927
0.3122964079 -0.001073932 0.9950279825
0.2922704841 0.2489198661 0.4958306519
0.3024067656 0.2511849751 0.7466194628
0.2924652773 0.5024706709 0.4968157277
0.3023926931 0.4970533943 0.2519336681
0.2922934445 0.248644256 0.995731608
0.3024386139 -2.3512150294e-04 0.7357965908
0.2923519565 -1.9767519194e-04 0.4947946559
0.3123912122 0.4959306596 0.9938892201
0.2923908411 9.1995316718e-04 0.9954446029
0.3224523169 0.2488596378 0.244759465
0.3323797327 0.2493093863 0.4919560823
0.3222160468 0.2475758578 0.7441780673
0.3323749185 0.2512366929 0.993083754
0.3223119621 -0.0012081364 0.2405386375
0.332384547 9.2545227579e-04 0.4916237118
0.3223204797 0.0015929393 0.7454399642
0.332445281 -1.1623601207e-04 0.9937133137
0.3622834483 0.2521407726 0.2380731706
0.3524874993 0.2525054159 0.4935031326
0.3422060487 0.2482560451 0.7435975762
0.3523997313 0.0019964037 0.9922782879
0.3524978685 0.2490187191 0.9927041665
0.3423230728 0.0014055768 0.2408126811
0.3422856695 3.6807833896e-04 0.7434475929
0.3424075078 0.2515515824 0.2373825066
0.3625426788 0.2523685928 0.7409025052
0.3623797339 0.0019598084 0.2389564058
0.3725008319 0.2533715255 0.4923699252
0.3824923148 0.2513591136 0.7414144854
0.3725156451 0.2521394633 0.9926393589
0.3825219411 0.00321498 0.7429661649
0.3825997102 0.2506350643 0.2361622717
0.3924541712 0.0013969354 0.4879361584
0.3923986218 0.0042176508 0.9880657928
0.3725119418 0.0031235245 0.4901349882
0.372437876 0.0031887937 0.9867048329
0.3925430502 0.2514213059 0.4913441132
0.3924726877 0.2515201589 0.9939632859
0.4125112027 8.1448811994e-04 0.4880259632
0.4025678627 0.2507070764 0.7398137372
0.4024900935 0.0041652128 0.2375908168
0.402419731 0.0025628119 0.7357521513
0.4026567417 0.5009525242 0.2383898021
0.4025456429 0.2542553108 0.2415329715
0.412540829 0.2518285018 0.4885916411
0.4126482245 0.2492943292 0.9922782879
0.412577862 0.0011747452 0.9879176611
0.4125445323 0.5004903372 0.9869733216
0.41245195 0.5008909865 0.4903201528
0.4225249053 0.2537859226 0.2480007716
0.4425560137 0.2543122658 0.7363594913
0.432579344 0.5055704661 0.9875565901
0.4327015527 0.5047482184 0.4911756134
0.4423597392 0.2531980417 0.2374269461
0.4225174987 0.5016137265 0.2441178696
0.4426819256 0.5028883413 0.740139627
0.4324867617 0.251135876 0.4914570636
0.4225878612 0.2535666129 0.7414043013
0.4324978716 0.2521630309 0.9926486171
0.4425708269 0.5032948826 0.2396378116
0.4323793663 0.0012895718 0.9839643965
0.452566013 0.0010631919 0.9901303783
0.4726267477 0.2500072494 0.4773401131
0.4625834188 0.2495679753 0.7315526178
0.4726341543 0.2504393222 0.9792056658
0.4626426715 0.2538284752 0.2338301234
0.4526215624 0.5028379328 0.9866770582
0.4626500781 0.4998160417 0.7340921505
0.4726674839 0.4995620353 0.4813322623
0.4525808261 0.2551489159 0.4861215451
0.4525956393 0.2511764646 0.9835107432
0.4725860115 0.0013449557 0.9812702513
0.4825923075 0.0011163499 0.2253162542
0.4825811976 0.2510226205 0.7298639165
0.4824330659 0.2546998221 0.2274123177
0.4926356364 0.2503182109 0.4748718687
0.4925652738 0.2493833624 0.9754468241
0.4825071318 0.4988183463 0.2299712927
0.5025974929 0.2503404692 0.2268781178
0.5126482284 -0.0015568061 0.976205999
0.5224989861 0.0027105022 0.2190086215
0.5027122949 0.2493021851 0.7283937094
0.5025530534 0.4990514038 0.7248302163
0.5124186242 0.2479581768 0.47596434
0.5023641855 0.0015772276 0.7252172104
0.5225212058 0.2490737102 0.2237238385
0.512377888 0.2495889243 0.9709195492
0.522384184 0.2502141206 0.7219971976
0.5126371185 0.499701477 0.4734248072
0.5225249091 0.4993250499 0.2227906088
0.5224212169 0.5002756101 0.7207362266
0.5524586213 0.2496556992 0.4758523154
0.5522808633 -7.0915775812e-04 0.9740766059
0.5325867545 0.5020536552 0.9746598745
0.5323793701 0.5025453017 0.474263603
0.5323460405 -0.0013346159 0.4733562963
0.5323941833 0.2486894273 0.4732100163
0.5324201063 0.2485571868 0.9729008106
0.5423893694 -0.0012713107 0.7261328494
0.5423375233 0.2530730024 0.2235331189
0.5423301167 0.2517355407 0.7261615499
0.5522327205 0.2504209918 0.9762337737
0.5625389832 0.4988432232 0.726035638
0.5624538074 0.5004687335 0.2247857576
0.5623167856 -0.0029250367 0.2285242312
0.5622242033 0.2496530806 0.2320006969
0.5622871593 0.2469434603 0.731457258
0.5723675211 -4.2124014311e-04 0.4803860711
0.5723638178 -0.0030691264 0.9866585417
0.5723638178 0.2480256063 0.4811702432
0.5723675211 0.2448806399 0.9815479983
0.5925245415 0.4997885462 0.9774280855
0.5824663994 0.2483653727 0.7334412969
0.6023567827 0.2485591508 0.2362826287
0.5923504867 0.2473545841 0.4861030287
0.6024308486 0.2494645397 0.7360743378
0.5922727176 0.2496491527 0.991361723
0.6025197276 0.4995574527 0.7366900101
0.5824589928 0.2476301942 0.2352308937
0.5926245304 0.4990088511 0.4842087946
0.5824367731 0.4993885515 0.2296565129
0.6124408478 0.0015192251 0.9913894977
0.6124926939 0.5016824654 0.4826913706
0.6224434405 0.251333582 0.7361900656
0.6223508582 0.4995240652 0.2346911388
0.6124038149 0.4980556723 0.9827886012
0.6223693747 0.4980032999 0.7381861402
0.6124593643 0.2451523221 0.4905173532
0.6124630676 0.2491267373 0.9918338928
0.622576759 0.2497375312 0.2424300941
0.6422782745 0.2451313731 0.2370251388
0.6522882737 0.2511777739 0.4873223377
0.6422782745 0.2480877986 0.7416755675
0.6523216034 0.2480085853 0.9821590415
0.6324645497 0.4984772706 0.9824923378
0.6425486148 0.5008628363 0.7338653239
0.6524512186 0.4985499374 0.985427197
0.6424301094 0.4985617212 0.2345522654
0.6523216034 0.4967902227 0.4802666399
0.6323497476 0.2451863642 0.4905691993
0.6323349344 0.2480085853 0.9953057294
0.6623501191 0.0017654411 0.7373195698
0.6724082612 0.5009066983 0.4889036435
0.6826071284 0.4999063842 0.7427652612
0.672330492 0.5002644809 0.9872510685
0.6824515901 0.4993067195 0.2406284423
0.6622760532 0.2491817284 0.2341587906
0.6623945586 0.2468360967 0.7352049899
0.6822812386 -0.002182657 0.2403312531
0.6823812275 -7.4948455458e-04 0.7434920324
0.6623464158 0.5007738031 0.7352623909
0.6623908553 0.4984883998 0.2381583463
0.6824182604 0.2502187032 0.2410506177
0.6722453163 0.2519417572 0.4860678474
0.6823701176 0.2467202227 0.7409108376
0.6722490196 0.2488982625 0.9927319412
0.7025345446 0.247645906 0.2369066335
0.6924875124 0.2478573598 0.4864539156
0.7026678631 0.2481375524 0.7382333572
0.6926615671 0.2491476863 0.9896952415
0.7025160281 0.4990337281 0.7389953096
0.702527138 8.8080475113e-04 0.7444261879
0.7025234347 -0.002241576 0.2444298719
0.6924875124 0.5000523725 0.987751013
0.6924430729 0.498976773 0.4903784797
0.7126260163 0.2475627647 0.4919690438
0.7128259941 0.2498409668 0.9884453803
0.7225212135 0.4978808792 0.742473627
0.7226989715 0.2489401604 0.2425180473
0.7326941576 0.5003371477 0.9922505132
0.7326941576 0.2483882856 0.4957862124
0.7224841806 0.4977073954 0.243660513
0.7325867622 0.499882162 0.4943048954
0.7226100925 0.2506553586 0.7415774302
0.7324978831 0.2456125451 0.9956853169
0.7125741702 0.4969178806 0.9908432621
0.7625760238 0.5027109296 0.7499764973
0.7426708273 3.5249753124e-04 0.7397054159
0.7526363871 0.5008484339 0.9968888869
0.7626649028 0.5023128989 0.250207008
0.7625945402 0.2507149323 0.2462991088
0.7525401015 0.2528464915 0.492805062
0.7626723094 0.2506789262 0.7437707051
0.7524512224 0.2497866304 0.993805896
0.7427634096 0.4993322511 0.7431846591
0.7526660134 0.4982756367 0.4950177792
0.7425375088 0.2480026934 0.2476739561
0.7426523108 0.2502573279 0.7460324909
0.7824701104 0.5000720121 0.2487571691
0.7825404729 0.499361056 0.7527400792
0.7826367585 0.2511136177 0.2452881099
0.7725156605 0.2509565003 0.4982359403
0.7824997367 0.2501578202 0.7509930511
0.7723749354 0.2498599518 -0.0023925277
0.7925912084 0.4996032786 0.5003023774
0.8126667564 0.5013708492 0.5019133096
0.8025086254 0.5006016287 0.7523780824
0.8027086032 0.5001145648 0.2513087375
0.7925912084 0.2479274079 0.50067641
0.7924912195 0.2484380395 0.9989534724
0.8126963827 -6.9671929817e-04 0.5047435508
0.8026715703 0.2499306546 0.2495052341
0.8124778884 0.2520792349 0.5009995222
0.8026012077 0.2495391705 0.7483257547
0.8126186136 0.2504687817 0.9978980341
0.8324941837 -0.0023050122 0.4980165202
0.8226582392 0.2495012005 0.2496931762
0.8325275133 -0.0025309339 1.0013328378
0.8324534475 0.2481454083 0.4970305186
0.8223619758 0.2486625864 0.752594725
0.8325719528 0.250432121 -4.902389452e-04
0.8324719639 0.4992445272 0.4993191533
0.8325978759 0.5008471246 0.9988886648
0.8225471404 0.498974809 0.2499255578
0.8424523369 0.4965198498 0.7499987171
0.8425893587 0.4969885834 0.2532205622
0.8425782488 0.00122463 0.252321588
0.8425745455 0.2450678715 0.2531733452
0.8424560402 0.250110685 0.7545287695
0.8623427202 0.2492498126 0.2565100116
0.852384567 0.2468969797 0.5048537237
0.8625278848 0.2500452194 0.7494830336
0.8524290065 0.2464498498 4.8826348105e-04
0.8925208497 0.5026212418 0.0084858011
0.8726119499 -0.0020299913 0.5026002703
0.8827478612 0.2481617747 0.2595707828
0.8725452907 0.2499751712 0.5078894977
0.8925912123 0.2508196772 0.5143369297
0.8826145426 0.2504432501 0.7557471526
0.8724675215 0.2503247574 0.0015117609
0.8927430473 9.7967361352e-05 0.5037103322
0.8724638182 0.0020003316 0.0052189417
0.8926615748 0.2530481255 0.0112048509
0.8724378952 0.4985172046 0.5013633707
0.8925578826 0.5018926099 0.5052990447
0.9125260351 0.4994081912 0.5107141839
0.9026715741 0.5023528329 0.7614826267
0.9127704524 0.5007724938 0.0108268374
0.9025789918 0.5001983607 0.2585153445
0.9125482548 0.0015279975 0.512226053
0.9025086292 0.2513708974 0.2578506035
0.9127297162 -0.001587444 0.0100411839
0.9127852656 0.249707417 0.5121436548
0.9027826729 0.2515509277 0.7574904775
0.9127815623 0.2508190225 0.011729052
0.9426782416 0.2509879237 0.7551555517
0.9326238028 0.2465964927 0.0049477682
0.93257566 0.5017747718 0.5127417365
0.9325571435 0.4977073954 0.0066622999
0.9224286389 0.499035692 0.7607003062
0.9226804628 0.5017053783 0.2631092787
0.9425523296 0.4991980467 0.7568720277
0.9227434187 0.2507987282 0.2577857959
0.9227434187 0.250333268 0.7621408869
0.9424782638 0.2498468587 0.2583098117
0.9326497258 0.2477486869 0.5094272898
0.9725156682 6.0455584772e-05 0.5089995596
0.9626389874 7.2100327359e-04 0.7638212558
0.9625019656 0.2504602712 0.261495569
0.9525734388 -0.0011293813 0.0091344328
0.9726860196 0.0024128957 0.0081000106
0.9524808565 0.2496550446 0.5067840649
0.9725934373 0.250051766 0.515345151
0.9626871302 0.2477565428 0.7617159341
0.9525364058 0.2490966232 0.0089560266
0.9525401091 -0.0015270847 0.5049592676
0.9725749209 0.251493318 0.011970877
0.9724601188 0.4985348803 0.513513873
0.9626130644 -7.4837163974e-04 0.2597337277
0.95276601 0.4995391223 0.5080589233
0.9625649216 0.5003764271 0.7624278921
0.9825627004 0.2514141047 0.2649109304
0.9827441617 0.0014064279 0.7664172638
0.9925986227 -0.0019284542 0.0212454024
0.9924393811 0.2456727734 0.5169486766
0.9826182498 0.2486887726 0.7666774201
0.9924282712 0.2510691011 0.0148129687
0.9925689964 0.5006546558 0.014298674
0.0224897456 0.7497839154 0.7699029877
0.002479783 0.4969499587 0.2664144671
0.0023780536 0.7503403728 0.7686975661
0.0125235193 0.5001139101 0.5142684188
0.0026517269 0.4974835032 0.7600707465
0.0225398512 1.0002093935 0.2641415714
0.0225755139 0.9982519727 0.7663431979
0.012463563 0.7476300979 0.0154229009
0.0224194942 0.7513419962 0.2653923584
0.0024847454 0.7467855919 0.2666264806
0.012354464 0.7477348428 0.5135203537
0.0527148699 1.002467956 0.5195872724
0.0527481996 1.0014270533 0.0199158278
0.0325082255 0.7479377861 0.0185070028
0.0426841322 0.7502749073 0.271616667
0.0323967564 0.7501112433 0.5171106957
0.0425900686 0.7501177899 0.7746043174
0.0425293346 0.4985846342 0.7667320436
0.0327063516 0.4948530962 0.0147364031
0.0326315451 0.5002743008 0.5167237016
0.0423789809 1.0004319765 0.2691160189
0.0525145218 0.4996831466 0.5200483323
0.0526263613 0.7497249964 0.0236717995
0.0525789591 0.7504909437 0.5184466584
0.0423275052 1.000143928 0.7620538596
0.0725693313 0.4996399393 0.0151274708
0.0725119303 1.0010866323 0.5151173986
0.0725874775 1.00082477 0.0150544234
0.0725567401 0.749567879 0.0146932598
0.0622986203 0.7487822921 0.265839531
0.0726082159 0.7534041619 0.5123871463
0.0626074748 0.7492601908 0.7693752686
0.0924900816 0.9962683657 0.5168922014
0.0925726651 0.7524352714 0.0101199714
0.1025659995 0.7498755672 0.2638110526
0.0824900812 0.7475973651 0.2638499371
0.09254452 0.7482127415 0.5151368408
0.1026337698 0.7495875187 0.7645119199
0.0825041538 0.7487233731 0.7652248036
0.1025145237 0.9981668675 0.7638147751
0.1023271372 0.4969165712 0.7664255962
0.0825597031 0.4970959469 0.7622751313
0.0925882189 0.5003888655 0.0106599115
0.0825693317 0.5014356601 0.2636592176
0.1124897121 0.7497380895 0.0147699179
0.1226226607 0.7499737656 0.2643869145
0.112558223 0.7503141866 0.508599604
0.1225145245 0.7503469194 0.7654284847
0.12249823 0.9977609809 0.2605364163
0.1224908234 1.0000653693 0.7647174526
0.1223804653 0.5018893366 0.2635407122
0.1124112023 0.99721107 0.5155654969
0.1425408187 0.7518919071 0.2658895254
0.1524815664 0.7529328098 0.5132620491
0.1325000821 0.7510670408 0.5157173319
0.1425745186 0.7493387495 0.7656867894
0.1524826774 0.5019102856 0.5139943751
0.1324956381 1.0005170818 0.014592808
0.1424556429 0.5034186125 0.262547304
0.1426067373 1.0002683126 0.2627750565
0.132443792 0.9999737174 0.5148053962
0.142451199 1.0021209884 0.7628593256
0.1525915541 1.0010277133 0.014374036
0.1524056489 0.7536922105 0.0160694958
0.1326041446 0.7519180933 0.0141421173
0.1725671132 0.7495547859 0.0100541454
0.1625622985 0.7531161134 0.2660969098
0.1724674946 0.7506087817 0.5082635302
0.1624904547 0.7496006118 0.7619492415
0.1825504488 1.0012895756 0.7524373351
0.172368987 0.4986579556 0.0118639444
0.1722138191 0.5002513878 0.5141925013
0.1824108346 0.7503272797 0.260820644
0.1824063907 0.7487168265 0.7610789678
0.1724819375 1.0008313165 0.0083357252
0.1625245249 1.000720025 0.7549361316
0.1824882334 0.5031364559 0.2564072453
0.2024245376 0.5018441654 0.7557878889
0.1924752723 0.5013125849 0.5078478356
0.1926011842 0.7516431379 0.005403736
0.2024512013 0.7505236765 0.2556804742
0.192620071 0.7502749073 0.5058999038
0.202446387 0.7531226599 0.7512346909
0.2324904573 0.7529197166 -0.0033190914
0.2323189949 0.498255997 3.7910893847e-04
0.2325197134 0.750353466 0.4981340997
0.2125045291 0.7525465628 -0.0022766331
0.2225834096 0.751774069 0.248642367
0.2124323149 0.7517216966 0.5003875532
0.2225256382 0.7485400694 0.7473740086
0.232276407 0.4984006759 0.4954964298
0.2225530426 0.5016255103 0.7509180594
0.2122190052 0.4995515608 0.0012933592
0.2224504614 0.5009093169 0.2501755301
0.2124186127 0.5001924688 0.4971564306
0.2525030493 0.7495024134 -0.0053724374
0.2424215765 0.7475777254 0.2446909541
0.2523356605 0.7514074618 0.4900081505
0.2423923205 0.7483764055 0.7449844592
0.2422704822 0.5012589031 0.7437771859
0.2622360423 0.4989296378 0.7447928138
0.2623452894 0.7492209115 0.2457139886
0.2424193545 0.4969355563 0.250044989
0.262351585 0.7462422276 0.7454279285
0.2622764082 0.4998553211 0.2423189953
0.2522590023 0.501000314 0.4959334183
0.2723960249 1.0006741991 0.9949076255
0.2824456494 0.5006016287 0.2426856212
0.2724234293 0.5009931128 0.4901794277
0.2822627068 1.0008575028 0.2428374562
0.282391211 0.5015037443 0.7399924211
0.2823289957 0.748887037 0.2442854435
0.2824537967 0.7486840937 0.7461259991
0.2722530778 0.7483043934 0.9928708147
0.2721438307 0.7523632592 0.4962768986
0.3123715847 0.9957380945 0.4941595412
0.2923593631 0.7509164699 0.9920283157
0.3023186273 0.7491947252 0.2482109335
0.2924434278 0.7494762272 0.4936753357
0.3024100986 0.7504582109 0.7454057087
0.3024882381 0.4998441919 0.7422653168
0.2923819532 0.4999751231 0.9928893312
0.3022334515 0.9988477095 0.2451501623
0.3121771619 0.7480752638 0.9961574867
0.3125111989 0.7474009684 0.4923458538
0.312349365 0.5004968837 0.4957945448
0.3323930646 0.4988536977 0.4925097245
0.3224363927 0.5012104585 0.7445437674
0.3325178656 0.7515383929 0.993083754
0.3323604756 0.5035920963 0.9920838651
0.3222812248 0.7491161665 0.2445465257
0.3322490065 0.7488608508 0.4935920117
0.3223275159 0.7517347897 0.7460065679
0.322468241 0.5005944275 0.2393656196
0.3525226806 0.5014284589 0.4967046289
0.3524226917 0.9986971387 0.4911857974
0.36243158 0.7529851822 0.2410746891
0.3625797117 0.7527822389 0.7422856849
0.362368624 0.500178721 0.7415968725
0.3622686351 0.5002147271 0.2444372785
0.3524619466 0.7524025386 0.9954631193
0.3422952981 0.7535678259 0.243712359
0.3523778819 0.7536594777 0.4902914523
0.3424649089 0.753580919 0.7446187591
0.362368624 1.0009229683 0.7408173295
0.3424793517 0.5027318786 0.7424615913
0.352370105 0.5004680789 0.993083754
0.3423534398 0.5014873779 0.2430466922
0.3723712167 0.4991083588 0.995648284
0.3823775127 0.5010644703 0.2433698045
0.37237492 0.5007901695 0.4957139982
0.392387512 0.5022808208 0.9844828575
0.3824404687 0.5000477899 0.7432661315
0.3725748978 0.7538493279 0.9939632859
0.3825256444 0.7540980971 0.2369640345
0.3723527002 0.750693887 0.4857336252
0.3825034246 1.0023697576 0.2423236244
0.382381216 0.7530375547 0.7387295984
0.392539347 0.7517937087 0.9894915604
0.3926097095 0.7512176116 0.4900331477
0.3924467646 0.503469021 0.4903451501
0.4024752804 0.5011731432 0.7390712271
0.4024604672 0.7497708223 0.2347115069
0.4025493462 0.7505498627 0.7387166369
0.4125482356 0.7519704658 0.9875288154
0.4123445545 0.7509688424 0.4869631183
0.4224952789 1.0022060937 0.7387388566
0.4425560137 1.0007134785 0.2393193285
0.4323608498 1.0020948022 0.4860789573
0.4424893544 1.002409037 0.7403183108
0.4224360262 0.5032562579 0.7447631875
0.4323312235 0.7528477045 0.9918894422
0.4225915645 0.7528869839 0.2416496252
0.4325460144 0.7548182184 0.4847670659
0.4226285975 0.7543403197 0.7375621355
0.4426115631 0.7511717857 0.2299472213
0.4425004643 0.7529720891 0.7390008646
0.4223656637 1.0012502962 0.2407339862
0.4725193522 0.9971259648 0.4801314697
0.4726156379 0.5015482609 0.98033517
0.4625167596 0.5014088193 0.2257837949
0.4726489675 0.7505171299 0.9762985813
0.4626278583 0.7507593526 0.2291056481
0.4723934403 0.7494762272 0.4748515006
0.4627685834 0.7500981502 0.7328617316
0.4525993426 1.0032339033 0.4831107684
0.4624945398 0.9994696325 0.2241497171
0.4626982209 0.9986578593 0.7282816848
0.4523993648 0.7525072835 0.9850198349
0.4524808372 0.7517282431 0.484358778
0.4526437821 0.5030094527 0.482202536
0.4925023179 0.500945323 0.9754097912
0.4925949002 0.501985571 0.4765263146
0.4826219338 0.4973329323 0.7275660235
0.4825886042 1.0023893973 0.7264800331
0.4923764059 0.9987102318 0.4791343582
0.4925393508 1.0011717375 0.9730859752
0.4926060101 0.7500588709 0.4762541226
0.4927874714 0.7497446361 0.9724841902
0.4828367248 0.7467332195 0.2258226794
0.482788582 0.7496988102 0.7287473738
0.5025086139 0.5004942651 0.2228656005
0.5125741625 0.9980817622 0.4714787271
0.5222878984 0.9989655475 0.7203557133
0.502523427 1.0000653693 0.2233312895
0.5225693486 0.7486775472 0.7239664234
0.5029307892 0.7466546608 0.2239654783
0.5027493279 0.7485597091 0.7205584686
0.5126371185 0.7497577292 0.9711972961
0.5124630637 0.4967489794 0.9770207234
0.5125482395 0.7498624741 0.4708556482
0.5226174914 0.7489263163 0.222831345
0.5524067752 1.0002683126 0.4796056022
0.542485655 0.4998134231 0.7285797998
0.5424412155 0.7501177899 0.2249200019
0.5523438193 0.4987050909 0.477722478
0.5524215884 0.7478592274 0.4746468937
0.5425560175 0.7514794739 0.7271697713
0.5324126997 0.9991881305 0.9700029843
0.5423708529 0.499256311 0.2250570237
0.5325645347 0.750353466 0.9738821831
0.5524512147 0.4972975809 0.9821312668
0.5423560397 1.0010604461 0.2253968008
0.5324904689 0.7472569441 0.4724675062
0.572493433 0.4994618729 0.9793445393
0.562587126 0.9990899321 0.7321544028
0.5524845444 0.7483305796 0.9778817388
0.5623167856 0.7484811504 0.2318655268
0.5625834227 0.7488673973 0.730447185
0.5723601145 0.745941086 0.9783909415
0.5725193561 0.4980726934 0.4814313253
0.5724564001 0.7485204298 0.4765948255
0.6023160465 0.4972360433 0.2351318306
0.6023790025 1.0008182234 0.2417977569
0.6025160243 0.9978722724 0.7392313945
0.5924541789 0.7520293848 0.9829089582
0.5923652999 0.9980883088 0.4852225709
0.5923690032 0.9981210416 0.9887231272
0.6023567827 0.7478919602 0.2333181432
0.5925208382 0.746176762 0.4820849564
0.60229753 0.7494434944 0.7348763227
0.5824589928 0.9974794789 0.2353058854
0.582347894 0.99681173 0.7310600799
0.582625641 0.4988733374 0.732508993
0.5825700916 0.7479181464 0.2348429738
0.582473806 0.7481079966 0.730054636
0.6123852984 0.7496398912 0.9868066734
0.6123149359 1.0001897539 0.4868631294
0.6125075071 0.7501963486 0.4839995586
0.6222027265 0.9979246448 0.7434420379
0.6225582426 0.7530637409 0.2377796847
0.622524913 0.7501046968 0.7392841664
0.6223841878 0.9980293898 0.2385083074
0.6423116041 0.9994041669 0.740343308
0.6323238246 0.4981479788 0.4898044694
0.6425041753 0.9983567177 0.2386601424
0.6523919659 0.9976758756 0.4860354436
0.652229021 0.9982847055 0.9911765584
0.6323682641 0.9996005636 0.4904997625
0.6323312311 0.9999606243 0.9925282601
0.6323867805 0.748428778 0.9891027147
0.6322608686 0.7478395877 0.4827534007
0.6525697239 0.749450041 0.9885564791
0.642589351 0.7518657208 0.2393174768
0.6523030869 0.7456137581 0.4860891413
0.6424856588 0.7504058384 0.7361206289
0.6725267665 0.7479181464 0.9908247457
0.6623501191 0.9998427863 0.2399822178
0.6725563929 1.0002486729 0.9891490059
0.6825552823 0.748147276 0.2366103701
0.6724675138 0.749626798 0.4904599521
0.6825960185 0.7477741222 0.740437742
0.672482327 0.9996136568 0.4876260076
0.6624834376 0.7502094417 0.2381537172
0.6623204928 0.7485858953 0.7381824369
0.7025530611 0.5009806744 0.2405053079
0.6925800947 0.999299422 0.4890443686
0.6923838202 0.9982912521 0.9931393034
0.6924393696 0.7481603691 0.9886675779
0.7026234236 0.7465695555 0.241859787
0.6925245453 0.7502552676 0.490680298
0.7025567643 0.7499083 0.7412857959
0.7125704669 0.5003967214 0.4871232857
0.7125297307 0.7505236765 0.4902451612
0.7227026748 0.9980490294 0.7459112081
0.7325941688 0.9993059685 0.9918616675
0.732597872 0.7488412111 0.9950372407
0.7227137847 0.748664454 0.2441160179
0.732634905 0.7505367696 0.493485542
0.7225360267 0.7477152031 0.7413006091
0.7228248835 0.9985793006 0.2394008009
0.7326682346 1.0000260899 0.4933309295
0.712711192 0.7493322029 0.9923893867
0.7126556426 0.9991226649 0.495395515
0.7126260163 0.9961112483 0.9923523538
0.7425004758 0.499058605 0.2449492587
0.742756003 0.7507135266 0.2475739672
0.74273008 0.7496595308 0.7430568955
0.752699343 0.7488346645 0.9958149321
0.7626686061 1.000039183 0.7410274913
0.7525438047 0.9971063251 0.9970833098
0.7625315843 0.7506284214 0.2457084336
0.7526697167 0.7529131701 0.4939475277
0.7626241666 0.7484746039 0.748329458
0.7525030685 1.0005956404 0.4917459204
0.7425078824 0.9980424829 0.2428624534
0.762527881 1.0003337781 0.2455473404
0.7823367919 1.0000915555 0.2513244765
0.7725119572 1.000942608 0.4987775468
0.7825108466 1.0003665109 0.7509152819
0.7725082539 0.9999082519 0.9958149321
0.7825219565 0.7490572475 0.2514559434
0.7725452868 0.7494238547 0.4998552049
0.7825775059 0.7496464377 0.7505912438
0.7726934185 0.7515252998 0.9980461658
0.772737858 0.499399026 0.5046435619
0.7725934296 0.503086702 1.0017401999
0.7924430767 1.0004188834 0.4950131501
0.7926060216 0.7504647574 0.9986294343
0.7926467578 0.9968575559 1.0031104181
0.8124667786 0.7473682356 0.9961945196
0.7925504722 0.498157144 1.0013883871
0.802667867 1.001446693 0.2469360751
0.8126482399 0.5002278202 0.9981942975
0.8027752624 0.7482782071 0.2504097633
0.81263713 0.7510866804 0.4954927265
0.8026345373 1.0004385231 0.7466398309
0.8026493505 0.7490768872 0.7509587956
0.8127186025 0.9982977986 1.000018169
0.7926393512 0.7505564093 0.498023001
0.8227248984 0.9974598392 0.7524290027
0.8226137997 0.9981341347 0.2464879767
0.8326460187 0.7513092634 1.0012680301
0.8226360194 0.5029721373 0.7493367536
0.8226026898 0.7506611542 0.246444463
0.8325349199 0.7498559276 0.4973156721
0.8225619536 0.7500654174 0.7463806004
0.8425264027 0.7527167734 0.2522780743
0.8426115785 0.7498952069 0.7484350019
0.8625501046 0.4985643399 0.7525012169
0.8426078752 0.9995678309 0.7523956731
0.8625908408 0.9969753939 0.2511254245
0.8623982696 0.9985007419 0.7560860039
0.8523771604 0.9997249482 6.2445205792e-04
0.8624908519 0.7511848788 0.748946982
0.8524512263 0.501281816 0.5010874754
0.8526660172 0.7480097982 0.0015902707
0.852447523 0.4985676131 0.0014341769
0.8623723465 0.4966147749 0.2524197252
0.8623093906 0.7468641506 0.2502968129
0.8525067757 0.7470932801 0.501680928
0.8524549296 0.9994434463 0.5023271525
0.8825071471 1.0032404498 0.753740894
0.892613432 1.0016627294 0.0081222304
0.882492334 0.7517871621 0.751982756
0.8724638182 0.7490834337 0.0022521416
0.8924690036 0.7523501661 0.0110101503
0.8823442023 0.4999587567 0.7557740015
0.8826034327 0.4985571386 0.2564063195
0.8826330591 0.7499017535 0.2574089859
0.8723860491 0.748664454 0.5042639744
0.8923616081 0.7532274049 0.507558053
0.8726045434 0.4993525454 0.0042960813
0.8825108504 1.0000588227 0.2584023941
0.9124704857 0.7474009684 0.5089477135
0.9026493543 0.9993125151 0.2576932136
0.9025752885 1.0009360615 0.7577737794
0.9025826951 0.7511455995 0.7582922403