POSCAR file written by Ovito 3.7.11
1
270.0316209439 0.0 0.0
0.0 15.2752952243 0.0
0.0 0.0 10.8012648377
Sr Ti O 
800 800 2400 
Direct
0.0223042451 0.4981532272 0.7686107676
0.0124860986 0.4983319471 0.0186735962
0.0120911449 0.2489528062 0.5174170379
0.0224601157 0.2480912844 0.7691088574
0.0024323501 0.2470019438 0.7677016148
0.012537463 0.2482019206 0.0187063701
0.0026085517 3.952533868e-04 0.271693038
0.0221670019 0.4990501002 0.2734354265
0.0126036034 -0.0026564061 0.5200435821
0.0025017864 -0.0054569739 0.7705827589
0.0124504361 -0.001839728 0.0214528077
0.0225089248 0.2492572193 0.2700284181
0.0023686168 0.2504290461 0.2699830531
0.0425017315 0.4986789126 0.2730178828
0.0323640299 0.2471420393 0.5236431606
0.0423017549 0.2487086211 0.7795641144
0.052549814 0.49820429 0.0259300612
0.0323395883 0.2506686487 0.0205894829
0.0325069761 -5.5536653817e-04 0.5206388828
0.03278324 -9.751947579e-04 0.0223445551
0.0423476755 0.2495550859 0.2733715451
0.0524579729 0.2498005804 0.5268566731
0.0523046575 0.2462130883 0.0261513315
0.0623968089 0.2521540537 0.2710190428
0.0624393965 0.500321434 0.7708503201
0.0625345705 0.5010317313 0.2727308794
0.0724130432 0.4978422676 0.5179067953
0.0723808248 0.2479295854 0.5199167451
0.0623275577 0.2505887812 0.7744082368
0.072564507 0.2481456205 0.0199679816
0.0624860577 6.731530894e-04 0.2759064334
0.0623897727 0.0011636182 0.7764042993
0.1025817323 -9.9561989506e-04 0.2632995765
0.0924551405 0.2502601459 0.5141553828
0.0826577694 0.003363052 0.2669426684
0.1024361938 0.2495740708 0.7586841524
0.0826174037 0.2513763273 0.7664341706
0.0925066159 0.2481449659 0.0126767059
0.0825703722 4.3466342707e-04 0.7648306547
0.0923725575 -6.9716412494e-04 0.0185350939
0.102441008 0.2506889429 0.2620987912
0.0824340919 0.2499472224 0.2640198625
0.1024850769 0.4984373461 0.2583057169
0.0924892106 0.5033105743 0.5118593554
0.1123172588 -0.0010635728 0.0106853651
0.1223153471 0.2497220221 0.255048691
0.1125390846 0.2488827585 0.5059748594
0.1224479242 0.5013073397 0.7532801556
0.1124009527 0.500601625 0.004205198
0.1225479125 0.2514254262 0.7560400176
0.1124405777 0.2500958283 0.0083899857
0.1125401956 0.5007836182 0.5041241502
0.1524621868 0.2520440722 0.5014031726
0.1324830452 0.2492329972 0.5034242322
0.1425974162 0.2518162533 0.7521812102
0.1524825548 0.2497311873 -7.211694467e-04
0.1325604436 0.2542554861 8.2864904692e-04
0.1424411382 0.2499472224 0.2485392681
0.1425592725 0.5019613369 0.7518636548
0.1525599532 0.4983483134 -8.880943418e-04
0.1326189552 0.4991528805 0.0012528586
0.1323371364 0.5008438462 0.5063229668
0.1525673597 -8.6927209152e-04 0.5005005005
0.1824594145 0.2499053247 0.7468734985
0.1825334799 0.2508408221 0.2525387997
0.1625543382 0.4988877465 0.747525274
0.1624687927 0.5018978357 0.2493530617
0.1724217011 0.2486555943 0.4972582877
0.1826149518 0.502602241 0.7492815498
0.1623825065 0.2520630571 0.7475687875
0.1723287491 0.2531792385 -0.0030481006
0.1623443628 -0.0026677316 0.2493382486
0.1626228487 0.2490019051 0.2463765585
0.1723346743 0.0011689864 0.501878117
0.1824783011 -0.0023347102 0.2468755741
0.2023926356 0.2490431482 0.2471153608
0.1924830554 0.4994304529 0.0019424075
0.2024711449 0.4997433765 0.249168824
0.1926000787 0.2510987549 0.4979174697
0.2023933762 0.2503609623 0.7456254965
0.1922393802 0.2533049316 -0.0019316758
0.1924797224 3.5499229914e-04 0.499813544
0.2023496776 0.0044801499 0.747647482
0.1924082493 0.0015839047 -0.001641432
0.2025578014 -1.6260754674e-05 0.2442110713
0.2122011165 0.2513573424 0.4994672882
0.2225254629 0.2526286763 0.7472475288
0.212225558 0.2530921698 -0.0011713945
0.2221910576 0.0016415795 0.2536479291
0.2123792438 0.0032414177 0.5001931291
0.2124636783 0.0033783054 9.2419341284e-04
0.2224313998 0.0029717666 0.7496546543
0.2323257966 3.4170286696e-04 0.5029900238
0.2225869372 0.2491478925 0.2500622379
0.2325576213 0.2528244172 0.4998737221
0.2325161447 0.2513049703 -0.0023336936
0.2322883936 -5.2135675057e-05 1.0052275008
0.252746368 0.2502359238 0.4952464862
0.2425575613 0.2489462597 0.7482187113
0.2624226422 0.2504192263 0.246206208
0.252455291 0.2512244481 0.9987375201
0.2425383043 0.2523569958 0.2465552412
0.2425249725 -1.1622608939e-04 0.252867465
0.2525637968 0.4996838032 1.0002836353
0.2524763996 -0.0024990933 0.4979794995
0.2421990847 -2.6538788434e-05 0.7498398178
0.2627585288 0.2485069883 0.7470503297
0.2522912361 -6.3002895465e-05 1.0017001361
0.2623944973 5.3305759739e-04 0.2489438504
0.26239746 0.0041551153 0.7472290124
0.2724959069 0.2507635732 0.496850928
0.272685144 0.252523932 0.9928956117
0.2725573812 2.4363602255e-04 0.4960112115
0.2725247924 0.5040536041 0.9941917562
0.2825980571 0.2520643664 0.7482270437
0.2825643574 4.894577854e-04 0.7479076367
0.2826947125 0.2506018742 0.2532331629
0.3024631381 0.2484880034 0.2505510696
0.3124567825 0.252802159 0.4971434863
0.3124338222 0.2519137965 0.9958674858
0.3126149121 -1.2617679723e-04 0.9943676615
0.2924169072 0.2510260886 0.5018920042
0.302546832 0.249389459 0.7420296214
0.292545781 0.4992334027 0.4961935975
0.3024112923 0.5017381006 0.2452146575
0.2925268943 0.249874556 1.000533606
0.3024583238 -0.0016206815 0.7420583217
0.292389503 -2.4133005445e-04 0.4970314624
0.3126541668 0.5011070162 0.9931363242
0.2925102296 0.0016419723 0.9974598919
0.3225204187 0.2495969836 0.2409420097
0.3325148038 0.2520002105 0.4926032773
0.3225481932 0.2495537766 0.743938657
0.3325685012 0.254639112 0.9935807166
0.3225252329 5.108649003e-04 0.2417761713
0.3325670199 2.4710567726e-04 0.4925310635
0.3223767318 5.4019330236e-04 0.7403501884
0.3324496262 0.0032221709 0.9924512193
0.3626472007 0.2508630803 0.2409346032
0.3525631965 0.2532813641 0.489687878
0.342674725 0.251450303 0.7342147959
0.352633929 0.0029212929 0.9896367341
0.352577269 0.2522457049 0.9881276515
0.3424977087 -2.0015245423e-04 0.2449915355
0.3425839949 0.002770723 0.7417250274
0.3426743547 0.2505350997 0.2394255207
0.3625472124 0.2540027905 0.740337227
0.3625361026 0.0034031167 0.2435750347
0.3726052938 0.2515013658 0.4908969956
0.3825744966 0.2541304476 0.7419722207
0.3727423147 0.2544564642 0.9919512778
0.3824078494 0.0038736804 0.7431980031
0.3825781999 0.2513684715 0.239271835
0.3925399961 0.0046660055 0.4931522871
0.3926510942 0.0025313823 0.9902107409
0.3725016022 0.0026052925 0.497012946
0.3724460531 0.0038201299 0.9939973345
0.3926251714 0.2517527521 0.4909664319
0.3925622158 0.2513809099 0.9891830835
0.4124228528 5.9754080283e-04 0.4865262112
0.4026091873 0.2527072345 0.7408917917
0.4025536382 0.0034922148 0.235801871
0.4024166172 0.0010455845 0.7409093822
0.4025943742 0.5028817774 0.24058557
0.4025462317 0.251816908 0.2373313215
0.4125524672 0.252303969 0.4841033468
0.4123932266 0.2505979463 0.9828967827
0.4122413925 3.1892098321e-04 0.9891830835
0.412563577 0.5046833792 0.9881369097
0.4126376424 0.5058434223 0.4900609824
0.4225253733 0.2541998407 0.2365814093
0.4425378444 0.2527236008 0.737714386
0.432601971 0.5013492374 0.989423796
0.4324723565 0.5024078094 0.4788576649
0.4427489308 0.2538293077 0.2370461697
0.4224587145 0.4995849507 0.2375877729
0.4423304613 0.5065438997 0.7378236325
0.4325686415 0.2496100767 0.4897600917
0.4227290532 0.2541435406 0.7413908073
0.4326501135 0.2506391894 0.98899792
0.4423971201 0.5001328943 0.2370507988
0.4324797631 0.0034669452 0.9854150063
0.4524922341 0.002841229 0.9808229515
0.4725343313 0.2502117017 0.4805935727
0.4624910631 0.2505226613 0.735512792
0.4726232098 0.2522607619 0.9780269826
0.4624873598 0.2504401752 0.2307793111
0.4525107505 0.4992654806 0.9859612386
0.4624651402 0.5033773488 0.7331112214
0.4725935837 0.5021295824 0.4834349066
0.4527440565 0.2482490555 0.4820896938
0.4526292551 0.2504945113 0.9869426051
0.4724528594 6.9429834357e-04 0.9815265728
0.4824702047 0.0010393653 0.2309107771
0.4824850178 0.2519714058 0.7348758295
0.4825516767 0.2503249565 0.228958228
0.4925393959 0.2513802552 0.4819350822
0.4925616155 0.2481187798 0.9816747036
0.4825072374 0.4992569702 0.229739618
0.5025456314 0.2504925473 0.230531192
0.5122481988 8.1423055916e-04 0.9783787933
0.5224358946 0.0017341473 0.2288202812
0.5023900941 0.250389767 0.7287728406
0.5022123371 0.4995770949 0.7342046119
0.5123667034 0.2462032685 0.4766116316
0.5025197085 0.0026860765 0.7300402848
0.5224618174 0.2511458899 0.2298164609
0.5125000212 0.2522673085 0.9781565971
0.5225506959 0.2494320114 0.7252889893
0.5123259675 0.5000104744 0.4799917913
0.5222729507 0.4976255778 0.226203921
0.5222025885 0.5007698706 0.7274702154
0.5524323815 0.2482549474 0.4812990456
0.5525656992 -0.0015967867 0.982915299
0.532371768 0.4987456871 0.9735738005
0.532468053 0.5018016018 0.4793714936
0.5324865693 0.0025741311 0.4771236087
0.5325865576 0.2482176322 0.483934848
0.532564338 0.2463793699 0.980054523
0.5424631787 -0.0034158677 0.7346740013
0.5423113446 0.2451178558 0.2347362551
0.5424187395 0.2484768744 0.731246625
0.5524212717 0.2515393356 0.9831189789
0.5625534184 0.4978370303 0.7347239955
0.5625423086 0.4978926758 0.2317097576
0.5625163857 -0.0043046885 0.2337632209
0.562342332 0.2466955667 0.230439536
0.5624163974 0.2500401829 0.7345758647
0.5724078199 -0.004099848 0.4872974172
0.5723707872 -0.0039310132 0.9834244986
0.5724041166 0.2484932406 0.4824442819
0.5724485559 0.2496133499 0.9820635469
0.5924684335 0.4999332255 0.9849058066
0.5822955508 0.246640576 0.7343592234
0.6025079984 0.2491354541 0.2345807177
0.5925610152 0.2478634656 0.4866752678
0.6023969003 0.2476166618 0.737415347
0.5924425106 0.2457306099 0.984766934
0.6024524494 0.4962521183 0.7360432854
0.5825288568 0.2488375875 0.2314616386
0.5925610152 0.4982272028 0.4800788181
0.5827325366 0.4976537278 0.2347325518
0.6125105307 -0.0033751484 0.9897570903
0.6124105424 0.4986972429 0.4893490288
0.622335306 0.2480467681 0.7464087381
0.6225834251 0.4944596815 0.2407272201
0.6128882642 0.4983326018 0.9925808337
0.6225760185 0.4953493534 0.7401224373
0.6123512901 0.2473070115 0.4953557327
0.612377213 0.2475485781 0.990534777
0.6223871518 0.2473109394 0.2421983441
0.6424625784 0.2474588908 0.2446721285
0.6523799355 0.2482032299 0.4901655998
0.64256627 0.2432854853 0.7409630796
0.652428078 0.2515255879 1.000903933
0.6323489481 0.497074361 0.9962841037
0.6425218307 0.4973879392 0.7421351646
0.6522540243 0.4970782889 0.994395436
0.6426144125 0.5004451632 0.2403652254
0.6524725172 0.4976668209 0.499087703
0.6322971023 0.2494169544 0.4939892261
0.6324563429 0.245754832 0.9904421953
0.6623158089 -0.0023065602 0.7443025033
0.672522021 0.4970383551 0.4927486306
0.682480114 0.5004837877 0.745658826
0.672440549 0.4978586339 0.9945435668
0.6825504761 0.499810151 0.2492003018
0.6623232154 0.2474883501 0.2459673471
0.6622676664 0.2462687337 0.7476956245
0.6825912121 -5.7716644417e-04 0.2484540929
0.6825875088 -7.6059988744e-04 0.7430498723
0.6625861476 0.4982082179 0.7482881477
0.6624454233 0.5005440157 0.24779954
0.6824171584 0.2489521516 0.2396819721
0.6723812967 0.2502549087 0.4958908552
0.6825652892 0.2510201967 0.7478344971
0.6723368575 0.2502005726 0.9961637474
0.7025481341 0.2484513429 0.2470144467
0.6925604149 0.2502372331 0.4943077073
0.702340751 0.2503419774 0.7425314145
0.6923678449 0.247830733 0.992386412
0.7025962766 0.5018173135 0.7469790417
0.702533321 -0.0012579389 0.7407964325
0.7024629589 -9.7840255188e-04 0.2422122314
0.6925530084 0.4969473585 0.9919512778
0.6925900411 0.4990573014 0.4922135081
0.7125765893 0.2491289076 0.4927078947
0.7125395566 0.2472867173 0.9940343672
0.7223680351 0.4993695703 0.7375616261
0.7225494954 0.2509324734 0.2428760425
0.7323705674 0.4986952789 0.9877943572
0.7325483244 0.2484834209 0.4905748111
0.7225013529 0.499840265 0.2414012152
0.7325038851 0.4994860983 0.4893740258
0.7225791215 0.2477718143 0.7421286838
0.7325964669 0.2465076816 0.9918124052
0.7125062271 0.4997073706 0.9853409409
0.7625225917 0.4982075633 0.7381430395
0.7426138122 -9.2661959198e-04 0.7419175974
0.7524719169 0.5002487677 0.9913680128
0.7624374165 0.4981139481 0.2404883592
0.762759601 0.2480186181 0.2440129464
0.7524015548 0.2473148674 0.4934550294
0.7626040636 0.2490549319 0.7427813852
0.7525644987 0.2486627955 0.9927659972
0.7424138356 0.4973912125 0.7369598447
0.7522645338 0.4993276726 0.4938734989
0.7426434384 0.2493829125 0.2423261069
0.7426508449 0.2495321731 0.7436747991
0.7824572941 0.4985951172 0.2428260484
0.7825683922 0.4988556686 0.7428193437
0.7826313478 0.2509161071 0.2489855122
0.7724214324 0.2495806173 0.4974147508
0.7825350628 0.2485587058 0.7454736625
0.7724658716 0.2489731004 -0.0053904282
0.7924783427 0.4998108056 0.4915700649
0.8125982086 0.4998140789 0.4929523105
0.8025216109 0.5010343499 0.7446487591
0.8024327325 0.5016562691 0.2446545379
0.7925116721 0.2493109008 0.4970999729
0.7925635179 0.2515779601 1.002116754
0.8126796805 -0.0017969137 0.5014198373
0.8027289941 0.2491806251 0.2467191109
0.8126130217 0.248947569 0.4968425956
0.8024919848 0.2515858159 0.7468734985
0.8125722857 0.2488663922 0.9948583448
0.8326773385 8.3419744003e-04 0.5095568473
0.8224229839 0.251271583 0.2511565542
0.8326477124 6.895193852e-04 1.003496222
0.8325180979 0.2508755187 0.5020114347
0.822711839 0.2510699503 0.746942009
0.8325662404 0.2515792694 0.0014499652
0.832436626 0.503087338 0.4979156181
0.832492175 0.5016281191 1.0043757487
0.8225229722 0.5024536351 0.2470403696
0.8425613661 0.499749923 0.7520839994
0.8426576512 0.5008098043 0.2520916299
0.8428502212 6.112884913e-04 0.2519823834
0.8424206419 0.2530057557 0.2562994704
0.8424761909 0.2519556942 0.7526580063
0.8625775405 0.2518895744 0.2494058333
0.8526231507 0.2514771437 0.4973082818
0.8625553209 0.2520407989 0.7537060317
0.8526453703 0.2510699503 -0.001642543
0.8924073803 0.5013950631 0.0017270623
0.8726504349 0.0021973135 0.5016772146
0.8826085279 0.2515262426 0.247687516
0.8725578531 0.2514810716 0.4976989768
0.8925629176 0.2499688259 0.4995265405
0.8825937148 0.252476797 0.7513090902
0.8724319419 0.2520316338 -0.0018968651
0.8925221817 -7.0662321898e-05 0.5065738633
0.8724986008 0.0015770963 0.0024969722
0.8925147751 0.2502627646 0.0043316647
0.8725208204 0.5024529804 0.5031724098
0.8926332798 0.5013138862 0.4993580418
0.9125716854 0.5029020716 0.5011198725
0.9026135924 0.4994278343 0.7521821361
0.9124716971 0.4995646565 0.0019832361
0.9026543284 0.4994311076 0.2543247017
0.9126087181 -0.0035681397 0.5019568115
0.9026098891 0.2486883269 0.2506223575
0.9125013233 0.0014860343 0.0050529691
0.9125309495 0.2459662846 0.506068367
0.9023988028 0.2488644282 0.7501249696
0.9125902018 0.2494902754 0.00774932
0.9423237566 0.2499085979 0.7548271967
0.9324693551 0.248891269 0.0012990569
0.9324989813 0.4990363525 0.5068238341
0.9324841682 0.5013354897 0.0056223469
0.9225594046 0.4969342655 0.7564260835
0.9225038556 0.4970455563 0.2528285806
0.9424274481 0.5005197936 0.7542754094
0.9224075705 0.2497750489 0.2536358935
0.9223631313 0.2517475149 0.7516368296
0.9425385462 0.2505612858 0.2496474717
0.9324323224 0.2499858468 0.501066175
0.9725424398 -0.0017239201 0.5208212688
0.9625250944 0.0048811241 0.761182008
0.9623362276 0.2485842373 0.2573521249
0.9524781229 -4.7346959401e-04 0.0043187959
0.9725350332 -2.1259083903e-04 0.017713616
0.9524633098 0.2491642588 0.5053897428
0.9723906057 0.2509036687 0.5116528981
0.9624139963 0.2524990552 0.7554715656
0.9524447935 0.2502372331 0.004354625
0.9525373752 -1.6303369537e-04 0.505489731
0.9722461782 0.253492162 0.0146749904
0.9723609795 0.5010120917 0.5212508482
0.9626065664 6.5737598025e-04 0.2618377107
0.9524188706 0.4996510706 0.5050425612
0.9626139729 0.5006350123 0.7579814569
0.9824301707 0.2500441108 0.2693210935
0.9826634767 0.0013062669 0.7700170844
0.9924956585 -6.7405491527e-04 0.0197914282
0.9923030885 0.2512958051 0.5169152448
0.9824672034 0.2485181174 0.7660693985
0.9924771422 0.2488388968 0.0140321027
0.9922475394 0.4986487986 0.0268659701
0.0225029996 0.7488266148 0.7737268351
0.0023640989 0.5002828096 0.2676259217
0.0024617541 0.7498806042 0.771804838
0.0124134775 0.5003240527 0.5248319102
0.0023395091 0.4990703944 0.7714585822
0.0225281448 0.9985697421 0.2690035381
0.0225245156 0.9965337749 0.7700883723
0.0125452769 0.7511571753 0.0239239072
0.0225294779 0.7476875206 0.2747973041
0.0024878251 0.7510393379 0.2748287819
0.0124841729 0.7479297417 0.5224581142
0.0525168549 0.9984257187 0.5224247847
0.0527286819 1.0018757338 0.0249465652
0.0324843861 0.748387998 0.0220635695
0.0424846964 0.7467317289 0.2725383094
0.0325540076 0.7488331613 0.5232524656
0.0424169266 0.7475434972 0.7755895799
0.042566909 0.4992144178 0.7700448589
0.0323821759 0.5001414048 0.0239091867
0.0323795836 0.4981643563 0.5223960844
0.0425595025 0.9976794156 0.27162175
0.0524201995 0.5000504082 0.5249161596
0.052355022 0.7486564053 0.0225733247
0.0524961166 0.7475042181 0.5207860878
0.042547652 0.9995124407 0.775010944
0.0723960082 0.4999908349 0.0192686191
0.0724822944 1.0012145355 0.517507768
0.0723334229 0.9995713594 0.0230518797
0.0725756168 0.7515106873 0.0201027807
0.0625945635 0.7487873356 0.2725633064
0.0727381904 0.7518249201 0.5208583015
0.0625064257 0.749448534 0.7715141313
0.0923829267 0.9995058942 0.51427111
0.0926054932 0.7518249201 0.0091748938
0.1024139741 0.7494288944 0.2580603753
0.0826862845 0.7497234878 0.2653484107
0.0926291942 0.7494878131 0.5082949581
0.102575807 0.7520409552 0.7601089855
0.0826055533 0.7506269073 0.7649213849
0.1026024706 1.0001736391 0.7572630225
0.1024943351 0.501840881 0.7585517605
0.0823803944 0.4997806916 0.7666211858
0.092462547 0.5010827941 0.0114613853
0.0825674096 0.497747343 0.2634403008
0.112399101 0.7504894304 0.00677536
0.1222786847 0.7495925574 0.2572058458
0.1124472435 0.7511637218 0.5078070522
0.1224064475 0.7511506288 0.7549142235
0.1222990527 0.998733405 0.2547737232
0.1223731181 0.9989887192 0.7538893435
0.1223238646 0.5003476201 0.2474366195
0.1123968791 1.0004354998 0.5097012749
0.1425026125 0.7509149541 0.2507223458
0.1525532873 0.7505418026 0.5026715426
0.1323693548 0.7484861958 0.5001551706
0.1423715168 0.7492783245 0.7536717764
0.1523610876 0.5020621533 0.4986294234
0.1324286071 0.9979150902 0.0037620092
0.1423637399 0.4993577866 0.2525091736
0.1423100425 1.0002129182 0.253146136
0.1323008443 0.9979478228 0.5086884305
0.1423992913 1.0013127332 0.7531829448
0.1524107114 1.0004289533 0.0045861719
0.1524958866 0.749978802 3.2722628937e-04
0.1322738105 0.7478839161 0.0016529044
0.172410221 0.7516678037 -0.0019391749
0.1625598931 0.7482832537 0.2534498042
0.1724768799 0.7514779547 0.4989442013
0.1623776923 0.7520278622 0.7529024221
0.1824805231 0.9973324501 0.7446357976
0.1724009628 0.5008307532 -0.0010943665
0.1726031614 0.5015011167 0.4984877733
0.1823968292 0.7491146616 0.2503362799
0.1823257264 0.7507381981 0.747353072
0.1723735586 1.0018430012 -9.5429029299e-04
0.1624336116 0.9985370095 0.7478798621
0.1825327392 0.5000327326 0.248879969
0.2024163365 0.5009440079 0.7484816435
0.1927059922 0.4987568162 0.4954575726
0.1925545285 0.7482701607 -0.0038021049
0.2024263353 0.7526105023 0.2500057631
0.1926622936 0.7512030009 0.4946687761
0.2025503949 0.750698919 0.7499509159
0.2324979987 0.7532978868 9.3197027983e-04
0.2323257966 0.4964079254 -0.0028708436
0.2324106015 0.7531014912 0.4990821481
0.2125862565 0.7512357335 -0.001527001
0.2225228706 0.7486825913 0.2534248071
0.2125807016 0.7542013063 0.4999561199
0.2226969243 0.7505025234 0.7558039341
0.232359126 0.5000176756 0.5005958597
0.2225262035 0.5019299136 0.7532051644
0.2126614329 0.5001230745 -0.0064917159
0.2224717655 0.5025544514 0.2530072634
0.2124388664 0.4991875771 0.5001922033
0.2524823249 0.7495925574 -0.0030894384
0.2425997786 0.7507054655 0.2483605854
0.2525338003 0.7496842087 0.4959491817
0.2425857061 0.7483683585 0.7505202937
0.2423616583 0.499368261 0.7513590843
0.2626533559 0.5018493914 0.7441849245
0.2626007695 0.750168651 0.2468876097
0.2425220099 0.4991587724 0.2480661754
0.2626611328 0.7531145842 0.7460337821
0.2625904003 0.5002382933 0.2459766053
0.2524730667 0.4982088726 0.4972286615
0.2725296067 0.9997743014 0.9954786425
0.2823717873 0.5041105589 0.2461034423
0.2725940436 0.4992955946 0.4979091374
0.2823643808 1.0016727917 0.2445369591
0.2824165969 0.500987215 0.7507869291
0.2824525186 0.7488200682 0.2470449987
0.282372528 0.7498609646 0.7497296455
0.2723933263 0.750004988 0.9963952018
0.2723785133 0.7513928499 0.4939142349
0.3124738175 1.0005991627 0.49337078
0.2924350532 0.7508625819 0.9939788181
0.3025279453 0.7486236727 0.2475819729
0.2924028348 0.7482898002 0.4946197078
0.302349818 0.7504501513 0.7425554857
0.3024831357 0.5009675754 0.7459587908
0.2925235614 0.5014480899 0.9978209608
0.302410922 1.0016073266 0.2446600928
0.3125189974 0.7506792794 0.9940065927
0.3123745699 0.7488397078 0.4915756199
0.3124538199 0.5003423829 0.4928273251
0.3325111005 0.5008294439 0.4917431928
0.3223733989 0.4995116297 0.7412121245
0.3323355655 0.7475696832 0.9925993501
0.332502583 0.4991993608 0.9954416098
0.3225530075 0.7510131519 0.2422270444
0.3325522068 0.751065524 0.4918913236
0.3224004327 0.7513535708 0.7410732519
0.3226263322 0.5012025954 0.2402300561
0.3525820832 0.5017826169 0.4920116799
0.3525206089 1.0019084664 0.489489753
0.3625027732 0.7535466545 0.2425242319
0.3624768503 0.7503061279 0.7472873389
0.3625101797 0.5010408964 0.7454986595
0.3623805653 0.5042918974 0.2450850431
0.3524158064 0.7519427575 0.9911828493
0.3425710334 0.7516612572 0.2405494631
0.3524983893 0.7493568827 0.4940771787
0.3425154844 0.7513142917 0.7433748342
0.3626323877 1.000854477 0.7469003472
0.3425647379 0.5015803295 0.7438016361
0.3526354103 0.5039606436 0.9931826151
0.3423969797 0.5001990142 0.2390959297
0.3725793709 0.5010336952 0.9951268318
0.3826781881 0.5010932686 0.2418354236
0.3727830507 0.5033753848 0.4973841988
0.3923992719 0.5009197858 0.9919790523
0.3826448587 0.5041393635 0.7477113634
0.3724497564 0.7518445597 0.9936455238
0.3824782116 0.753906713 0.2382478808
0.3725941839 0.7526890606 0.4959741788
0.3828115059 1.0023536297 0.2404716945
0.3826374522 0.7531604099 0.7468522047
0.3924511177 0.7535597475 0.9905070025
0.3925177765 0.7521915252 0.4882584158
0.3924251948 0.503326286 0.4891342391
0.4026647363 0.5025799829 0.7426813969
0.402509199 0.7518380132 0.2404874334
0.4024832761 0.7522177112 0.7373310976
0.4124228528 0.7532782472 0.9862297257
0.4126080163 0.7525908628 0.4873177852
0.4224364948 1.0001801856 0.7325149949
0.4424711855 1.0037807706 0.2345270203
0.4324871696 1.0039509801 0.4834015772
0.4425230313 0.9995713594 0.7350572898
0.4227142401 0.4998946011 0.7375421839
0.4324390271 0.7543584227 0.9886924002
0.4223142869 0.7506465468 0.2350010389
0.4323168192 0.7522569903 0.4894286491
0.4225327799 0.7504370583 0.7405538683
0.4423934168 0.7523486416 0.2371100511
0.4425230313 0.7529312817 0.7357729467
0.4223624294 1.0045925389 0.2362675572
0.4726195066 1.0030737467 0.4859355396
0.4723936071 0.5033537813 0.9830356553
0.4624355141 0.500659889 0.2311635253
0.4723973104 0.751255373 0.9771011651
0.4625762383 0.7529967469 0.2307070973
0.472378794 0.7513404778 0.4815314258
0.4621688786 0.7530753051 0.7336148661
0.4524959374 1.0007824653 0.4828590481
0.462379965 1.0023405366 0.2313310983
0.4624910631 1.0015549544 0.731236441
0.452381136 0.7525974093 0.9855168462
0.4524440916 0.7523290021 0.4802787947
0.4525774093 0.5030081252 0.4858262932
0.4925505057 0.4986586184 0.9828042009
0.4923653422 0.5012412199 0.4825118665
0.4824109524 0.501457255 0.7282090177
0.4825813028 1.0025565717 0.7292987049
0.4926393842 1.0010246864 0.4779216634
0.4924023749 0.999793941 0.9837577929
0.4923134964 0.7520213157 0.4830377309
0.49229498 0.7471834387 0.9857945914
0.4824665015 0.7534811893 0.2326800144
0.4823220739 0.7515434199 0.72988197
0.5024012039 0.4988589419 0.2347945816
0.5124370656 1.0001343599 0.4834423131
0.5224507076 0.9980722067 0.7300125102
0.5024271268 0.9988185098 0.2311172344
0.5225025534 0.744977262 0.7343323747
0.5022012273 0.7494812666 0.2362907026
0.5024604562 0.748361812 0.7344693957
0.5123370773 0.7513208382 0.9857112679
0.512333374 0.5005571087 0.9783232442
0.5123963296 0.7501424649 0.4800408596
0.5222211049 0.747478032 0.2330383058
0.5523916456 0.9969462055 0.4802019519
0.5425261343 0.4978213187 0.7277248152
0.5425002114 0.7480737651 0.227974084
0.5523509096 0.4986409428 0.485923504
0.5523546129 0.7472750899 0.4821943111
0.5421669171 0.748931359 0.7300310266
0.5326087772 0.9977121482 0.9786935712
0.5424891016 0.4983365297 0.2263751972
0.5322421535 0.7486825913 0.9817765435
0.5524990404 0.5011286198 0.9851835519
0.5424928049 0.9972277058 0.2317912296
0.5323458451 0.748728417 0.4766495901
0.5725300278 0.4974370381 0.9854150063
0.5624534301 0.9941312026 0.7335982014
0.5523990521 0.7459265071 0.97788811
0.5624497269 0.7478184509 0.23342252
0.5622719699 0.7482767072 0.7365080458
0.5725300278 0.745861042 0.9766289982
0.5724855886 0.4971561924 0.4834200935
0.5724485559 0.7450427272 0.4845366294
0.602652426 0.4961814159 0.2334391847
0.6024672625 0.9975026596 0.2370656119
0.6023820872 0.9999248714 0.7387725954
0.5925869381 0.7463127517 0.9827208773
0.5925202792 0.9979347298 0.4850411999
0.5924128844 0.9970509498 0.9848595158
0.6025783606 0.7478839161 0.2349399349
0.5925499054 0.7497693134 0.4830247694
0.6027227881 0.748551661 0.7393077179
0.5825066372 0.997129508 0.2350556621
0.5826769876 0.9950018896 0.734371259
0.5826473614 0.4983456948 0.7333074947
0.5825955156 0.7468037406 0.2345566465
0.5826251418 0.7475173111 0.7337926231
0.6125734863 0.7509345936 0.9858501405
0.6124846078 0.9971098685 0.4881723147
0.6124809045 0.7473274621 0.4859753498
0.6225575022 0.9981376719 0.7414593178
0.6226278643 0.7475238576 0.2413067818
0.6224278877 0.7508625819 0.7407112572
0.6223316027 0.998707219 0.242858452
0.6424996111 0.9934307252 0.7388383284
0.6326007704 0.4984825171 0.4898813738
0.6423403705 0.9960493325 0.239834732
0.652524363 0.9980460206 0.4937114808
0.6524762205 0.9969658451 0.9927104482
0.6324674527 1.0007562792 0.4940558849
0.6323304317 0.9995582663 0.9920253432
0.6327155718 0.7468495662 0.9878591645
0.632663726 0.7469543105 0.491605246
0.6525280663 0.7440214703 0.9911180421
0.6424477653 0.7487218705 0.2422011215
0.6526539774 0.7474976715 0.4925782802
0.6425366438 0.7482636142 0.7433313208
0.6724442523 0.7495598248 0.9965803653
0.6622528533 0.9940919235 0.247251456
0.6723183411 0.9976859621 0.9960063585
0.6825282565 0.7507578377 0.2443999381
0.6725331308 0.7495336387 0.4952742608
0.6824764107 0.7491604872 0.7439821705
0.6726516354 1.0003176625 0.4948150553
0.662523192 0.7514517686 0.2415530493
0.6626120705 0.7500246276 0.7450848191
0.702381487 0.5000818315 0.2399504592
0.6925715247 0.999427336 0.4931846907
0.6927455784 0.9995648129 0.9938584619
0.692615964 0.7505614421 0.9962841037
0.7027295943 0.7475696832 0.2404365134
0.6924493168 0.7465615194 0.4941253212
0.7024740687 0.7485385679 0.741874084
0.7125506664 0.4968138095 0.48523377
0.7124654912 0.7491146616 0.4925356926
0.7226235608 1.0008872096 0.7396428639
0.7324483361 0.9993160452 0.9933770368
0.732433523 0.751419036 0.9926271246
0.7225643084 0.7490426499 0.2405577955
0.7325372145 0.7496842087 0.4942817844
0.7224865398 0.7491539407 0.7445922842
0.7224680234 0.9984846373 0.2447119386
0.7324668524 0.9968741938 0.4920857453
0.7124580846 0.750004988 0.9892386325
0.7125988089 0.9991851148 0.4923773778
0.7125802925 0.9998463131 0.9903310972
0.742391616 0.5001937769 0.2388431815
0.742569373 0.7485909401 0.244669351
0.7425360435 0.7504108722 0.7454116327
0.7525496856 0.7491539407 0.9908032641
0.76262258 1.0007170001 0.7379939829
0.7525904216 1.001928106 0.9939510436
0.76281515 0.749435441 0.2427501313
0.7525089496 0.7483683585 0.492939349
0.7627040519 0.7495663713 0.7406242304
0.7524608071 0.9984977304 0.4907979332
0.742624922 0.997306264 0.2406855583
0.762485559 1.0002325577 0.2446536121
0.7824758105 0.9960689721 0.2481032081
0.772388103 0.9984519047 0.4924042265
0.7825646889 0.9981114858 0.7491167543
0.7724880913 0.9982424162 0.9941362071
0.7826128314 0.7475565902 0.2436685423
0.7727991659 0.7484927423 0.4922847961
0.7825535791 0.7481064977 0.7440266097
0.772525124 0.7490426499 0.9894793451
0.7725140142 0.4991646643 0.4922986833
0.7724547618 0.498365989 0.9904699698
0.7927005389 0.9973586362 0.502228076
0.7926635062 0.7508494889 0.9938029128
0.7925598147 0.9981834975 0.9982838695
0.812768559 0.7519165714 0.9969784668
0.7925968474 0.5001662816 0.9944695014
0.802632709 0.9996630106 0.2517620389
0.8126130217 0.5042722579 0.9942473052
0.8026141927 0.7509345936 0.2500779768
0.8127574492 0.7477922649 0.4999607489
0.8026401156 0.9978758111 0.7514155592
0.8026475221 0.7484469167 0.7444191563
0.8126241315 0.9990279983 1.0026444699
0.7926042539 0.7482177885 0.4984201886
0.8225563016 1.0025303856 0.7526524514
0.8226970259 1.0018299082 0.2515157714
0.8328254693 0.7482832537 1.0016816197
0.8225674114 0.4979070781 0.7488075313
0.822630367 0.7518903853 0.2539108613
0.8327588105 0.7544173414 0.5058489482
0.8226340703 0.7508625819 0.7524080355
0.8426835741 0.7527217932 0.2506010637
0.8426391348 0.7493765223 0.7546188877
0.8623997835 0.4995895333 0.7460958118
0.8426132119 0.9992898591 0.7547262825
0.8625516176 1.0022226993 0.2521703244
0.8624627391 1.0019870246 0.7499074025
0.8525824148 1.0022030597 -0.0018432603
0.8626293863 0.7497824064 0.7516914528
0.8525935246 0.5042637474 0.4998561316
0.8526490736 0.7521326065 0.0017660393
0.8523972513 0.5022042127 8.1143998089e-05
0.8625182882 0.5013145409 0.2504464522
0.8626701222 0.7537757826 0.2510704532
0.8527564684 0.7521784321 0.504206548
0.8526416671 1.0020393968 0.5018938559
0.8824196611 1.0012734541 0.7506425016
0.8926629059 0.9984846373 0.0042859293
0.8826529671 0.7510851636 0.7525515372
0.8725800727 0.7513470243 -0.0010653884
0.8925740275 0.7501031858 0.0014570014
0.8825048363 0.5009819777 0.7492297041
0.8825011331 0.4992327481 0.2516787153
0.8826825933 0.7515368733 0.2504140486
0.8727541264 0.7526170489 0.504896282
0.8925110719 0.7508560354 0.5034918169
0.8725504466 0.502837261 -0.0012891585
0.8826122312 1.0033225144 0.2508741799
0.9126050149 0.7491539407 0.5023891682
0.9025469336 0.9994666151 0.2556615822