POSCAR file written by Ovito 3.7.11
1
270.043008393 0.0 0.0
0.0 15.2759393957 0.0
0.0 0.0 10.8017203357
Sr Ti O 
800 800 2400 
Direct
0.0226702969 0.5003456416 0.7918679563
0.0126080108 0.5017746863 0.0405189352
0.0125530566 0.2524257002 0.5377621366
0.0225093225 0.2510038564 0.791931835
0.0023594952 0.2464653466 0.7855180419
0.012541577 0.2480600112 0.0413026067
0.0026381174 -6.8724429042e-04 0.2800744801
0.0225739419 0.5008883251 0.2910227361
0.0126809251 -9.733805395e-04 0.5418522258
0.0025404663 -2.557814632e-04 0.7853699173
0.0126779997 -0.0020751131 0.0396114872
0.0224548127 0.2510542624 0.2921327445
0.0025837928 0.2522064011 0.2812076329
0.0424884363 0.4999194812 0.2924373256
0.0326111208 0.253394544 0.5484761707
0.0423677148 0.250593407 0.7972467291
0.052352791 0.4978011172 0.0480633816
0.032387823 0.2483225155 0.0473326647
0.0325089149 9.915395366e-04 0.5416763279
0.032607788 -7.2671813123e-04 0.0458495676
0.0424480724 0.2480678667 0.2936371345
0.0524949905 0.2504500443 0.5439380047
0.0524335188 0.2512539228 0.0443312909
0.0624189653 0.2493188536 0.2956090426
0.0624311856 0.4996622139 0.7945610458
0.062429334 0.4999692327 0.2980401368
0.0724103367 0.4982194221 0.544923033
0.0723821931 0.250593407 0.5484280302
0.0626341162 0.2499008145 0.795801589
0.0723136855 0.2523288158 0.0499616904
0.0624730308 1.5309682822e-04 0.293384397
0.0624522933 9.0964604595e-04 0.7938130168
0.1024311103 2.4775549127e-04 0.2856106352
0.0926400773 0.2512395211 0.5392526399
0.0825098391 6.0282367133e-04 0.2928048596
0.1023911166 0.2518273736 0.7913078603
0.0824576252 0.250490631 0.7951979814
0.0925463885 0.251168167 0.0439619979
0.0824794736 0.0014128557 0.7940490904
0.092600454 3.2290635239e-04 0.0431714757
0.1024200009 0.2494098464 0.2881546744
0.0824091144 0.2518947999 0.294905451
0.1024596242 0.5005590491 0.2944027533
0.0925934181 0.5002985086 0.5412745401
0.1124569207 0.0025696422 0.0403000812
0.1224819904 0.2524885441 0.2895701897
0.1125387595 0.2498438622 0.5356957991
0.122759724 0.4983424915 0.7836387116
0.1125869 0.4999646503 0.0430676959
0.1225734573 0.2522613895 0.7882240923
0.1125561641 0.2509495226 0.0361655546
0.1125639407 0.5002808338 0.5417874213
0.1525312779 0.2501685558 0.5325176016
0.1325777897 0.2509161367 0.5357161662
0.1424688067 0.2507714648 0.7839701403
0.1525538669 0.2499878796 0.032089815
0.1325452023 0.2487846802 0.0347780904
0.1425284269 0.2531038909 0.2860550089
0.1426780327 0.4995450362 0.7833776421
0.1524187033 0.5001558006 0.0327526723
0.1325492757 0.5007678742 0.0339544254
0.1324722509 0.4967157503 0.5341728935
0.1525697903 7.0389765179e-04 0.5293079277
0.1823957801 0.2500926194 0.7755205603
0.1826849933 0.2501973593 0.2742504078
0.1623823014 0.5020882513 0.7777516864
0.1626355943 0.5000792095 0.2790876002
0.1724581038 0.2504454619 0.5250410148
0.1825935264 0.4995116503 0.7709203671
0.162383042 0.2484338017 0.7793273613
0.172466621 0.2480711398 0.0250065914
0.1626648489 -0.0017297334 0.2761167772
0.1624622886 0.2513141482 0.2780997946
0.1726428892 -9.5040322918e-04 0.5277387332
0.1826061169 -6.2721524891e-04 0.2755057634
0.2024833211 0.251220537 0.2661118894
0.1926919178 0.5006277846 0.0179865985
0.2025825645 0.5004916228 0.2690401266
0.1924967637 0.2515917089 0.524045803
0.2026766236 0.2499924619 0.7649750179
0.1925871197 0.2519353866 0.0202566073
0.1926367414 0.0025164867 0.5227330491
0.2026303347 -0.0013753198 0.7645686011
0.1924845434 0.0012092676 0.0199174946
0.2025958957 0.0037020111 0.2652370287
0.2124017412 0.2517599473 0.5102331884
0.2223960751 0.2504500443 0.7596416082
0.2126039312 0.25116293 0.0126640204
0.2226341853 7.8729677815e-04 0.2570503698
0.2125591235 0.002533376 0.5158517378
0.2126598482 0.0014315125 0.012837789
0.2224390312 0.0012514908 0.7569392608
0.2324585463 4.4381544689e-04 0.5088454465
0.2225745652 0.2513436063 0.2636632053
0.2324029996 0.2477700127 0.5133419524
0.2324222558 0.2498707018 0.0112897023
0.2325529757 0.0028223271 1.0101776261
0.2525868215 0.2503701801 0.5050932664
0.2424595458 0.2514686396 0.755576515
0.2624108122 0.2512696338 0.2513364652
0.2524790609 0.2470584362 1.0038267859
0.2424262178 0.251112524 0.2580835386
0.2424702849 3.5040056987e-04 0.2555931945
0.2524523985 0.4993263917 1.0104738752
0.2527142087 0.0022421991 0.5037120049
0.242406221 -5.8215871864e-05 0.7566541211
0.2625693055 0.2493090342 0.7544137372
0.2524409189 0.0018743658 0.9999940631
0.2624245138 -5.1167407306e-04 0.2499922348
0.2625059823 5.4286009225e-04 0.7541045272
0.2724036649 0.2510771743 0.5067892925
0.272586969 0.2493921715 1.007603962
0.2723595979 0.0012239311 0.5035648061
0.272526238 0.4969553427 1.0074650952
0.2824128113 0.2502372914 0.7488988749
0.2823228256 0.0018187882 0.7542757962
0.2822754258 0.2498301151 0.2518947096
0.3025514553 0.2505593665 0.245645705
0.3125294955 0.2479146846 0.4951781791
0.3123665585 0.2510437884 0.9945597435
0.3125202377 6.5381889852e-04 0.9937635741
0.2924893543 0.2510987769 0.4988396329
0.3023881479 0.2501495717 0.7467399596
0.29217496 0.5025183394 0.4991182922
0.302347784 0.5006434956 0.2483128727
0.292337897 0.2495100039 1.0028732341
0.3025488631 0.0036632574 0.7534879588
0.2925071293 0.0021976847 0.4991256984
0.312283979 0.4998062312 0.9949670861
0.2925082402 -5.8459338015e-06 1.0031046787
0.3225212372 0.249204949 0.238407969
0.3324948337 0.2498543362 0.4902993266
0.3224893904 0.2493836614 0.7428109558
0.332512979 0.2485182482 0.99281928
0.3223912579 -6.8233460872e-04 0.2440468856
0.3325548242 -0.0031604146 0.4870646567
0.3225778949 -0.0014195724 0.7404317052
0.3323307858 -8.808821364e-04 0.9871720314
0.3623937748 0.2504827755 0.2278235439
0.3524120315 0.2474066962 0.4848344564
0.3422954948 0.2480017497 0.740490955
0.3524853531 -5.7176857699e-04 0.9780160825
0.352531642 0.2501174952 0.988523668
0.3422817933 2.0252095726e-04 0.2328301538
0.342381407 5.8704722749e-04 0.7397697736
0.3424010335 0.2490301643 0.23677397
0.3623604468 0.2463246024 0.7313396349
0.3624122904 0.0013512555 0.2259543972
0.372388479 0.2498536816 0.4700997664
0.3824128082 0.2483002583 0.7266987075
0.3725366036 0.247821728 0.9762200723
0.3825164954 -0.0030780629 0.7241842932
0.3825720421 0.2494288305 0.221458817
0.3925371214 -0.0021778237 0.4698794312
0.3924852778 -0.0036725926 0.9702950901
0.3726514001 -0.0018084192 0.4711940366
0.3726402908 -0.0011005086 0.9777383489
0.3925260121 0.2484783161 0.4690638203
0.3924963872 0.2506785081 0.9655551044
0.4126783575 -0.0015995941 0.4696692794
0.4024392478 0.2485090834 0.7183824396
0.4023911073 -0.0012761442 0.2157273225
0.402542935 -0.0011448921 0.7196507561
0.4025133101 0.4993964365 0.2172270836
0.4023540762 0.2482007554 0.2166012574
0.4125931859 0.2488992395 0.4661772431
0.4124857956 0.2499538391 0.9668419365
0.4124709832 -3.5489157099e-04 0.9704987614
0.4125598579 0.4985788108 0.9685731422
0.4126042953 0.4983019048 0.4650209458
0.4223027504 0.251837193 0.2149866998
0.4425921111 0.2477529925 0.7118205219
0.4323789231 0.4967006939 0.967980644
0.4325974069 0.4994769552 0.4648811533
0.4424810177 0.248741475 0.2120260603
0.4225656715 0.5017537383 0.214066476
0.4426772827 0.4950968645 0.7094755251
0.4324640948 0.2517154329 0.4671613456
0.4226434369 0.2496415833 0.7160457748
0.4325825944 0.2459239724 0.9638146409
0.4426365485 0.4967668109 0.2092839045
0.4323567045 -0.0039536228 0.9668882254
0.4524868313 -0.0026672207 0.9588524684
0.4725762238 0.2491224663 0.4529700876
0.462466723 0.2504814662 0.7099078636
0.4725317864 0.2454415143 0.9504556578
0.4625000511 0.2494478146 0.2063158587
0.4524905344 0.4987228281 0.9547605276
0.4625778164 0.497320623 0.7029626736
0.472516974 0.5022087021 0.4480005088
0.4524016596 0.2468666313 0.4638516876
0.4526238465 0.2474191341 0.9615094526
0.4726502861 -0.0036970101 0.9524275659
0.4826449903 4.0277050793e-04 0.1984347067
0.4824005848 0.2496533666 0.6988161119
0.4824931626 0.2526901684 0.2001214751
0.4926396945 0.2488121745 0.4486439249
0.4925286011 0.2505835876 0.9512240539
0.4825931467 0.501552114 0.2002677481
0.5024640555 0.249163053 0.1977755524
0.5124735722 2.9894710572e-04 0.9504093689
0.5224090267 -0.0014013739 0.1969608674
0.5024085088 0.2510542624 0.6959360151
0.5027306797 0.5007102673 0.6954749774
0.5124291349 0.2539254443 0.4421551437
0.5025418209 0.0013777024 0.6981865825
0.5224497609 0.2473746197 0.1945918003
0.51239951 0.2508028867 0.9481875006
0.5224719796 0.2499990082 0.6986392882
0.512499494 0.5008438106 0.4475459516
0.5224386516 0.5020398091 0.1974200535
0.5223201519 0.500128961 0.6944538438
0.5525042328 0.2502471108 0.4532533758
0.5523005615 9.7877436419e-04 0.9501223775
0.5323370748 0.5036161442 0.94890035
0.5325629648 0.500066117 0.4480745711
0.5325259336 2.4985028879e-04 0.4446677064
0.5323000437 0.2503381035 0.4438178418
0.5321963565 0.2495093493 0.9429568523
0.5424465756 5.4030705777e-04 0.6968497585
0.5421614358 0.2512519589 0.1956231175
0.542394732 0.2486197149 0.6995058168
0.5524301705 0.2494576339 0.9491873413
0.5623397031 0.5031389232 0.7058325868
0.5623174844 0.5019317961 0.2053049087
0.5622915626 0.0014040837 0.2039032801
0.5623211876 0.2522626987 0.2057687237
0.5623804374 0.2516080745 0.7039041903
0.5724788288 0.0024429724 0.4545698328
0.5725677035 0.001319179 0.9529460018
0.5722788607 0.2470748018 0.4580146544
0.5722492357 0.2509960009 0.9587969217
0.5923978781 0.4993185362 0.9640553433
0.5823920645 0.2512054806 0.7053983967
0.6025221913 0.2498818304 0.2172826303
0.5925274871 0.2536138431 0.4625917031
0.6023444419 0.250264131 0.718029718
0.5923830657 0.2534848822 0.9586210238
0.602348145 0.5017773048 0.7156921274
0.5824253926 0.2536518114 0.2069157632
0.592460831 0.5007711473 0.4651061174
0.5823365178 0.5014742138 0.2092403929
0.6126502077 0.0051806109 0.970646886
0.6125539267 0.5005682138 0.4717744997
0.6224486469 0.2505541295 0.7215532308
0.6222634912 0.5014899247 0.2249415955
0.6124280208 0.5028999853 0.9705820815
0.6225412247 0.5035133682 0.717762168
0.612368771 0.2547430699 0.4673215053
0.6123650679 0.2552497491 0.9701469656
0.6225634434 0.2520106684 0.2176862698
0.6424121335 0.2506916006 0.2221707406
0.6524512751 0.251486969 0.4736019863
0.6426935702 0.2521330832 0.7252054269
0.6522994475 0.250643813 0.9708042683
0.6324951947 0.5007790028 0.9773865531
0.6423862117 0.5010460895 0.7249064004
0.6522661195 0.5003803367 0.9764515169
0.6426380235 0.5016666733 0.2267959298
0.6524549783 0.5014382094 0.4779114851
0.6323952106 0.2545139515 0.4731566869
0.6326433192 0.2553374687 0.9725817629
0.6623126673 8.341024103e-04 0.7274032249
0.6723851369 0.5040436138 0.4747999437
0.6826205435 0.5003338584 0.7229622656
0.6722666373 0.5032659203 0.977951278
0.6825020439 0.4994062558 0.2264385793
0.6625089323 0.2503151917 0.2255887147
0.6623052611 0.2516624083 0.7264246771
0.6823687318 0.0022435738 0.2281401601
0.6824761221 0.0032622346 0.7300713184
0.6624274638 0.5020895605 0.7261599044
0.6623793233 0.5020358813 0.2250443569
0.6822872633 0.2525284762 0.2304499774
0.6724666054 0.248638699 0.4792214616
0.6822835602 0.2520859502 0.7271366007
0.6723703245 0.2502602032 0.9739796884
0.7024173901 0.2491689447 0.2333615506
0.6923967641 0.2480259708 0.4776115328
0.7023359216 0.2473936038 0.7327542244
0.6924893419 0.2507151671 0.9816636496
0.7025803271 0.4992864596 0.7281679179
0.7026136551 7.5810053768e-04 0.7322691165
0.7025544053 0.0011551956 0.2329486534
0.6924412014 0.4976538268 0.9812748227
0.6924893419 0.4978286114 0.4824191004
0.7125268909 0.2497594157 0.4825922209
0.7125602189 0.2481156543 0.9830523173
0.7224401266 0.50102776 0.7322848547
0.7226363916 0.2481726066 0.2337624127
0.7324126121 0.5009433135 0.9854778569
0.7325274087 0.2499053969 0.4898271796
0.7223993923 0.5003672442 0.2354445521
0.7326496114 0.5011541025 0.4882552078
0.722647501 0.2508827509 0.7388106671
0.73250519 0.2514850052 0.9844872739
0.712530594 0.4981618152 0.983839229
0.7628262861 0.5000078555 0.7462141174
0.7425924721 -0.0022716968 0.7416574358
0.7527204884 0.5003410592 0.9961520825
0.7625596619 0.5016398337 0.249151628
0.7627411144 0.250757063 0.2500098246
0.7526390199 0.2494674533 0.4962215314
0.7625855837 0.2491473421 0.7505958269
0.7526982697 0.2520558375 0.9958743489
0.7423776915 0.5031212483 0.7427924402
0.7526464261 0.4998703844 0.4934627116
0.7427257842 0.2500330486 0.245419815
0.7425480347 0.2527268273 0.746600167
0.7825861015 0.4987647241 0.2459836141
0.7825527735 0.496627376 0.7465344368
0.7824787112 0.2476358147 0.2533741035
0.7727210062 0.2480135329 0.5038767935
0.7825083361 0.2494995299 0.7499459304
0.7725210381 0.250340722 2.2424268719e-04
0.7927289303 0.4988655362 0.5007115569
0.8125442924 0.4997289856 0.5024381338
0.8025681037 0.4986403455 0.7514771679
0.8023533231 0.4991607717 0.2531019247
0.7924771185 0.249765962 0.5024992351
0.7924363843 0.246037877 1.0025584694
0.8124813395 -0.0034529662 0.5002412615
0.8025384788 0.247990621 0.2481703028
0.8124776363 0.2472882093 0.5059051741
0.8024644165 0.2471749593 0.7495478456
0.8125998391 0.2499067062 1.0046692443
0.8325596227 -0.0011080367 0.5084982795
0.8224649344 0.2489300068 0.2538684692
0.8325929507 -0.0022184758 1.0074558375
0.8325929507 0.2504873578 0.5079678085
0.8227056367 0.2470944405 0.7551997231
0.8325670289 0.2492704114 0.0047196377
0.832537404 0.4988910666 0.5118903318
0.8325855445 0.4998697298 1.0030583898
0.8224982624 0.4973356794 0.2570892525
0.8424802646 0.4993421027 0.7597730687
0.842687639 0.4984419943 0.258015031
0.8426654203 -0.0013730286 0.257739149
0.8426394985 0.2499623492 0.2600758138
0.8425839518 0.2478053624 0.7617283128
0.8624141264 0.2442664638 0.2592148398
0.8525416249 0.2483598291 0.5113811537
0.862432642 0.2459789608 0.7601591183
0.8525601405 0.2502942437 0.0078210881
0.8924352702 0.5009969927 0.0118408182
0.8724754867 -0.0033187682 0.5142418091
0.8823998317 0.2474080055 0.2639807473
0.8724125337 0.2500186469 0.5107247767
0.8926167228 0.2505790052 0.5129697895
0.8824701909 0.2483270979 0.762442088
0.8725495489 0.2478407121 0.007357736
0.8923797235 -0.0026317401 0.5117681291
0.8724088306 -0.0032002812 0.0094007439
0.8925759886 0.251009748 0.0077134201
0.8724088306 0.5007148497 0.5119782808
0.8925204419 0.5010886401 0.5137418887
0.9124765223 0.4990363931 0.5162081625
0.9024818181 0.5005570852 0.7595582881
0.9126875998 0.5007528179 0.016536922
0.9025595835 0.4958843775 0.26123674
0.9125505846 -3.0743131462e-04 0.5153527432
0.9025188492 0.2493810429 0.2631244023
0.9125728033 0.0011229881 0.0155583742
0.912369132 0.2486249519 0.518947541
0.90244849 0.2525572796 0.7640288723
0.9125876157 0.2504867032 0.0177353422
0.9424458226 0.2489902322 0.7700871665
0.9323511342 0.2504408795 0.0232525189
0.9324511183 0.4996700694 0.5169034222
0.9326436802 0.4983804597 0.0192175135
0.9225415857 0.5005937442 0.7699927371
0.922682304 0.4981880001 0.2722386912
0.9423791665 0.4958653934 0.7703037987
0.9224378985 0.2510064749 0.2696576208
0.9224416016 0.2492684475 0.7662026001
0.9424421194 0.2498720111 0.2693928482
0.9324548214 0.2480573927 0.5250660108
0.9724114197 4.3033018784e-04 0.5250891553
0.9624093092 -0.0017812523 0.7764676316
0.9623537625 0.2486380444 0.2763935849
0.9523738707 0.0016155273 0.0204473176
0.9723669823 0.0013331225 0.0285737084
0.9523257303 0.2496376556 0.5202325215
0.9723447636 0.2470054116 0.5266602013
0.9624389341 0.2515530861 0.7746827308
0.9525479171 0.2485274129 0.0197772392
0.9523849801 0.0016605 0.5244429619
0.9724558571 0.2485758551 0.0269166575
0.9726113878 0.4975183196 0.5322287588
0.9625463244 0.0017779396 0.2800133787
0.9526071669 0.4987712703 0.5277128114
0.9625278089 0.4983726042 0.7747475353
0.9826431232 0.2530724689 0.2788635618
0.9823320617 0.0015885568 0.78000966
0.9925526558 0.0021490461 0.0294245914
0.9924489686 0.2488396687 0.5287394998
0.9824912955 0.2513802653 0.7778979594
0.9923860157 0.2478898089 0.0265852288
0.9925045154 0.4999456662 0.0336104987
0.0227652077 0.7529206159 0.7886351379
0.0028606375 0.5022296501 0.2875538442
0.0025945688 0.7501057317 0.7843737797
0.0126226011 0.5033241818 0.5394035418
0.0024719217 0.4977448195 0.7854300929
0.0225263939 1.0006042379 0.2905080033
0.0226859981 1.0016647292 0.794117598
0.0125458726 0.7512055004 0.0378572296
0.0226166017 0.7503741276 0.2868224792
0.0024806981 0.7499420756 0.2838951678
0.0125541675 0.7524623789 0.5352153201
0.0526371901 1.0032030961 0.5447924982
0.0524961015 0.9987385589 0.0432021189
0.0327703547 0.7522332604 0.0427445992
0.0425884204 0.7526194887 0.2934195765
0.0325800147 0.7509174657 0.5401487935
0.0426535952 0.7532413817 0.7960432172
0.0423980804 0.4999751243 0.7984122842
0.0323111686 0.5004274696 0.0472571212
0.0323633825 0.5010035389 0.5449498806
0.0426191563 0.9997532264 0.2926983951
0.0524786968 0.5014008958 0.5446462252
0.0525842356 0.7478341856 0.0434863329
0.0526316354 0.7516179137 0.5467218205
0.0425669423 1.001199946 0.7951174387
0.0725632753 0.4989054683 0.0482629795
0.0723496057 1.0010035587 0.541872593
0.0723370151 1.0038969978 0.0444584929
0.0725510551 0.7517815697 0.0450248842
0.0624896948 0.7496474947 0.2960237913
0.0726899218 0.750059908 0.5439648523
0.0624919166 0.7491172491 0.7964644464
0.0924971371 1.0006631541 0.5443055388
0.0924719559 0.7485280873 0.0427979241
0.1026114519 0.7526849512 0.2873659112
0.08260612 0.7490583329 0.2943083239
0.0926600741 0.7531431881 0.5435278848
0.1026525565 0.7495034774 0.7919697919
0.0827586883 0.7479585642 0.7968560506
0.1025951582 1.0001787322 0.7920068231
0.1026203394 0.4991430969 0.7867197023
0.0825209484 0.5010454349 0.7951211418
0.0927034005 0.5005616676 0.0453553871
0.0824809548 0.5006349855 0.2947619553
0.1124754362 0.7508127259 0.0358976343
0.1224120016 0.7507407172 0.2890054648
0.1123987818 0.7484757174 0.5378695269
0.1226278931 0.7500468155 0.7860142591
0.1224242219 1.0001590935 0.2839951518
0.1225819745 0.9991444259 0.7820084157
0.1225941948 0.500550539 0.2843210259
0.1123528632 1.0006697004 0.5363623596
0.142486952 0.7490583329 0.2811955978
0.1525842325 0.7505836074 0.5355254559
0.1324322573 0.7498504283 0.5346080094
0.142469177 0.7493267289 0.7810789342
0.1526134871 0.4983405276 0.5280359081
0.1326862909 0.9993408132 0.0336616942
0.1427561684 0.5008078063 0.2835692937
0.1426639608 1.003281651 0.2825157579
0.1324715103 0.9983850618 0.5338136915
0.1425676799 1.0020967812 0.7821833879
0.1527890147 1.0010952061 0.0296373352
0.1526545916 0.7479389255 0.0332313924
0.132431887 0.7517553848 0.0335965194
0.1724181102 0.7495100237 0.0251783233
0.1626689224 0.7471861077 0.2773619492
0.1724536601 0.7493987375 0.5254927947
0.1625967117 0.7466362233 0.7792514475
0.1826387043 0.9998579663 0.774543864
0.1724436616 0.501938997 0.0278546562
0.1724229242 0.4986848599 0.5278711196
0.182532425 0.7488881306 0.2699057295
0.1824257753 0.7494969312 0.771940575
0.1725384614 0.998011926 0.0263272144
0.1625930085 0.9982214058 0.7811678089
0.1825094657 0.4998468179 0.2717461771
0.2025577537 0.4985847024 0.7665886497
0.1925393495 0.499979052 0.5200955063
0.1924845434 0.7526391275 0.0201597709
0.2024351806 0.7516113674 0.2658841479
0.1924723231 0.7497915121 0.5184790971
0.2024433274 0.7486328272 0.7679106614
0.2326840659 0.7503283039 0.0068432809
0.2322978312 0.5031173206 0.0137509769
0.232520018 0.7521088818 0.507928
0.2126517013 0.753869821 0.0147501696
0.2226030791 0.7513953414 0.2634225029
0.2123802631 0.7493398214 0.5119532847
0.2225682699 0.75157209 0.7598332443
0.2323770778 0.4989257616 0.5107701399
0.2224401421 0.5011148251 0.7614876104
0.212550236 0.5011383915 0.0115511421
0.2225201294 0.4996622139 0.2653583057
0.2123787819 0.5026453365 0.5127540831
0.2522787225 0.7504003126 0.0016677165
0.2424402896 0.7479389255 0.2573762438
0.2527571648 0.7505705149 0.5015142069
0.2424354756 0.7485804573 0.7556163234
0.2426265563 0.4939244326 0.7598536114
0.2624100716 0.4992419451 0.7559394201
0.2624196997 0.7499289832 0.2534352049
0.2424610271 0.4983634394 0.2586547439
0.2625241275 0.7512578703 0.7519807914
0.2624745058 0.4998769306 0.2569790849
0.2524920218 0.4982082935 0.5061995716
0.272379965 1.0013832408 1.0020122601
0.2824191066 0.4971864251 0.2546766738
0.2724129227 0.5011527933 0.5071003541
0.2824668768 0.9992098883 0.2515901285
0.2823343053 0.5006939017 0.7567309607
0.2825805623 0.7501319167 0.2548988607
0.2825394578 0.7501450092 0.7509133689
0.2724225508 0.7522790841 1.0049932668
0.272475135 0.7493856451 0.5054867222
0.3124961675 0.9995764779 0.4916028227
0.2924219577 0.7487768445 1.0018548778
0.3024525821 0.7494052838 0.2487692815
0.2923782609 0.7522463529 0.5039017895
0.3025240522 0.749248174 0.7474509574
0.3022951998 0.5007822759 0.7516697299
0.2923715953 0.4997623714 1.0046970177
0.302437029 0.9975602353 0.2506013971
0.312453952 0.7509567432 0.995096695
0.3122591682 0.7497653271 0.4921601413
0.3122710181 0.4991614264 0.4963002226
0.3322978281 0.4989440911 0.487719182
0.3222853489 0.5012156372 0.7417370528
0.3324415089 0.7508389108 0.9883292545
0.3321282254 0.4999522124 0.9864406665
0.3224867983 0.7496867722 0.2436376915
0.3324104027 0.7465511222 0.4873970111
0.3223768158 0.7510025669 0.7427507802
0.3223845923 0.4966712358 0.2432747863
0.3523720378 0.4969442141 0.4797621162
0.3524272142 1.0002900183 0.4787613497
0.362627071 0.7499224369 0.2297473115
0.3624789464 0.7515000813 0.7280670081
0.3621567755 0.5002611951 0.7255285235
0.3624345091 0.4980642762 0.2245648037
0.352246132 0.7509305582 0.9830245439
0.3425091644 0.7491107029 0.2300583731
0.3523949971 0.7502628415 0.4810183976
0.3423103072 0.7479978417 0.7334522614
0.3625678212 0.9996943103 0.7263570953
0.3423203056 0.4964408081 0.7381329972
0.3523509301 0.5009033814 0.9837003622
0.3421377421 0.4958588471 0.235294576
0.372355151 0.4999391199 0.9782012382
0.3824905736 0.4989336171 0.2190055041
0.3723625572 0.4970784121 0.4796649095
0.3925037934 0.4991084018 0.9689804847
0.3823498552 0.4993021706 0.7207302138
0.37248476 0.7492416277 0.9733038701
0.3825016829 0.7510352981 0.2228326722
0.3724366195 0.7521743443 0.4769579332
0.3824350269 0.9983261456 0.224379648
0.3825942608 0.7499682606 0.7264904074
0.3925667463 0.7478341856 0.9734334791
0.3924556529 0.7494903849 0.4707320731
0.3924667622 0.4969324309 0.4650394614
0.4025059038 0.4983176157 0.7164077542
0.402576263 0.7499551681 0.2188407155
0.4026021848 0.749248174 0.7173881536
0.4125746704 0.7488750382 0.9673511146
0.4126413264 0.7526063962 0.4678380897
0.4226582493 1.0000805386 0.7152273866
0.442525455 0.9975275041 0.2110789889
0.4324789072 0.9980577497 0.4629268349
0.4425772986 1.0014945269 0.7153042262
0.422713796 0.4994782645 0.7194470848
0.4326159224 0.7464856597 0.9612872657
0.4225767808 0.747709807 0.2151607461
0.432830703 0.7480371191 0.4651570352
0.4226323275 0.7469569892 0.719028633
0.4426846889 0.7480371191 0.2114659643
0.442655064 0.7503348502 0.7096384621
0.4225878902 0.9960218684 0.2162337234
0.4726725048 0.9958189348 0.452274828
0.4725910363 0.499979052 0.9515851075
0.4625259729 0.497275454 0.20709629
0.4723392245 0.7484691711 0.9533533444
0.4624963479 0.7465052985 0.2056094898
0.4726280674 0.7487113821 0.4546725942
0.4624889417 0.7461125239 0.7061399453
0.4525645966 0.9944376777 0.4577915418
0.4625370822 0.9985094404 0.2065658189
0.4627370503 0.9986730965 0.705480791
0.4526905025 0.7500533618 0.9558344306
0.4525645966 0.7482989688 0.4587265781
0.4524979406 0.496427061 0.4619880956
0.4924656482 0.5002958902 0.947780158
0.4924286171 0.5002854162 0.4514481078
0.4826042561 0.4985198946 0.7026506863
0.4825190844 0.9966568539 0.7022405664
0.4925063825 0.9996550328 0.4492271653
0.4926359914 1.0008137177 0.9520665123
0.4926100696 0.7493987375 0.4471728629
0.4925211949 0.7498373358 0.9503538221
0.4826116623 0.7468784343 0.1995058324
0.4825524125 0.7493529138 0.7016128886
0.5025084929 0.5017347542 0.1966220325
0.5125291189 0.9996092091 0.4495789611
0.5225423388 1.0046498157 0.6939918804
0.5025344147 1.0024502783 0.2002371974
0.5223349644 0.7516048212 0.6934965889
0.5024862742 0.7456084633 0.1987837252
0.5025529303 0.7513822489 0.6991429117
0.5124032131 0.7500140843 0.9487429676
0.5125735563 0.5014323178 0.9455212586
0.512466166 0.7481353128 0.4466275794
0.5225534481 0.7504788675 0.2015369903
0.5523042646 1.0021164199 0.4495539651
0.5424354663 0.498329399 0.7027090103
0.5422132794 0.750924012 0.1983476835
0.5523598113 0.5019088842 0.4511713001
0.5523561082 0.7513691565 0.4539245652
0.5424132476 0.7467213245 0.6991632788
0.5322630126 1.0016254517 0.9468173484
0.5424132476 0.5011338092 0.1970330781
0.5322889344 0.7479585642 0.9459193433
0.5523375927 0.5020273712 0.9519646767
0.5423465915 0.9979202786 0.1999826083
0.5325185274 0.7526980436 0.4493410361
0.5723603292 0.5026734853 0.9560843908
0.5625026401 1.0015534431 0.7050345658
0.5523227802 0.751113853 0.9520202234
0.562336 0.749195804 0.1969812345
0.5624396872 0.7526718587 0.7028108459
0.5724899381 0.753058087 0.9578248543
0.5723121887 0.5013059753 0.4554234005
0.5723344074 0.750950197 0.4533033679
0.6023777699 0.5063459272 0.2157291741
0.6025555194 1.0044141509 0.213928535
0.602477754 1.0037922579 0.7163716488
0.592523784 0.7530842719 0.9590561397
0.5924867528 1.0033863909 0.4633887984
0.5924793466 1.003471492 0.9625000355
0.6024962695 0.7528682459 0.2170132288
0.5926163618 0.7533853991 0.4606836737
0.6024592384 0.7536603412 0.719020301
0.5825105642 0.999092056 0.209586634
0.5825031579 1.0017301916 0.7097578875
0.5823254085 0.5014414825 0.7081322205
0.5823328147 0.7536865262 0.2125519024
0.5823217054 0.7502432028 0.7120593727
0.612335443 0.7529468008 0.9664993985
0.6124058021 1.00417194 0.4661216964
0.612402099 0.7514869888 0.4664864531
0.6226004745 1.0028299603 0.7197562948
0.6224301313 0.7508585496 0.2197090957
0.622419022 0.7538829135 0.7224521617
0.6224042095 1.0003685732 0.2194628386
0.6425787737 1.0007744402 0.7225938058
0.6325322258 0.5020090417 0.4723716268
0.6424824927 1.0027448592 0.2240935825
0.6524660876 1.0016974604 0.4793381097
0.6523031506 1.00201168 0.9735075414
0.6323470701 1.0016254517 0.4719096633
0.6323878044 1.0029281539 0.9702302856
0.6323803982 0.7489994168 0.9710079396
0.6322248674 0.7511924079 0.4744962883
0.6525179312 0.7514018877 0.9781919804
0.6424898989 0.7523641853 0.2242426328
0.6524512751 0.7532282893 0.4738426887
0.6423862117 0.7515982749 0.7259460496
0.6724666054 0.7490190555 0.9784974873
0.6624163545 1.0030067088 0.2275041503
0.6724629023 1.0020444112 0.979497328
0.6825835124 0.7496474947 0.2291529617
0.6725221521 0.7510025669 0.4819636174
0.6825724031 0.7521088818 0.7306101215
0.6724666054 1.0002507409 0.4753470787
0.6623163704 0.7503806739 0.2282753238
0.6623200735 0.7521350668 0.7271301203
0.7024840461 0.4993650145 0.2352677285
0.6924486077 1.0003947582 0.482278382
0.6924226859 0.9994586455 0.9790436966
0.6924523108 0.7491499803 0.9796454526
0.7025358897 0.7495231161 0.2343956451
0.6924893419 0.7516506449 0.4808600894
0.7025247804 0.7481614978 0.7329745597
0.7124639379 0.5005125708 0.4823524443
0.7126564998 0.7487964833 0.4871442736
0.7226141729 0.9982672295 0.7344530279
0.7326755332 1.0001525472 0.9932729115
0.7325348149 0.7456870182 0.9917731504
0.7224808608 0.749870067 0.232139523
0.7325829554 0.7505115987 0.4906687122
0.722584548 0.7518012084 0.7355778487
0.7225771418 0.9989087612 0.2368184074
0.7327199706 1.0000347149 0.4885088711
0.7126824216 0.75049196 0.984181767
0.7126009531 0.997416218 0.4866628688
0.7125268909 0.9966372151 0.9861351596
0.7425184098 0.4999332283 0.2436663906
0.7425073005 0.7493463676 0.2433127433
0.7425147067 0.7496409485 0.7427776278
0.7526538324 0.7529860783 0.9966057139
0.7625559588 1.0008988188 0.7532167057
0.7527315978 1.0005845992 0.9979480927
0.7625596619 0.7492547202 0.250275523
0.7526168012 0.751087668 0.496841803
0.7625744743 0.7500206306 0.7477388745
0.7524612704 1.0005453218 0.4988988827
0.7426406126 1.0020509575 0.2432238685
0.7626226148 0.9973573018 0.2478027688
0.78266757 0.9987647439 0.2482591776
0.7726691626 1.0023128072 0.4972037824
0.7825194454 0.9980577497 0.7465353625
0.7726136159 0.998038111 0.998707231
0.7825342579 0.7499355294 0.2520372795
0.7728506152 0.750059908 0.4956595839
0.7824750081 0.7472188389 0.7522390836
0.7726395377 0.7490910642 1.0013827308
0.7725654754 0.4996425752 0.4997385638
0.7725691786 0.4988936851 0.9985313331
0.7926363524 0.9973769405 0.4997404153
0.7923993531 0.7461910788 1.0051321335
0.7925178528 0.9994651918 0.9989294179
0.812533183 0.7505770611 1.0072243928
0.7926918991 0.4985480435 1.0002810544
0.8024570103 0.9975275041 0.2499940864
0.8124035741 0.4992609292 0.998022155
0.8026903065 0.7467278707 0.2584853264
0.8125665111 0.750249749 0.5065124847
0.8026903065 0.9984047005 0.7519511665
0.8025792131 0.7515066275 0.7551719498
0.812662792 0.999740134 1.0081409135
0.7925659933 0.7471926539 0.5024298017
0.8226426838 0.9980904809 0.7577798677
0.8226352776 0.9986469115 0.2533241115
0.832570732 0.751788116 1.0097332525
0.8225056686 0.4976590638 0.7568837141
0.8226834181 0.7506163386 0.2545535453
0.8325485133 0.7475330585 0.5088158216
0.8226426838 0.7497653271 0.7534675916
0.8425321082 0.7457001107 0.2612987671
0.8425172958 0.7499289832 0.7633104682
0.8623659859 0.4965972633 0.7603331647
0.8426580141 0.9985814491 0.7569864756
0.8623807984 0.9997728652 0.2610617679
0.8624733762 1.0001983709 0.757945582
0.8526119841 0.9971674608 0.0157872266
0.8624881887 0.74941183 0.7607423588
0.8522898132 0.4980282718 0.5119301403
0.8525305156 0.7486655584 0.0119879244
0.8524638595 0.5005302456 0.013746348
0.8625215167 0.4970718658 0.2594259173
0.862432642 0.7463547349 0.262043093
0.8523897972 0.7477818157 0.5114098528
0.8524490471 0.9987320127 0.5097240102
0.882536847 1.0007351628 0.7594990383
0.8925685823 1.0011672148 0.0103183755
0.8824516753 0.7482596914 0.7648787369
0.87241994 0.747493781 0.0118635924
0.8927648474 0.7524885639 0.0101519206
0.8825220345 0.5001656199 0.7561625327
0.8823183632 0.4985919033 0.2584029321
0.882507222 0.7466362233 0.2657193593
0.8723384715 0.7493856451 0.5094509056
0.8925426605 0.7488619457 0.5121180733
0.8723384715 0.5009374219 0.0087489959
0.8824924096 0.9992753508 0.2617496213
0.9126505687 0.7503348502 0.5152083218
0.9027188173 0.9990527785 0.2635243386
0.902544771 1.001173761 0.7590935473
0.902578099 0.7503872201 0.7646639563