POSCAR file written by Ovito 3.7.11
1
270.1148839262 0.0 0.0
0.0 15.2800052899 0.0
0.0 0.0 10.804595357
Sr Ti O 
800 800 2400 
Direct
0.0225997281 0.5011171462 0.771907086
0.0124152097 0.4998416231 0.0222963202
0.0127239672 0.248952312 0.5220809786
0.0224226553 0.2516695886 0.7749863314
0.0024951714 0.2526571537 0.765466308
0.0124132106 0.2496519191 0.0192196663
0.0023621169 4.6555251859e-04 0.26853053
0.0227660277 0.5005523558 0.2694690195
0.012551411 0.0022001723 0.522078202
0.002638814 0.0010427774 0.7668388721
0.0125516332 -0.0010108213 0.0193276759
0.0224640451 0.2497932803 0.274108712
0.0026055319 0.2481381762 0.2693033493
0.0424021171 0.4999253927 0.2658279762
0.0325007745 0.2512494317 0.5220337765
0.0424435809 0.2499549295 0.7717747349
0.052364915 0.5009391358 0.0153963857
0.0326018426 0.2491604272 0.0249513016
0.0325126213 1.1934844996e-04 0.5230740746
0.0324078511 5.4722788298e-04 0.0220425393
0.0424857852 0.248697731 0.2695023387
0.0524782001 0.2482743018 0.5151728069
0.0524807916 0.2498927567 0.0183352278
0.0623932406 0.2469994331 0.2668321785
0.0625068959 0.499541885 0.7679893086
0.0624302619 0.4958226454 0.2656613804
0.0724382257 0.501604057 0.5159012007
0.0725903832 0.2518561068 0.5186518821
0.0624076789 0.2469143546 0.7663511167
0.072412681 0.2503404006 0.0203904644
0.0625191129 -0.0034128493 0.2688655726
0.0625180023 -0.0025199177 0.767671851
0.1025191301 0.0022325022 0.2604858048
0.0926459237 0.2493449821 0.5160354028
0.082486913 5.3576221425e-05 0.2681214448
0.1025665174 0.2513050599 0.7642936588
0.0822829257 0.2486676263 0.7705465538
0.0925729918 0.2525439338 0.0166107764
0.0825765045 -3.0682941297e-04 0.7671868722
0.0926748003 0.0018979473 0.015720507
0.1024639684 0.250322076 0.2628274011
0.0824180534 0.2479883071 0.2667590615
0.1025761429 0.4998926702 0.2618796562
0.0925618854 0.4986348172 0.5159604347
0.1126625919 0.0010131309 0.0118803817
0.1226294622 0.2502952435 0.2620221881
0.1124978472 0.2504778351 0.5122194339
0.1226061387 0.4975536658 0.758362849
0.112734043 0.4983488226 0.0097302781
0.1224425047 0.2495707673 0.758837647
0.1125289451 0.2496591181 0.0080666341
0.1123627195 0.4994626965 0.5120222956
0.1525630218 0.2494261339 0.5032464001
0.1325304345 0.25092417 0.5085543267
0.1425017473 0.2490347727 0.7529225712
0.1525782006 0.2477945899 0.0090795365
0.1323882728 0.2476309774 0.0047548025
0.142612441 0.2528292741 0.2573158573
0.1425628324 0.4989672778 0.7571772424
0.1524008686 0.5008102091 0.0044426206
0.1323964175 0.4989306286 0.0089316364
0.132602626 0.5000948953 0.5041006662
0.1525430303 -0.0013193291 0.5038942725
0.1825117603 0.2527592479 0.7489622193
0.1825869135 0.2525903998 0.2440002268
0.1625324836 0.5008560206 0.7505819005
0.1624784325 0.4972284041 0.2497829514
0.1724290134 0.2497926259 0.4997460376
0.1824321645 0.500007199 0.7460449421
0.1626350325 0.2524091171 0.7529197946
0.1725200857 0.2482428882 -3.3766026593e-04
0.1624106836 0.0033602505 0.2516238348
0.1627142581 0.2528116039 0.2514294731
0.1723653368 0.0026929078 0.4990333779
0.1823111049 0.0030932349 0.2486797172
0.2026705902 0.2546296661 0.2533592075
0.1924386475 0.5033619098 -0.0052158531
0.2024451305 0.5025445017 0.2513119305
0.1922202219 0.2509405312 0.4969083561
0.2026365306 0.2524732532 0.7532437309
0.1925989497 0.2495779663 3.3520158218e-04
0.1922254049 0.0013642433 0.4991453672
0.202378122 -6.3326909053e-04 0.7510881666
0.1922920432 -1.2921167341e-04 0.0045499823
0.2023225901 0.0016088113 0.2523300158
0.2125452774 0.2539987763 0.5040182938
0.2225576838 0.2489287518 0.7516147944
0.2125504604 0.2507998245 7.753846564e-04
0.2224221859 0.001164636 0.2476736638
0.2125334306 -0.0019472084 0.5036536342
0.212492337 -4.431513553e-04 0.0037773481
0.2223910881 0.0019999761 0.7507494218
0.2324453285 0.0020991907 0.5025022722
0.2224403264 0.2534634361 0.2529510479
0.2322183881 0.2503135681 0.5014036656
0.2321550817 0.2521440649 6.0055163975e-04
0.2325030817 0.0011418612 1.0006106994
0.2522406094 0.2502036205 0.5014684529
0.2422852158 0.2519438032 0.7496785812
0.2623118797 0.2480727312 0.251411888
0.2524668095 0.2515184106 0.9996574014
0.2423244583 0.2491833329 0.2503567814
0.2423666626 -4.0898906346e-04 0.2469776636
0.2524123882 0.501460078 0.9985282522
0.2523227967 -3.7279797652e-04 0.5011806124
0.2424495903 4.8819648981e-04 0.7476673999
0.2622767095 0.2490871288 0.7473703041
0.2525704691 -8.7836062872e-04 0.9997592099
0.2625084627 3.0305257485e-04 0.2477736212
0.2623925861 -0.0027621951 0.746286506
0.2723579755 0.2498796677 0.4952461004
0.2723124393 0.2494418407 0.9955758047
0.2723253968 5.8420430997e-04 0.4967102923
0.2722698648 0.4961132212 0.9960108048
0.2822985606 0.2473574173 0.7410026431
0.282252284 -4.4184245523e-04 0.7437449948
0.2823663096 0.2475085953 0.2357342995
0.3025721565 0.2509654004 0.234582012
0.3124734991 0.2503907932 0.4887294288
0.3125016353 0.2513449814 0.9900318674
0.3124220395 3.3256827144e-04 0.993336017
0.2923313288 0.2493305842 0.489223663
0.3024211097 0.2512428872 0.7421438242
0.2924964437 0.5013972508 0.4898974503
0.3025840033 0.4982735608 0.2450895781
0.2922787585 0.2488449822 0.9907445271
0.3023974161 0.0010804738 0.7409239729
0.2923998181 -1.4144988907e-04 0.4913496102
0.3125682736 0.4969967288 0.990855591
0.2923513203 -8.3366169131e-04 0.991346123
0.3225477311 0.2516191959 0.2407238431
0.33237318 0.2496551914 0.4928591531
0.3224448119 0.2501885682 0.740524143
0.3324572183 0.2496074165 0.9931324
0.3222985778 5.7510745448e-04 0.2404415558
0.3325290396 0.0011147015 0.4914236528
0.3225310715 0.0026612324 0.7430712074
0.3325864226 -5.5938168155e-04 0.9915682507
0.3623970716 0.2517651383 0.2407368005
0.3524553758 0.2502337252 0.4982911011
0.3424166843 0.2482769196 0.7420799625
0.3525608865 0.0010143743 0.9937710171
0.3526097546 0.2480904013 0.9976489967
0.3423219098 2.8459708385e-04 0.2434356522
0.3422982162 7.4886393883e-04 0.7422993136
0.3424466715 0.2510007407 0.2393577577
0.3626932419 0.2504143534 0.7435413777
0.3623896674 4.0835358551e-04 0.242536035
0.3724927759 0.2523253475 0.4952349941
0.38246631 0.2520923633 0.7446621971
0.3724150312 0.2505216832 0.9962792091
0.3826292037 0.0034510227 0.7401437493
0.3827328633 0.2498390918 0.240864524
0.3923880143 8.727513305e-04 0.4946389514
0.3924805675 0.0035137844 0.9943818683
0.3726704781 0.0027809967 0.4944288556
0.3724964781 0.0034673839 0.9921420806
0.3925879292 0.252705583 0.4905564292
0.3926545675 0.2527906615 0.9916978252
0.4126756783 0.003800499 0.4899039291
0.4025207399 0.2518371278 0.7398864514
0.402494825 0.0057851187 0.2413402475
0.4025725697 0.0051181033 0.7355475568
0.4026281016 0.5034109936 0.2388209491
0.4025466548 0.2530321536 0.2432940458
0.4126645719 0.2519640911 0.4865803432
0.4127015932 0.2506970758 0.9918736763
0.4127497208 0.0034186274 0.9923179317
0.4124387421 0.5030857319 0.9892821864
0.4124239335 0.5011917535 0.4878057478
0.4226307017 0.2517304524 0.241268056
0.4423593443 0.2526290123 0.7351190355
0.4325598102 0.504931281 0.9802860142
0.4326227464 0.5027035331 0.487639152
0.4422556847 0.251808332 0.2311214474
0.4226010847 0.5046053649 0.2360489804
0.4426629188 0.5019810203 0.7354892483
0.4324561507 0.252057023 0.4857723537
0.4224418932 0.2512337249 0.7374689615
0.432552406 0.2525164469 0.9828867594
0.4425592592 0.5049168831 0.2317480326
0.432552406 8.5756808968e-04 0.9843398449
0.4525364954 6.3368073264e-04 0.9902077185
0.4725724147 0.2527088552 0.4852485025
0.4624804125 0.2512317615 0.7326719286
0.4724613508 0.2512880442 0.9862094197
0.4625470508 0.253569457 0.2356907995
0.4525401976 0.502121727 0.982701653
0.4625285402 0.501263743 0.738736015
0.4723391806 0.5000562827 0.4837093426
0.4524402401 0.2561650059 0.4879908542
0.4524402401 0.2527068919 0.9825535679
0.4725798189 0.0041986664 0.9855708026
0.4826792254 0.0029762192 0.2330613627
0.4824978211 0.2508803218 0.7306403856
0.482323821 0.2551309748 0.23250882
0.4925676105 0.2489339874 0.476761373
0.4925083764 0.2495269192 0.9780739924
0.4825200339 0.500399869 0.2340248416
0.5024189743 0.2504202435 0.230174628
0.5126627638 -0.0030862133 0.9791753757
0.5224734042 -4.0983984851e-04 0.2279376169
0.5025559531 0.2514379133 0.7312780772
0.5026781233 0.5003573297 0.7245374268
0.5124110191 0.2502644844 0.4813103634
0.5025004212 3.6980647844e-04 0.7279507892
0.5223734468 0.2467873913 0.2244742757
0.5123999127 0.2492972072 0.9771577156
0.522380851 0.2507023114 0.7260136505
0.5125035723 0.5011020939 0.4743438831
0.5226325957 0.4985294508 0.2281245744
0.5225622553 0.4976420165 0.7302831302
0.5525198788 0.2470373912 0.4784865649
0.5522718362 -0.0016900096 0.9775742051
0.5324654489 0.4989286653 0.9802767589
0.5323617893 0.497700917 0.4805236611
0.5324469383 -0.0053762321 0.4823552891
0.5324543426 0.2483449824 0.4781098733
0.5325024702 0.2473849042 0.975871226
0.5423945575 -0.0037299958 0.7271751933
0.542438983 0.2501394844 0.2260652654
0.5423834511 0.2468161871 0.7295973109
0.5523680916 0.2486833331 0.9790087799
0.5623786469 0.4984299744 0.7316853113
0.5624749023 0.499822644 0.2301857344
0.5622897958 -0.001859643 0.2309298622
0.5622823916 0.2491211602 0.2321219476
0.5623675405 0.2452513971 0.7332244712
0.5724410321 -0.0011777061 0.4814093953
0.5724743512 -0.0016552583 0.9862094197
0.5723929044 0.2492906627 0.4850384067
0.5722485214 0.2461663182 0.9831459084
0.5924214194 0.4959247396 0.9861723984
0.5824441832 0.2475085953 0.7329523648
0.602409762 0.2466951139 0.2402564494
0.5922289087 0.2490184115 0.4820822572
0.602265379 0.2475308466 0.7352356525
0.5922289087 0.2494294061 0.9891433565
0.6024356769 0.4980759169 0.7406759303
0.5823775449 0.2480760034 0.2361628208
0.5922770364 0.4971459434 0.4884138224
0.5822627789 0.4989535344 0.2365830124
0.6122722322 1.3250289567e-04 0.9898652716
0.6123758918 0.4993691102 0.4889487799
0.6224567876 0.2499536206 0.7321915774
0.6224123621 0.4986865188 0.2384516618
0.6120871258 0.4957140067 0.9881067606
0.6224790004 0.4969836398 0.7392182172
0.6125350833 0.246451004 0.4828050977
0.612353679 0.2466708992 0.9841454831
0.6224938089 0.2507232538 0.2360138102
0.6424704941 0.2456283603 0.2388339065
0.6525180707 0.2508960286 0.4918207061
0.6424408771 0.2498835944 0.7426139945
0.6524995601 0.2458757424 0.9827201637
0.6325747047 0.4969836398 0.9888564416
0.6426926218 0.5000170157 0.7431665372
0.6527698155 0.4985674089 0.9933545277
0.6425667494 0.4978265714 0.241873354
0.6524773473 0.4965124358 0.4888118012
0.6325117685 0.2451532296 0.4850911621
0.6324229174 0.2462887004 0.9873015476
0.6624730942 0.0015611673 0.7390136746
0.6726465432 0.4998376964 0.494799994
0.682497907 0.4992820683 0.7432831543
0.6725095644 0.4996956807 0.9898560163
0.6825682475 0.4975536658 0.2431070883
0.6625619453 0.2472690666 0.2369939487
0.6625619453 0.2480557155 0.7390988236
0.6823942474 -0.0021846429 0.2426267371
0.6823609283 -0.0018212922 0.7427074733
0.6624730942 0.5003573297 0.7429175691
0.662524924 0.4963095563 0.2448572695
0.6826496943 0.2499490394 0.2453228122
0.6725169687 0.2491695895 0.4913385039
0.6825423326 0.2465360825 0.7412497602
0.6724614368 0.2474797995 0.9942430385
0.7025412305 0.2502199818 0.2375899914
0.6924788454 0.2484136997 0.4897780567
0.7027337412 0.2499424949 0.7421928774
0.6927231858 0.2509143532 0.9919569742
0.7023746347 0.4977715976 0.7385111107
0.7024782943 -1.0460435209e-04 0.7456488143
0.7026004646 -0.002363635 0.2435559714
0.6925047603 0.5012663608 0.9906334632
0.6924640368 0.4995104714 0.4940928874
0.7125702965 0.248593019 0.4911071208
0.712640637 0.2499006101 0.9902632504
0.7224623838 0.4972781423 0.7426972924
0.7225697455 0.250458856 0.2447193652
0.7326765562 0.5001034031 0.9942245279
0.7324877477 0.2488593801 0.4937124937
0.7224364689 0.4979332468 0.2441038864
0.7325691945 0.499639398 0.4971008668
0.7224994051 0.2525112113 0.7411322176
0.7325099604 0.2487900084 0.994113464
0.7125480838 0.4968128283 0.997945167
0.7624342648 0.499056283 0.7447168035
0.7424723881 -5.3961729049e-04 0.742253037
0.7525532839 0.4989136129 0.9906704845
0.7627119244 0.4988566758 0.2460789719
0.7626045627 0.2480197207 0.2412004921
0.7526495393 0.2496028354 0.4894476417
0.762611967 0.2488973382 0.7394172066
0.7524422201 0.2480380453 0.9894302715
0.7426945158 0.4985045817 0.7440189523
0.7527717095 0.4972441109 0.4916716954
0.7423909413 0.2471735168 0.2433310671
0.7425649413 0.2487252179 0.7436348565
0.7825479287 0.5003160994 0.2414290986
0.7824886947 0.4991243459 0.7427676329
0.7826626947 0.2501407933 0.242638769
0.772641033 0.2474693283 0.4903546632
0.7826812054 0.2511715521 0.7440957715
0.7726521394 0.2467769201 -0.0055727476
0.7925251649 0.500478403 0.4970305264
0.8125944033 0.5003979056 0.5039063045
0.8026245714 0.5012879577 0.7548698908
0.8027208267 0.4998501309 0.2524142393
0.7927472926 0.2490216837 0.4983207181
0.7926769522 0.2479366056 0.9942430385
0.8124722331 2.6574892284e-04 0.4997608461
0.8026097629 0.2501944582 0.2467120359
0.8125573821 0.2516159237 0.506573688
0.8027393374 0.249083202 0.7499210706
0.8127647012 0.252967363 1.0070061264
0.8325414715 6.4546083327e-04 0.5016831763
0.8226308736 0.2498430185 0.2547965589
0.8326007055 0.0017059317 1.0030078276
0.8327043651 0.2496421024 0.5031649532
0.8224346608 0.2497860814 0.7563775826
0.8327339822 0.2522350334 7.4317613878e-04
0.8326266204 0.4987938486 0.510448891
0.8325933013 0.5014450257 1.0020822955
0.8225605332 0.4964934567 0.2587495066
0.8425631332 0.4991557595 0.7537611033
0.8426038567 0.4994515709 0.2548095164
0.8425631332 0.0023535754 0.2494349514
0.8427038141 0.2490517884 0.2485945682
0.8427334312 0.2527461589 0.7569717743
0.8624842865 0.2518672325 0.2569956232
0.8523404545 0.2514686724 0.5058573262
0.8626953078 0.2506106884 0.7479080382
0.8524737311 0.2519510021 0.0044198525
0.892586293 0.5000124346 0.0029191947
0.8726170121 0.0013833532 0.5025513254
0.8824609717 0.247604145 0.2523438988
0.8724911397 0.252077311 0.5050808047
0.8923604632 0.249254668 0.5012620592
0.8826349717 0.2504968141 0.7518711668
0.8724948419 0.2504817618 -0.001112886
0.8925048462 -6.3935547586e-04 0.4951822387
0.8725985015 0.0031357087 0.0053367771
0.892556676 0.2504169712 -0.0018025925
0.8726503313 0.4999568063 0.5025022722
0.892556676 0.501899214 0.5021089211
0.9122705101 0.4982565451 0.5011056443
0.9025191037 0.5011636122 0.7499081131
0.9124630207 0.5012068059 -8.2930292579e-04
0.902556125 0.4993566756 0.2493238875
0.9123963824 0.0026344654 0.5028039957
0.9021933164 0.2514110808 0.2504141643
0.9123926803 -2.4629278471e-04 -2.2372726249e-04
0.9125259569 0.2506381753 0.4987927395
0.9025154016 0.2519097718 0.7480200276
0.9125148505 0.2506525732 -2.5769429114e-04
0.9426168571 0.2523921014 0.7585312959
0.9325766847 0.2500288824 0.0050088611
0.9323101314 0.5013579838 0.5028761872
0.9324656208 0.4988841627 0.0034895076
0.9224143421 0.5015287953 0.7532881564
0.9226994059 0.5039986897 0.2563190592
0.9425909422 0.5004424082 0.757193902
0.9224106399 0.2524725988 0.2490055045
0.9226216613 0.2504038822 0.7524875711
0.9423873251 0.2510013951 0.2617241668
0.9325803868 0.2485818933 0.508389582
0.9724486082 -0.0019122608 0.5059480283
0.9625787337 -0.0019138315 0.761231073
0.9624824784 0.250596945 0.2638797311
0.9525496677 -1.8675062463e-05 0.015121225
0.9725670763 -5.341853552e-04 0.0078451543
0.952527455 0.2507958978 0.5092003482
0.9725892891 0.2479202443 0.5107848591
0.9626564784 0.2507743009 0.7639336268
0.9525496677 0.250105453 0.0126796713
0.9525200507 -0.0010341197 0.5089606353
0.9726522253 0.2489876523 0.0099629569
0.9724152891 0.4970353413 0.5066680923
0.9625491167 -0.0030542761 0.2587430279
0.9527199657 0.5006884814 0.511400338
0.9624861805 0.5000098168 0.7604684346
0.9824961849 0.2503030969 0.2613474752
0.9825813338 -0.0026892239 0.7595752961
0.9924771232 -0.0032183467 0.0170381871
0.9925104424 0.2446741722 0.5186731694
0.9825258019 0.2492409245 0.7614865199
0.9923808679 0.2490648774 0.0153900921
0.9925437615 0.4974234302 0.0099276941
0.0226035413 0.7489658824 0.7702189154
0.0025150889 0.4966564148 0.2673893489
0.0024562991 0.750647819 0.7674052978
0.0123748195 0.498592278 0.5170470094
0.0026088268 0.4960327239 0.7616707008
0.02247082 1.0015770515 0.2727944564
0.0225262038 0.9991621309 0.7726252989
0.0125784366 0.7471268778 0.0184619332
0.0226271239 0.750333683 0.2705028389
0.0025579595 0.7479842073 0.2663527529
0.0126175681 0.7493127409 0.5175301372
0.0526955151 1.0000914499 0.5210814039
0.0525415065 1.0004775754 0.0176054458
0.0325725958 0.7493454634 0.0251938836
0.0425868533 0.750268238 0.2690479024
0.032461532 0.7486255684 0.5218431169
0.0425605682 0.7499671909 0.7741598312
0.0423280745 0.4999149215 0.7761784167
0.0324955915 0.4959600799 0.0234374087
0.0324593107 0.499410995 0.5226779468
0.0423206703 0.9995155339 0.2729129245
0.0523482554 0.4984253932 0.520564957
0.0525681619 0.7491294949 0.0233816917
0.0524559874 0.7492014844 0.5226770213
0.0422695809 0.9985665813 0.7703049899
0.0725374428 0.500282068 0.0142650152
0.0724067576 0.9996398794 0.5152875729
0.0725689109 1.0003139629 0.0117336849
0.0724434087 0.7464724278 0.0162565752
0.0622477469 0.7485993904 0.2628903373
0.0724589577 0.7502747825 0.5134568704
0.062386947 0.7490247829 0.7670776594
0.0924856216 1.0000521829 0.5148174026
0.0924989492 0.751511693 0.0171578584
0.1026346365 0.751119023 0.265246742
0.082354747 0.7493258299 0.2668562424
0.0925992769 0.7499999135 0.5171765839
0.1025028408 0.7490836834 0.7680170745
0.0823143938 0.7500130025 0.7673840106
0.1025572621 0.9996398794 0.7617697327
0.1024847003 0.4974456815 0.7649285738
0.0825839088 0.4989574611 0.765351542
0.0925370812 0.5011668844 0.0175768468
0.0825254152 0.5030111246 0.2670246892
0.1126522259 0.7480169298 0.010774556
0.1226476026 0.7494239974 0.2626358159
0.1125937323 0.7509554105 0.508100816
0.1225539387 0.7480758303 0.7604166048
0.1225802238 0.9989265288 0.2592529961
0.1226387175 1.001112392 0.7588330193
0.1226105813 0.502017015 0.2655068166
0.112480077 0.9989199843 0.5124785829
0.1424621345 0.7494043639 0.256196889
0.1524093835 0.7515836825 0.5022236871
0.1325900388 0.751655672 0.5112513273
0.1424317771 0.7491425839 0.756675604
0.1526548346 0.4997545812 0.5018099742
0.1324090047 1.0006739104 0.0071146318
0.142596892 0.5014227744 0.2550390483
0.1427001814 1.0009487795 0.2536544523
0.1325008175 1.001086214 0.5072835711
0.1424743516 1.001635952 0.7539711991
0.1525308133 1.0001961619 0.0033203203
0.1524167878 0.7530627396 0.0043553429
0.132712209 0.75181274 0.0086789662
0.1724686262 0.750451484 -0.0019241889
0.1624014282 0.7523101221 0.2505705793
0.172332758 0.7515444155 0.4970286753
0.1623832878 0.749993369 0.7482801022
0.1822992581 1.0027943286 0.7490140491
0.1725574772 0.5002729057 -0.0042900434
0.1723842176 0.5011171462 0.5017479636
0.1823851475 0.751537871 0.251425771
0.1823677475 0.7517800175 0.7523922413
0.1724378985 0.9999147484 8.0287296024e-04
0.1625202666 1.0019435435 0.7504439962
0.1825158326 0.5025431928 0.2465778337
0.2025113986 0.5020412297 0.750753124
0.1923771922 0.5037113861 0.5006697186
0.1922998177 0.7554580267 2.4440688163e-04
0.2024943688 0.751223735 0.2518228242
0.1923497964 0.7527158811 0.499296229
0.2023281433 0.7530496506 0.7495508577
0.232331303 0.7521268761 -0.0044128244
0.2324749456 0.5015726434 0.001249905
0.2323916477 0.750098081 0.4998496972
0.2123612816 0.7528140486 -2.150272606e-04
0.2224673519 0.7527747816 0.2493738663
0.2123320348 0.751276091 0.501875687
0.2223873859 0.7484161444 0.7473851126
0.2324194136 0.5004227747 0.4981383883
0.2225276966 0.5003239528 0.7451073781
0.2123731284 0.5010255232 -0.0015466829
0.2224903051 0.4990438485 0.2488074406
0.2125626774 0.5012146593 0.4976996861
0.2524786563 0.7518912741 -0.0012555105
0.2424007222 0.7478205948 0.2475681531
0.2522650435 0.7524410121 0.4967158454
0.2422552285 0.750556196 0.7488909533
0.2422826243 0.5023664913 0.7450037185
0.2622437605 0.4975536658 0.7488456023
0.2623677818 0.7483506994 0.2507038559
0.2423992413 0.4997742147 0.2511740262
0.2623055861 0.7459161452 0.7510844645
0.2622796712 0.4994188484 0.2492461428
0.2522772605 0.5012951566 0.4993823035
0.2724890308 0.9973296708 0.9961681453
0.2824440543 0.4989640056 0.243616131
0.2723627883 0.4985582466 0.4908572272
0.2823007819 0.9987563718 0.2419205561
0.28238445 0.5002375654 0.7416097922
0.2823278074 0.7491753064 0.2436300139
0.2825480841 0.7487957254 0.7453026653
0.2724035117 0.7498755679 0.9980654861
0.2723231755 0.751721117 0.4989926545
0.312436848 0.9974671053 0.4954469409
0.2923857501 0.7526700696 0.9957701665
0.3025099608 0.7527944151 0.2456532271
0.2924801543 0.7519174521 0.4941595257
0.3025373565 0.750268238 0.7461726655
0.3025880757 0.5005359946 0.7409591431
0.2923431756 0.4990556286 0.9902725057
0.302367799 1.0008048004 0.2438725034
0.3123753927 0.751799651 0.9939191023
0.3125475417 0.7524344676 0.4939984832
0.3125468012 0.5024319363 0.4923241956
0.3325793886 0.4997676702 0.4901843653
0.3225488417 0.5021302349 0.7464799422
0.3326674992 0.7532656191 0.991086974
0.3325031247 0.5045111241 0.9879771861
0.3224611013 0.7503794945 0.2413235879
0.332366146 0.750673997 0.4925018977
0.3225643906 0.7499279239 0.7444437715
0.3224392587 0.5027918839 0.2413152581
0.3526367801 0.5011060206 0.4929646638
0.3524394567 0.9996398794 0.494946228
0.3625488589 0.75128918 0.2421732264
0.3625710717 0.7521334206 0.7446233248
0.3625636674 0.5021734286 0.7407851431
0.3625969866 0.5009646594 0.2398538429
0.3525464482 0.751236824 0.9957794218
0.3424440801 0.750961955 0.2397862791
0.3524546354 0.7534488651 0.4911904187
0.3426347397 0.7519828971 0.7403427387
0.3623156248 1.0003597744 0.7440578246
0.3425092375 0.5025569363 0.7441799949
0.3525856908 0.4996564137 0.9939376129
0.3424407481 0.5019142664 0.2470868764
0.3723854142 0.5023102086 0.9938635703
0.3824922249 0.5033527475 0.2416928752
0.3724557547 0.5014875649 0.4936032809
0.3925657165 0.50558704 0.9905038887
0.382436693 0.5017807585 0.7392311747
0.3725186908 0.7519698081 0.9927529318
0.3824774164 0.7526438916 0.2486241852
0.3724483504 0.7501962485 0.4866960348
0.3825033313 1.00244747 0.245000727
0.3821886504 0.7526962476 0.7454276122
0.3926656739 0.7527224256 0.9939561235
0.3926212484 0.7527486036 0.4918225571
0.3923954186 0.5052873018 0.4948397918
0.4024800165 0.504198297 0.7366961422
0.4024207824 0.7518912741 0.2444278226
0.4025540591 0.7533245196 0.7457894952
0.412464657 0.7534226871 0.9935211234
0.4124202314 0.7539069802 0.488202801
0.4225862762 1.0020089885 0.7395069832
0.4427221529 0.9984553248 0.2339461714
0.4323598953 1.0006739104 0.4897502907
0.4426629188 1.001190926 0.7363629506
0.4222234676 0.5049463334 0.7417384412
0.4324450443 0.7507067195 0.9858947388
0.4227787869 0.7543127392 0.2418983434
0.4325450017 0.751734206 0.4830207467
0.4225270421 0.7546072417 0.7390294087
0.4425777699 0.7502093375 0.2301607451
0.4425333443 0.7518912741 0.7381769936
0.422667723 1.001727575 0.2384285235
0.47249467 0.9988545393 0.4828791403
0.472439138 0.5021249993 0.9818501635
0.4624544976 0.5033972501 0.2319710859
0.4725020742 0.7521006981 0.9884492074
0.4623915614 0.7522577661 0.2372003423
0.472350287 0.751341536 0.4857168218
0.4626951359 0.750084992 0.7364166315
0.4526327508 1.0031477316 0.4838453958
0.4626173912 1.0015508735 0.2330511819
0.4627876891 0.9996726019 0.7330578754
0.4524698571 0.7508768765 0.983969632
0.4525290912 0.750595463 0.48543546
0.4524254316 0.5006976437 0.4813418315
0.4924824615 0.5028632189 0.9765746304
0.4924491424 0.5028370409 0.4762365963
0.4825681615 0.4984155765 0.7295565875
0.4826422041 1.001871554 0.7318019284
0.492378802 1.0002550624 0.4824867147
0.4925453977 1.0032328101 0.980165695
0.4924787594 0.750150437 0.4787133203
0.4926860786 0.750543107 0.9782961201
0.4825052253 0.7492080289 0.2331196712
0.4825644594 0.7525980801 0.7305515345
0.5025226339 0.5013808896 0.2224649455
0.5125516999 0.9979775763 0.4752222131
0.5224697021 0.9980561103 0.7294455236
0.502552251 0.9994239109 0.224798212
0.522351234 0.7505889185 0.7287569277
0.5025448467 0.7476242598 0.2264789783
0.5024300807 0.75024206 0.7244763417
0.5124739552 0.7489789714 0.9756305876
0.5124295297 0.4986269638 0.9771947369
0.512292551 0.7479645738 0.4762106814
0.5224882127 0.7497446779 0.2263040527
0.5523940065 0.9979579428 0.4804162994
0.542524132 0.4975693726 0.7311448006
0.5424574937 0.7494305419 0.2309585537
0.5523791979 0.4950065462 0.4781394904
0.5524273256 0.7483506994 0.4808355654
0.5425759618 0.7485143119 0.7296991194
0.5323210659 0.9970286237 0.9749364386
0.5424500894 0.4972172785 0.2303273408
0.5325876192 0.7486779244 0.9765005878
0.5524014107 0.4946335097 0.9819612273
0.5424241745 0.9983440683 0.2294295747
0.5326172362 0.7473952023 0.4787660756
0.5724447342 0.498715969 0.9832384616
0.5625193278 0.9995417119 0.7348441524
0.5524754533 0.750477662 0.9836734617
0.5622638809 0.7480038408 0.2330086074
0.5625748597 0.7494894424 0.730811609
0.5723114576 0.7486713799 0.988060484
0.5723447767 0.4975215977 0.4848958748
0.572496564 0.7487433694 0.4867043646
0.6022912939 0.4977899222 0.2401120664
0.6023431237 0.9992930209 0.2381869596
0.6024319748 0.9955364777 0.7336881628
0.5924510364 0.750739442 0.9909388888
0.5924029088 0.9973034928 0.4861314602
0.5924214194 0.9979317648 0.9893377183
0.6021950385 0.7451569832 0.2423805456
0.5924066109 0.7442734756 0.4910747272
0.6020839747 0.7479645738 0.7414126539
0.5823072044 0.9970940687 0.2355232781
0.5822775874 0.9983244348 0.7353022908
0.5824552896 0.4983723828 0.7387971001
0.5824256725 0.7483441549 0.2388514916
0.5824478853 0.7482590764 0.7379132169
0.6123203599 0.7472185008 0.9915404847
0.612438828 0.9991621309 0.4909395995
0.6125647004 0.7480758303 0.4907433867
0.6222716812 0.9964985192 0.7368581103
0.6224864046 0.7510274 0.2419557263
0.6226492983 0.7474410138 0.7451777185
0.6222975961 0.9958571582 0.2338304799
0.6424519834 0.9994959004 0.7422993136
0.6324155132 0.4977709432 0.4958116006
0.6426259835 0.9988283613 0.2392013428
0.6523366664 0.9973754823 0.4879316201
0.6523329643 0.9984880473 0.9904761228
0.6325006621 0.9986189373 0.4903981632
0.6324488323 0.9978859533 0.9911147399
0.6323414706 0.7485274009 0.991864421
0.6324044068 0.7487237359 0.4872837477
0.6525921133 0.7515182375 0.9949556982
0.6426630048 0.7497643114 0.2436559288
0.6523255601 0.7474475583 0.4932636107
0.6425630473 0.7488611704 0.7414681858
0.6725354793 0.7473297573 0.9942985704
0.6624990091 1.0019828105 0.2396576301
0.6725687985 0.9993061099 0.9893377183
0.6826645028 0.7485470344 0.2449766632
0.6725206708 0.7483899664 0.4954848877
0.6826311837 0.750359861 0.7446529418
0.6724725431 0.9970155347 0.4897678759
0.6625878602 0.7489331599 0.2458910889
0.6622916899 0.7491753064 0.7437699842
0.7026152731 0.5001760471 0.2422102477
0.6925899092 0.9990705079 0.492064121
0.6924640368 0.9988545393 0.9924012296
0.6924825475 0.7485666679 0.991059208
0.7024486773 0.7483179769 0.2429710351
0.6925751007 0.7509423215 0.4960355793
0.7025893582 0.750948866 0.7452693462
0.7124148071 0.5015418843 0.4913607166
0.7125814029 0.7500260915 0.4910488123
0.7225808519 0.9980364768 0.7432961117
0.7325914073 1.0001176279 0.9935396341
0.7324951519 0.7471334223 0.99154974
0.7225586391 0.7502093375 0.2436864714
0.73243962 0.750543107 0.4915115784
0.722469788 0.7478664063 0.7390655044
0.7227252349 1.0005233869 0.239669662
0.732498854 0.9991621309 0.4951683557
0.7126295306 0.7499868245 0.9937432512
0.712585105 0.9984945918 0.4937180469
0.7124666369 0.9967472102 0.9926048466
0.7424649839 0.497805629 0.2440011523
0.7425242179 0.7508114315 0.2405091196
0.7425020052 0.7479580293 0.737671653
0.7524755392 0.7471072443 0.9909944208
0.7626193712 0.9965770532 0.7396476641
0.7524792414 0.9959226032 0.9920032508
0.7623713286 0.7496726884 0.2430811734
0.752642135 0.7499737354 0.4902741419
0.7625083074 0.7475915373 0.7447566014
0.7526051137 0.9979448538 0.4905601313
0.7424649839 0.9992210314 0.2427017052
0.762556435 0.9965835977 0.2424101626
0.7825516309 0.9998820259 0.2455615995
0.7726262245 1.0006150099 0.4938198555
0.7825109074 0.9994173664 0.7404334409
0.7726447351 0.9994369999 0.9925030381
0.7825035032 0.750176615 0.2464658443
0.7724300116 0.7469567208 0.4924667275
0.7825812479 0.7505496515 0.745596059
0.7726558415 0.7478664063 0.9935581447
0.7726854585 0.4982997388 0.4960383559
0.7725595861 0.500549738 0.9955850601
0.7924585266 1.002238046 0.4915097273
0.7925992075 0.7493716414 0.9955943154
0.7926103139 0.9987825498 0.9945669747
0.8125314672 0.7477944168 1.0078668712
0.792440016 0.4993946337 0.9951778259
0.8027097203 1.0016948525 0.2461493124
0.8124463182 0.4990844244 1.0024062318
0.8025542309 0.7489855159 0.2489703342
0.812642531 0.751014311 0.5022421977
0.8027245289 1.0022969465 0.7472897828
0.8025394224 0.750608552 0.7529614436
0.812498148 1.0005233869 0.9996666567
0.7926510373 0.750359861 0.4967611965
0.8227789587 0.9978205083 0.7536157948
0.822671597 0.9991490419 0.2530889522
0.8325970034 0.7515705935 1.0045812322
0.8225938523 0.5032054963 0.7531965288
0.8225790438 0.7496006989 0.2553814952
0.8325970034 0.7465771398 0.5049095813
0.8225642353 0.7492865629 0.7517138263
0.8425668354 0.7510077665 0.2550936547
0.8427334312 0.7515051485 0.7569430828
0.8626804993 0.5026950252 0.7530465925
0.8427593461 1.0010665805 0.7534121777
0.8627360312 1.0002616069 0.2551473356
0.862528712 0.9995875234 0.7572929339
0.8525996035 1.0025456375 0.0063571763
0.8626064567 0.7519698081 0.7526985925
0.8525662843 0.5035340302 0.5043311237
0.8526477312 0.750530018 0.0038749917
0.8527402844 0.5015549733 0.0044682578
0.8624916908 0.502291884 0.2536933246
0.8625398184 0.7493192854 0.2550094313
0.8525625822 0.7500653585 0.5022199849
0.8525329652 1.0017602975 0.5034796341
0.8826349717 1.000994591 0.7488511555
0.892527059 1.002015533 -0.0011515732
0.8826053547 0.7511779235 0.7502709217
0.8725540759 0.7492211179 0.0010319422
0.8926011015 0.751053578 2.6569412029e-04
0.8826386739 0.5007912301 0.7516453369
0.8825202057 0.500510471 0.2488416853
0.8824794823 0.7494894424 0.2533240373
0.8724763312 0.751197557 0.5004290803
0.8924308036 0.7506281855 0.4992518034
0.8727539909 0.4994129583 0.00581139
0.882412844 0.9983767908 0.2498856855
0.9126037016 0.7486255684 0.5017424104
0.9025783378 0.9968519222 0.2487408023
0.9024561675 0.9973820268 0.7486253256