POSCAR file written by Ovito 3.7.11
1
270.0501604446 0.0 0.0
0.0 15.2763439769 0.0
0.0 0.0 10.8020064178
Sr Ti O 
800 800 2400 
Direct
0.0225622573 0.5030413036 0.7761742517
0.0126739832 0.4987948687 0.0237179315
0.0125458959 0.2497856813 0.5254523121
0.0225589246 0.2514117248 0.7796217593
0.0025233875 0.2496325033 0.7735802891
0.0125305284 0.2507806838 0.0254792709
0.0026970589 -0.0015234019 0.275944036
0.0225420018 0.502985662 0.2791323326
0.0127104579 0.0012795593 0.5234165792
0.0027338669 -0.0012144275 0.7743403331
0.0125090509 -2.0810028684e-04 0.0301323879
0.0225905483 0.2530554427 0.2835953923
0.0025235356 0.2479770025 0.2790323511
0.0424390831 0.5001152108 0.2795442931
0.0324283503 0.2493196012 0.5275241494
0.0424935174 0.2528708436 0.78046975
0.0525757184 0.5009969663 0.0310229632
0.032567954 0.2514261262 0.0256066546
0.0325261099 0.0020053874 0.5270260938
0.0326701572 6.1631162867e-04 0.0274776959
0.0425183276 0.2525618691 0.2781445531
0.0525701639 0.2541276888 0.533579506
0.0524842539 0.2515707943 0.0340056498
0.0626919872 0.2502039751 0.2886102014
0.0625671955 0.5006212219 0.7851568421
0.0625675658 0.499945013 0.2868188675
0.0726786504 0.5031211656 0.5392636352
0.0726375469 0.2540419353 0.5355476588
0.0624038926 0.2517108802 0.7852318282
0.0725397873 0.2518319825 0.0375412893
0.0625883027 5.1340742578e-04 0.2848266451
0.0626231111 0.0010368966 0.7825582508
0.1025486567 0.0010463884 0.2798164647
0.0924968204 0.248767113 0.5337415129
0.0822990853 0.0013642655 0.2855533619
0.102606794 0.2497791353 0.7799513277
0.0825042324 0.2501961198 0.7880276051
0.0924064668 0.2510890036 0.0295309256
0.0823361155 -6.2855429139e-04 0.786064081
0.0923672149 0.0032441001 0.0338442909
0.102561247 0.251599597 0.2828047984
0.0825268208 0.2509698652 0.2865133687
0.1026453054 0.5000405856 0.2767392586
0.0925023749 0.4998605687 0.5377740971
0.112401641 -0.0020367446 0.0284368696
0.1223483117 0.2471836189 0.2755579966
0.1125016225 0.2487874058 0.5264891565
0.122600487 0.5015605828 0.7758048758
0.1124090471 0.4998520588 0.0266063763
0.1224031163 0.2466769532 0.7749855836
0.112545318 0.2500036654 0.0273889161
0.1125319872 0.4964533399 0.5328814875
0.1523575514 0.2489124357 0.5144302857
0.1324301424 0.2474212412 0.5225917325
0.1425649262 0.2482211709 0.7702651643
0.1524579031 0.2502242679 0.0169391908
0.1324945748 0.2495539505 0.0244640891
0.1422535026 0.2488214454 0.2700238396
0.1423405235 0.4986194341 0.7733266326
0.152424576 0.4975661716 0.0189448367
0.1324934639 0.4986560921 0.0242544984
0.1324312533 0.5006997748 0.5251579224
0.1522834911 -0.0021666841 0.5165058261
0.1823419809 0.249737895 0.7604725391
0.1822682909 0.2495179471 0.2603015717
0.1621983158 0.4997139368 0.7666741647
0.1624393821 0.5021785317 0.2608607271
0.1725371358 0.2486735042 0.5110466551
0.1823071725 0.5021870416 0.7594338432
0.1622923724 0.2506680914 0.7657039746
0.1724323404 0.2518424562 0.0099816871
0.1625138127 -2.4973328496e-04 0.2624706132
0.1624182749 0.2484031516 0.2628390632
0.1725308406 -0.0028093771 0.5103051262
0.1824149303 0.0015038276 0.2590499524
0.2023567811 0.2492875255 0.2625946642
0.1923986311 0.4995293376 0.0088910564
0.2022886456 0.5023264729 0.2555968902
0.192313832 0.2502759819 0.5100181424
0.2023808507 0.2499218396 0.7583794094
0.1923253114 0.2525756159 0.0089378069
0.1923560464 -7.0514329736e-04 0.5114891655
0.2023867755 -9.0892242179e-04 0.7602012932
0.1924963907 4.0133872645e-04 0.0097977398
0.2023434502 -0.0016841734 0.2628622071
0.2125160048 0.2499414778 0.5081360847
0.2222282745 0.2510444904 0.7628072905
0.2123341867 0.2478035317 0.0109424345
0.2225256267 2.6314439969e-05 0.2628557268
0.2122864178 -0.0017298649 0.5103032747
0.2126319092 4.3282531779e-04 0.0076843361
0.2224356434 -6.496980939e-04 0.7619046804
0.2323956449 0.0014394798 0.5101986645
0.2223182578 0.2529932551 0.2612180681
0.2323586148 0.2520853153 0.5106578384
0.2323001071 0.2526332213 0.0083906864
0.2323852765 0.0018585591 1.0102844625
0.2524378474 0.2543836401 0.5035665632
0.2425959721 0.2487527117 0.7633608914
0.2623900726 0.250760391 0.2544119251
0.2525096859 0.2548673946 1.0052668762
0.2424274849 0.2470238949 0.2573521196
0.2424126728 -0.0011771149 0.2569355304
0.2524945036 0.5020260083 1.0002955775
0.252442291 0.0015455916 0.503511018
0.2422897327 -4.2274588562e-04 0.7534025563
0.2625848512 0.2489713504 0.7515695635
0.2521990029 0.0033256641 1.0067295674
0.2623219371 0.0026835602 0.2548377719
0.2624611705 0.001785505 0.748749717
0.27246783 0.2529657616 0.4986693249
0.2723571098 0.2507846114 1.0007399394
0.2724463525 0.0012622777 0.5023325332
0.2725448527 0.5017072148 0.9976294062
0.2824981887 0.2501470243 0.7513807097
0.2825478092 -1.5599357851e-04 0.7557187926
0.2826222398 0.2489792056 0.2531019833
0.3025063235 0.2486394647 0.2439509056
0.3124881728 0.2509070229 0.4918483699
0.3125303872 0.2504684363 0.9901030266
0.3124100391 -3.5532137609e-04 0.9957593832
0.2924574496 0.251183267 0.4997385707
0.3024629982 0.2515609752 0.745988193
0.2926459331 0.499090751 0.4965058379
0.3025985286 0.4980558175 0.2423595346
0.2924792974 0.2533598349 0.9975090581
0.3024274493 0.001106154 0.7463020235
0.2924489327 -0.0014754847 0.4992951346
0.3125455695 0.5016096783 0.9934542559
0.2924607823 0.0019761265 0.9996290347
0.322478539 0.2494354666 0.2394489642
0.3323537414 0.2487298004 0.4935156527
0.3224781687 0.2525297934 0.7416278919
0.3322793108 0.253044969 0.9895846044
0.3225233455 0.0022077264 0.2419771982
0.3323015289 -0.002071177 0.4935665692
0.3223907775 9.3726538615e-04 0.7429628291
0.3325333377 0.0022572802 0.9924914718
0.3626047881 0.2527484321 0.236522656
0.3524966659 0.2521520852 0.4884925118
0.3425466626 0.2498655434 0.738117433
0.3524496376 6.7162591076e-04 0.98971421
0.3521878344 0.2507577726 0.9838541875
0.3427518097 -7.2118116613e-04 0.2410301519
0.3423718803 -0.0012396298 0.7385145814
0.342596283 0.249716293 0.2393591661
0.3624011222 0.2514392183 0.7384590362
0.3626121941 4.5324905272e-04 0.2340138628
0.3724362949 0.2471456517 0.4848904033
0.3824603586 0.2487081984 0.73031055
0.3723585316 0.2503957749 0.9823914963
0.3824751706 -0.0027271585 0.7290135687
0.3824677646 0.2478074593 0.2320966264
0.3925955127 -0.0032506476 0.4837146957
0.3925844037 -0.0020510805 0.9838171574
0.3724770281 -0.0021084241 0.4886480385
0.3724362949 -0.001417552 0.9813824245
0.3925436705 0.2477753836 0.4777713555
0.3924436891 0.247146961 0.9758371584
0.4124177561 -0.0034324974 0.4717474746
0.4025936553 0.2487461656 0.7250143117
0.4025492191 -0.0023864356 0.2303089955
0.4026417945 -0.005044336 0.7267676897
0.4024048015 0.4995974168 0.2283102928
0.4024677527 0.2487527117 0.2245035926
0.4124436772 0.2502746727 0.4713669897
0.4123807259 0.2482820493 0.9775775758
0.4123288837 -0.0049781159 0.9746614509
0.4122807445 0.4978888928 0.9763092929
0.4124214591 0.5007069754 0.4777667267
0.4224121956 0.2483265626 0.2235843189
0.4426158496 0.251045145 0.7160567166
0.4322585145 0.497145914 0.9735783188
0.432380714 0.4957712395 0.4685869506
0.4423122023 0.2478735746 0.2208857462
0.4221937177 0.4978201591 0.2254136087
0.4422640631 0.499145738 0.7210548621
0.4324029321 0.2470022928 0.4697302567
0.4224640378 0.2515753766 0.7211863191
0.4325510528 0.2504808738 0.970578876
0.4421937058 0.4966739424 0.223192725
0.4322770296 -0.0019173443 0.9702733772
0.4524436534 0.0010680558 0.9710324955
0.4723769872 0.2489648043 0.4635656612
0.4623307055 0.247526633 0.7141274454
0.4724436415 0.2510981681 0.9643670671
0.4624306869 0.2478938674 0.2160690484
0.4523103448 0.497492201 0.9730784117
0.4623677356 0.499142465 0.7211548435
0.4724140174 0.4990468924 0.465267197
0.4522992358 0.2466416044 0.4693321825
0.4523918112 0.2477845481 0.9678201293
0.4724066114 -4.5390517351e-04 0.9633672528
0.4824825173 -9.8531504569e-04 0.2120494248
0.482426972 0.2495866808 0.7124962669
0.4823788328 0.2490878704 0.2126317241
0.4924103025 0.2517318276 0.4579537409
0.492291806 0.2478624463 0.9588680887
0.4823529117 0.4979471528 0.2142823433
0.5025232385 0.250497239 0.2143971368
0.5123177152 0.0029808826 0.9642559766
0.5225343357 0.0045474224 0.2113569609
0.5023751179 0.2496822534 0.7106392045
0.502401039 0.5009020483 0.7088719402
0.5125880354 0.24823099 0.4625676985
0.5025010204 -2.5634481453e-04 0.7124518307
0.5224084332 0.2547554568 0.2135315569
0.5125695203 0.2518280548 0.9587662558
0.5223936211 0.2524041089 0.707939706
0.5126139565 0.5011881115 0.459984845
0.5226417232 0.4990521292 0.2128261324
0.5225380387 0.503653361 0.7102901953
0.552451 0.2521514306 0.4651422202
0.5524658121 0.0014434074 0.9609973228
0.5324547149 0.5010080946 0.9595809192
0.5324287938 0.5030131555 0.4634240209
0.5323806546 0.0035519617 0.465511596
0.5326731929 0.2513240075 0.4609504064
0.5325361813 0.2500259221 0.9615805477
0.5424010153 0.0031256817 0.7085747732
0.54257876 0.2503008569 0.2145184106
0.5425380268 0.2510405627 0.7152661227
0.5523658307 0.2514470736 0.965413169
0.5623898943 0.5013157598 0.7165362571
0.5624935788 0.5019297811 0.215498784
0.5624380335 0.0015386527 0.2071475577
0.5626824326 0.2509646283 0.214430464
0.5624639546 0.2512578922 0.7143172249
0.5724583942 8.3089176676e-04 0.4633638469
0.5723287886 8.8077281167e-04 0.9677645841
0.5725694847 0.2530325315 0.4657245194
0.5724843153 0.2506831474 0.9649873222
0.5922843406 0.5034288309 0.9718286439
0.5824417247 0.2511780302 0.7180609738
0.6024120887 0.2514549289 0.2207422543
0.592384322 0.2467836541 0.4666400901
0.6023676525 0.2518123443 0.7205151475
0.5923658069 0.249394881 0.9704492705
0.602500961 0.5022099529 0.7257336225
0.5823232282 0.2459948528 0.2197711384
0.5924028371 0.503343732 0.4709383656
0.5823602583 0.4995974168 0.2217902078
0.6126138971 0.0011873907 0.9733191077
0.6124879945 0.4995051172 0.4764641909
0.6225898215 0.2525036091 0.7213557321
0.6225416823 0.5005629619 0.2231973538
0.6125435398 0.5017844584 0.9764111259
0.6225490884 0.4988269445 0.7254336782
0.6124398553 0.2484155891 0.4712503447
0.6127731268 0.2514025603 0.9703752102
0.6226120396 0.2491513673 0.2297702067
0.6424639071 0.2528420409 0.2254932235
0.6526620125 0.2487180175 0.4819372482
0.6425898096 0.2497149838 0.72590859
0.6524398316 0.2492855617 0.9823452086
0.6325064977 0.5013085592 0.9736801517
0.6425305614 0.5022158443 0.7295384712
0.6526212793 0.5016450271 0.9784570421
0.6423602227 0.5026871613 0.2259681353
0.6524879708 0.5019323995 0.4789711326
0.6324731706 0.2487841328 0.4726630452
0.6324805766 0.2479920585 0.9724766716
0.66264164 -5.6584295147e-04 0.7340385611
0.672502771 0.5014761385 0.4867113613
0.6823972291 0.4993467023 0.7360020852
0.672502771 0.4971360949 0.9821508003
0.6824490713 0.5029188921 0.2375817185
0.662419459 0.2504874199 0.2336130113
0.662634234 0.2502897286 0.7346893661
0.682608301 0.0015258879 0.2401238388
0.6825675678 -0.0013920223 0.7375434655
0.6624564892 0.5014630464 0.7306919606
0.662404647 0.5008863377 0.2345433941
0.6826453311 0.2498871454 0.2362921432
0.6724731468 0.253856027 0.484526582
0.6824342592 0.2503970842 0.738256296
0.6725509102 0.2496894541 0.9889828644
0.7024860896 0.2491009625 0.243276031
0.6924731349 0.2513010963 0.4908374466
0.7024823865 0.2519831967 0.7389691266
0.6925916314 0.2489392746 0.991602748
0.7025083077 0.4997113184 0.7447356479
0.7025638529 -1.0820727564e-04 0.7423675693
0.7025305257 0.0015455261 0.2394832171
0.6926064435 0.5006015837 0.988769941
0.6925620073 0.5026668685 0.4899450198
0.7126064316 0.2502818733 0.4918131912
0.7124101718 0.2491840976 0.9897697552
0.7225231078 0.499445548 0.7392125999
0.722319442 0.248956949 0.2404210058
0.7325582805 0.4973652073 0.9892791056
0.7325286564 0.2510006317 0.4892534816
0.7225971681 0.4979681002 0.2386102311
0.7325323594 0.498441381 0.4945275018
0.722571247 0.2467744896 0.7424370008
0.7324805172 0.2488011526 0.9920471099
0.7124879351 0.499960069 0.9919082468
0.7624860539 0.4964009713 0.7446689936
0.7424157085 -1.5186955511e-04 0.7473527543
0.7525656747 0.5001256845 0.9940097083
0.7626415806 0.498233216 0.2429001749
0.7625712233 0.2501516066 0.2447850099
0.7524953174 0.2499002375 0.4943691978
0.7625267871 0.2499048198 0.7457493484
0.7525730807 0.2502746727 0.9934542559
0.7427489799 0.497740297 0.7410752168
0.7524953174 0.5002860632 0.4967076523
0.7425638291 0.2486217903 0.2391443911
0.7424601447 0.2490034261 0.7406817714
0.7825193692 0.5010670092 0.2483556428
0.7826008355 0.4995378475 0.7469093181
0.7826045385 0.2498832178 0.2467050236
0.7725434447 0.2503113307 0.4928000449
0.7825638054 0.2481720753 0.7495393851
0.7724693844 0.2487795505 -0.0085060635
0.7924175303 0.4970660519 0.4995015777
0.8125360149 0.4991064616 0.505738382
0.8023786427 0.5001623425 0.752707315
0.8027267262 0.4988865137 0.2550164424
0.7926619293 0.2457212272 0.4987544943
0.7924878876 0.2502452154 0.9960371094
0.8125841541 0.0011998282 0.5027120923
0.8024860301 0.2502550345 0.2500719906
0.81255453 0.2510785299 0.5004689906
0.802452703 0.2503447156 0.7542459181
0.812550827 0.248534073 1.0017675263
0.8326433905 -6.2744145968e-04 0.5064021476
0.8224823152 0.2480686475 0.2551469737
0.8326174694 0.0010791842 1.0070072936
0.8326063603 0.2471070299 0.5059383448
0.8225897027 0.2481504733 0.751571415
0.8324175065 0.2494125554 0.0058761535
0.8325137849 0.4983111142 0.5043145724
0.8325952513 0.5000576054 1.0118397291
0.8225563756 0.5007953474 0.2548960944
0.842389728 0.4990599845 0.7576351033
0.8423008556 0.5007704723 0.2603895183
0.8424600853 -0.0025351623 0.257610405
0.8426007999 0.2483966055 0.2557764864
0.8424489762 0.2483880956 0.7548430294
0.8626637393 0.2490322288 0.2555681918
0.852506367 0.2490348472 0.5027130181
0.8624896975 0.2499715897 0.7538645075
0.8525619123 0.2487114714 0.0057628412
0.8924285799 0.5014080594 0.0131346198
0.8726285547 -7.5346009832e-05 0.5100551726
0.8828229571 0.2480188973 0.2591869639
0.872698912 0.2504776008 0.5024260344
0.8924804222 0.2479999137 0.5130092534
0.8825044977 0.2493785158 0.7649781835
0.8724915431 0.2488783962 0.009769134
0.8926507609 8.382888246e-04 0.5166067332
0.8727211301 -0.0028290153 0.0121079587
0.8925063433 0.2499166027 0.0106511923
0.8724100767 0.4978686 0.506400296
0.8926100277 0.4994095446 0.5107929985
0.9125989068 0.499007616 0.5107467108
0.9026155763 0.5003718167 0.7615130865
0.9125618766 0.5012974309 0.014865502
0.9026118733 0.5009668544 0.2563060177
0.9125026284 -0.0027678096 0.5150579469
0.9025785461 0.2481766576 0.2622160308
0.9125544706 0.0018359752 0.0127748719
0.9125989068 0.2485262177 0.5132638358
0.9024785647 0.2493955356 0.7645597427
0.9125322525 0.2506510716 0.014152116
0.9425229771 0.2486695766 0.7665121578
0.9327247974 0.2482611019 0.0138788334
0.9324581803 0.4966052087 0.5173232668
0.932628519 0.4993244457 0.0119921469
0.9225378011 0.4994678046 0.763098903
0.9226155644 0.5008104033 0.2669836636
0.9427747822 0.5011036672 0.762101866
0.9227229519 0.2498766717 0.2672262111
0.9224859589 0.2503414426 0.7673268213
0.9425488982 0.2476451168 0.2638870167
0.9325877858 0.2511236978 0.5139618542
0.9725840591 -0.0015220927 0.5270001727
0.9623637356 0.0016619152 0.7712149878
0.9626488678 0.2510248522 0.2719993985
0.9526099921 3.892939597e-04 0.0235211162
0.9725285138 2.7087557355e-04 0.0274724191
0.9526099921 0.2489104719 0.5178092876
0.9726988526 0.2509849211 0.5208031758
0.9624414989 0.2477393802 0.7707678487
0.9525544468 0.2512264711 0.0196889577
0.9525359317 -9.7006270518e-04 0.5197691087
0.97257295 0.2503132945 0.021766905
0.9726470103 0.4998874076 0.5165317472
0.9625081532 -8.4084330537e-04 0.2648618356
0.9525174167 0.5008261139 0.5135100863
0.962711819 0.4979360245 0.7690681644
0.9825007353 0.2498157932 0.2745230037
0.9826377468 -0.0016721941 0.767681385
0.9926544045 -0.0021939157 0.0246267441
0.9926544045 0.2498406683 0.5261818062
0.9825710926 0.2481039962 0.7744884537
0.992772901 0.2512559284 0.0224249309
0.9926618105 0.5033326037 0.0217698674
0.0226004724 0.7512184856 0.7739820663
0.0025342373 0.5007704723 0.2749294097
0.0026988364 0.7516505262 0.7767056344
0.0125717429 0.500394728 0.526999247
0.0025435689 0.5009517984 0.7729933611
0.022768256 0.9995108785 0.2767420359
0.0227258935 1.0007153552 0.7795356642
0.0127643738 0.7501842068 0.0255234294
0.022393659 0.7521807578 0.2773641425
0.0026241465 0.7500598314 0.2722650898
0.0125193082 0.7497587123 0.5236600525
0.0524957333 1.0001131168 0.5305587709
0.0525390586 1.0015074295 0.0294953766
0.0326549748 0.7487047952 0.0197894946
0.0425653559 0.7497783505 0.2741962126
0.0326594185 0.7537779986 0.5236980084
0.0427601345 0.7494052246 0.7743773633
0.0425453596 0.5014892307 0.7756095418
0.0326934862 0.501087302 0.0242721803
0.0326646027 0.5026308651 0.5253338156
0.0426275666 1.0040473042 0.2757264838
0.0524320414 0.5034137749 0.534523775
0.0525386883 0.7503151281 0.0277311674
0.0524675904 0.7524098702 0.5254736045
0.0427708733 1.0044531605 0.7730544609
0.0724975729 0.5006788273 0.039539344
0.0725868156 1.0039687514 0.5364354569
0.0724201799 1.001081935 0.0367132024
0.0725968137 0.7521742117 0.0355187947
0.0626090396 0.7495165077 0.2873548791
0.0724916481 0.751918915 0.5390710783
0.0626368122 0.7498110808 0.7798152419
0.092524593 0.9991181144 0.5300394229
0.0926027267 0.7524098702 0.032051013
0.1023812804 0.7471075544 0.2827659168
0.0826208774 0.7510482878 0.2849423643
0.0926068 0.7471271926 0.5365187747
0.1025312525 0.74916302 0.7847078515
0.0825671837 0.7513428609 0.7855104802
0.1025590251 1.0009641058 0.7775573281
0.1024982957 0.4999515591 0.7820925966
0.0826649433 0.4991005701 0.7888867048
0.0922579759 0.5003207574 0.0362613419
0.0826012514 0.4985880129 0.2886472316
0.1126093802 0.7491433818 0.0269707531
0.1223827497 0.7496932516 0.2741897323
0.1126171566 0.7499943708 0.5277963211
0.1224264453 0.7498569033 0.7732831221
0.1225886374 0.9986926199 0.268889791
0.1224842123 0.9997138066 0.7744643841
0.1224201502 0.4989415007 0.276647609
0.1126989932 0.9993799571 0.5287591052
0.1424549466 0.751349407 0.2691369673
0.1522934892 0.7479192669 0.5123723347
0.1322953526 0.748305485 0.5228148392
0.1422179536 0.7534245109 0.769957814
0.1522227616 0.4998389667 0.5164243597
0.1324664319 0.999936373 0.0180977719
0.1421787017 0.5002055466 0.2714994913
0.1424482812 0.9996287077 0.2705181922
0.1323660802 0.9982343951 0.5200940483
0.142357187 0.9975405118 0.7723258925
0.1524360553 0.9995501549 0.0153321745
0.1524608655 0.7500467393 0.0146104568
0.1324593962 0.7506162473 0.0221984915
0.1724578912 0.7465380464 0.0107387686
0.162474931 0.7507471687 0.2647192695
0.1726545214 0.7512774003 0.5089331588
0.1623760605 0.7515261509 0.762207402
0.1822486649 1.0006433484 0.7584312517
0.1722916258 0.4964199549 0.0104515998
0.1724841826 0.4998415851 0.5115049033
0.182511579 0.751637434 0.261906829
0.1824249284 0.7496801595 0.758572892
0.1723605019 0.9992883121 0.0123537464
0.1625004818 0.9994323257 0.7612825738
0.1823953043 0.4999587598 0.2571493795
0.2024312117 0.4990527838 0.7577739664
0.1923486404 0.499984944 0.5081221984
0.1924134432 0.7471271926 0.0081154597
0.2023597435 0.7508257215 0.2619447849
0.1923327174 0.750963189 0.5101495995
0.2025104562 0.7475723253 0.757677688
0.2324208254 0.7523640477 0.0086632283
0.2325711679 0.4989644119 0.013659152
0.2325063651 0.7492481189 0.5084804651
0.2123186341 0.7491171975 0.0085829654
0.2223978727 0.7495034156 0.2576548412
0.2123941756 0.750583517 0.5078574327
0.22245601 0.7493397639 0.7644329144
0.2324993294 0.5028697966 0.5133999216
0.2224212017 0.5012385162 0.7641783321
0.212397138 0.503215429 0.0141849803
0.2223178875 0.5040984937 0.2609681145
0.2125278545 0.4985304075 0.5125204553
0.252492652 0.7520629285 0.0045582502
0.242530799 0.7497456201 0.2570808737
0.2522638057 0.7509828272 0.5024963917
0.2425952315 0.7508780901 0.7564436579
0.2423430561 0.5014060956 0.7589311588
0.2626792781 0.5022767228 0.7488496984
0.262353783 0.7513428609 0.2546535469
0.242582271 0.5011815654 0.2571790036
0.2623785932 0.7500074629 0.7515371621
0.2624578378 0.5012358978 0.249637812
0.2525656015 0.499938467 0.5062373634
0.272365997 0.9986729817 1.0026099624
0.282394134 0.5007344689 0.2463495341
0.272491159 0.5039675724 0.4986184084
0.2823019289 1.0016121666 0.2539009089
0.2826140931 0.5000608784 0.7470592903
0.2822315716 0.7504656877 0.250401559
0.2823174816 0.7529466478 0.7539209785
0.2725174504 0.7487571637 1.0008788025
0.2722267636 0.7543409605 0.5014447352
0.312559641 0.9993995953 0.4977269074
0.2925485438 0.75390892 1.0013231644
0.3024474455 0.7520498364 0.2483500883
0.2923841299 0.7538565514 0.498811891
0.3024348553 0.7552181337 0.7471194643
0.302427079 0.5034307947 0.7425777154
0.292535213 0.4990063067 0.9911583861
0.3025163216 1.0038836525 0.2460912487
0.3123359788 0.7524622387 0.9942689194
0.3125081691 0.7511857553 0.4957476455
0.312606299 0.4999685789 0.4909383537
0.3325385219 0.4988766946 0.4883323564
0.3224152174 0.5004215668 0.7354420041
0.3323056022 0.7515326969 0.9886866231
0.3326088792 0.4998579503 0.9876868088
0.3224470634 0.7495688763 0.2398599989
0.3323963261 0.7511006564 0.4907837528
0.3224207719 0.7491564739 0.7379322822
0.3225070522 0.5013412895 0.2382723309
0.3526159031 0.5022577392 0.4852495958
0.35253851 0.9999494651 0.483608234
0.3623752011 0.7503544045 0.2340221946
0.3622604076 0.7476181478 0.7353364681
0.3625085097 0.4998671148 0.7389830129
0.3624566674 0.5037541705 0.240574681
0.3523152182 0.7505376945 0.9884736997
0.3423122617 0.748783348 0.2412125254
0.3524903708 0.749542692 0.4844914033
0.3425096324 0.7504984181 0.7334414498
0.3624714795 0.9985355142 0.7368880317
0.3424922283 0.5032730344 0.734132988
0.3524551922 0.5005668896 0.9849558347
0.3424877847 0.502354621 0.2404173028
0.372458513 0.4996131273 0.9798919607
0.3823714862 0.4972277398 0.2304395268
0.3725510884 0.5028004083 0.4857513544
0.3925177494 0.497164243 0.9791883877
0.3824899827 0.4994082354 0.7270537476
0.3724325919 0.7488553548 0.9845577605
0.3824233284 0.7464725857 0.2348211202
0.3723177984 0.7483447614 0.4837341366
0.3825973702 0.9976321567 0.2347674265
0.3824381405 0.7457983406 0.7339913476
0.3923214895 0.7479650894 0.9771980167
0.3925288584 0.7473170286 0.4802662623
0.3923177865 0.4982338706 0.4812336752
0.4023973954 0.4989866685 0.7232100173
0.4024677527 0.748305485 0.2330427469
0.4024751588 0.7463809407 0.7292107543
0.4124473802 0.7473890353 0.9795586892
0.4125621737 0.7471991993 0.475967061
0.4224788499 0.9993144964 0.7227091844
0.4422825782 0.9986009749 0.2179270366
0.4325547558 1.0018085487 0.4702190548
0.4422677661 0.9998185437 0.7181192963
0.4223788685 0.4985624833 0.7273037012
0.4324362593 0.7511006564 0.9733191077
0.4223751654 0.749824173 0.2242749314
0.4325251316 0.7516636183 0.4697617324
0.4224640378 0.7488357166 0.7253281423
0.4423751536 0.7505246023 0.2169401829
0.4423973717 0.7512970385 0.7225980939
0.4222418569 0.9990984761 0.2240416414
0.4725399199 1.001075389 0.4627250767
0.4723510661 0.5020888506 0.9654872294
0.4623492206 0.4992275639 0.2147396658
0.4725214049 0.7493135796 0.963043239
0.4623751417 0.7524949691 0.2157626239
0.4722881149 0.7476312399 0.4647571066
0.4622418331 0.7520629285 0.7145977284
0.4524621685 1.0056249068 0.4682490504
0.462441796 1.0005189731 0.2125771046
0.462441796 0.9977827163 0.7208511962
0.452354781 0.7492284807 0.9644318699
0.4525621499 0.7527306276 0.4700598251
0.4522399875 0.4988118885 0.4694367927
0.4923473512 0.499901809 0.9661259996
0.4925769382 0.4999103189 0.4610827892
0.4824380811 0.4995738509 0.7083331514
0.4824936263 0.9988366334 0.7113668471
0.4924251146 0.9983391322 0.4617956197
0.4923547573 0.9989806469 0.9629228909
0.4925584231 0.7470093633 0.464149812
0.4925658292 0.7496605212 0.9606733089
0.4823343966 0.7526651669 0.2154626796
0.4824973293 0.7496670673 0.7149291483
0.5025491597 0.4965567678 0.2115161906
0.5124251027 1.0030130253 0.4645330741
0.5225158206 0.9992621279 0.7142320556
0.5023751179 0.9943722144 0.2098757546
0.5224454633 0.7510941103 0.7158400901
0.5024565843 0.7513232227 0.217853902
0.5023158697 0.7506751619 0.7130757889
0.5123695574 0.7493332178 0.9642189465
0.5123362303 0.5007390512 0.9611639585
0.5125991444 0.7507144383 0.4612179493
0.5222232824 0.7506293394 0.2129724015
0.5525509815 1.0026071691 0.4645913966
0.542582463 0.5021811502 0.7157975055
0.5425565419 0.7498830876 0.2112875293
0.5523991578 0.4993944886 0.4626676799
0.5524658121 0.7509370047 0.4628259838
0.5424676695 0.7520367443 0.7175666212
0.5324287938 0.9989544626 0.9613028216
0.5424195303 0.5039204407 0.2154200949
0.5324510119 0.7529335557 0.9625896195
0.5524843272 0.5023938974 0.9682459761
0.542330658 1.0041062188 0.2106108032
0.5324917451 0.7511661171 0.4633323713
0.5724287701 0.4974941648 0.9687736558
0.5624417365 1.0034974344 0.7118917496
0.5526991021 0.754766455 0.9620156521
0.5624158154 0.7540202031 0.2152479047
0.562541718 0.7526978972 0.7158391644
0.5725768907 0.7489993683 0.9662000599
0.5724509881 0.4990560569 0.466557698
0.5724732062 0.751630888 0.4675880621
0.6025676153 0.4979137678 0.2220549734
0.6026712998 1.000793908 0.2182186491
0.6025157731 1.001271771 0.7193829505
0.592395431 0.7479389051 0.9727636553
0.5925509577 0.9997923595 0.4693460688
0.5925842848 1.0024893398 0.9669776932
0.6026379726 0.7525669758 0.2233195533
0.5924250552 0.7509239125 0.4731296252
0.6025305852 0.7501645686 0.7208058343
0.5823602583 1.001743088 0.2142878979
0.5823787734 0.999465056 0.7148560137
0.5824972699 0.5019723306 0.7223962795
0.5825713302 0.7487178873 0.2168883407
0.5825861423 0.7496605212 0.714580139
0.6126287091 0.750590063 0.9716620081
0.612595382 1.0000411101 0.4677019298
0.6125324307 0.7517487172 0.4739979824
0.6224009677 1.0023715106 0.7201494747
0.6223565315 0.7512970385 0.2234871148
0.6226268517 0.7478668984 0.720675303
0.6225676034 1.0014812452 0.2221827274
0.6423898468 0.9994846942 0.7301226219
0.6324990917 0.500394728 0.4777833903
0.6423194895 0.9992817661 0.2243471402
0.6527323698 0.9989348244 0.4763577292
0.6524953768 0.9964407722 0.9801511718
0.6324916857 1.0023846027 0.4743488431
0.632565746 0.9999298269 0.9758927036
0.63255834 0.7483578535 0.9726340498
0.6326175882 0.749922364 0.4742433072
0.6523361471 0.7477425231 0.9807066241
0.6423565197 0.7486917031 0.2278538961
0.6523842863 0.7451633719 0.4809244734
0.6423417076 0.7496867055 0.7241089243
0.6725620192 0.7513559531 0.9847706839
0.6626083128 0.9972066622 0.2347035495
0.6725323951 0.9992359436 0.9852983637
0.6824712894 0.7531823063 0.2358366723
0.6726805157 0.7515065127 0.4875389853
0.68261941 0.7491826582 0.7401115069
0.6723731654 0.9995108785 0.4896969177
0.6625083314 0.7513101306 0.2353163986
0.6626305309 0.7504133192 0.7323074012
0.7026823494 0.5000288027 0.2406857714
0.6924583229 0.9997334448 0.4873788298
0.692495353 1.0036218098 0.9924822142
0.6925212742 0.751729079 0.989732725
0.7026045861 0.7504853259 0.2441730865
0.6926212556 0.7487571637 0.4934739938
0.7024305443 0.7520891128 0.7458113739
0.7125471834 0.4967989723 0.4928815113
0.7125805105 0.7473759432 0.4929787154
0.7226934466 1.0028428276 0.7414945833
0.7326212318 0.9985878828 0.9916768083
0.7324027539 0.7507668069 0.9879737926
0.7225082958 0.7500532854 0.2404098968
0.7323879418 0.7490844672 0.4839100298
0.7225008897 0.7493135796 0.7397911961
0.7225971681 0.9980314669 0.2422577016
0.7325508745 0.9986598895 0.4958050422
0.7123990627 0.7493986785 0.9941485713
0.7126249467 1.003078486 0.4928250403
0.7125101532 1.0001458472 0.9931117269
0.742545314 0.49821816 0.2427279846
0.7425156899 0.7471010083 0.2404867343
0.7424453326 0.7499158179 0.7401244675
0.7524471782 0.7469373566 0.9924636992
0.7625712233 0.9989217323 0.7415343907
0.7525508626 0.9989610087 0.9961759725
0.7625675203 0.7490386447 0.2405598689
0.752406445 0.7457459721 0.4886906232
0.7626637987 0.749064829 0.743286843
0.752628626 0.9991966672 0.4930916574
0.7427008407 0.9972263004 0.244273068
0.762515678 0.9999101887 0.244743351
0.7825341812 0.9997399909 0.2475067265
0.7725323357 0.9971935701 0.4993062436
0.7825638054 0.9992686739 0.747526796
0.7725434447 0.998607521 0.998536645
0.7825526963 0.7508846361 0.2472215943
0.7723323728 0.7482203861 0.4906930289
0.7825341812 0.7506097012 0.7441033579
0.772384215 0.7491237436 0.9921026551
0.7726841593 0.4979091856 0.4954254831
0.7725693658 0.5010702823 0.9974072252
0.7924027182 1.0004011439 0.5004217771
0.7928544862 0.7509500968 0.9961389423
0.7924138273 0.9994912403 1.0012213314
0.8125286089 0.749352856 1.0089606344
0.7923879062 0.4970490321 1.0036930945
0.8026008236 1.0011539418 0.2560838367
0.8125952632 0.4998330752 1.0054427694
0.8025452784 0.7532084906 0.254923867
0.8126026692 0.7495034156 0.5097367132
0.802456406 0.9991704829 0.7592542469
0.8025526844 0.7492481189 0.7499337562
0.8125026878 1.000702263 1.0047021663
0.7924434514 0.7508257215 0.4981166498
0.8225156424 1.0004076899 0.7571426022
0.8225082364 0.9994323257 0.2564087764
0.832528597 0.746505316 1.003943048
0.8225674846 0.4982639825 0.7532803567
0.8224119579 0.7485542356 0.256669839
0.8325656272 0.7510090114 0.5051033148
0.822434176 0.7493070335 0.7559604144
0.842630424 0.7497979887 0.2562347346
0.842634127 0.7478014377 0.757112978
0.8625674608 0.4996091997 0.7570889084
0.8424711943 0.9983129479 0.7600161424
0.8626600362 0.9952232034 0.2567235327
0.8625230247 0.9975339657 0.7609455994
0.8526470816 0.9974423207 0.0076187001
0.8625082126 0.7454383068 0.7573471938
0.8525285851 0.4990527838 0.5039498254
0.8524656339 0.7489469997 0.0104735401
0.8526137545 0.4976866193 0.0068394005
0.8624563704 0.4986377631 0.2536815053
0.8625859759 0.7478799905 0.2587740777
0.8523545434 0.748685157 0.5046413636
0.85274336 0.9996483459 0.509034066
0.8826896485 0.996519325 0.765202216
0.8925544825 0.9989217323 0.0122634854
0.8826229942 0.752017106 0.7644088448
0.8726359607 0.7484167682 0.0108246786
0.892687791 0.7502823978 0.0128887396
0.8824008133 0.4985369536 0.7623157152
0.882585964 0.4970719434 0.2645202324
0.8826341032 0.7474021275 0.2625780006
0.8725730094 0.747827622 0.5086674674
0.8927248212 0.7473497589 0.5141183066
0.8726618818 0.4992851693 0.0106829457
0.8827488967 0.9956945203 0.2627974043
0.9126655611 0.7462565654 0.5133147522
0.902541516 0.9995763392 0.263614845
0.9025118918 1.0000214719 0.7625332674
0.9026414974 0.7502889439 0.7591181611
0.9127803545 0.7474741342 0.0148902196