POSCAR file written by Ovito 3.7.11
1
270.1087137586 0.0 0.0
0.0 15.2796562525 0.0
0.0 0.0 10.8043485503
Sr Ti O 
800 800 2400 
Direct
0.0224933056 0.4988618854 0.7708813054
0.0124858536 0.4987905487 0.0234300396
0.0123129232 0.2474354176 0.5186143605
0.0223640244 0.2495231609 0.771118247
0.0025114253 0.2500526231 0.7653603802
0.0125408315 0.2473451015 0.0223877741
0.0024375291 0.0019454054 0.2723153831
0.0223861636 0.4994266887 0.2728336929
0.0126483437 -8.1079948776e-05 0.5201165334
0.0026519983 -0.0041067595 0.7698965167
0.0124339486 -0.0020554699 0.0190177421
0.0223954561 0.2496291843 0.2715638338
0.002510981 0.250409961 0.2704152222
0.0423842596 0.4991995893 0.274590393
0.0324501114 0.2474026944 0.5249034949
0.0422731932 0.2493012973 0.7807384476
0.0525405406 0.4994882084 0.0231318263
0.0324023529 0.2498804988 0.0209253073
0.0325711738 -0.0018940789 0.5204441793
0.0326670611 -2.9508107959e-05 0.0212241685
0.0423490886 0.2489891175 0.2732529685
0.0525175869 0.248661885 0.5233513421
0.0524128143 0.2490152961 0.0246784258
0.0623151235 0.2506462229 0.2723468519
0.0624972724 0.5002689851 0.7713598164
0.0625235581 0.5004038049 0.2724755038
0.0723821812 0.4987931666 0.5189105375
0.0723621892 0.2510408652 0.5187050647
0.0623532563 0.2494858564 0.7737384883
0.0726250463 0.2503556404 0.020725573
0.062424709 -0.0019221554 0.274157234
0.0623836144 -0.0021264139 0.7768344639
0.1024097204 -2.7951373223e-04 0.26012307
0.0925892301 0.2509276428 0.5121919464
0.0825021805 0.0031220026 0.2675025061
0.1023975031 0.2502541983 0.7553579261
0.0825040316 0.2493379474 0.7672623921
0.0924889001 0.2497404433 0.0109140605
0.0823811181 -3.5726417244e-04 0.7653539013
0.0924163368 -1.7362129765e-04 0.0156335492
0.1024104608 0.2517398338 0.2593705952
0.082437762 0.2485597885 0.2609569935
0.10247599 0.4963729551 0.2571918428
0.0925100028 0.5013828845 0.5116597533
0.1123301704 -8.301805706e-04 0.0103403101
0.1224072241 0.2504171601 0.2546160281
0.1124656714 0.2503111368 0.5050309409
0.1224697915 0.5013730675 0.7550904412
0.1124479008 0.4986158066 0.0030273287
0.1225101456 0.2522031951 0.755747584
0.1123653415 0.2490735435 0.0047255338
0.1123483113 0.5006708266 0.5020626916
0.1524606788 0.2501795893 0.5009853476
0.132416157 0.2484315133 0.5064960917
0.1425524461 0.2517882643 0.7501128158
0.152609878 0.2468346188 0.0014152
0.1324124548 0.2517071106 1.1359445703e-04
0.1424343455 0.2519885305 0.2492617025
0.1425868767 0.5018612984 0.7519787312
0.1524828921 0.4995739433 -0.0016493994
0.1323713602 0.4974488955 0.0035771073
0.132409493 0.4999666223 0.500228245
0.1525665621 -0.0036666318 0.4982429333
0.1825070993 0.2512588021 0.7476378864
0.1824737794 0.2499040596 0.2506907567
0.1625406942 0.4988690845 0.7478785302
0.1624651691 0.4983592563 0.2492913202
0.1723108344 0.2479498271 0.4994952069
0.1826081697 0.5015870776 0.7489466187
0.162511817 0.2539983925 0.747466659
0.1723482268 0.2508962285 9.8389218542e-04
0.1623267063 -0.0013316316 0.2533470946
0.162724324 0.2493896501 0.2458676987
0.1723193495 0.0018181774 0.5012593114
0.1824034374 -0.0026931152 0.2498392477
0.2025127479 0.2503268439 0.2489525677
0.1924012637 0.499242784 -0.0021611563
0.2024401845 0.4980595113 0.2493922055
0.1923620202 0.2493549634 0.4950423701
0.2024905346 0.250635097 0.7459746672
0.1924064468 0.2529276878 5.6117599719e-05
0.1923849739 -4.3436014768e-04 0.4977366557
0.2024194521 0.0033015223 0.7495630372
0.1924460604 -4.7833127538e-05 0.0019909867
0.2025157097 8.6710892148e-04 0.2478844793
0.2123113951 0.2527018974 0.4975894927
0.2224880383 0.2519381367 0.7476332586
0.2123387915 0.2529289967 -0.0035001634
0.2222088914 0.0011504268 0.2485360688
0.2124794756 0.0014785756 0.4995525912
0.2124480068 0.0028079248 8.1581171379e-04
0.2222677566 0.0032780925 0.7484764377
0.2323066775 0.0033825451 0.5034806392
0.2226890685 0.2518052803 0.2493931311
0.2324991926 0.2522915478 0.5000486877
0.2323399974 0.2516861677 -0.0033705397
0.2322937197 2.5336057784e-05 1.0045187143
0.2527399316 0.2494341537 0.4977116657
0.2425829102 0.2499223846 0.7476434397
0.2624186272 0.249335984 0.2488887045
0.2524941047 0.25197086 0.9970032218
0.2424648096 0.2517260901 0.2454641575
0.2424100168 -0.0013921697 0.2515839156
0.2525796258 0.5018946761 1.000760968
0.2523889619 -0.0013528363 0.5015693717
0.2422130591 -1.6674941531e-04 0.7464087517
0.2627770014 0.2467488839 0.7462745465
0.252429316 4.1061959445e-04 0.999770626
0.2625452429 0.0012196692 0.2490386442
0.2624760115 0.0031358772 0.7453647276
0.2725119706 0.2504459566 0.5008807601
0.2727363247 0.2531848925 0.9988543283
0.272599713 0.0041633218 0.4983882452
0.272400534 0.5035367288 0.9959018134
0.282540155 0.2511992458 0.7502701599
0.2825627385 0.0023047722 0.7514132181
0.2827230443 0.2488628058 0.2513006963
0.3025128539 0.249906023 0.2485184832
0.3124562576 0.2522712594 0.4968657101
0.3124162737 0.251455796 0.9982249521
0.3125947204 3.4890354636e-04 0.9961887349
0.2923624964 0.2500486963 0.5027818465
0.3024314052 0.2499164944 0.7445854118
0.2924491282 0.5002879646 0.495214523
0.3025513569 0.5003632281 0.2482482217
0.2925205809 0.2478444583 1.0029452737
0.3025676466 -0.0016256173 0.7406268205
0.2923699008 0.0012341329 0.4975089696
0.312615823 0.4961065878 0.9922181115
0.2925964763 0.003242555 0.9978362197
0.322569593 0.2506887631 0.2425912402
0.3324552422 0.2511082751 0.4941825312
0.3225436775 0.2480781023 0.7465235203
0.3326925541 0.252905436 0.9938748518
0.3224811101 1.118563288e-04 0.2425403347
0.3326932945 -5.3547498786e-04 0.4949507404
0.322494438 4.7783314841e-04 0.7452953111
0.3325759343 6.4858306299e-04 0.9940136848
0.3625420168 0.251139035 0.2382550232
0.3525008747 0.2545893744 0.4935605594
0.342614485 0.2502757957 0.7339341449
0.3526023153 0.0029478494 0.9920422563
0.3526619209 0.2518955965 0.9918386346
0.3424408512 -0.0015044758 0.2460333727
0.3425130443 0.0034545362 0.742078088
0.3425633944 0.2501507929 0.2377922465
0.3627308297 0.2546142441 0.7381000601
0.3623939283 0.0029140136 0.2438620248
0.3725565031 0.2531580595 0.4909856702
0.3824303052 0.2555409665 0.7418096775
0.3726157385 0.2542771946 0.9925605662
0.3825117539 0.0037201181 0.7385517301
0.3826117137 0.2502384912 0.2391740975
0.3923818539 0.0015589439 0.4930394729
0.3925521557 0.0013447375 0.9901911498
0.3725861208 0.0024640035 0.4964047845
0.37246765 0.0038740483 0.9901726388
0.3926076889 0.251811825 0.4903785073
0.3925817734 0.2508052578 0.9887935644
0.4123775065 8.8517215507e-04 0.4851426525
0.4024740866 0.2503346975 0.7409100398
0.4024259578 0.0047958622 0.2380726892
0.4023667224 0.001737351 0.7379769615
0.402688815 0.503140123 0.2404374777
0.4024000423 0.2518615643 0.2398062504
0.4125589149 0.2530252031 0.4834007613
0.4125070839 0.2508268552 0.9862020153
0.4124145286 9.8609065575e-04 0.9914313912
0.412544106 0.5025203447 0.9871460796
0.4125218928 0.5035681431 0.4902766964
0.42258821 0.2545808663 0.2375525282
0.442469094 0.2534813652 0.7353826357
0.4325582697 0.501962086 0.9857855163
0.4324805232 0.5007316919 0.4802187092
0.4426356936 0.2538871335 0.2356051642
0.4224808458 0.500691115 0.2352460495
0.4424431785 0.5064399355 0.7369366396
0.4325397586 0.2502136215 0.4876240608
0.4226067211 0.2529185253 0.7412497178
0.4326841449 0.252335397 0.9843416532
0.4423913475 0.5013292184 0.2366963915
0.4323620524 0.0029421556 0.9857577497
0.4524169404 0.0022430561 0.9848599631
0.4727013656 0.2508379811 0.4834664755
0.4625091731 0.2500094284 0.7300495978
0.4726273213 0.2518314589 0.9808245509
0.4627090926 0.2516488632 0.2304692692
0.4524539625 0.4990902937 0.9845545305
0.4624647466 0.50297258 0.734961509
0.4724496151 0.5004620523 0.4799623309
0.4527612462 0.2511678315 0.4814006407
0.4527353307 0.2504610093 0.984424953
0.4724088908 0.001490225 0.9806949734
0.4825344434 0.0015766144 0.2304109593
0.4824900168 0.2506010648 0.732077485
0.4824678036 0.252578858 0.2256906377
0.4926674005 0.2489380692 0.4782296952
0.4925230142 0.2463372254 0.9820740477
0.4825566567 0.4973337097 0.2313328103
0.5024338385 0.2513936219 0.2347129308
0.5123483649 2.1025508166e-06 0.9782052351
0.5224517043 0.0019046977 0.2301425489
0.5023931141 0.2508851026 0.7333158753
0.5023523898 0.4993337546 0.7337545875
0.5123224495 0.2477639591 0.4830481255
0.5024671584 0.0032691918 0.7306447286
0.5223443401 0.249793455 0.2330404561
0.5123705782 0.2517830285 0.9814261605
0.5225072375 0.2506750193 0.7250895579
0.5122891295 0.5005013202 0.4796957716
0.5223813623 0.4979940648 0.2295492692
0.5222999136 0.4995359843 0.7296293967
0.552580314 0.2465728328 0.4793338802
0.5525062697 -0.0013637004 0.9798342089
0.5323032932 0.4979475978 0.9750676096
0.5323551242 0.5025497956 0.4805010029
0.5324513817 7.442003973e-04 0.4810359727
0.5324884038 0.2499236935 0.4821336788
0.5326031724 0.2471376361 0.9816112711
0.5423918237 -0.0042044711 0.7319562376
0.5422659485 0.2460793662 0.2318316836
0.542414037 0.246998235 0.7316637627
0.5523655856 0.2526547759 0.9816112711
0.5624430095 0.4992689626 0.7342451308
0.5626281201 0.4986210423 0.2358994901
0.562520756 -0.0037894094 0.2344343393
0.5624467117 0.2454622057 0.2325276996
0.5625170537 0.2471036039 0.7333158753
0.5724241758 -0.0019093279 0.4819596748
0.5725241356 -0.0034675436 0.9847396411
0.5724167714 0.2481232603 0.4833109826
0.5724167714 0.2480538871 0.9827959793
0.5925012771 0.498168807 0.9821943697
0.582523813 0.2454321003 0.734267344
0.6026749585 0.2486867547 0.2370064518
0.5925234904 0.2496167494 0.4859552882
0.6023898881 0.2468660331 0.7388145872
0.5925160859 0.2475656562 0.9852209288
0.6024083992 0.4970333102 0.7374928971
0.5825719417 0.2479818959 0.2326369149
0.5924161262 0.498223782 0.4815653891
0.5825275152 0.5000359956 0.2356958684
0.6124932275 -3.9731742952e-04 0.9966607671
0.6122562858 0.5 0.489964785
0.6224151584 0.2501547197 0.7425454924
0.6224817982 0.4959626055 0.2424357472
0.6126487204 0.4980568935 0.9918941678
0.6224669894 0.4952629824 0.7388654926
0.6124525031 0.246998235 0.4933476821
0.6123858633 0.2480342531 0.9902189164
0.6224410739 0.2478673645 0.2419128096
0.6424034065 0.2470767708 0.2437602139
0.6524771282 0.2508242373 0.4924665554
0.642636646 0.2457475524 0.7441763172
0.6524364038 0.250298702 0.9969291775
0.632366707 0.4954128549 0.9913943691
0.6425663039 0.4991374151 0.7420216292
0.6524438083 0.4973500713 0.9946800831
0.6426070282 0.500336395 0.2409613409
0.6523845729 0.4963755729 0.4959429335
0.632366707 0.2474714132 0.4916566963
0.6324370491 0.2437867753 0.9891545302
0.6623916547 2.7062953416e-04 0.7460792547
0.6726282737 0.4963834265 0.4952496941
0.6824613515 0.5009496287 0.7455526149
0.6724727808 0.4989469658 0.9931806868
0.6824835648 0.4988834827 0.2477456463
0.6624508901 0.2471193111 0.2441221053
0.6623250149 0.2449281623 0.7484394155
0.6825131825 -0.0010992311 0.2466201735
0.6824502449 -4.855393095e-04 0.7440439631
0.6625952764 0.4993180475 0.7461949489
0.6624249746 0.4978906594 0.2485758675
0.6825057781 0.2490846694 0.240171844
0.6723913321 0.2498229059 0.4955218067
0.6825428002 0.2487751075 0.7511679465
0.6724209498 0.2479962941 0.99862294
0.7024051731 0.2475178802 0.2473337751
0.6924462201 0.2489838818 0.4929219276
0.702471813 0.2505133665 0.7456507236
0.692357367 0.2483942088 0.9912277695
0.7024940262 0.501242829 0.7458339831
0.702490324 -0.0013187387 0.7417939431
0.7025754749 -0.0023225571 0.2431104756
0.6924536245 0.5007441267 0.9911907473
0.6924499223 0.4990385909 0.4970748851
0.7125825568 0.246933443 0.4936188692
0.7126640054 0.248241064 0.9938563407
0.7223378881 0.496122295 0.7366802614
0.7225341054 0.2535788805 0.244273896
0.7324412275 0.5007336552 0.9860446712
0.7325485916 0.2463012298 0.4904136783
0.7224896788 0.4989168604 0.2411362705
0.7326522536 0.4995287852 0.4902239399
0.7225674253 0.2504413753 0.7416403013
0.7325448894 0.246260653 0.9918571457
0.7124974059 0.4971203541 0.9918756568
0.7624439619 0.4995098057 0.7421854522
0.7424964381 -6.7597970085e-05 0.743250764
0.7526071818 0.5016093294 0.991792357
0.7625698371 0.4975935323 0.2442266928
0.7627401389 0.2481042809 0.2436176787
0.7524961155 0.2491664775 0.4909967768
0.7626772013 0.2491736766 0.7409146675
0.7526553106 0.2487214413 0.994226562
0.7426149089 0.4967479635 0.7355677464
0.7523480269 0.4984606984 0.491789976
0.7425667801 0.2480362165 0.241389872
0.7426223133 0.2497803657 0.7426935809
0.7825840008 0.4973140757 0.2396572363
0.7825432764 0.4983756179 0.7427583696
0.7825284676 0.2519597341 0.2440499121
0.7723844039 0.2511481975 0.4939067163
0.7825914052 0.2505951746 0.7445650496
0.7724954702 0.2478123895 -0.0029349281
0.7925429538 0.5004090406 0.4917001973
0.8125941396 0.4996544425 0.4915521088
0.8025870578 0.5010772494 0.7486948682
0.8026796131 0.5004607433 0.2471662499
0.7925355494 0.2491481525 0.4938595131
0.7925651671 0.2505454352 1.000760968
0.812531202 -9.3784006063e-04 0.498515046
0.8026722087 0.2492463223 0.244986572
0.8124312422 0.2495067993 0.4979587885
0.802435267 0.250708397 0.7441929772
0.8127089082 0.2511841931 0.9977158978
0.8326490276 0.0015762872 0.5075512224
0.8222569156 0.2505428174 0.2506953845
0.83258609 0.0023543152 1.0033432616
0.8325786855 0.2513177039 0.499341565
0.8225827103 0.2514328898 0.7486069407
0.8325083435 0.255558637 -5.9334312133e-04
0.8324268948 0.5013377264 0.5003439392
0.8323454461 0.5028809549 1.0013440666
0.8223457687 0.4989116247 0.2468025075
0.8424487855 0.4990025954 0.7464568804
0.8425228297 0.5004535442 0.249418121
0.8426746205 0.0027773613 0.2474198515
0.8425524474 0.2500107374 0.2523660081
0.8425302342 0.252082119 0.7544879061
0.8625036735 0.2518222964 0.2493820244
0.8524114407 0.2517777928 0.4981050259
0.8626369531 0.2497810201 0.7470464579
0.8524669739 0.2508798669 -0.0029048661
0.8923509149 0.5009365394 0.0046864754
0.872714377 0.0012907441 0.4983456697
0.8826103924 0.2496933218 0.249965123
0.8725181597 0.2529080538 0.4979569373
0.892665603 0.2508091846 0.5048634158
0.8826881389 0.2514315808 0.7522388116
0.8723737734 0.2510500278 -0.0032151949
0.8925841543 7.3464520852e-04 0.505685307
0.8725218619 0.0028991573 0.00517091
0.8925730477 0.2521560736 0.0032409464
0.8724848398 0.500644648 0.5016073194
0.8928025849 0.5030635506 0.5025115849
0.9124613361 0.5024922027 0.5013907399
0.9027282181 0.4995896505 0.7518204616
0.9124095051 0.4994024735 8.0785195577e-04
0.9026023428 0.4992087518 0.2509091873
0.9124206118 -0.0023444162 0.5054566954
0.9024431477 0.2501625732 0.2550612192
0.9124058029 -1.0568783221e-04 0.005230238
0.9125612959 0.2465492721 0.5055964539
0.9025060853 0.2498058898 0.7537983689
0.9125538914 0.2505192567 0.0077553324
0.9424085373 0.2508693954 0.7541000992
0.9325236285 0.2469478412 0.0039590831
0.9323829444 0.4999332446 0.50406744
0.9325051175 0.4985182913 0.002018198
0.9224388002 0.4970143307 0.7562186907
0.9226646352 0.4991904268 0.2540255251
0.9424825816 0.4982722124 0.7539649685
0.9223869693 0.2503006653 0.25342299
0.9224943334 0.2508163838 0.7523471014
0.9423122798 0.2505853576 0.2518976782
0.9324458821 0.2485251018 0.5054381843
0.9725001248 -9.6859991493e-04 0.5201544811
0.9624449143 0.0055918225 0.7630020705
0.9623597634 0.2492574482 0.2583210178
0.9524156192 -0.0011942594 0.0073868696
0.9726037868 5.1009827217e-04 0.0147079959
0.9524563435 0.2487404208 0.5047588282
0.9724742094 0.249896206 0.5111284858
0.962596705 0.2539597791 0.7577190125
0.9524785568 0.2482777141 0.0044231555
0.9524674501 -2.6714434401e-04 0.5048754479
0.9722631832 0.2525003222 0.0140987967
0.9723705474 0.500916251 0.5159358094
0.9625078519 -5.1872068424e-04 0.2600508768
0.9526229431 0.5007879758 0.5044098947
0.962493043 0.5009902055 0.7572941835
0.9822961805 0.252055286 0.2663557456
0.9826293797 0.0021446246 0.7693060137
0.9924106265 -0.0012386322 0.0191461163
0.9923365823 0.2497712032 0.522160155
0.9824146513 0.2506331336 0.7651539818
0.9923624978 0.2494158287 0.0165320763
0.9923476889 0.4988769381 0.0240860717
0.0225413604 0.7472241481 0.7722631564
0.0024669247 0.4993579698 0.2688380795
0.0024001368 0.7504179372 0.7719540216
0.0122982995 0.4996308817 0.5211790686
0.002571216 0.4979489067 0.7732090718
0.0225338078 1.0006591689 0.2670351017
0.0225963752 0.9956132438 0.771414424
0.0125508644 0.7495736774 0.0243259751
0.0224933427 0.7476102824 0.2715462483
0.0024756619 0.7500514368 0.2694248802
0.0125923663 0.7476495503 0.520960638
0.0526356875 0.9978973266 0.5216307386
0.0527434219 1.0027207336 0.0255910213
0.0324171617 0.7478393452 0.0228387036
0.0424612657 0.7466874868 0.2718914797
0.0325300792 0.7470539872 0.5237511811
0.0425130966 0.7489846589 0.7750018685
0.0424982878 0.5007271106 0.773699615
0.0322864736 0.4968546413 0.0247255365
0.0324567754 0.4961118235 0.5236364125
0.0424749639 0.9974392011 0.2740322843
0.0523550598 0.4992755073 0.5283650641
0.0524572408 0.7500448922 0.0246938825
0.0524513173 0.7472110588 0.5238298531
0.0423850001 0.9981002108 0.7718077842
0.0724780685 0.5007146758 0.0198408366
0.0723581168 1.002020456 0.5173768958
0.0724229055 1.0003908382 0.0192699553
0.0726039437 0.7486705157 0.0198073316
0.0624754293 0.7487032389 0.2683651217
0.072696499 0.7531143329 0.5180673585
0.0625420691 0.7507255358 0.7694800177
0.0923322965 0.9998476323 0.5112090089
0.0925896003 0.7527871005 0.006278427
0.1024371168 0.7500318029 0.2565837543
0.0826269451 0.7497700169 0.2664408965
0.0926840068 0.7500187136 0.5082166952
0.102582984 0.7525645824 0.7602707628
0.0824455366 0.7513603668 0.766991205
0.1023945413 0.9996120249 0.7556744653
0.1024567385 0.5003894067 0.7593452096
0.0825417942 0.499252601 0.7654973621
0.092480385 0.4987244477 0.0115297386
0.0826069531 0.5007833946 0.2634069329
0.1124049551 0.7491417305 0.0057604874
0.1223276265 0.7500514368 0.2566439153
0.112454935 0.7539782267 0.5050078021
0.1223254052 0.7500710708 0.7545869403
0.1222794977 0.998002041 0.2546798913
0.1223409545 1.0019550095 0.7561483486
0.1224394333 0.5006158516 0.2518532516
0.1122983314 1.0001617755 0.5093847434
0.1424980235 0.7491548198 0.2497457669
0.1526028438 0.7498550973 0.4978467965
0.132374322 0.7498812759 0.5018276011
0.1423891785 0.7478851577 0.7483052103
0.1524814112 0.5011996343 0.4950210824
0.132297316 0.9992782478 0.0014982221
0.142279593 0.5004411094 0.2514274971
0.1424432308 0.9992324352 0.2502233523
0.1322817667 1.0002206773 0.506831142
0.1423691865 1.0023411439 0.7489790131
0.1523410973 0.9988463009 0.0038369101
0.15252954 0.7519493853 -8.9137127037e-04
0.1323754327 0.7495474988 0.0016963831
0.1724470759 0.7514454472 8.883750892e-04
0.1626432455 0.7485265334 0.2486073364
0.1725111241 0.7513669114 0.4992064342
0.162418151 0.7529834399 0.750723681
0.1824478639 0.9982769163 0.7470779267
0.1722719612 0.5014391685 -0.0028585051
0.1725651765 0.501607366 0.5019303375
0.1824175058 0.7483367386 0.2516903543
0.1824230591 0.7503917586 0.7495491539
0.1724170879 1.0009078656 7.2779159896e-04
0.1623859417 1.0007769726 0.7501951901
0.1824574897 0.4997139988 0.2491117629
0.2024305588 0.499850782 0.7512993751
0.1926096983 0.4993383359 0.4961308208
0.1924915977 0.7503263121 -0.0017280714
0.2025708726 0.7497503829 0.2515617024
0.1926637506 0.7496783918 0.497255368
0.2026056734 0.7513276435 0.747412977
0.2324166332 0.7530488864 0.0011907533
0.2323936795 0.4984063778 2.5761054396e-04
0.2323429592 0.751281831 0.5012259915
0.2125883207 0.7491417305 -8.6601111111e-04
0.2225391288 0.7496260346 0.2508712396
0.2125979464 0.7520933676 0.5003865146
0.2226516761 0.7468641923 0.7521083086
0.2324621704 0.5014457132 0.5004577822
0.222579483 0.5012604996 0.748065492
0.212555371 0.4995156959 -0.0055051154
0.2226028069 0.4998527454 0.2498485033
0.21248688 0.498924714 0.4998543215
0.252715497 0.7523355196 -0.0041662471
0.2425721738 0.7487294175 0.2476253243
0.2525585232 0.7517595904 0.4921879639
0.2425036828 0.7490828286 0.7503886307
0.2423866929 0.5003632281 0.7473768804
0.2627066593 0.5011525128 0.7465790535
0.2626514964 0.7498354634 0.247688262
0.242537373 0.4986341316 0.2516042778
0.2626766714 0.7513800007 0.7446057739
0.2624586111 0.5008710929 0.2479205758
0.2525344588 0.4991073098 0.4959697745
0.2725708358 1.0005151866 0.9971142882
0.2824368633 0.504608088 0.2476151433
0.2726193347 0.4994319244 0.4942417666
0.2823676319 1.0015361519 0.245081904
0.2824879538 0.5021551532 0.7498767997
0.2824324206 0.7499598117 0.2444108779
0.2825260866 0.7514323579 0.7481645262
0.2725267794 0.751805403 0.9967255558
0.2724382965 0.7534742887 0.4939159718
0.3124988331 0.9979169606 0.4967111427
0.2925527901 0.75401095 0.9944672059
0.30255654 0.7520344657 0.2470329703
0.2924328384 0.7503524907 0.4942871187
0.3024165963 0.7501430619 0.7445548685
0.3025069303 0.499962041 0.7456729368
0.2924461664 0.5015857687 0.9967255558
0.3024180772 1.0020728132 0.2468358274
0.3123844347 0.7504179372 0.9944857169
0.3125299317 0.7505946428 0.4907228131
0.3124629216 0.5020838165 0.4936216459
0.3324948559 0.4989659453 0.4934698551
0.3224148405 0.4994247253 0.7452823534
0.3325437251 0.7486966943 0.9906724375
0.3324955963 0.5019202003 0.9913018137
0.3225903254 0.7513734561 0.239121341
0.3324693106 0.7522438945 0.4952080442
0.3224985105 0.7500056243 0.7429980879
0.3225614481 0.503850872 0.2415981215
0.3525763998 0.5021034505 0.49108563
0.3525112409 1.0026225638 0.490443296
0.3624420571 0.7549861028 0.241814701
0.3624605682 0.7510462236 0.7481497174
0.3625420168 0.5017356411 0.7402565992
0.3625457191 0.5053548325 0.2393425482
0.3524486735 0.7533237617 0.9924309887
0.3424800946 0.7528656363 0.2385428702
0.3524608908 0.7518643048 0.4924350866
0.3425226701 0.7514454472 0.7447103614
0.3625605279 1.0004170168 0.7438718102
0.3425123039 0.5024437723 0.7453934198
0.3527107901 0.502616551 0.9931714313
0.3422942436 0.5011335334 0.2413806165
0.3724935655 0.5012336665 0.9920700229
0.3825709893 0.5024169392 0.2418119243
0.3727416137 0.503980456 0.4980309816
0.3925188358 0.5026132787 0.9921625783
0.3825487761 0.5038567622 0.7413006232
0.3725009699 0.750869518 0.9907927594
0.3824636252 0.7539520481 0.2419081819
0.3724269256 0.7514389026 0.4902850264
0.3827301845 1.0009798567 0.243526049
0.3824451141 0.7525449484 0.7474111259
0.39259288 0.7538146105 0.9900615724
0.392715053 0.7522046266 0.4878054692
0.3923263207 0.5046931684 0.4941334768
0.4026221751 0.5035864681 0.7392930982
0.4025888552 0.750647 0.2437926083
0.4025777486 0.7526562075 0.7398225147
0.412525595 0.7542007448 0.9868313915
0.4125107861 0.7531536008 0.4868808415
0.422362375 0.9996774714 0.7361998992
0.4425320316 1.002956341 0.2348082628
0.4323398391 1.0031395912 0.485464745
0.4424839028 1.0002730345 0.7379889937
0.4225400812 0.501047144 0.739602233
0.4323509458 0.7531601455 0.9869424579
0.4225734011 0.7522046266 0.2359994499
0.432373159 0.7514323579 0.4836367773
0.4225771034 0.7522242606 0.7417985709
0.4423358143 0.7500841601 0.2369703552
0.4424579873 0.7529376274 0.7383518106
0.4224623348 1.0045925034 0.2341575989
0.4724274018 1.0009733121 0.4832452683
0.4723644642 0.5022925908 0.98028773
0.4624869598 0.5034981153 0.2324240376
0.4723718686 0.7513538221 0.9796398427
0.462575813 0.7527740112 0.2326480215
0.472238589 0.7513014649 0.4804982262
0.4621907828 0.7538276998 0.7310260565
0.452357705 1.0021251704 0.4853148054
0.4624166178 1.0025963852 0.2317715226
0.4624499377 1.0008096958 0.7289454128
0.4523465983 0.7521391801 0.9835086553
0.4523614072 0.7509611431 0.4825039002
0.4524021315 0.5022192908 0.4854267973
0.4924304588 0.5014044819 0.9825368244
0.4923453079 0.5028174718 0.4787387495
0.4824011637 0.4993219743 0.7286779279
0.4825048257 1.0023542332 0.7310825153
0.4924711832 0.9987023186 0.4784379447
0.4923267969 0.9995596677 0.9838881321
0.4924119478 0.7520540997 0.4811775823
0.4924415655 0.7468969156 0.9860169046
0.4825011235 0.751523983 0.2288402954
0.4824418881 0.7528067344 0.7282642056
0.5023412831 0.50017736 0.23102275
0.5125186667 0.9994680426 0.4831702985
0.5224850242 0.9974653797 0.7344524547
0.5025004783 0.997759889 0.2306951042
0.5223554468 0.7480095061 0.7332844065
0.5022561322 0.748552712 0.2352025485
0.5024153274 0.7494624183 0.7305595777
0.5123335561 0.7524075108 0.9849062407
0.5121077211 0.5002545869 0.981000406
0.5123446627 0.749318436 0.4814117473
0.5222628914 0.7489126677 0.2304470559
0.5524988653 0.9957768601 0.4785564155
0.5426028498 0.4983985242 0.7295062981
0.5425954454 0.7483825511 0.2278027502
0.5524322254 0.4961399655 0.4856239402
0.5523285635 0.7485068995 0.4858655096
0.5422474374 0.7492464449 0.7294192961
0.5325291282 0.9975177369 0.981435416
0.5424029303 0.496178579 0.228702388
0.5323477197 0.7495409541 0.9809541283
0.5524581409 0.4988736658 0.9841195204
0.5425251034 0.9979038713 0.229572408
0.5325624481 0.7488406766 0.4755474419
0.5726092865 0.4977303154 0.9827404461
0.5625059471 0.9959208424 0.7346764386
0.5524285232 0.7479702382 0.9815279713
0.5622356855 0.7472765053 0.2320473375
0.5623171342 0.7486705157 0.7329595373
0.572479709 0.7454898159 0.9805746515
0.5724056647 0.4955646908 0.4821299766
0.5723723448 0.7452214852 0.4876046242
0.6025898076 0.4972519015 0.2346944198
0.6025046567 0.9998999895 0.2339752649
0.6024306124 0.9990949976 0.7358204224
0.5925938324 0.7490108375 0.9839991985
0.5926086413 0.9998934448 0.4822308619
0.5925160859 0.9976944425 0.9868776692
0.6024121014 0.7461377362 0.239755345
0.5925531081 0.7468969156 0.4813756507
0.6024417191 0.7490631947 0.7399039634
0.5824830886 0.9974719244 0.2344435948
0.5826681993 0.9955477973 0.7316850504
0.5827311369 0.4993193564 0.7363378067
0.5825793462 0.7463864329 0.2344602548
0.5827089236 0.7476168271 0.7305207045
0.6126154005 0.7503786693 0.9915609686
0.6124969297 0.9979235052 0.489252109
0.6126339115 0.7489781142 0.4867355296
0.6225151181 0.9974719244 0.7416014281
0.6227150376 0.7482843814 0.2442831515
0.6226335889 0.7512098398 0.7443780878
0.6222892831 0.9975504602 0.2402643993
0.6425218773 0.9946839036 0.7418753918
0.6324333468 0.4986099164 0.4934013642
0.6424848552 0.9974130225 0.239502669
0.6525067459 0.9967585576 0.4932986278
0.6523882751 0.9971316026 0.995216904
0.6325296044 1.0014379822 0.496838869
0.6323926225 0.9991146315 0.9935509081
0.6326295641 0.7487621408 0.9883307878
0.6325629243 0.7467987458 0.4891040204
0.6524327016 0.74672021 0.9942820952
0.6426292415 0.7480945865 0.2436704353
0.6525659813 0.7449924225 0.4922185071
0.642584815 0.745954486 0.7408461766
0.6724098432 0.748290926 0.9952909483
0.662310206 0.9956001545 0.2486767528
0.6723506077 0.9987481311 0.9952631817
0.682590929 0.7506731786 0.2453975177
0.672528314 0.7478655238 0.4942399155
0.6824835648 0.7504572051 0.7453258544
0.672546825 0.9991931673 0.4932467968
0.6624879122 0.7503524907 0.244543232
0.6624805078 0.7488472212 0.7455683493
0.7023607466 0.5015222856 0.2418267332
0.6926165219 0.9989902832 0.4917038995
0.6925128599 0.9981198447 0.9930973871
0.6926165219 0.7499270885 0.9941525178
0.702542155 0.746458424 0.243708383
0.6923795802 0.7468576477 0.4944861126
0.7024681108 0.7489650249 0.7455600193
0.7124455749 0.497729661 0.4866670387
0.7125233213 0.7484545423 0.4918131148
0.7226821939 0.9996512928 0.7404759553
0.7323745876 1.0018175719 0.9924957774
0.7324671429 0.7500907047 0.9907464818
0.7225192965 0.7504244819 0.2401394496
0.7325522938 0.7497765615 0.4916168975
0.7224637633 0.7478851577 0.7414727762
0.7225192965 1.000600267 0.2394804557
0.7323819921 0.9961171819 0.4928404789
0.7126010678 0.7492137216 0.9910241478
0.7124714904 0.9985517916 0.492736817
0.7125196191 0.9983489075 0.9906261599
0.7424446071 0.4989901605 0.2376617435
0.742703762 0.7507320804 0.241806371
0.7425408646 0.7499336331 0.7389015892
0.7526256929 0.7499990796 0.991533202
0.7627031168 0.999814909 0.7391015087
0.7525442442 1.0013594464 0.9958092581
0.7625661349 0.7503394014 0.2420664515
0.7525479464 0.749318436 0.491764986
0.7627179256 0.7494296951 0.7443938222
0.7525960752 0.9971512366 0.4921074408
0.7426556332 0.9975111923 0.2425718036
0.7625068995 0.9983423628 0.2475670145
0.782361868 0.9977337104 0.2477697107
0.7723844039 0.9991408101 0.4929533964
0.7825173609 0.9980347643 0.7484060956
0.7725732167 0.9997167393 0.9949022159
0.7826358317 0.7474008536 0.2484240768
0.7727213052 0.7472306927 0.4932616057
0.7826173207 0.749449329 0.7465984901
0.7726805809 0.747656095 0.9914128801
0.7727139008 0.4993049582 0.4939946438
0.772473257 0.4997414863 0.9925513106
0.7925540605 0.9982572824 0.4991490499
0.7927687888 0.750254321 0.9932269645
0.7925059317 0.9976813532 0.999613282
0.8125126909 0.749580222 0.9980305859
0.7925910826 0.498692379 0.9966607671
0.8026944219 1.0010387586 0.2505287849
0.8125534152 0.5022664122 0.9917553348
0.8025870578 0.7490435607 0.2468534129
0.8127348237 0.7481665777 0.4980754082
0.8027462529 0.9984012647 0.7503765985
0.8025685467 0.747786988 0.7437163172
0.81242754 1.0004366508 0.9992338052
0.7926429136 0.7476888182 0.5013296534
0.8226678612 1.0033948325 0.7528552301
0.8226493502 1.0031723144 0.2508730907
0.8326749431 0.7500056243 0.9989468836
0.8226345413 0.5009620635 0.750081347
0.8226086258 0.7520148318 0.2531795694
0.8326638364 0.7523944215 0.5049985465
0.8226308391 0.7497176597 0.7500267394
0.8425635541 0.7533695743 0.2499271753
0.8426153851 0.749207177 0.753139375
0.8624370336 0.5006354855 0.7482283894
0.8426264917 0.9989641046 0.7522147473
0.8626739753 1.0021448044 0.2503196099
0.8624740558 0.9996643821 0.7543833185
0.8525188049 1.0005413652 0.0014298237
0.8626480598 0.7492988021 0.751906538
0.8525521248 0.5059850823 0.4986834967
0.8526631912 0.7533172171 9.1206925261e-04
0.852537316 0.5020556745 -3.3290844992e-05
0.8624000115 0.5022873551 0.2501196904
0.8626110376 0.7514716258 0.2544198108
0.8525262093 0.753205958 0.4982003579
0.8524521651 1.0009144102 0.5006382651
0.8824660061 1.000992946 0.7484421922
0.8925508344 1.0001159629 0.0023398277
0.8826437124 0.7500972494 0.7517751095
0.8726292261 0.7509676878 -2.3163690816e-04
0.8926100698 0.7505030177 5.1334090911e-04
0.8826066902 0.5003782808 0.7483246469
0.8824919216 0.4992689626 0.249652286
0.8826992456 0.7507124465 0.2534266922
0.8727513991 0.7542138341 0.5024134763
0.8925619411 0.7521064569 0.5044793112
0.8727032704 0.5010733226 0.0019975581
0.8825104327 1.0043110835 0.2490802941
0.9128130464 0.7478524345 0.5027799954
0.9025949384 0.9968501827 0.2578165913
0.9026171517 0.9991015422 0.7540917693