POSCAR file written by Ovito 3.7.11
1
270.0611111748 0.0 0.0
0.0 15.2769634437 0.0
0.0 0.0 10.802444447
Sr Ti O 
800 800 2400 
Direct
0.0224284294 0.4994305151 0.7792308772
0.0124842727 0.4988014634 0.0288955212
0.0124764226 0.2497558979 0.5289773338
0.0224508317 0.2507744249 0.7731424404
0.0026583856 0.253521044 0.7858460466
0.0123888499 0.2517523679 0.0304132332
0.0025198243 0.0029528592 0.2762678648
0.0224286516 0.4988112821 0.2786062245
0.0123832585 0.0037879073 0.5281404862
0.0024337697 -8.8206522132e-04 0.7785662128
0.0124298036 0.0017899317 0.0275116677
0.0224823061 0.2476501129 0.2782155722
0.0027146321 0.2517019653 0.2815601855
0.042379136 0.4997296583 0.2739554253
0.0325084072 0.2505662684 0.5270453637
0.0424809648 0.2470420078 0.7725851592
0.0525579433 0.4980644059 0.0216374417
0.0325654313 0.2486928594 0.0249585419
0.0324313876 0.001588321 0.5246653468
0.0324510127 -1.9328326743e-05 0.0234611956
0.0424587476 0.2489978938 0.2728547485
0.0524020526 0.2505197931 0.5205468346
0.0524868483 0.2471905975 0.0217074259
0.0624897694 0.2501872663 0.2708542753
0.062566789 0.4998010076 0.7739570709
0.0624738471 0.4985147572 0.2718781177
0.0725848919 0.4983858049 0.5193063746
0.0724938014 0.250490337 0.5189434938
0.0626460303 0.248539033 0.7696256438
0.0726589492 0.2513838392 0.0260016391
0.0624734768 0.0015569011 0.2710162757
0.0626138154 1.0517285486e-04 0.7649961361
0.1025599593 5.4073061635e-04 0.2675448392
0.0925481512 0.2510054918 0.517068918
0.0825200506 0.00202977 0.2683205895
0.1024796071 0.2490057488 0.7696978497
0.0824463636 0.2522027192 0.7708161151
0.0925918451 0.2521922459 0.0187331917
0.0824596939 1.8018776238e-04 0.7715437282
0.0926355389 0.0023125487 0.0200105877
0.1026095777 0.2520495474 0.2748903988
0.0824367361 0.2503613847 0.2687084647
0.1025577375 0.4980310223 0.2681715492
0.0925425969 0.5009288495 0.5223279129
0.1125406632 9.7589562964e-04 0.0235979239
0.1226768875 0.250498192 0.2695092094
0.1125473284 0.2478412504 0.5157284807
0.1225454358 0.4968828884 0.7676520165
0.1124106926 0.4985991981 0.0230838736
0.1226472646 0.2477371721 0.7702143995
0.1125351089 0.2494580638 0.0178072901
0.1125243706 0.4987936084 0.5225445306
0.1525256872 0.2516214519 0.5132781094
0.13265574 0.2437494686 0.5160034185
0.1426149674 0.2498174284 0.7654515886
0.1525597535 0.2480572619 0.0102041036
0.1325853856 0.2494043882 0.0166581058
0.1427116122 0.2491189912 0.2608694982
0.1425797902 0.4977161692 0.7617200258
0.1525801193 0.4988171733 0.0113384765
0.1325250289 0.4983753316 0.0171992796
0.1325272506 0.4981730663 0.5144787636
0.1525105054 5.5977890439e-04 0.514660204
0.1824274378 0.2486084185 0.760837818
0.1827351459 0.2505099744 0.2606389948
0.1626130337 0.4992334864 0.7615876483
0.162470103 0.4995548854 0.2639151052
0.1724652482 0.2510454212 0.509907576
0.1826088782 0.4994069502 0.7629216057
0.1625626747 0.2514807171 0.7598176786
0.1725174586 0.2511855014 0.0113064467
0.1625108346 0.0023956804 0.2695295752
0.1623864183 0.249545123 0.2642613231
0.1725333809 7.8400518751e-05 0.5116414428
0.1825948073 0.0033804311 0.260889864
0.2024062492 0.2501244266 0.2571055353
0.1926354977 0.499115662 0.0076831927
0.2026032416 0.4992505055 0.2524010446
0.1924225829 0.2508202455 0.5074192503
0.2023247861 0.2484460826 0.7571479125
0.1925358906 0.2491759397 0.0089039349
0.1923170513 0.001174168 0.5095983867
0.2025206677 0.0020723177 0.7556926863
0.1924851614 4.8456762276e-04 0.0122336443
0.2025199271 2.603083966e-04 0.2592189459
0.2124661945 0.2492132508 0.5039135623
0.2223858011 0.2534208932 0.7544577806
0.212345481 0.2515893774 0.0053399268
0.2223458102 0.0016107731 0.2554327658
0.212309193 9.6588055036e-04 0.5041561
0.2123658468 0.001506433 0.0061754784
0.2223824685 0.0014778933 0.7539180879
0.2323035564 0.0019347249 0.5038469107
0.2224380115 0.2511913926 0.2559076583
0.2324801831 0.2508510108 0.5030230231
0.2325609055 0.2515520664 0.0024151258
0.2322794877 0.002840795 1.0012565504
0.2524789899 0.2497742261 0.4966726086
0.2425501261 0.2519867077 0.7466326999
0.2624337738 0.2529797061 0.2436076645
0.2522101619 0.2526340877 0.9978221425
0.2424860665 0.2558454588 0.2453600456
0.2423927543 0.0039110994 0.2525065762
0.2526048873 0.4998049351 0.9987848876
0.2523068066 0.0010945056 0.4975094562
0.2422716706 9.1174675584e-04 0.7481453205
0.2624141486 0.2537350918 0.746641957
0.2522605208 0.0023437722 0.997738828
0.2623252798 0.0044602268 0.2444759865
0.2622904729 0.0030045056 0.7459624812
0.2724544687 0.249903833 0.4923967245
0.2724204023 0.2516083603 0.9939989338
0.2724115155 0.0036291716 0.4963745279
0.2722208179 0.4998743206 0.9946006494
0.2824422081 0.2514486427 0.7472575584
0.282395552 0.0019698759 0.7488821907
0.282537742 0.2504844458 0.2477770912
0.3025583958 0.2515389747 0.2462931678
0.3126187113 0.2526753262 0.4910822072
0.312465783 0.2505243752 0.9878429197
0.3127638637 0.0030626323 0.991582814
0.2923988434 0.2505773962 0.4959940585
0.3025813536 0.2518269901 0.7396944554
0.2924540161 0.5001911375 0.4933835382
0.3024954471 0.4992989445 0.2390586941
0.29242032 0.2497689895 0.994461792
0.3024421258 8.5623834259e-04 0.7462216818
0.2925432552 0.0017706216 0.4893011289
0.3124946654 0.4975767436 0.9893796089
0.2924947476 0.0031351598 0.9950727648
0.3225786793 0.2531276412 0.2371202439
0.3325941901 0.2529077022 0.4904027314
0.322725683 0.2519029214 0.7425836163
0.332777482 0.2528298072 0.9902775538
0.3226349628 0.0017331796 0.2388374479
0.332711571 0.0028075424 0.4867674431
0.3225883067 0.0025114102 0.7403915199
0.3326952784 0.0035159292 0.9859914869
0.3627621768 0.2537697846 0.2335145786
0.3527163024 0.2508758849 0.4871256953
0.3425241648 0.2512247762 0.7419615349
0.3525937376 0.0023905747 0.9898980101
0.3527859163 0.2507358047 0.9832698807
0.3425856324 0.0026636656 0.2382144407
0.3425149077 0.0033387343 0.7369136034
0.3424530698 0.2525136449 0.2386819275
0.3626103593 0.2529600687 0.7356638862
0.3627177424 0.0045066366 0.2337895163
0.3725340391 0.2523277441 0.4827933426
0.3826317536 0.2526556888 0.7285136527
0.3726821538 0.2518047344 0.9816221055
0.3825539935 0.001166444 0.7333449666
0.3825651021 0.2512588144 0.2297617243
0.3925109991 6.677846613e-04 0.4786276188
0.3926739252 0.0025293457 0.9814184479
0.3724933076 0.0010334987 0.4812307333
0.3727080738 0.004326496 0.9877040622
0.3927109538 0.2508915948 0.4784119268
0.3926628166 0.2486241285 0.9781599261
0.4124731476 0.0039734809 0.4703767085
0.4025605763 0.2492420523 0.7263187791
0.4025901993 6.6948657019e-04 0.226220859
0.402653148 2.6574141346e-04 0.7271871011
0.4026050107 0.4975394325 0.2258144695
0.4027531253 0.2503018179 0.2288202707
0.4126027479 0.252070494 0.4779000057
0.4128434341 0.2505610317 0.9720131692
0.4125953421 0.0025716971 0.9708837952
0.4126731023 0.4984322801 0.9752439195
0.4126064507 0.4984237705 0.4798180901
0.4226152965 0.2488172297 0.2266281742
0.442547822 0.2482202524 0.7135994358
0.4325871135 0.4993388739 0.9743089459
0.4325278677 0.4980650605 0.4669626664
0.4426477994 0.2483668784 0.2178866343
0.4225486449 0.4982129957 0.2253451313
0.4425404163 0.4989546352 0.7181493319
0.432490839 0.2502350507 0.4710765501
0.4226893538 0.2484166265 0.7227853196
0.4325611935 0.2516162152 0.9739942023
0.4427773997 0.4971997053 0.2155019888
0.4325352734 7.998789749e-04 0.9716984257
0.452741811 3.8127484434e-04 0.9583773666
0.4722818328 0.2477208076 0.4583581324
0.4625729192 0.2497748807 0.7131412062
0.4724632732 0.2500157663 0.9610156584
0.4624248046 0.2500242758 0.2095468552
0.4526529423 0.4989552898 0.9612470875
0.4626765994 0.4978071558 0.7133837439
0.4724891933 0.4991287536 0.4625414449
0.4525381534 0.2470616452 0.4640355511
0.4524011474 0.2463690992 0.9629966915
0.4726261993 1.9406486569e-04 0.9590809111
0.482498039 -2.6584328463e-04 0.2103707428
0.482498039 0.2508012627 0.7102289024
0.4823647359 0.2513511102 0.2151011536
0.4923402558 0.2511658639 0.4656759206
0.4921662211 0.2495955257 0.967143901
0.4824350903 0.4998088625 0.2093367176
0.5025194334 0.2512653602 0.2186697903
0.5124283017 3.5522254661e-04 0.9606824005
0.5224186331 0.0016891918 0.2198158272
0.5025157305 0.2498272471 0.7191500313
0.502530542 0.4976500566 0.7142344772
0.5123912731 0.2457937231 0.468977951
0.5023713187 0.0015743784 0.7173282214
0.5224260389 0.2503980412 0.217969023
0.5124023817 0.25358192 0.9689768194
0.5223816045 0.2505682321 0.7169533063
0.5125727135 0.4981697934 0.4715190425
0.5224741761 0.4980585147 0.2180745547
0.5225556392 0.4972226156 0.7176911023
0.552537742 0.2518132439 0.4770446437
0.5525340391 4.5052944483e-04 0.9801039306
0.5323867473 0.500126334 0.9685232184
0.5324311817 0.4996340896 0.4725743592
0.5326052164 9.9926414795e-04 0.4707729151
0.5324571018 0.250412442 0.4745313237
0.5323460158 0.2468947272 0.9666254998
0.5424437303 2.9722672805e-04 0.7246682268
0.5425029762 0.2526046315 0.2242824089
0.5425585192 0.2502507606 0.7235221899
0.5523377872 0.2531688798 0.9769009518
0.5624799361 0.4983792591 0.7305557831
0.5624243931 0.5003606738 0.2265411569
0.5626502679 4.6231189103e-04 0.231531694
0.5624243931 0.2501375182 0.2273715245
0.5625762106 0.2522832326 0.728953368
0.5722851242 0.004045812 0.4803531541
0.572429536 0.0024883035 0.983455024
0.5725258105 0.2470740822 0.4782915837
0.572485079 0.2484015712 0.9800946734
0.5924805533 0.4984702457 0.9830662231
0.5823458101 0.2492826363 0.7297772556
0.6023968273 0.2491320828 0.2344060435
0.5924139017 0.2479898401 0.4804633144
0.6022524156 0.2508359555 0.7375717877
0.5923620616 0.2482490539 0.9794096433
0.6023820159 0.5005079543 0.7402415538
0.5824124617 0.251011383 0.2298431873
0.5925101762 0.4992387231 0.4834117211
0.5824124617 0.5004208952 0.2311864018
0.6121686897 1.3331980969e-04 0.9868709175
0.612379753 0.4993578567 0.4898482273
0.6223478672 0.2522603223 0.7419263577
0.6224552503 0.4993519655 0.2378108284
0.6124315931 0.4990848967 0.9870005178
0.6226589079 0.499906395 0.741305202
0.6124464046 0.2487851552 0.4909637155
0.6122205298 0.252954832 0.9846584553
0.6223774902 0.2498724132 0.2379922688
0.6424914561 0.2498593216 0.2456618292
0.6526484165 0.2477044431 0.4869627692
0.642521079 0.2493808233 0.7397907299
0.6525262219 0.2495562509 0.9910829271
0.6324826104 0.4977888276 0.9917957287
0.6425395934 0.4978307207 0.7406442405
0.6526002792 0.5005655574 0.9908885267
0.6426395707 0.4989133966 0.2422894443
0.6525410334 0.4989061962 0.4955969261
0.6324566903 0.2496393826 0.4906971092
0.6325529648 0.2489069072 0.9896758382
0.662386953 0.0021028866 0.7390288653
0.6724106102 0.4980140032 0.4910905387
0.6824712961 0.4969928579 0.7424160616
0.6725735363 0.4995712499 0.9913884135
0.6825601648 0.4966256383 0.2401760338
0.6625720963 0.2487282067 0.243759482
0.6624536046 0.2495929074 0.7430066687
0.6826008964 7.6479346841e-04 0.24479073
0.6824046445 4.3056474431e-04 0.7437657562
0.6624499017 0.4951181398 0.7462337161
0.6622869757 0.4937081737 0.2427374911
0.6823861302 0.2482889833 0.2396631869
0.6723735816 0.2472907483 0.4929614115
0.6823713187 0.2466669332 0.7468252489
0.6723661758 0.2455089806 0.9931195032
0.7022890328 0.246049664 0.2387606134
0.6923024043 0.2487805732 0.4889910139
0.7024815818 0.2474072636 0.7338550364
0.6924875475 0.2460058071 0.992767731
0.7024260388 0.4993382193 0.7398314615
0.7022890328 0.0012464337 0.7396685354
0.702422336 8.6644979597e-04 0.2436854247
0.6924616275 0.4982725625 0.9891666942
0.6925356848 0.4971944686 0.4930104745
0.7122756613 0.2480206054 0.4917607573
0.7122275241 0.2494554455 0.9894906949
0.7223215357 0.4980644059 0.7431955149
0.7223178328 0.2485429605 0.2396789241
0.7324970104 0.4985239213 0.9946839639
0.7324081416 0.2535917387 0.491778346
0.7222733985 0.4982941636 0.2434040069
0.732371113 0.5002382672 0.4898287872
0.7224770561 0.2500576594 0.7423873644
0.7323266786 0.2492990008 0.9904349256
0.712505239 0.4980801158 0.9907218977
0.7623384043 0.4994632441 0.7476778337
0.7423207129 0.003629368 0.7435047041
0.7524332388 0.4992112307 0.9915180138
0.762512439 0.5000615306 0.2447527757
0.7624383817 0.2488689415 0.2436243274
0.752622085 0.2500877701 0.4940657912
0.7624791132 0.2495889799 0.7483730467
0.7525554334 0.2466139122 0.9916568713
0.7424317988 0.4987484424 0.7413848136
0.7524369417 0.4974019706 0.4952183081
0.7424243931 0.2508719574 0.242313513
0.7424169874 0.249805646 0.743651893
0.7828115482 0.4994697899 0.248351961
0.7825597534 0.4978137016 0.7486739045
0.7825449419 0.2483282582 0.2479326115
0.7724435246 0.2500085659 0.4976473879
0.7823931244 0.2484591742 0.7505901375
0.7725064733 0.2467788665 0.0015550427
0.7925315705 0.4980460777 0.4943481347
0.812656645 0.4976376195 0.4975344505
0.8026218792 0.4979295624 0.7468437632
0.802710748 0.4975427054 0.2463764822
0.792572302 0.247235109 0.4944943979
0.7925093533 0.2481901417 0.9980443144
0.8125640734 0.0015155317 0.4972104498
0.8026107706 0.2484146628 0.2469263578
0.8125973992 0.2483976437 0.4982435493
0.8022923242 0.2477162255 0.7476047021
0.8126418336 0.2488709053 0.9930269316
0.8325558448 0.0026527996 0.4938139963
0.8225803249 0.2512136483 0.2458553039
0.8325040047 -3.4059636002e-04 0.9919716149
0.8324595703 0.250506047 0.4973104272
0.8227062223 0.24884014 0.7459921041
0.832411433 0.2493395848 0.001476542
0.8326150906 0.4993945132 0.491487671
0.8326224964 0.4961870695 0.996831626
0.8225099704 0.5000962233 0.2424394104
0.8425202561 0.4989926008 0.7536246358
0.8424980389 0.5002513589 0.253189755
0.842690588 0.0017761201 0.2507143893
0.8424943361 0.2489206534 0.2507403094
0.8425091475 0.2513648564 0.7492098943
0.8626342221 0.2496937128 0.2577609425
0.852469856 0.248734098 0.5090910941
0.8624675932 0.2503509114 0.7561925731
0.8525402105 0.248261491 0.0044950254
0.8925015361 0.4978876692 0.0107301882
0.8724542217 5.7594703891e-04 0.5067175572
0.8823704958 0.2493749321 0.2588505107
0.8724616274 0.2469981509 0.5080394803
0.8925718905 0.2486365655 0.5084893784
0.8824556617 0.2493539856 0.757283067
0.8725986335 0.249345476 0.0068765234
0.8924978332 0.0017441111 0.5088920651
0.8724690332 0.0025389026 0.0104338664
0.8923015813 0.2449290224 0.0124906231
0.8724060844 0.497161085 0.5095882038
0.8924793189 0.4991817746 0.5080015259
0.9125969877 0.4978346482 0.5125162448
0.9024326216 0.4991045341 0.7593455632
0.9126562336 0.4982273964 0.0125244118
0.9023844844 0.4995103739 0.2620701524
0.9124266559 5.3811229497e-04 0.5132096064
0.9023770787 0.2503103274 0.2611175902
0.9124710903 3.9587198603e-04 0.015125212
0.9123748158 0.2484853574 0.5141742029
0.9024067016 0.2499758369 0.7624550446
0.9122341069 0.2525705934 0.0131556578
0.9423717301 0.2483020749 0.7730045087
0.9324369416 0.252135952 0.0177395277
0.9325480276 0.4986777477 0.5166477171
0.9324332388 0.4987464786 0.0183036593
0.9222466555 0.4989998012 0.7670891809
0.9225428847 0.4974877206 0.2625080163
0.9423569186 0.499099952 0.7723361415
0.9225169647 0.2458696544 0.2657128464
0.9226872965 0.2483204032 0.764758227
0.9423606215 0.2496276001 0.2753014169
0.932425833 0.2491870676 0.5178983599
0.972487136 4.4983978114e-06 0.5359766755
0.962596782 0.0029056639 0.7817562316
0.962237604 0.2512450682 0.2807122293
0.952236164 8.0354462483e-04 0.0284147041
0.9725908163 0.0028891031 0.0336911024
0.9524324159 0.2492747813 0.5271647811
0.9725093532 0.2503011633 0.5294040891
0.9623931244 0.2519840894 0.7808971667
0.9523953873 0.2482542906 0.0236938282
0.9524879589 0.0010109157 0.5307250864
0.9723538329 0.2524710972 0.0329662665
0.9724389988 0.4986168717 0.5352731311
0.9625079132 4.7226151228e-04 0.2858693954
0.9523731701 0.4980022208 0.5237775848
0.9625819705 0.4994246239 0.7766620142
0.9824552502 0.2529855973 0.2850658735
0.9823293528 0.0017666941 0.7826912051
0.9925677762 4.0713076796e-04 0.0381994339
0.9925418562 0.2524409865 0.5348972902
0.982518199 0.2507371138 0.7851471307
0.9923233871 0.2532330287 0.031059013
0.9924529874 0.4989592173 0.0363560548
0.0225081521 0.7495783939 0.7763537506
0.0025352283 0.5006153055 0.2800558964
0.0025396347 0.7511690241 0.7800723534
0.0123634112 0.5004752253 0.5352916454
0.0024682804 0.5006879639 0.7806064918
0.022413766 0.998083276 0.2749589018
0.0224089893 0.9958904319 0.7767268143
0.0123348621 0.7499973253 0.0312351768
0.0224637177 0.7472415421 0.2752764226
0.0025338952 0.7458211027 0.280980687
0.0126262406 0.7482495958 0.5258826639
0.0525768279 0.998718219 0.5241626828
0.0524898105 0.9976970736 0.0225893559
0.0325032232 0.7506126308 0.0239003555
0.0423983909 0.7508548256 0.2708089152
0.0325409924 0.7531000362 0.5272249527
0.0424813351 0.7525567345 0.7755807774
0.0424009829 0.5016672161 0.7798446272
0.032354368 0.4990115837 0.0273315233
0.0323821394 0.5005766853 0.524420032
0.0423391451 0.9972912338 0.2702358968
0.0525797902 0.499466517 0.5182140292
0.052365024 0.7487601685 0.0204640962
0.0525260986 0.7500366001 0.5211679903
0.0423672868 0.9985218449 0.7713104477
0.0726693172 0.4998730114 0.0242161174
0.0725641559 0.9973763293 0.5200404677
0.0725993331 0.9995888108 0.0228760503
0.0724775088 0.745880015 0.0187444854
0.0624386699 0.7524912764 0.2720132723
0.0724360367 0.7498336802 0.5216993515
0.0624408916 0.7515617723 0.7682102235
0.0924814997 0.9986920358 0.5164505395
0.0925455592 0.7501871536 0.0199873523
0.1025310769 0.749375474 0.2701137022
0.0825396758 0.7512475738 0.2681123033
0.0925344506 0.7473004543 0.5193054489
0.1024629442 0.7504097109 0.77234077
0.0824182218 0.7526614673 0.7717048029
0.1024388756 0.9982272837 0.7665809626
0.1026188348 0.5003554371 0.7698218957
0.0825415272 0.5006624353 0.774498615
0.0927414408 0.5003783474 0.0175025443
0.0825248643 0.5025600637 0.2698813474
0.112634716 0.7469928015 0.0159531728
0.1226331937 0.7505537186 0.2667876032
0.1125721376 0.7481645004 0.5151295422
0.1225339569 0.7489958174 0.7677047823
0.1226494863 0.9984105662 0.2644955294
0.1224754516 0.9983778372 0.7681195032
0.1226720738 0.5010617293 0.2689741453
0.11249771 0.999117513 0.5182066235
0.1424235292 0.7503507987 0.2623145415
0.1525134677 0.7536695211 0.5164727567
0.132465783 0.7510904745 0.5148471987
0.1424227887 0.7459978394 0.7695228893
0.1525353146 0.5016410329 0.5158192009
0.132492814 0.9991371504 0.0130197626
0.1425605353 0.4977763906 0.2602779654
0.1425009191 0.9992091542 0.2639724996
0.1326712921 0.998050547 0.5134678812
0.1425934908 1.0014085442 0.763449264
0.1523149941 0.9988818641 0.0196780704
0.1524101578 0.7520527076 0.0156781424
0.1324991088 0.7478633934 0.0186668178
0.1725585604 0.7508875546 0.0169213795
0.1624678813 0.7486357982 0.2669977408
0.17263558 0.7537677081 0.5148879302
0.1625856325 0.749473661 0.7673289414
0.1823459748 1.0004921317 0.7627151709
0.1725230129 0.5041448027 0.013071973
0.1727551826 0.5033723979 0.5164320252
0.1827643986 0.7495718481 0.2602918512
0.1825929559 0.7476211987 0.7604267999
0.1726033651 0.9982469211 0.0154586551
0.1625919273 0.9997982765 0.7622217641
0.1827010796 0.501385092 0.2576628166
0.2025521421 0.4997041297 0.7548845359
0.1925284849 0.5005557387 0.5061834189
0.1926221674 0.7501478788 0.0026132291
0.2025291843 0.7496438519 0.253884968
0.1924377647 0.7502787949 0.504870753
0.2026332348 0.7498533176 0.7534589326
0.2327090201 0.7520461618 0.002423087
0.2325264689 0.5021404777 0.0036525309
0.2325927502 0.7533029561 0.5013641393
0.2125324757 0.7513784899 0.0030009192
0.222645372 0.7498533176 0.2499969591
0.2126102359 0.7505537186 0.5047180098
0.2226105651 0.7481972294 0.7532043606
0.2325068437 0.5010800576 0.5018501404
0.2225931616 0.5049852839 0.7536200072
0.212593573 0.5004961719 0.006138172
0.2225583547 0.5047561808 0.2492674946
0.2125409923 0.5011847904 0.5028351027
0.2523956754 0.7518890625 -0.0011078731
0.2424312641 0.7537873455 0.2489073909
0.2522427471 0.7536237004 0.4969382892
0.242450519 0.7516272304 0.7470085407
0.2425230951 0.5043725967 0.7485989215
0.2622697368 0.5027819665 0.7473297643
0.2623530513 0.753204769 0.2485010014
0.2423968274 0.5015696837 0.2494535636
0.2623400913 0.7534273263 0.7473205071
0.2623563839 0.5004058398 0.2467227002
0.252380864 0.5013405805 0.4967651802
0.2724352138 0.9990258717 0.9954985943
0.2824551681 0.5049191713 0.2412905963
0.2724922379 0.5026693786 0.496847569
0.2822396613 1.0016376473 0.2439316652
0.2823803702 0.5016233593 0.743185332
0.2823511176 0.7542324602 0.2417793746
0.2824429487 0.7518628793 0.7444535634
0.2724633556 0.7524127268 0.9973777986
0.2722045253 0.756137289 0.4937186475
0.3126894361 0.9998899178 0.4899778276
0.2923299701 0.7540295402 0.9913328705
0.3025654312 0.7496569435 0.2420172837
0.2925617695 0.7517123258 0.4916922543
0.3025287729 0.7516926884 0.7401091764
0.3024099109 0.4998743206 0.7383466123
0.2923832914 0.5008980842 0.9952208794
0.3024658241 0.9992287916 0.2439474024
0.3123187792 0.7529691201 0.990795955
0.3125235477 0.7510511997 0.4883337552
0.3125328049 0.5019113746 0.490674892
0.332674172 0.5026903252 0.4873524958
0.3225220254 0.5026248672 0.7371913183
0.3328071049 0.7527138338 0.9879077199
0.3325008779 0.5034110182 0.9869634891
0.322612005 0.7504555316 0.2371295011
0.3325275386 0.7553845216 0.4866350656
0.3226075616 0.7529625743 0.7314028136
0.322636444 0.5004352959 0.2368017975
0.3526107707 0.5035569896 0.4890706255
0.3526689057 0.9993269787 0.485625109
0.3626584966 0.7520199786 0.2335627158
0.362728851 0.7483477829 0.7325479248
0.3627177424 0.5035452071 0.7348279643
0.3626214679 0.5042573906 0.2419913636
0.3526822361 0.7544877465 0.9876392621
0.342477879 0.7520657992 0.2371563469
0.3527140807 0.7527007421 0.4862110875
0.3427204167 0.7528447498 0.737489399
0.3625955479 0.9994120741 0.7346289353
0.3427278224 0.503144604 0.7394074833
0.3525907753 0.5017163097 0.9879262342
0.3425652666 0.4998834847 0.2377321425
0.3726340165 0.5024572946 0.9863710306
0.3824355018 0.5016789986 0.2364361395
0.3727376967 0.5014970252 0.4840375054
0.3926405994 0.5021738613 0.9847232554
0.3826984052 0.5014374584 0.7325877306
0.3724451704 0.7512933944 0.9844547977
0.3824873419 0.7511428409 0.2282167036
0.3725673649 0.7494867527 0.485798218
0.3825613992 0.9990062343 0.2338098821
0.3825799135 0.7493296534 0.7323118671
0.3926146793 0.7499580505 0.9848435986
0.3926109765 0.7478568476 0.4816463799
0.3926072736 0.500847027 0.4819472378
0.4025901993 0.5009419411 0.7334551269
0.4027160967 0.7496634893 0.2345671181
0.4025050334 0.7543175556 0.7278156626
0.412599045 0.7506715431 0.971772483
0.4125286905 0.7491529167 0.4790562255
0.422681948 0.9963159091 0.7196425125
0.4426959366 0.9992746123 0.2168748262
0.4326389537 0.9977887149 0.4707321836
0.4427366682 0.9964730084 0.7173439586
0.4226708394 0.5001695363 0.7259003553
0.4326648737 0.7480466759 0.9713651678
0.4225486449 0.7499645963 0.2230114003
0.4326611708 0.7487732601 0.4720291123
0.4224931019 0.7530018491 0.7275416505
0.442658908 0.747110626 0.2196399411
0.4426477994 0.7487798059 0.7181289661
0.4226227022 0.9989015015 0.2235816416
0.4725891707 0.9969312146 0.4594912093
0.4724854904 0.5016148497 0.9626819479
0.4626099479 0.5000726584 0.2145522038
0.4724632732 0.749742039 0.9583773666
0.4627395482 0.749008909 0.2109983785
0.4724743818 0.7492838327 0.4609566184
0.4624988619 0.7486488898 0.7135263042
0.4526418337 0.998816406 0.4614713167
0.4625803249 0.9990258717 0.2116473057
0.4625766221 0.9972715964 0.7094346377
0.4525455591 0.7482234126 0.9675697305
0.4526677537 0.7468226107 0.4653602513
0.4526085079 0.5006755269 0.4684697327
0.4924883704 0.501112132 0.9651906394
0.4921995469 0.5014354947 0.463357001
0.4822277298 0.5004732616 0.7110435328
0.4823647359 1.0001713873 0.7038488649
0.4923291472 0.9989342305 0.4625618106
0.4924032045 0.9996215399 0.9675882448
0.4923513644 0.7529822117 0.4618740033
0.4924217189 0.7487012562 0.9570906208
0.4824832276 0.7473855497 0.2097051527
0.4825239591 0.7491921915 0.7087523847
0.5024824047 0.4998828301 0.215648252
0.5124542218 0.998318925 0.4681966463
0.5225000962 0.9962962717 0.720682092
0.5023565073 1.0002695744 0.2170405295
0.5226222907 0.7470909886 0.7183668753
0.5025712735 0.7492445579 0.2175126448
0.5026083021 0.7504097109 0.7133291266
0.5126504737 0.7505864476 0.9690879054
0.5124023817 0.5008817197 0.9649592103
0.512613445 0.7480074011 0.4695657809
0.5225630449 0.7476342903 0.2172034556
0.552482199 0.9995560818 0.47916546
0.542506679 0.5001413894 0.7246626725
0.542562222 0.7509006462 0.2201240908
0.5523525987 0.5009877617 0.4755033259
0.5526266107 0.751339215 0.4799347303
0.5424918676 0.7504882606 0.7249764904
0.5323793416 0.9963682755 0.9649314388
0.542536302 0.500586504 0.222591125
0.5324941304 0.7496962184 0.9744385462
0.5525525534 0.50145055 0.9784561554
0.5423215358 0.9980440012 0.2210442529
0.5324867247 0.7510184707 0.4677023138
0.5725850564 0.5010859488 0.9835661099
0.5624984504 0.9989211389 0.7253680684
0.5526636394 0.7490940044 0.9797521584
0.562509559 0.751673051 0.2307587208
0.5624429075 0.7506453599 0.7331644519
0.5724554561 0.7480335843 0.9788819849
0.5724887818 0.5011644984 0.4786664988
0.5724443475 0.747045168 0.4847623414
0.6022783356 0.5025548271 0.235285474
0.6025338334 1.0002957576 0.2384736413
0.6024079359 0.9971472261 0.7348131528
0.5924620389 0.7471629924 0.9834920526
0.5925175819 1.0007539638 0.4770168722
0.592376873 0.9978999935 0.984019711
0.6026227021 0.7481579546 0.2342366374
0.5924842561 0.7468815229 0.4868553861
0.6026041878 0.7489238136 0.7385650814
0.5825087362 0.9977821691 0.2330100631
0.5826124164 0.9957267868 0.725806858
0.5824013531 0.5013818191 0.7277545653
0.5823828387 0.7476146529 0.2347976215
0.5824717075 0.7484656073 0.7304002628
0.6123871587 0.7492903786 0.9899442959
0.6123205072 0.9948365575 0.48353947
0.6126574679 0.7496831268 0.4892752088
0.6224219245 0.9964664626 0.7386743159
0.6227070452 0.7480335843 0.2374405418
0.622518199 0.7481252255 0.7389455509
0.6224737647 0.9991960626 0.2385115957
0.6424285074 0.9981552799 0.7373764616
0.6326677537 0.5018000959 0.4891039513
0.6424470217 0.9996673605 0.2403926514
0.6523003471 0.999850643 0.4916765172
0.6524780847 0.9997459101 0.9932120748
0.6324233645 1.0007801471 0.4906443434
0.6324455817 0.9983778372 0.9899813246
0.632767731 0.7495129359 0.989101894
0.6327714339 0.747110626 0.4910692472
0.6523892159 0.7476997483 0.9896295524
0.6427506567 0.7462007593 0.2393743634
0.6524188388 0.748675073 0.4920208837
0.6427506567 0.74478032 0.7395898495
0.672636485 0.7470255306 0.9873430328
0.6624647132 0.9969835811 0.2429328172
0.6723032271 0.9970948597 0.9912310417
0.6824231588 0.7498925925 0.2414886996
0.6725068847 0.7479812179 0.4912099561
0.6823009642 0.7483412371 0.7412033732
0.6724772618 0.999582265 0.4908109723
0.6625128505 0.7491005503 0.2425264277
0.6625461762 0.7480728591 0.7430298116
0.7024297417 0.500333836 0.2397751986
0.692365353 0.9994644406 0.4866748714
0.6924097874 0.9996411773 0.9859081724
0.6925467934 0.748943451 0.9903053253
0.7024704732 0.7488714471 0.2404963317
0.6923801644 0.7473790039 0.4891159856
0.7024667703 0.7497027642 0.7386280301
0.7124756161 0.4998376641 0.4885605557
0.7125126447 0.7499384131 0.4922356499
0.7222882099 0.9988753183 0.7409700926
0.7321674554 0.9996542689 0.9897684098
0.7323822216 0.7503311613 0.9897684098
0.7224881647 0.7479484888 0.2385523272
0.7323674101 0.7497354932 0.4886873789
0.7224807589 0.7496962184 0.7412663219
0.722258587 0.9993793451 0.2428578342
0.7323192729 1.0001648415 0.4939176766
0.712368233 0.7494212946 0.9893240659
0.7124163702 0.99868549 0.4917311344
0.7123423129 0.9981356425 0.9877503481
0.7425317762 0.4999221049 0.2426949081
0.7423540386 0.7496503977 0.2410249157
0.7425502905 0.7491005503 0.7403887427
0.7525072961 0.7481186797 0.9925363019
0.76234581 0.998849135 0.7395713351
0.752455456 0.9977821691 0.9960817957
0.7624087588 0.7496831268 0.2433225438
0.7524702675 0.7513915815 0.4920255122
0.7624420846 0.7463840418 0.7427863482
0.752399913 0.9973436003 0.4924198674
0.7422022212 0.9977821691 0.2394058377
0.7623013757 1.0000601087 0.2438594593
0.7824005302 0.9982141921 0.2473910674
0.7723250329 0.9996477231 0.4941500314
0.7823597986 0.9995102612 0.7472464498
0.7724842561 0.9989145931 0.9977665995
0.7824634789 0.7499384131 0.2461163559
0.772513879 0.7500955124 0.4956867206
0.7824560732 0.750939921 0.7475176847
0.772513879 0.7515355891 0.9972667127
0.7725064733 0.501857699 0.4977658796
0.7725323933 0.5021607697 0.9980535716
0.7925537877 1.0000142881 0.4959375897
0.7925278676 0.7506715431 0.9961465958
0.7923390215 0.9992222458 0.9970260264
0.8124826103 0.7465215037 0.9960169955
0.7924093759 0.5006611261 0.9952579081
0.8024219245 0.9985480281 0.2437928078
0.8125640734 0.5010931492 0.9952301366
0.8027255595 0.750108604 0.2481945893
0.8124863132 0.7482561416 0.4922171355
0.8024848732 0.9989145931 0.7450145476
0.8026922337 0.7491594625 0.7447794156
0.8123530101 0.9993597077 0.9974148273
0.7924834332 0.7476735651 0.4963430535
0.8225284847 1.0004266737 0.749439472
0.8223692615 0.9999357384 0.24351139
0.8324928961 0.7497616764 0.9946747067
0.8227025194 0.4996792556 0.743874065
0.8226210564 0.7511559325 0.2404574516
0.8325077075 0.7491594625 0.4929530801
0.8227839825 0.7514374021 0.7442110257
0.8425646905 0.753106582 0.250646812
0.8425720963 0.7508286424 0.752579502
0.8626971708 0.5022301552 0.7537246132
0.8426202335 0.9990651466 0.7502911311
0.8625416505 0.9983123792 0.2568426319
0.8626008963 0.9976970736 0.7528266683
0.8525994563 0.9997851849 0.0013643451
0.8624824046 0.7541277273 0.7566396942
0.8524032044 0.5019113746 0.5035803044
0.8527142452 0.7513850357 0.0032028179
0.8525698334 0.5001531718 0.0047446911
0.8626601422 0.500998235 0.2573165987
0.8625712734 0.7492641953 0.2550661821
0.8526253764 0.7491725541 0.5036608417
0.8524032044 0.9986527609 0.5067434773
0.8824260388 0.9998637346 0.7567193058
0.8924052616 0.9988033144 0.0026566452
0.8824815818 0.7498991383 0.7553853484
0.8726689879 0.7487143478 2.236773761e-04
0.8925274561 0.7488779929 0.0121786567
0.8825556391 0.5016312142 0.7566452484
0.882474176 0.5012528668 0.2584228298
0.8824223359 0.7503180697 0.2562325848
0.8724949532 0.7493951114 0.5054021142
0.8923756387 0.7495063901 0.5097400213
0.872720828 0.4994671716 0.0080533867
0.8825186104 0.999451349 0.256329785
0.9123377871 0.7465869617 0.5087791277
0.9022400726 0.9949674736 0.2647889815
0.9024992732 0.9991306046 0.7619625635
0.9025437076 0.7495522107 0.7568479803
0.9125229304 0.7510904745 0.0144471247