POSCAR file written by Ovito 3.7.11
1
270.0677909578 0.0 0.0
0.0 15.2773413093 0.0
0.0 0.0 10.8027116383
Sr Ti O 
800 800 2400 
Direct
0.022540957 0.4999469803 0.7772827915
0.0125034401 0.4986306518 0.0321753343
0.0123422584 0.2488561706 0.5279777938
0.0223717032 0.2507465518 0.7769143655
0.0023996807 0.2527115534 0.7794850164
0.0123451095 0.2495126984 0.0284430306
0.0026215138 -0.0012360361 0.2780331419
0.0224045468 0.4994482024 0.2741294924
0.0124073902 0.0017615404 0.5266447952
0.0024718107 -0.0028135357 0.7763802403
0.0123722138 3.4283809921e-04 0.0262358996
0.0224497576 0.2478245775 0.2783265868
0.0025670831 0.2513742789 0.2831133479
0.0423867519 0.5009687549 0.2725400767
0.0325303377 0.2476701003 0.5240398937
0.0424645102 0.2481944062 0.7717138194
0.0526175165 0.4980251799 0.0221747896
0.0325007155 0.2508342634 0.0263415212
0.0323803754 3.0035688557e-04 0.5227466998
0.0324299926 -0.0025951731 0.0203838504
0.0423652758 0.2494518239 0.2714144334
0.0525579019 0.2512544936 0.5175257885
0.0525164308 0.2474495122 0.0188866337
0.0626257444 0.2506359305 0.2662129616
0.0624691171 0.5009694095 0.7682332118
0.0624761523 0.4998599233 0.2686493869
0.0725062266 0.4971971563 0.5231410453
0.0724625339 0.2498039795 0.5147949926
0.0624954068 0.2515608297 0.7663309117
0.072534738 0.2522592496 0.017483375
0.0624617115 -5.9842515523e-04 0.270998797
0.0624513438 -7.1585396459e-04 0.7666724926
0.1025453511 -0.0015531724 0.2714023993
0.0924571433 0.2510404511 0.5217099231
0.0825811044 0.0031621114 0.2735833332
0.1025846005 0.2473827467 0.7697967081
0.082544447 0.2521800473 0.771126004
0.0924178939 0.2506503309 0.0210545154
0.0824596535 3.0336788068e-04 0.7722053626
0.0927392947 4.7113267352e-04 0.022121192
0.1026867971 0.2509331026 0.2704100559
0.0824703915 0.2510299781 0.2729205367
0.1025353536 0.4980493988 0.2689363519
0.0923642037 0.5035798114 0.5221773983
0.1125972718 -8.6241087882e-04 0.0176296345
0.1226351219 0.2524863834 0.268078234
0.1126017151 0.2478186864 0.5195484288
0.1225473661 0.4968515464 0.7677314859
0.1124461986 0.4971447912 0.0158510996
0.1226436382 0.2491225782 0.7686497739
0.1125672793 0.2466201794 0.0206145332
0.1125195135 0.4959763941 0.521061012
0.1525016971 0.2517133431 0.5094491126
0.1326629745 0.2480589114 0.5107959967
0.1425367917 0.2492646186 0.7610794524
0.1526935008 0.248325319 0.0058169523
0.1327074077 0.2520281885 0.0168239109
0.1427208195 0.2470279729 0.2619843936
0.1426489857 0.49624542 0.7609331928
0.1524098683 0.49863327 0.0132771162
0.1324445108 0.4949893114 0.0131314121
0.1325741079 0.4983262795 0.514268273
0.1525183596 7.2215802685e-04 0.5145589408
0.1824297384 0.2497771423 0.7565000466
0.1825411919 0.2521649924 0.2579122679
0.1627117262 0.4990129173 0.7613256869
0.162415134 0.5031726725 0.2627953011
0.1724644627 0.2481322226 0.5072154142
0.1825952524 0.5005949988 0.7572655952
0.1624540131 0.2526722796 0.7573146569
0.1724914929 0.2503943963 0.0084157442
0.1624447562 0.0022053349 0.2663046052
0.1626461871 0.2496783031 0.2600265519
0.1725188934 -0.0015137022 0.5116032014
0.1825622977 5.8450318512e-04 0.2607124908
0.2022791991 0.2512715123 0.2524080943
0.1925653417 0.4975997132 0.0089862491
0.2025743102 0.4990011351 0.2541983856
0.192541644 0.2514593722 0.5065729829
0.2024728542 0.2500658051 0.7543950196
0.1923861275 0.2494485511 2.4224085383e-04
0.1923687244 8.7113682845e-04 0.5126297955
0.2023788037 0.0034446867 0.7544135335
0.192565712 -0.0020451428 0.0073439763
0.2025435771 1.4115980722e-05 0.2544770193
0.2124310946 0.2505986203 0.5036922247
0.2225185619 0.2571553895 0.7528009754
0.2124007319 0.2510594335 -0.0029788948
0.2224763502 -6.8548218781e-04 0.2547667614
0.2123481525 0.0031649915 0.5059296259
0.2126029033 0.002473379 0.0025825792
0.2222701057 0.0016064087 0.7500664768
0.2323764571 0.0026717774 0.4995941796
0.2225074536 0.2542235966 0.2535198522
0.2323098072 0.2500723508 0.5011650815
0.2326293566 0.2482605172 0.0018334154
0.2323272103 0.005768324 1.0064558069
0.2524517871 0.2491022867 0.4974465706
0.2423906095 0.2520386615 0.7483557952
0.2624452039 0.2513867156 0.247730565
0.2524395679 0.2503983237 0.9983745026
0.2424020881 0.2555307613 0.2488737965
0.2423354382 6.2436614214e-04 0.2513833516
0.2523573663 0.5020638408 0.998874377
0.2525188073 0.002470368 0.4988471449
0.2423957934 0.0022197354 0.7520104331
0.2625025969 0.2518089095 0.7458055096
0.2523351497 0.0023996096 0.997309955
0.2624070653 0.0039067436 0.2481554584
0.2624444633 0.0041728239 0.7445456407
0.272621908 0.2522186666 0.4980973332
0.2723975199 0.2525060203 0.9986892383
0.272460467 0.0030275984 0.4938946847
0.2723230941 0.503718579 0.9976524616
0.2822924429 0.2523240515 0.7479688553
0.2824190777 -9.0430298472e-04 0.7426849968
0.282554229 0.2531003645 0.2463170311
0.3024447905 0.2507962987 0.2423930163
0.3126177918 0.2509488122 0.4928440225
0.3124830109 0.2505384004 0.9944403052
0.3125570663 0.0023068578 0.9956992483
0.2924802553 0.2499290012 0.4955507503
0.3024225738 0.2517774904 0.7422443667
0.2922810461 0.5031968913 0.4927310879
0.3025340273 0.5010525392 0.2369795607
0.2926194796 0.2494806248 0.9907375311
0.3025355084 -2.5432077912e-04 0.7443864214
0.2924943259 0.0032278296 0.4953304353
0.3124537589 0.5024055233 0.9894878449
0.2924654442 0.0027922172 0.9949309227
0.3224686518 0.2554234127 0.2435843838
0.3326127715 0.2525806406 0.4921895572
0.3225541859 0.2519352403 0.7413399641
0.3326061065 0.2538033664 0.9921075575
0.3226134303 0.0013392811 0.2366833387
0.3326179554 0.0018927806 0.4906714199
0.3225090121 7.0540118449e-04 0.7393386147
0.3326638698 0.0042132105 0.9907930727
0.3626767046 0.2520111698 0.2327546955
0.3525884968 0.2526415151 0.4882646168
0.3424125333 0.2532757877 0.7408095417
0.3525092575 0.0030366969 0.9918020787
0.3526858798 0.2502098092 0.9897007544
0.3426135939 0.0022588783 0.2385041779
0.3425628659 0.0017127754 0.7384814226
0.3424817751 0.2555346886 0.2397233162
0.3626026492 0.253248296 0.7354488506
0.3626470824 0.0015037731 0.2346690297
0.3724075948 0.2498511081 0.4867316683
0.3825680067 0.2532365139 0.7306750492
0.3727112222 0.2535042306 0.9813324851
0.3825272762 2.8294547905e-04 0.7377556788
0.3825013567 0.2535349951 0.2328444878
0.3924321967 0.0016614576 0.4779061064
0.3926691742 0.0022040913 0.9831931291
0.3725705168 0.0024712844 0.4795769832
0.3725631113 0.0026946871 0.9825451436
0.3926765797 0.251018196 0.4803730796
0.3927099047 0.2536560895 0.986618195
0.41271229 4.7833287923e-04 0.4769119116
0.4026296363 0.2511949283 0.7289847329
0.4025889058 -1.9953375937e-04 0.2302988306
0.4025629864 4.9790434745e-04 0.7342982136
0.4028110722 0.4994423113 0.2292694595
0.4026814751 0.2476962829 0.2276319077
0.4126197206 0.2485197246 0.4777376302
0.4125234485 0.2489504278 0.9782221549
0.4125938012 3.0061871123e-04 0.9762319139
0.4127715344 0.5004182665 0.9784535783
0.4126308289 0.499897888 0.4770081837
0.4226542382 0.2477152652 0.2241707396
0.442582568 0.2486794382 0.7149651048
0.4325998892 0.50066831 0.9686875118
0.4324999143 0.4998965789 0.4682029871
0.4427010568 0.2488182058 0.217941748
0.4226283188 0.4992321962 0.2247280071
0.4424825931 0.4989520428 0.7145864961
0.4326184031 0.2498144525 0.4714827192
0.4227356992 0.2512446752 0.7263622432
0.432718378 0.2519064395 0.971945953
0.4427121651 0.4986365429 0.2174039201
0.4326072948 -4.682394208e-05 0.9732789516
0.4526541133 -7.4085831529e-04 0.9608931725
0.472486171 0.2474855132 0.4571696462
0.462555331 0.2464951577 0.7180948745
0.4725824431 0.2495506631 0.9650310225
0.4623294618 0.2486251094 0.2096364259
0.4527207633 0.4986731985 0.9631611216
0.4625960616 0.5007023473 0.7151946767
0.4725306043 0.4982235129 0.4637818749
0.4526355994 0.2478193409 0.46641825
0.4528281437 0.2494943706 0.9627630734
0.4725824431 -0.0035971799 0.9642164122
0.4823725776 -0.0017151771 0.2103593925
0.4825243913 0.2486224912 0.7126351342
0.4824688497 0.249166434 0.2167068729
0.492410798 0.2504683621 0.4659507748
0.4925440978 0.2493804765 0.9635221421
0.482350361 0.4997414472 0.212858765
0.5024638294 0.2509566669 0.2172845057
0.5122798834 5.9150702157e-04 0.9663640211
0.5223588342 0.0019733574 0.2221314369
0.5022897991 0.248406485 0.7174626258
0.5022601769 0.4993441267 0.7124777663
0.5125057526 0.2457941194 0.4674957573
0.5024268017 0.0023846855 0.7148975291
0.5225772979 0.2511936192 0.2178454759
0.5124242916 0.2524602008 0.9677618183
0.5225032424 0.2509128111 0.7230047528
0.5124428054 0.4986620709 0.469372138
0.5224069703 0.4977829912 0.2195228326
0.5224254842 0.5020795503 0.7211413318
0.5525216314 0.2524602008 0.4776968997
0.5525068203 -0.0013997426 0.9782591827
0.5323970546 0.4996151163 0.9726309662
0.5325229489 0.500913117 0.4705922021
0.5326636543 -0.001144528 0.4737589995
0.5325340573 0.2475542425 0.4725194959
0.532422974 0.247503841 0.9660307715
0.542353814 0.0013362701 0.7227381531
0.5424760055 0.2505298911 0.2271098165
0.5424278694 0.2504140333 0.7242359252
0.5524920092 0.2509226296 0.9761300876
0.5623821186 0.4975997132 0.7281969677
0.5624561741 0.5027210232 0.2314355823
0.5624265519 0.0014381203 0.2320150664
0.5625524462 0.2497201952 0.2305367339
0.5626820433 0.250345304 0.7324357183
0.572453664 0.0018851222 0.4824336734
0.5725240167 -9.39322167e-04 0.9860998067
0.5722870391 0.2506287303 0.4788169889
0.5722055781 0.2507622614 0.9787035156
0.5924671575 0.4969196211 0.9830913028
0.5824363427 0.2497241226 0.7324310898
0.602323942 0.2495329899 0.2386226666
0.5922264772 0.2496822305 0.4836907652
0.6022684004 0.2480222558 0.7406762419
0.5923486688 0.2483128823 0.9817490472
0.6025794334 0.4995836972 0.7350470997
0.5823400706 0.249900855 0.2320261747
0.5924560492 0.4983334797 0.4838509101
0.5824178289 0.5013909488 0.2326084359
0.6124325151 -0.0022682183 0.9932461605
0.6124473262 0.4997813756 0.4885312165
0.6222670829 0.2501594078 0.73993291
0.6225633048 0.4998703963 0.2400574916
0.6123806762 0.4987497825 0.9857758139
0.6224855465 0.4996655177 0.7402282062
0.6122399708 0.2499466744 0.4927088713
0.6122918096 0.2516289043 0.9946254439
0.6222855967 0.2484359404 0.2435816067
0.6425212567 0.2482696811 0.2380811359
0.6527261019 0.2481446593 0.4923867299
0.6426064205 0.2463072977 0.7413964314
0.6525187466 0.2507753527 0.9931535912
0.6325089558 0.5013182922 0.9888028317
0.6426582594 0.4986725439 0.7413001593
0.6524817189 0.4995411505 0.9926259459
0.6424916346 0.5003285912 0.2398862383
0.6524891244 0.4975552029 0.4928671649
0.6323571421 0.24785076 0.4916674661
0.6322349505 0.2485066333 0.9904042815
0.6624347754 1.8174278481e-05 0.7437967547
0.6726099984 0.4979518688 0.4976159726
0.6823556997 0.49557711 0.7418435414
0.6725914846 0.4975034923 0.9952364016
0.6826222994 0.4966708867 0.2410961197
0.6624829115 0.2475673337 0.2447239125
0.6625273448 0.2459499057 0.7451056853
0.6826741382 -0.0041349698 0.2403296455
0.6824297551 -0.0030045375 0.7432783663
0.6623903421 0.4987543644 0.7463322292
0.6624125588 0.4964679718 0.240959117
0.6826185966 0.2477800671 0.2419699744
0.6723693181 0.246554723 0.4920266352
0.6823594024 0.2468793868 0.7448002064
0.672550754 0.2483109186 0.9943662497
0.702372896 0.2484307039 0.243659365
0.692475381 0.2490473033 0.4908111996
0.7024839792 0.2465717417 0.7400569529
0.6925346254 0.2466182157 0.9928110846
0.7023432738 0.4979531779 0.7428469931
0.7025617375 -0.0035069155 0.7422813944
0.7024580598 -1.2275338402e-04 0.2389151858
0.6924864894 0.4942974371 0.9912466626
0.6925938698 0.4988689131 0.4948768455
0.7123407637 0.2483017547 0.4928551309
0.7123037359 0.2488725347 0.9908763852
0.722445634 0.499142521 0.7420036863
0.7222901175 0.2488267152 0.2426679473
0.7324172044 0.4996092252 0.9953104571
0.7324875571 0.2524660919 0.4966560284
0.722297523 0.4994174379 0.2421560388
0.7324690432 0.5010950858 0.4911324152
0.7224974728 0.2504801442 0.7472532942
0.7324838543 0.2482546261 0.9909134129
0.7124629552 0.5015297164 0.9873587498
0.7624355934 0.4984722473 0.7464738603
0.7424295054 0.0017457 0.7431024845
0.7524936451 0.4986869443 0.991894648
0.7625355683 0.4988983685 0.2435492075
0.7625874071 0.2485059787 0.242028293
0.7523122092 0.2465671597 0.4973364131
0.76252446 0.2474691491 0.745441712
0.7525195646 0.2493418572 0.9962546644
0.7423813693 0.4981469289 0.7443503194
0.7524492118 0.4960536327 0.4947824247
0.7424961553 0.2490001747 0.2438824571
0.7425442913 0.2472145237 0.7451982546
0.782530548 0.4987393094 0.2485174045
0.7826268201 0.4993690002 0.74413093
0.7825712785 0.2501253705 0.2460476542
0.7724664082 0.251886148 0.4995266039
0.782449087 0.2501973725 0.7497387813
0.7723812444 0.2508362271 -0.0040524309
0.7927020682 0.5019728564 0.4982195247
0.8126378035 0.5008646792 0.4925885311
0.8027069636 0.4990593913 0.7437495443
0.8023366862 0.4991248477 0.2474713709
0.7924317657 0.2475378784 0.4934864538
0.7924613879 0.2519849872 0.9931165634
0.8124600704 2.8772379738e-04 0.4950129224
0.8024885 0.2485040151 0.2436732504
0.8125674508 0.2504696712 0.4932254083
0.802603286 0.2520052787 0.7462276258
0.8124600704 0.2467294916 0.9929962233
0.8325105917 5.0877011242e-04 0.4923830272
0.8224094242 0.2507792801 0.2420930916
0.8324809695 -0.0015553325 0.9938478613
0.8323995085 0.2500311132 0.4969328107
0.8226241851 0.2471045569 0.7458999303
0.8325179973 0.2505325094 -0.0049431239
0.8326809193 0.5010531937 0.4924904076
0.8325587278 0.4965380102 0.9954122833
0.8224279381 0.5002788443 0.2473908355
0.8426006509 0.5026470574 0.7463109382
0.8426043537 0.4998245768 0.2522359153
0.8425599204 5.1957042097e-04 0.2466391724
0.8424340261 0.2504022511 0.250729812
0.842648787 0.2514921004 0.7463340806
0.862491953 0.2472393971 0.2504113734
0.8526388713 0.2484385586 0.505346439
0.8625956306 0.2514475901 0.7565065265
0.852512977 0.250309303 0.0052994896
0.8924214754 0.498341989 0.0083542782
0.872404279 1.3684675973e-04 0.5072367052
0.8824721216 0.2512453297 0.256595006
0.8724190901 0.2490617037 0.5082438597
0.8923807448 0.2499139462 0.5061953
0.8825091493 0.2492155263 0.7556391517
0.8725746066 0.2507707707 0.0097715149
0.892477017 2.4785376443e-05 0.5088927708
0.87255239 -0.0013835749 0.0062353657
0.8923326088 0.2476917009 0.0079341985
0.8724598206 0.4970649343 0.5069488145
0.8924585031 0.4987792379 0.5090020027
0.9124386717 0.5017588139 0.5119105317
0.9024671013 0.4987452005 0.7548930427
0.9124534828 0.4968397643 0.0082134802
0.9024745068 0.5014348046 0.2608568989
0.9124979161 -3.1310064021e-04 0.5110551909
0.902422668 0.2506765135 0.2588944287
0.9123831301 1.6028015646e-04 0.0121621184
0.9123127774 0.2505312002 0.5121919425
0.9024522902 0.2483750659 0.7610165052
0.9122609386 0.2500376589 0.0083811233
0.9425681439 0.2502922843 0.7702373382
0.9324262459 0.2493988042 0.0166261828
0.9326669262 0.4961511628 0.5150301188
0.9324632736 0.4981803116 0.0146827818
0.9225583531 0.4988067295 0.7632937113
0.9224250532 0.4985200304 0.2612586499
0.9422756248 0.4982647504 0.7728487196
0.9225287309 0.2484176126 0.2657140128
0.922576867 0.250023913 0.7650664143
0.942468169 0.2487056208 0.2740665453
0.9323855154 0.2506234938 0.5151782297
0.9725939384 -9.5175888594e-04 0.5295505471
0.9624594459 7.2752545292e-04 0.7774401594
0.9624853654 0.2510934708 0.2787283377
0.9524323339 0.00149186 0.025091187
0.9725458024 0.00289302 0.0314905062
0.9524360367 0.2472911077 0.5250322371
0.9723606637 0.2501299524 0.5314454417
0.9624557432 0.2495473903 0.7800941227
0.9522620063 0.2499754753 0.024520497
0.9526989336 -5.1509913834e-04 0.5282804956
0.9723273387 0.2525426759 0.0289958548
0.9723458526 0.501862235 0.5341493924
0.9623742821 4.1012729431e-04 0.2761243619
0.9523693867 0.5022785378 0.5242546545
0.962426121 0.4998645052 0.7756239487
0.9826062394 0.2534852483 0.2810425715
0.982317423 0.0034920117 0.7833923686
0.9925037543 2.7410886296e-04 0.0350296176
0.9925333765 0.251835092 0.5354934994
0.9825840227 0.2516838877 0.7790490147
0.9923482378 0.2521067362 0.0327877731
0.9923741573 0.5023799953 0.033481673
0.0224920433 0.7505278846 0.776632029
0.0024719958 0.4994508207 0.2804149513
0.0025128745 0.7521577493 0.7798238202
0.012549984 0.5001858962 0.5328349076
0.002512282 0.5019460192 0.782748086
0.022330158 0.9991968069 0.2794846293
0.022499671 0.9995568172 0.7712111678
0.0125487621 0.7531657781 0.0250767462
0.0224283926 0.7476936218 0.2762447021
0.0024963601 0.7484070967 0.2822931834
0.0124550078 0.7504427912 0.5215405212
0.0524634811 1.0021750738 0.5201908601
0.0527608139 1.0003684768 0.0202550864
0.0323400152 0.7485641921 0.025250036
0.0424615479 0.7516733718 0.2707905159
0.032588101 0.7509860795 0.525050751
0.0425141273 0.7486885593 0.7725608289
0.0425422684 0.5005275787 0.7759738609
0.0324192545 0.4981155098 0.0257808287
0.0323733401 0.4987969111 0.5208406969
0.0422016132 0.9999299188 0.2685327495
0.0523320326 0.4995607875 0.5181404489
0.0524638514 0.7483089121 0.0224995229
0.0524416348 0.7497424076 0.5177905368
0.0425748528 0.9996288193 0.7719702365
0.0725202972 0.4989906621 0.0219890955
0.0726006474 0.998646973 0.5195947134
0.0725732468 1.0005844829 0.0226065331
0.0724903047 0.7505802497 0.0151152658
0.0625428023 0.7517650108 0.267377484
0.0723421937 0.7498667748 0.5219718944
0.0625439131 0.7492907583 0.7680406676
0.0926011812 0.9980578653 0.5214090727
0.092463438 0.752144658 0.0222843917
0.1025864519 0.7531461412 0.2711071031
0.0825836964 0.7507635277 0.2716097547
0.0924249292 0.7504362456 0.5158252895
0.1024216785 0.7524392119 0.7698235532
0.0825803639 0.7532966909 0.7718647074
0.1023628044 0.9999822839 0.7704965324
0.102495734 0.4999816722 0.7694662356
0.0824348449 0.5024395606 0.769942042
0.0925482316 0.49974472 0.019047797
0.0825500011 0.5024107598 0.2687225167
0.1124002842 0.7504166087 0.0166421047
0.122614016 0.7476019828 0.2643254725
0.1126605892 0.7485641921 0.5186523575
0.1226169783 0.7479881756 0.7630011921
0.1226399355 1.0005452091 0.2654150138
0.122468497 0.9972331145 0.7677111207
0.1226043888 0.4971605007 0.2647531429
0.1126565161 1.002921277 0.5178840318
0.1424853231 0.7468557797 0.2616492926
0.1525724201 0.7502006025 0.5130204382
0.1326614933 0.7484594618 0.5120345746
0.1423361013 0.7461030309 0.7640129751
0.1525987098 0.5018281977 0.5123122826
0.1326100248 0.9986797012 0.0140195224
0.1426230663 0.4941102317 0.2631174425
0.1424020107 0.9996353649 0.2603699842
0.1325400424 0.9996091823 0.5180645421
0.1425493811 1.0024107169 0.7611840558
0.1525579793 0.9975014858 0.0149163343
0.1527579291 0.7495984035 0.0127701139
0.132579662 0.7507962559 0.0138357723
0.1725218557 0.7506326148 0.0157948174
0.1625973105 0.7500042332 0.2674404311
0.1724352108 0.7522232057 0.5131157846
0.1624928922 0.7493103952 0.7666549044
0.1825097183 1.0009314019 0.7628678923
0.1725248179 0.5023610129 0.0130957729
0.1726099817 0.5035444649 0.5075588465
0.1825985849 0.7489176567 0.2579243019
0.1824634336 0.7506587974 0.7559511104
0.1724070697 0.9992557177 0.0160237414
0.1625395472 0.9995502716 0.7618348183
0.1826278368 0.4999005062 0.2598247507
0.2026072649 0.4985272307 0.7538942194
0.1924609235 0.4988250573 0.5072709558
0.1927349288 0.7475692546 0.0025201874
0.2024443428 0.7513133616 0.2536651861
0.1926071831 0.7517453739 0.5032053099
0.2026043026 0.7480798146 0.7522446336
0.2324949459 0.7515817329 0.0028481606
0.2323579433 0.4988839681 -0.0018592685
0.2324012657 0.7506260692 0.5007226
0.2125962383 0.7498733204 0.0020525271
0.22271629 0.7467706863 0.2490950373
0.2125914247 0.7485314639 0.5032580745
0.2226981464 0.7511169923 0.7507246449
0.2324768023 0.5016841936 0.4985703626
0.2225718818 0.5011572694 0.7527389539
0.2124333163 0.4997944669 0.0042236486
0.2226429751 0.502234682 0.2500910835
0.2124336866 0.5006545642 0.503277514
0.2523325577 0.7500696897 -0.0051520066
0.2423524709 0.7534865145 0.2481212077
0.2523810641 0.7503904261 0.498723102
0.2423598765 0.7520857473 0.7483956
0.2425120605 0.5035857024 0.7525667749
0.2623278259 0.5046650787 0.7496721313
0.2624229872 0.7531526868 0.2498485518
0.2425094685 0.4989245511 0.2474750736
0.2625062996 0.7551687444 0.7474486155
0.2623681862 0.5022582463 0.2505918837
0.252328855 0.5018962724 0.4998219002
0.2725123059 1.002574358 0.996171352
0.2824853574 0.5036995966 0.2480193814
0.2724489884 0.5014256407 0.4957053412
0.2823950097 1.0044267745 0.2471714462
0.282571632 0.501566372 0.7454306037
0.282357982 0.7552931116 0.2442157068
0.2823335437 0.7524784857 0.7428118168
0.2725815477 0.7493169409 0.9964305462
0.2723308699 0.7537614315 0.4947805733
0.3126096457 1.0015205097 0.4899651157
0.2924769228 0.752164295 0.9895896712
0.3024881129 0.7505409758 0.2387828116
0.2924850689 0.7506980712 0.4883414493
0.3024318308 0.7535192428 0.7398097927
0.3026232642 0.4999646535 0.7391007115
0.292422492 0.5007926772 0.9890064843
0.3024236847 1.0025350841 0.2385921188
0.3125170764 0.7543701762 0.9912466626
0.3124148798 0.7522624796 0.4885497304
0.3123115724 0.5014976428 0.4877999186
0.3325583408 0.5028178987 0.4883951395
0.3225856595 0.5020415856 0.7414825209
0.3327027489 0.75119554 0.9885806653
0.3325557488 0.4987857835 0.9906449618
0.3226819316 0.7547825516 0.2349393322
0.3326709051 0.7552800203 0.4874009447
0.3226578636 0.7543767218 0.7343519038
0.3226960022 0.50226021 0.2375247941
0.3527173534 0.5025115627 0.4945019396
0.3525722046 1.0009052194 0.4909074717
0.3625545131 0.7522624796 0.2380579936
0.3626730019 0.7502136938 0.7362181019
0.3626285686 0.5034848996 0.7361403437
0.3625841353 0.5033919514 0.2388142852
0.3528002955 0.7516930088 0.9848778912
0.3426509919 0.752419575 0.2408239658
0.3527051342 0.7518108303 0.4861744008
0.3427039416 0.7522690252 0.7402670853
0.3625471075 1.0018281548 0.7369919817
0.3427150499 0.5010623576 0.7412001844
0.3526658848 0.5020356945 0.9886454638
0.3425236165 0.5011029406 0.241185912
0.372566814 0.5008941346 0.9896637267
0.3825976289 0.5027962981 0.2373378041
0.3726482751 0.501637065 0.4842859861
0.3927728519 0.5016298647 0.9847945788
0.3825606011 0.5027596425 0.7390164734
0.3725149752 0.7496573142 0.9853870227
0.3825087623 0.7497424076 0.2319576734
0.3725483002 0.7494805819 0.4831362747
0.3826420621 1.0002310183 0.2338571965
0.382808687 0.7497620445 0.7334336159
0.3926099298 0.7501613286 0.987192125
0.392443305 0.7479947213 0.4810025512
0.3927099047 0.5004647405 0.4816671992
0.4027703417 0.4999581079 0.7401180487
0.4026481502 0.7497685901 0.231013466
0.4025926086 0.7491336629 0.7317034947
0.4125567735 0.7520137452 0.9771390935
0.4126234234 0.7477198043 0.4758760606
0.422706077 0.9987058838 0.7260641699
0.4426195957 1.0000935598 0.2175668422
0.4325332393 1.0015532379 0.468623252
0.4424788903 0.9964149093 0.7149651048
0.4226912659 0.4984781383 0.7254421038
0.432522131 0.7500762353 0.9727050217
0.422657941 0.7507111625 0.2223952595
0.4324295616 0.7490420239 0.4702885746
0.4226098049 0.75068498 0.7289032719
0.4427417873 0.7496638599 0.2179584105
0.4424899986 0.7468099602 0.7203359785
0.4226209132 0.9987975228 0.2264858991
0.4726453903 0.9981691412 0.4625562567
0.4725231987 0.499861887 0.9665584168
0.4625923588 0.4986044692 0.2170243858
0.4725083876 0.750593341 0.9623372544
0.4627219559 0.7491532998 0.2136576385
0.4723936016 0.7501809656 0.4588766251
0.4625146005 0.7477067131 0.7147216474
0.4525134079 0.9989415269 0.4656712154
0.4625331144 0.9991182592 0.2103501356
0.462507195 0.9982411433 0.7123055873
0.4526541133 0.748420188 0.9645126341
0.4527133577 0.7502922415 0.4616925847
0.452494894 0.4999266888 0.4691981076
0.4923552564 0.4996949731 0.9663547642
0.4923552564 0.4998697417 0.466980146
0.4824392275 0.4972128658 0.7129332075
0.4824466331 1.0009903127 0.7087694381
0.4924330146 0.9984636951 0.4675614815
0.4925959367 1.0000084665 0.9655494109
0.4924848535 0.7507897102 0.4626617858
0.4923626619 0.7511235379 0.9621521157
0.482513283 0.7490027501 0.2116405524
0.4825836357 0.7488063808 0.7114715375
0.5024564239 0.4988741497 0.2160681444
0.5124576165 1.000473207 0.469003712
0.522477323 0.9972396601 0.7211385547
0.502586021 1.0016252399 0.2136631927
0.5225254591 0.7480667233 0.7259336471
0.5023712601 0.7509140774 0.216217181
0.5023638545 0.7480339951 0.7158315539
0.5124391026 0.7506064323 0.9659382021
0.5122576667 0.4997427563 0.9664195628
0.512564997 0.7512937246 0.4667477969
0.5224365925 0.7489765675 0.2215306618
0.5525919841 1.0003161116 0.480523042
0.5425093305 0.4984303552 0.7246922921
0.5424537889 0.7487932896 0.225897158
0.5523327899 0.5003148454 0.4792668759
0.5525845786 0.7498864117 0.4821032008
0.5424574916 0.7512609964 0.727401797
0.5325340573 0.9973182078 0.9710572872
0.542712983 0.4995758424 0.2253843238
0.5324711101 0.7520202908 0.9728901604
0.5524920092 0.501300619 0.9778889053
0.5422575418 1.0006499394 0.2235579305
0.5323600269 0.7487540157 0.4717928265
0.5725647472 0.500061529 0.984340989
0.5623858214 0.9989873464 0.732116354
0.5524734954 0.7498275009 0.9836652328
0.5625524462 0.750410063 0.2327741351
0.5625117157 0.7490551152 0.733738169
0.5722537142 0.7479423562 0.9807122705
0.5725980722 0.4997938123 0.4792798356
0.5723759057 0.7493300322 0.4837851859
0.6024905668 0.500336446 0.2405712515
0.6023979975 0.999340811 0.2422837845
0.6023572669 1.0004208419 0.7405660843
0.5926337824 0.7474841612 0.9826191991
0.5922820188 1.0011343168 0.4870010451
0.5923671826 0.9985880623 0.9857480431
0.6025646223 0.7512937246 0.2351281737
0.5926300796 0.7503511522 0.4835620938
0.6024498363 0.7489176567 0.7419879496
0.582332665 0.9982673258 0.2319123144
0.5825770481 0.9970105627 0.7313110007
0.5826066703 0.500704311 0.7289236371
0.5825474259 0.7487147419 0.2312985796
0.5824548566 0.750246422 0.7303779016
0.612499165 0.7495198558 0.9893027062
0.6122807013 0.9964869113 0.4899262366
0.612647276 0.7494151255 0.4921155017
0.6224485188 0.9979924089 0.7420194231
0.6224633299 0.7479947213 0.2378959972
0.6225410881 0.7474579787 0.7358422704
0.6224559243 1.0017234246 0.2420319958
0.6425027429 0.999707367 0.7351702169
0.6326126335 0.4988545127 0.4854866106
0.6424064707 0.9992753546 0.2407980464
0.6524187717 0.9997531865 0.4873565114
0.6523187968 0.997953135 0.9871643542
0.6324052781 1.0015401466 0.489191236
0.6324904419 0.9998644624 0.9908671282
0.632586714 0.7478572628 0.9924500641
0.6327459333 0.7488456547 0.4922089968
0.6526668576 0.7490878434 0.9910059823
0.6426582594 0.7441327928 0.2382875656
0.6525928021 0.7507242538 0.4914332656
0.6425879067 0.7463779478 0.7408613806
0.6726099984 0.7464499499 0.992320467
0.6623348005 0.9967552826 0.2416098796
0.6724470764 0.9981887781 0.9920983006
0.6823853218 0.75068498 0.2392595438
0.6724137514 0.7467117755 0.4899410477
0.6824630801 0.7473008833 0.7431080387
0.6723767237 0.9984309669 0.4901298892
0.6626865641 0.7493889429 0.2453654181
0.6626310224 0.749716225 0.7413038621
0.7025061959 0.4985743593 0.2397760807
0.6922754313 0.9985946079 0.4900197317
0.6924013256 0.999871008 0.9895156157
0.6924346505 0.7491336629 0.9895619004
0.7024913848 0.7474776156 0.241487688
0.692508706 0.7454157385 0.4889505557
0.7023136516 0.744584442 0.7401467452
0.7124703608 0.4970937352 0.4910148522
0.7124074136 0.7503642435 0.4909824529
0.7223123341 0.9977633114 0.7368531277
0.7323986905 1.0003619311 0.9928758831
0.7323653656 0.7512806333 0.9908301005
0.7222753064 0.7474776156 0.2409378261
0.7322690934 0.7509926251 0.4932605846
0.7223086313 0.7479554474 0.7396718644
0.7223493618 0.9972134775 0.2438833828
0.7323875822 1.0016776051 0.4947463227
0.712400008 0.7488063808 0.9901173165
0.7124518469 0.9987124295 0.4904409222
0.7124999829 0.9996811844 0.9906912465
0.7424776414 0.4990724826 0.2450664191
0.7424591275 0.7517388283 0.241487688
0.7425072636 0.7504427912 0.7403300325
0.7524751313 0.7501024179 0.9921075575
0.7624133767 0.9988695249 0.7425359601
0.7524640229 1.0000935598 0.9934405562
0.7624874322 0.7510057164 0.2413691993
0.7522455593 0.7519679257 0.490849153
0.7624467017 0.7481779992 0.7393636085
0.7523344259 0.996820739 0.4923219314
0.742418397 1.0013110492 0.2450923385
0.76245781 1.0010819517 0.2459513821
0.7824898175 0.9961792662 0.247153858
0.7725478692 0.9990920767 0.4954433699
0.7823528148 1.0017692441 0.7458841935
0.7724812193 0.9982869628 0.999587161
0.7824676008 0.7502922415 0.2489015673
0.7725774914 0.7471176053 0.4909537564
0.7825675757 0.7484463706 0.7492342783
0.7724738138 0.7501809656 0.9951068045
0.7724478943 0.5000346919 0.4937225057
0.7724071638 0.5002546255 0.9975506353
0.7926094989 0.9994455413 0.4983278309
0.79255766 0.7493169409 0.994893895
0.792442874 0.9989480726 0.996884136
0.812630398 0.7501613286 0.990607934
0.7924947129 0.5015827361 0.9944125344
0.8025181221 0.9997400952 0.2427919902
0.8125896675 0.501255454 0.9921260714
0.8025921776 0.7489111111 0.2449099769
0.812515612 0.7485772834 0.4964866265
0.8025847721 0.9985880623 0.7432144934
0.8026143943 0.7475692546 0.7406142204
0.8123897177 0.998830251 0.9967082542
0.7925206323 0.7488783829 0.4923237828
0.8223909103 1.0016776051 0.7486788622
0.8222872326 1.0019394307 0.2414404777
0.8324365362 0.7470521489 0.9949494366
0.8225242102 0.4970845713 0.7416833964
0.8225464268 0.7498209553 0.2430067511
0.8323550752 0.7521053842 0.489272697
0.8226945378 0.7504820651 0.7425674337
0.8425562176 0.7507046169 0.2533560045
0.8426265703 0.7494347624 0.7483437612
0.8625771168 0.5011769064 0.7564408022
0.84245254 1.0003422942 0.7489991522
0.8623586531 0.9999953752 0.2554878766
0.8625289807 1.0003422942 0.7547643713
0.8524870575 1.0000019208 -0.0013349557
0.8627067138 0.7512609964 0.7545172111
0.8526351685 0.497831429 0.5032469661
0.8525092742 0.7497816814 0.0038327283
0.8525648158 0.4988145843 0.0010368562
0.8626474695 0.5009609002 0.2603922008
0.8624697363 0.7498929573 0.2537447957
0.8525981408 0.7486951049 0.503404334
0.8524759492 0.9984113299 0.5005550494
0.8825757992 0.9990658941 0.759132719
0.8923140949 0.9989611638 0.005143788
0.8824906354 0.7506457061 0.7559409278
0.8728041786 0.7488652916 0.0053216137
0.8924288809 0.7482172731 0.0088517459
0.8824869327 0.4997565021 0.7587513332
0.8825239604 0.4988224391 0.2580242768
0.8823425245 0.7532901453 0.2551814721
0.8725042539 0.7493169409 0.5049011804
0.8925325586 0.7498602291 0.5117457582
0.8726930954 0.4978805213 0.0065123332
0.8824350938 1.0001721075 0.2595674079
0.9124645911 0.7499322312 0.5081651757
0.9023597208 0.9994128131 0.2567320087
0.9024819124 0.9992949916 0.7599380723
0.90258559 0.7503053328 0.7576747517