POSCAR file written by Ovito 3.7.11
1
270.0282145176 0.0 0.0
0.0 15.2751025278 0.0
0.0 0.0 10.8011285807
Sr Ti O 
800 800 2400 
Direct
0.0225134186 0.5014022819 0.7841801221
0.0125193889 0.4992189905 0.0338048313
0.0125610142 0.2487100337 0.5305195921
0.0226418496 0.2510851405 0.7842319685
0.0026433098 0.2547158853 0.7780437263
0.0125240921 0.253458938 0.0293940885
0.0023674868 0.0017082873 0.2784079744
0.0225790784 0.5012039199 0.2868570915
0.0124278429 0.0022534882 0.5278846823
0.0024754755 7.2308934527e-04 0.7756773069
0.0123127809 0.0031275904 0.0316760722
0.0225154184 0.2505476645 0.2838638857
0.0025692805 0.249834085 0.2818205807
0.0426144662 0.5016844404 0.2914316134
0.0325118182 0.2488658428 0.5349570914
0.0427163075 0.2518386542 0.7902313416
0.0526778591 0.5038003018 0.039118813
0.032708094 0.254847472 0.0341934018
0.0325988462 7.2374400536e-04 0.5411971801
0.0324618235 0.0017077636 0.0394546113
0.0425770627 0.2548029551 0.2914593883
0.052542688 0.2518700779 0.542926629
0.0525189868 0.2516108325 0.0410745346
0.0625494201 0.2508324417 0.2914779049
0.0625164606 0.501987548 0.7894906783
0.0625486794 0.5006271644 0.2883226791
0.0725942964 0.5028536633 0.5398658377
0.0726224416 0.2512258924 0.5347635931
0.0622572284 0.2516769532 0.78799639
0.0726772507 0.2489836816 0.0355269661
0.0625664554 0.0014965048 0.294100779
0.0626001556 1.6302763803e-04 0.7897675012
0.1025830145 8.3032266806e-04 0.2907650164
0.0922714994 0.2504946371 0.5400574843
0.0825810305 0.0013833795 0.2886569034
0.1025163548 0.2506602661 0.7872770207
0.0824917806 0.2510491342 0.7888638919
0.092434075 0.2507322787 0.0365292688
0.0825936218 0.001218667 0.7897517621
0.0923700076 0.0010100269 0.0417156713
0.1024093289 0.2520291603 0.2916556641
0.0825247401 0.2498936591 0.2881597331
0.1025682012 0.5000294597 0.2824186664
0.0924003748 0.5007233994 0.5418619254
0.1125049406 -0.00278818 0.0351205271
0.1224364954 0.2467604559 0.280230932
0.1124723514 0.2506537195 0.5354894432
0.122362429 0.4996916551 0.7802055374
0.1124560568 0.4990297937 0.0327502193
0.1224076095 0.2478727234 0.7800740697
0.11249309 0.2498065893 0.0338285325
0.1124419842 0.4993499225 0.5345210259
0.1526207486 0.2507322787 0.5241859947
0.1324676693 0.2485601165 0.5264135397
0.1424732904 0.2487938302 0.7759559815
0.1525426086 0.2502432476 0.0237895816
0.1324928519 0.251465498 0.0272454241
0.1424129264 0.2460422938 0.2726020996
0.1423962614 0.4995325727 0.7773706485
0.152604454 0.4990500882 0.0220613362
0.1325843238 0.4976104907 0.028215045
0.1325495126 0.502983286 0.5280346666
0.1524429894 -0.0010243294 0.5264496471
0.1825916907 0.2497129729 0.7673300311
0.1824020809 0.248840311 0.2703551122
0.1627100646 0.497806234 0.7745098363
0.162478237 0.4983240702 0.2723326833
0.1726723569 0.2497470152 0.5215844147
0.1824405954 0.5023011302 0.7697501485
0.1627282109 0.2509607551 0.7740552542
0.1726079192 0.2517934827 0.0208312796
0.1624126883 0.0014195822 0.2744991236
0.1626489599 0.2466399985 0.2761563578
0.1724475656 0.0010425635 0.5212816686
0.1825231794 7.2708277182e-04 0.2664694071
0.2024947961 0.2504416096 0.265082515
0.1923488193 0.5004792112 0.01722249
0.2023140742 0.5004268384 0.2602385768
0.1924047394 0.2518006839 0.5134093431
0.2024559112 0.2503748343 0.7662199619
0.1925458357 0.2502334277 0.0158917032
0.1923891854 -0.0012311365 0.5148341942
0.2024259144 0.0021876949 0.7630786235
0.1926339747 -0.0010296976 0.0172027699
0.2024196187 -0.0030484729 0.2626938757
0.2126733621 0.251301833 0.5131464076
0.2226260257 0.2515787542 0.7602622511
0.2124478301 0.2510353863 0.0094166391
0.2224382676 4.0276416309e-04 0.2577564287
0.2125115271 -0.0012343443 0.5089848055
0.212390799 4.9893373035e-04 0.0097301248
0.2225641803 -8.2928157896e-05 0.760219663
0.2324557393 2.585425452e-04 0.5086866885
0.2224797447 0.2504913638 0.254649346
0.2326264622 0.252628829 0.5016846424
0.232599428 0.2512946317 0.0018478004
0.2324657382 -0.0014921495 1.006020829
0.2524303186 0.251762059 0.5062600902
0.2426480075 0.2489705884 0.7548100431
0.2624777872 0.2493784416 0.2610634906
0.2523881008 0.2544284896 1.0085668593
0.2425172805 0.2484723921 0.2541531016
0.2425083925 -0.0013543435 0.2573666547
0.2523892118 0.5005112895 1.0090575487
0.2523918041 -0.0029803883 0.506006413
0.2426809671 -4.8809728778e-04 0.7558506751
0.2623085456 0.2500265551 0.7573060785
0.252434022 -0.0028497836 1.0120387187
0.2625833317 9.0357913216e-04 0.2574694217
0.2624814905 -3.3759093302e-04 0.7565237529
0.2724278586 0.2505587938 0.5025327019
0.2723500889 0.2526550154 0.9989012027
0.2726333926 2.6384529193e-04 0.5032159638
0.2723326833 0.5022081685 1.0036136732
0.282440516 0.2511512611 0.7555720005
0.2826267928 2.3353452975e-04 0.7509400771
0.2825749464 0.2499951314 0.252416246
0.3023302894 0.250134574 0.2496859758
0.3122759167 0.2514720446 0.4961954012
0.3124299747 0.2514831738 0.9946516467
0.3123125796 -7.00010759e-04 0.9985216127
0.2924024379 0.250467796 0.5018050002
0.302475089 0.2504527388 0.7500614652
0.292539831 0.4996314264 0.5058638353
0.3022773319 0.5008242171 0.2527134372
0.2924713196 0.2525934773 1.0010954178
0.3023799138 -0.0021086429 0.7438380415
0.2924709493 -0.0024118814 0.4996709639
0.3124199758 0.498674968 0.9992900509
0.2923320749 0.0013867837 0.9993826338
0.3223326436 0.2505345713 0.2459493292
0.3322841963 0.2503479932 0.4897710725
0.3223581965 0.249772547 0.7397958713
0.3322560511 0.2526478141 0.9867543238
0.3224215232 -1.4479353643e-04 0.2398333017
0.3322193882 0.0028382306 0.4882971525
0.3222693169 0.0017776813 0.7428622175
0.3324164047 4.2308317376e-05 0.9886707902
0.3624047524 0.2474007135 0.2308342421
0.3522817362 0.2509208208 0.4842938671
0.3424164708 0.2506190225 0.7297719188
0.3523850587 -0.0014319862 0.9835324383
0.3523369156 0.2486471863 0.9782737286
0.3425479385 -0.0016746687 0.239489819
0.3424364687 -0.0014748664 0.7318633669
0.3424235071 0.2506177132 0.2341144548
0.3624491922 0.2518550207 0.730432035
0.3624788188 -0.0013953907 0.2316036061
0.3725629502 0.2482517716 0.4822663012
0.3824137726 0.2486956311 0.7246789325
0.3723370479 0.2503453746 0.9774219657
0.3823989594 -4.0816329075e-04 0.7227263587
0.3823619262 0.2487087243 0.2273771959
0.3924127278 -1.8151996749e-04 0.4732885356
0.3924867941 0.0015705468 0.9753388501
0.3722444649 -0.0020607872 0.4830699209
0.3721407721 -0.0014889416 0.977810814
0.3923201448 0.2499938221 0.4747383841
0.3923312548 0.2478190413 0.9790329085
0.4123624949 5.350300492e-05 0.4689241769
0.4025079691 0.2485607712 0.7240428878
0.4025894421 -0.00168187 0.225208904
0.4024042763 -0.0011684201 0.7223856536
0.4024635293 0.5001833048 0.220590868
0.402459826 0.2490674781 0.2267041181
0.4122810219 0.2484959598 0.4734903664
0.4124328579 0.2468003902 0.9723576801
0.4124884077 -0.0027686057 0.9711911353
0.4125032209 0.4977329121 0.9654139613
0.4124439679 0.4985492732 0.4688482589
0.4226243855 0.2457332942 0.2217796327
0.4424889764 0.2487106883 0.7172047135
0.4327233302 0.4994559775 0.9587572495
0.4325863075 0.4973296415 0.463628434
0.4425852626 0.2485103623 0.2146868554
0.422594759 0.4959528913 0.2187456905
0.4425852626 0.5003306033 0.7154761904
0.4326418572 0.2448475391 0.4657402504
0.4224355164 0.2457169277 0.720811744
0.4324344715 0.2504743426 0.9688395292
0.4425334162 0.4986494362 0.2146322314
0.4327085169 9.8416778927e-04 0.963914118
0.4524990414 -1.9127440284e-04 0.967117487
0.4724895451 0.2469850043 0.461097217
0.4625757662 0.2468154474 0.7074816555
0.4725302815 0.250901181 0.9604607752
0.4626053928 0.2484344218 0.2113048014
0.4526842073 0.4965839836 0.9635900778
0.462620206 0.4977780837 0.7120339575
0.4726821175 0.4966088607 0.4631331154
0.4526101409 0.2493385073 0.4614425513
0.4524916348 0.2488069234 0.9590072234
0.4723265991 3.6381188772e-04 0.9622939169
0.4824366538 -0.0013654073 0.2086893339
0.4825033135 0.2494216492 0.7122089393
0.4825625665 0.2469882776 0.2086643366
0.4924282023 0.2487931755 0.4550737724
0.4924800487 0.2475676518 0.9523412533
0.4825995997 0.497374813 0.205518369
0.5023790143 0.252355181 0.2052795051
0.5123520462 0.0018973531 0.9503229457
0.5225398705 0.0024638305 0.1983570803
0.5024234541 0.2494655114 0.7035996537
0.5024234541 0.5001198028 0.7019757494
0.5124261125 0.2470426144 0.4539942556
0.5025012237 -0.00166151 0.7002583362
0.5222584184 0.2525424138 0.2029686354
0.5123335296 0.2498223012 0.9502211045
0.5222028686 0.2508763039 0.6996343274
0.5123890793 0.5019718362 0.4478060133
0.5225250572 0.4986003367 0.1981543237
0.5225398705 0.5009472932 0.7004740544
0.5521738108 0.2525686002 0.4533063645
0.5525404391 0.0016807261 0.9583313681
0.5324610559 0.4968176973 0.94861942
0.5322425602 0.5007129248 0.4494984291
0.5323462531 0.0012699269 0.4548441668
0.5324758692 0.2502216438 0.4545747505
0.5324092095 0.2510000347 0.95344299
0.5424340878 0.0025587562 0.7063826962
0.5424637144 0.2497902228 0.2062460707
0.5423007684 0.2510890684 0.7041144148
0.5521589975 0.2540572973 0.9521005377
0.5624282948 0.4998088393 0.7082815719
0.5625208777 0.5028785404 0.2071663449
0.5625764274 0.0025203932 0.2079199699
0.5624357014 0.2502746713 0.2073700274
0.5622949754 0.2508200031 0.709115744
0.572334667 0.0014548684 0.4603287788
0.5723309637 0.0011239377 0.9654139613
0.57240503 0.2539918313 0.4593186992
0.5724939096 0.2519368532 0.9586831831
0.5923622038 0.5042592185 0.9613403129
0.5823299188 0.2518131225 0.7171241664
0.6023833788 0.2544821717 0.2179365158
0.5921955545 0.2512409496 0.4633312428
0.6024981816 0.2533666309 0.7170463967
0.5924362701 0.2509803949 0.9680247996
0.6024426319 0.5025917993 0.7134782511
0.582366952 0.2494013547 0.2134832774
0.5923288739 0.5025204413 0.462403562
0.5824299083 0.5006134165 0.2116260641
0.6122786411 9.8194194497e-04 0.9712929766
0.612371224 0.5013485998 0.4675983895
0.6224960919 0.2517934827 0.7220180994
0.622614598 0.5016019532 0.2159672771
0.6124045538 0.4989924781 0.9694320599
0.6225294217 0.4993924754 0.7234735029
0.6125193566 0.2497993881 0.4693148768
0.61251195 0.2497587991 0.9677933423
0.6223331459 0.2521542004 0.2268087368
0.6426051016 0.2539335665 0.2286270653
0.6524707374 0.2527244093 0.4811793777
0.6423421661 0.2527499411 0.7251464762
0.6526484966 0.2526589433 0.9808105005
0.6324394972 0.5018762558 0.9711633605
0.6426347282 0.5020955669 0.7246733775
0.65262998 0.504312246 0.9788014512
0.6424384524 0.5024098038 0.224200676
0.6526781231 0.5036484207 0.4787092655
0.6325691133 0.2510078906 0.4726071254
0.6323839475 0.249204302 0.9744685706
0.6625030223 0.0029595391 0.7278082351
0.6725427139 0.4992399396 0.4813191779
0.6824527895 0.4999607204 0.7369767214
0.6726908466 0.4992307744 0.9793291738
0.6824453828 0.5013898434 0.2326534964
0.6625400555 0.2539244013 0.2313415964
0.6626437484 0.2521725309 0.7291775364
0.6826749885 -9.2423183993e-04 0.2336145071
0.6825824056 -0.0021722758 0.7287859107
0.6626178251 0.5010062126 0.7301450279
0.6625919019 0.5019535057 0.231262901
0.6826305487 0.249741778 0.2308722011
0.6725797471 0.2539158907 0.4779565664
0.6825675923 0.247846537 0.7318633669
0.6725945604 0.2522949523 0.985078573
0.7025692059 0.2495198482 0.2339218824
0.6926591303 0.2511100176 0.4847104902
0.7025580959 0.2502668154 0.734735289
0.6925443275 0.2490805713 0.9815511639
0.7024321831 0.4987620378 0.7396394062
0.7024877329 -0.0018462551 0.7349065674
0.7024729196 -0.0024266767 0.2337441232
0.6925628441 0.5020922936 0.9844027177
0.6925406242 0.5011508924 0.484879917
0.7125533477 0.2488173979 0.4874277989
0.7125533477 0.2514203264 0.9854674213
0.7227263587 0.4987829869 0.7422993134
0.7224930498 0.2484010341 0.2407054328
0.7327512371 0.4989531985 0.9944294477
0.7325216314 0.2489673151 0.4883110399
0.7226485891 0.4992268464 0.2398379308
0.7324994115 0.4981833182 0.4930522111
0.7224819398 0.2471087351 0.7367619291
0.7325475547 0.2487119976 0.9927444386
0.7125792709 0.5000124385 0.9892077712
0.7623074078 0.4993263548 0.7457989477
0.7425168832 0.0019856013 0.7442111506
0.7524121455 0.5010127592 0.9936239763
0.7625814532 0.4979548419 0.2431931358
0.762474057 0.2496239391 0.2447577871
0.7525084317 0.2500475042 0.4931272033
0.7626777394 0.2513391486 0.7450212512
0.7524491787 0.2489777896 0.9939387583
0.7427390822 0.4976229292 0.7414984712
0.7524713986 0.4992870752 0.4972952862
0.7424539269 0.2489954655 0.2404878629
0.7425465098 0.2473136437 0.7391681591
0.7825534402 0.500063502 0.2522912591
0.7826052867 0.5020209357 0.7496550262
0.7826719464 0.2522929883 0.2502359183
0.7724878254 0.2502556861 0.4916829098
0.7825867701 0.2501398113 0.7502466311
0.7725989249 0.2482386784 -0.0052996935
0.7923153831 0.4977918315 0.5026067682
0.8125021625 0.4968131147 0.5038538601
0.8023772946 0.4979044331 0.754344351
0.8026846699 0.4983260341 0.2520505435
0.7926264617 0.2465038292 0.4997959509
0.7926783081 0.2519492918 0.9981605393
0.8126577018 -7.4701535348e-04 0.5030113556
0.8024254377 0.2492036474 0.2540336696
0.812531789 0.2480939985 0.5017309338
0.8026291201 0.2491381814 0.7554257195
0.8125466023 0.2466635662 1.002400837
0.8326741286 -0.0027509299 0.5094708658
0.8225788873 0.2486517689 0.2559316194
0.8325185893 -0.0012344753 1.002752652
0.8325000728 0.2474995672 0.5061128833
0.822352985 0.2485921948 0.7539092113
0.8323926766 0.2483597905 0.0056954538
0.8324667429 0.4991836389 0.5053388901
0.8325593258 0.4985080297 1.0109554986
0.8225862939 0.4986743133 0.2560029083
0.8425286544 0.4972176946 0.7607168332
0.8424619947 0.4997486105 0.259619197
0.8424545881 4.7634795724e-04 0.2577573546
0.8425138412 0.2474341011 0.2588248356
0.8423879284 0.248903813 0.7582550535
0.8626524774 0.2541535323 0.262817011
0.8525016863 0.2492606028 0.5062526835
0.8625413779 0.2509817042 0.7618926363
0.8525609394 0.2465817337 0.0121027473
0.8925974964 0.4984504196 0.0153401867
0.8725551463 2.3248707361e-04 0.508450602
0.8825800247 0.2497371953 0.2593664457
0.872632916 0.2471447414 0.5116835975
0.8924308471 0.2472665082 0.5102494881
0.8825429915 0.2494707487 0.7609992111
0.8724033103 0.2485902309 0.0111615493
0.8926345296 0.0018220018 0.5130936353
0.8724662667 8.7935670882e-04 0.0100768478
0.8924863969 0.2483034897 0.0133511353
0.8727625321 0.4976929778 0.512949206
0.8925863864 0.4985276695 0.5134611895
0.9126509564 0.5000779046 0.5174755848
0.9025594183 0.4985780783 0.7647053053
0.9123102513 0.4998409176 0.0155269265
0.9025779349 0.5020955669 0.2652213894
0.9125287469 -2.5667494586e-04 0.5159442634
0.9025520117 0.250140466 0.2641066911
0.9123287678 -0.0012912343 0.012388273
0.9126102199 0.2497738563 0.5109466375
0.9024631321 0.2472233006 0.7614778648
0.9124028342 0.2494707487 0.01226773
0.9425182057 0.2497817122 0.769189096
0.9326266467 0.2482354051 0.0146339642
0.9325303605 0.4995004944 0.5214733152
0.9323340847 0.4996438649 0.0191460853
0.9225017788 0.4968556676 0.766777311
0.922398086 0.4992530328 0.2671295233
0.9426552284 0.5011757695 0.7706046889
0.9225017788 0.2471663452 0.2636447023
0.9225647352 0.2500396483 0.7670069167
0.9424811725 0.2486903939 0.2712772381
0.9325673937 0.2495813862 0.513653762
0.972526181 -4.9896464527e-04 0.5267125826
0.9624975994 0.0014901546 0.7670698731
0.9626531387 0.2503558491 0.2716142399
0.952483831 -0.0023014403 0.020524645
0.9724891479 -0.0011218737 0.020042288
0.9525875238 0.2496200112 0.5208122732
0.972678017 0.2504710693 0.5247016816
0.9624975994 0.2476651962 0.7737775055
0.9523542149 0.2499394853 0.0209940404
0.9524764243 -0.0026906357 0.5187411933
0.9724965545 0.2496998797 0.0220798528
0.972466928 0.5021060415 0.5235555051
0.9623605766 -0.0027637612 0.2643668491
0.9523023684 0.4997577758 0.5162914493
0.962505006 0.4988831499 0.7720767573
0.9824214433 0.2474642155 0.2785005573
0.9826658622 -9.6357691135e-04 0.7723517285
0.9924833548 -4.2989800575e-04 0.0258988056
0.9926129709 0.251230475 0.5293373083
0.9826621589 0.2489025037 0.7784779402
0.9928314666 0.2532062392 0.0302652937
0.9926463007 0.5000189851 0.0278423988
0.0224444258 0.7501783535 0.7909803374
0.0024419975 0.4994134246 0.2769886783
0.0025701693 0.7504140311 0.7810387837
0.012647857 0.4985538559 0.5326601092
0.0026823798 0.5035050501 0.7784927535
0.0225955211 0.9998657119 0.2838037068
0.0225136779 0.9979017317 0.7804906928
0.0125826786 0.7506758952 0.0329696408
0.0224219097 0.7518804697 0.2915853011
0.0026730845 0.7503682049 0.2802225996
0.0126745208 0.7498641167 0.5336294524
0.0524593634 0.9983927267 0.5431293856
0.0526034224 1.0009262613 0.0469716035
0.0325399635 0.7508722932 0.0392804628
0.0425052184 0.7510490514 0.295249733
0.0326429157 0.7517888173 0.5420989377
0.0423996739 0.7504991369 0.7920931841
0.0426770523 0.5015142288 0.7876103192
0.0329147391 0.5012359983 0.0364345565
0.0327321656 0.5025963819 0.5391029545
0.0425537318 1.0008607953 0.2926398205
0.052542688 0.5001132562 0.5444847995
0.052541577 0.7539295558 0.0441368997
0.0524682514 0.7507806408 0.537495715
0.0425878024 1.0002061352 0.7910414421
0.0724287581 0.5017152094 0.0361641218
0.0726902123 1.0010768331 0.5423840931
0.0726539198 0.997175059 0.0416963214
0.0726531791 0.7495564264 0.0404214547
0.0625908973 0.7513829281 0.2930379271
0.0724409791 0.7515596863 0.5419396951
0.0626831098 0.752679155 0.7902711523
0.0924792555 1.00038944 0.5368013431
0.0926940478 0.7517429911 0.0402149948
0.1024559907 0.7473960481 0.2922250491
0.0825391831 0.7511472504 0.2903530225
0.092431853 0.7467610278 0.5386567048
0.1025008008 0.749595706 0.7899619253
0.0824991872 0.7524696638 0.7880010191
0.1023919233 1.001587468 0.78650025
0.1024226608 0.5017846034 0.7892601468
0.0824543771 0.5014860784 0.7879519502
0.0922218749 0.5010271617 0.0391982492
0.082549182 0.5008968843 0.2868283908
0.1126541843 0.7477953908 0.0362134685
0.1225983303 0.7475073403 0.2798911527
0.1126027082 0.7508526534 0.5345089901
0.1224290887 0.7496677186 0.7837894222
0.1225805544 0.998896815 0.2842342174
0.122433903 1.0002061352 0.7846430367
0.1224668626 0.4984268518 0.2814659882
0.1125686376 0.9998984449 0.5390251848
0.1425399501 0.7505187768 0.275895274
0.1525414976 0.7484042247 0.5190420878
0.132544328 0.749661172 0.5289771607
0.1426292001 0.7506038826 0.7753449343
0.1525018721 0.5006736452 0.5252831023
0.1323195367 1.0005792914 0.0282951293
0.1423358974 0.4984890445 0.2748416804
0.1423681162 0.9964745727 0.2786292476
0.1325058135 1.0019082514 0.5280124467
0.1424366276 0.9988051626 0.7778039366
0.1522611565 0.9993681703 0.0255697659
0.1523966979 0.7501587137 0.0230396599
0.1325584006 0.7468461336 0.0292228101
0.1726271764 0.7489868721 0.0197172293
0.1624052816 0.7515531397 0.2736288442
0.1725701454 0.7494451342 0.5215547882
0.162554155 0.752253626 0.7722369257
0.1824424471 1.0009589943 0.767650368
0.1724720075 0.4973060737 0.0234517465
0.1724901537 0.5003404232 0.5239230592
0.1825572499 0.751219263 0.2730992699
0.1826416855 0.7512061698 0.7698168082
0.1725557024 1.0008477021 0.0220072678
0.1624978646 1.0015285486 0.7699621634
0.1824954045 0.5010068672 0.2702634551
0.2024292474 0.5031253473 0.7621842725
0.1925243565 0.5002684106 0.5165599398
0.1925336148 0.7485875295 0.0142915
0.2025655294 0.7497135448 0.2643751815
0.1925610193 0.7500997943 0.5169580463
0.2025777504 0.7537658908 0.7622981495
0.2323842653 0.7518870163 0.0081127012
0.2325997983 0.4984569662 0.0051379195
0.2324901801 0.7487184615 0.5074081184
0.2122948831 0.7496677186 0.0060505093
0.2225619583 0.7512061698 0.257505529
0.2125152304 0.7514287543 0.5105605667
0.2224723381 0.7504336709 0.7614908264
0.2324516656 0.5016006439 0.5096588091
0.2224915953 0.5012549834 0.7605696264
0.2123163623 0.4993983674 0.0137915523
0.2225064086 0.5030245296 0.2542632752
0.2125885561 0.4990016434 0.5108346121
0.252580303 0.749268376 0.0107189104
0.2425272794 0.7530195783 0.2584461715
0.2523573633 0.751121064 0.5081811857
0.2426776341 0.752253626 0.7590855222
0.2422847122 0.5081498635 0.7567116962
0.2623492821 0.5018867304 0.7577282567
0.2625818504 0.7510621446 0.2560297573
0.242462101 0.5021230627 0.2587766925
0.2624366804 0.750662802 0.7586300143
0.2623152116 0.5011895174 0.2557825609
0.2524388363 0.5016405782 0.5091449739
0.2725515493 0.9995580217 1.0027711686
0.2823012713 0.5043999705 0.2547011924
0.2722734303 0.4984896992 0.5061397324
0.2824768085 1.0021963019 0.2559269903
0.2823631166 0.499770869 0.7535240664
0.2823001603 0.7523321852 0.2514737519
0.2823934838 0.7522077998 0.7573042269
0.2726048771 0.7493534818 1.0019101475
0.2723715681 0.7541259538 0.5048046867
0.3123585007 0.9984843791 0.4986710684
0.2924057709 0.7532552559 1.0010213515
0.3024550911 0.7515727795 0.2470677309
0.2927561047 0.7497528244 0.4984794218
0.3023802841 0.7522798124 0.7479181707
0.3023021442 0.5007711896 0.7483801594
0.2923502212 0.5014101378 1.0028822681
0.3024291679 1.0030931862 0.2485592417
0.3124221977 0.7500670613 0.9946701633
0.3125892173 0.7497135448 0.4957945171
0.3123625743 0.4999731589 0.5008310279
0.3324967667 0.4992366663 0.4913570179
0.3222978324 0.4979915028 0.7438417448
0.3324678808 0.7485547965 0.9867358073
0.3326208278 0.4992687447 0.9922537492
0.3223800461 0.7493272954 0.2407461692
0.3323934441 0.7528493667 0.4886008244
0.3224933675 0.7489017663 0.7398180912
0.3223393096 0.5022134058 0.2408369005
0.3524013533 0.5009793715 0.4855511431
0.3523461739 0.9966251445 0.4833995161
0.3622936529 0.7479263228 0.2259866005
0.3624380823 0.746348592 0.7289368209
0.362645468 0.4971410994 0.7325818103
0.3622269932 0.4999973814 0.2344301626
0.3526516975 0.7472585695 0.9799309628
0.3423586991 0.7500997943 0.2361207267
0.3524457931 0.7491505372 0.4834967282
0.3425405319 0.7504402175 0.733521527
0.3623714226 0.9974565628 0.7333724685
0.3424098048 0.5020143891 0.7343547732
0.3524435711 0.4978651534 0.9807919839
0.3425597892 0.5017302666 0.2370882182
0.3725222137 0.4979960855 0.9775515818
0.3824508058 0.4995292994 0.2277021619
0.3726110933 0.5001708663 0.4752966591
0.3923608813 0.4988203025 0.9734409002
0.3826100484 0.4985590931 0.7266768718
0.3723703777 0.7484173179 0.9789958753
0.3825619053 0.7477888442 0.2254588778
0.3725518402 0.7446137427 0.4747818981
0.3824730257 0.9991390392 0.2208380644
0.3823582229 0.7474484209 0.7224023185
0.3924127278 0.7497921041 0.9704597303
0.3925238273 0.7487184615 0.4718979402
0.3924497609 0.5014540001 0.4781815429
0.4024672326 0.5012065385 0.7204034533
0.4024487161 0.7459427027 0.2206899317
0.4024746393 0.7475793529 0.7228300516
0.4125995072 0.7473240355 0.9700431072
0.412492111 0.7439263496 0.4673641547
0.4223836699 0.9967233435 0.7225754486
0.4425889659 0.9992568781 0.2174180514
0.432615934 0.998602218 0.4686510573
0.4425704493 0.9947528166 0.7147818186
0.4225503192 0.4970723601 0.7142874258
0.4326529672 0.7492552828 0.9673304277
0.422513286 0.7480834412 0.2174606396
0.4325196478 0.7482274664 0.4642718853
0.4225280993 0.7494385876 0.715245659
0.4425556361 0.7488232071 0.2121648967
0.4425556361 0.7470621715 0.7158992944
0.4224836595 1.0004745458 0.220661231
0.472348819 1.0005007322 0.460652819
0.4725487981 0.4990946051 0.9625438908
0.4626165027 0.4976360224 0.2079088599
0.4728413602 0.7489214061 0.9584795007
0.4626646458 0.7512978223 0.2100030855
0.4725599081 0.7490065119 0.4567337841
0.4626127994 0.7511668902 0.7091851812
0.4525249647 1.0015940146 0.4667623658
0.4624646667 0.998536752 0.2123361751
0.462409117 0.998602218 0.7132273514
0.452599031 0.7462700328 0.9642751914
0.4526879106 0.7474615141 0.4624989224
0.452680504 0.4999247141 0.4602445284
0.4924911586 0.50086677 0.9580073278
0.492565225 0.5015030996 0.4550904373
0.4825662698 0.5003666097 0.7034755926
0.4824773902 1.0030342668 0.7080704828
0.4924726421 0.9996693139 0.4559218319
0.4922541464 1.0004483594 0.9546558262
0.4925281918 0.7508526534 0.4537942765
0.4925578183 0.7504467641 0.9521005377
0.4826070063 0.7518346435 0.2084856515
0.4824588737 0.7504402175 0.7099573227
0.5026715763 0.5006887024 0.2039481627
0.5123372329 1.0018558786 0.449894684
0.5222473084 0.9967429833 0.7002879628
0.5024197507 0.9979868375 0.2019067094
0.5225398705 0.7496742652 0.7029228726
0.5024975204 0.7545318431 0.2052924667
0.5025234436 0.7510752378 0.7017915093
0.5127260812 0.7514353009 0.9475176833
0.5123446395 0.4997990194 0.9522857035
0.5125890584 0.7532356161 0.448886456
0.5223806278 0.7507151748 0.1974997625
0.5525108126 1.0012732311 0.4622470969
0.5423822414 0.5027986719 0.7008184629
0.5425118575 0.7510621446 0.2053998629
0.5523997131 0.500331258 0.4579873568
0.5524663728 0.7520506814 0.4556163083
0.5425044509 0.7547020547 0.7057883139
0.5324758692 0.9995711149 0.9537577719
0.5423526149 0.5014022819 0.2061858918
0.532661035 0.7529541123 0.953729997
0.5523737899 0.4994160432 0.9525264191
0.5423859447 1.0046840102 0.2019002286
0.5324425393 0.7484042247 0.4485522317
0.5723976234 0.500362027 0.9612569883
0.5622912721 1.0024385261 0.7086269062
0.5524997027 0.752548223 0.9539892292
0.562535691 0.7534909336 0.2139860027
0.5623357119 0.7504271243 0.708595428
0.5723605902 0.7506693486 0.9605255832
0.5723717002 0.5016733112 0.4602852648
0.5723679968 0.7518870163 0.4603759961
0.6023981921 0.4978003421 0.2149794174
0.6023574556 1.0013321505 0.2215102164
0.6022944992 1.0008738885 0.7151058588
0.5923473905 0.7510425048 0.9678581503
0.5923288739 1.0013976166 0.4644755677
0.5924066436 1.0012994175 0.9664416317
0.6024241153 0.7514549407 0.2167764518
0.5922066645 0.749595706 0.4641413434
0.6024055987 0.750826467 0.7148188517
0.582285479 1.0033943298 0.2119038128
0.5823336221 1.0016005612 0.7123968826
0.5825039747 0.5011456552 0.7125820484
0.582437315 0.7499361293 0.2105770996
0.582507678 0.7544598305 0.7086380161
0.6125452799 0.7500605147 0.9718947655
0.6124675102 1.0008607953 0.4748967009
0.6125267633 0.7507479078 0.4704795699
0.6222887061 0.9998591653 0.7253436778
0.6224368388 0.7518411901 0.2267680003
0.6225368284 0.747972149 0.7244317361
0.6224812786 1.0030211736 0.2248376465
0.6422977263 1.0020915562 0.7284600188
0.6323913541 0.5015384512 0.4764206158
0.6423347595 1.000225775 0.2270151967
0.6524448141 1.0024908989 0.4730830016
0.6525670236 1.0013321505 0.9801716784
0.6324394972 1.0030277202 0.4770622154
0.6324172773 1.0025629115 0.9768479516
0.6326172564 0.7528166337 0.9771349587
0.6326394764 0.750793734 0.4744236022
0.6524300009 0.7511996232 0.977051634
0.6423829026 0.7519066561 0.2255681257
0.6524929573 0.7513960213 0.4809682887
0.6425458486 0.7512061698 0.7260084232
0.6725130874 0.7541652335 0.9799031879
0.662499319 0.9996627673 0.2315239848
0.6724242078 0.9999704576 0.9791902994
0.6824527895 0.7527773541 0.2308462778
0.6724834609 0.7534123743 0.4763891376
0.6824453828 0.7489737789 0.7296561901
0.6725241974 1.0017445864 0.4828903101
0.6626178251 0.7533600015 0.2283622782
0.6625733853 0.7504205777 0.731239358
0.7025395793 0.500435349 0.2358605687
0.6924813711 1.0001013896 0.4820116982
0.6924776678 1.0003501604 0.9829954574
0.6925961739 0.7511668902 0.9831250735
0.7025210627 0.7489410459 0.2338931817
0.6925517341 0.7493403886 0.4851280392
0.7025136561 0.7522732658 0.7359314603
0.712638524 0.4967293182 0.4891933551
0.7123533686 0.7490196051 0.4835189481
0.7225226763 1.000323974 0.7406680024
0.7324994115 0.9989753742 0.9868098736
0.7325845878 0.752548223 0.9885504324
0.722600446 0.7467282948 0.2443115374
0.7326253243 0.7473174889 0.491931032
0.7225745227 0.746708655 0.7416614171
0.7225448962 0.999963911 0.2343459121
0.7324438618 0.9989164548 0.4916505057
0.7124089184 0.748070348 0.9883652666
0.7124570615 1.0019344378 0.4857150149
0.7125459411 1.002078463 0.9857266534
0.7426242794 0.500764643 0.2421765753
0.7427464889 0.7496480788 0.2444355985
0.7426576093 0.7491636304 0.7453378848
0.7524825085 0.7473829549 0.9954571181
0.7626777394 0.9983141675 0.7396588486
0.7524973218 0.9992503315 0.9949479121
0.7626629262 0.7504664039 0.2470825441
0.7524862118 0.749693905 0.4942335692
0.7626147831 0.7485744363 0.7496448421
0.7526343445 0.9990539334 0.4909959445
0.7423909705 0.9976595074 0.2421339872
0.7625629366 1.0010310069 0.2452577348
0.7825571436 0.9989426412 0.2502609157
0.7725359685 0.9970113939 0.4992997064
0.7826645397 1.0009262613 0.7496448421
0.7725396718 1.0014107098 0.9989289775
0.78260899 0.7488297537 0.2505312578
0.7723322861 0.7495236934 0.4997144779
0.782749716 0.7514418475 0.7502725543
0.7726137382 0.7512781825 0.9961329734
0.7724619022 0.4986599108 0.4988914157
0.7724544956 0.5013937713 0.9995029916
0.7924487025 1.0014434428 0.5012735742
0.7928597707 0.7527184347 0.9998085153
0.7926634949 0.9984189131 1.0041136209
0.8127354715 0.7462896726 1.0044932109
0.792337603 0.5007528591 1.0006139866
0.8026994832 1.0002977876 0.2538281355
0.8126391852 0.4976281665 1.0104555508
0.8025698671 0.7500146885 0.2485416509
0.8126688118 0.7462372998 0.5015615071
0.8025994936 0.9978166259 0.7532166911
0.8026031969 0.746708655 0.7517936916
0.8125799322 0.997666054 0.9990493353
0.792700528 0.7506235224 0.5027771208
0.8225270408 0.9974238298 0.7524389946
0.8225048209 0.9981963287 0.2568694844
0.8324963694 0.7453011358 1.0048265094
0.8225862939 0.4987332327 0.7539305054
0.8225344475 0.7469901589 0.2581536095
0.8325815457 0.7485678897 0.5086950209
0.8226492503 0.7465973628 0.755574778
0.8426693805 0.7498772099 0.2592516429
0.8426027208 0.744986899 0.759428079
0.8627043239 0.5021584143 0.7604214937
0.8423657085 0.998504019 0.7590049751
0.8626154443 0.9984647393 0.2599802704
0.8625006415 0.9972012454 0.7623907324
0.8525646427 0.9996627673 0.0076522864
0.8625673012 0.7471931035 0.7620324365
0.8527349953 0.4997001657 0.5090764625
0.8525720493 0.7487381013 0.0107902918
0.8526720389 0.4962108274 0.0125541816
0.8625598945 0.5018389402 0.2636447023
0.8627376537 0.7489868721 0.2629679212
0.8526535223 0.7497200914 0.5079275085
0.8525942692 0.9986545908 0.5100124758
0.8826133545 0.9976464142 0.760501115
0.8924308471 0.9981243161 0.0145358263
0.8827133441 0.7500997943 0.7594706672
0.8726773558 0.7499557691 0.0104126461
0.8924493637 0.747710285 0.013399371
0.8826429811 0.4981008311 0.7660033178
0.8826985308 0.5004078532 0.2612069941
0.882583728 0.7513371019 0.257765687
0.8727884553 0.7486071693 0.5152545206
0.8924863969 0.7505187768 0.5103374419
0.8726995757 0.4979594245 0.013931445
0.8825652114 0.9994991023 0.2587952091
0.9124731972 0.7482601994 0.5165173516
0.9024372089 0.9995645683 0.2621059742
0.9024927586 0.9987200568 0.7645081037
0.9024372089 0.7498772099 0.7628573503