POSCAR file written by Ovito 3.7.11
1
270.0503587879 0.0 0.0
0.0 15.2763551969 0.0
0.0 0.0 10.8020143515
Sr Ti O 
800 800 2400 
Direct
0.0225684957 0.5007397052 0.7802612495
0.0126178331 0.503392825 0.0279228674
0.0125220362 0.2545618735 0.5289294227
0.0224780681 0.2518792964 0.7793641946
0.0025194203 0.2465966227 0.780837068
0.0125877647 0.2494958745 0.0296333817
0.0026760578 -2.5309712408e-04 0.2798129234
0.0225025821 0.5005407049 0.2762422931
0.0126450873 1.6899308768e-04 0.5354846815
0.0026065522 8.6844003443e-04 0.7813156824
0.0127365147 9.6708922009e-04 0.028200038
0.0225894548 0.2524291658 0.278974191
0.0025686334 0.2524023269 0.2754405908
0.0426482691 0.5021791847 0.2804776143
0.03269457 0.253430059 0.5315937406
0.0425490283 0.2516331644 0.780191818
0.0525316109 0.5007645803 0.0385508852
0.032443876 0.2486429223 0.0302209573
0.0326245831 0.0018820326 0.5293793388
0.0325882936 9.6296519972e-04 0.0280793197
0.0426486394 0.2496791643 0.2796703574
0.0525349436 0.2508921499 0.5295709697
0.0526004869 0.2521522673 0.0315370082
0.0625371521 0.2530896636 0.2858858648
0.0626797181 0.501248989 0.7879200062
0.0626126936 0.5036579406 0.2872828265
0.0724345654 0.4988766954 0.5410003194
0.0723845747 0.2497721184 0.5430499372
0.0628570924 0.252470406 0.7903676978
0.0724175315 0.2520442572 0.0405082053
0.0626686091 0.0020356033 0.2834585398
0.0626982332 0.0015551222 0.7886291332
0.1025011797 -0.0012844295 0.2794315131
0.092567477 0.2498133586 0.5360651288
0.0826796915 -9.1130386715e-04 0.2878095801
0.1023897191 0.2479830791 0.7846669092
0.0824745446 0.24981925 0.7908639016
0.0925167457 0.248939459 0.0391231858
0.0826478456 -1.5326964689e-04 0.7857778131
0.0927870656 -9.8841650199e-04 0.0343359306
0.1025167324 0.2473363279 0.2827808884
0.0824460314 0.2518773326 0.2915385142
0.1022934407 0.5009747089 0.2891926555
0.0924689768 0.4997440489 0.5342450979
0.1125289391 0.0016212374 0.0297014246
0.1225037453 0.2506244159 0.2791667477
0.1123922979 0.2485100372 0.5305494909
0.1223526624 0.4984485828 0.7824071455
0.1123997039 0.5007521428 0.0328788875
0.1225059671 0.250323297 0.780052955
0.112414516 0.2495849009 0.032297607
0.1124015554 0.5000543323 0.5304300687
0.1523244796 0.2485408037 0.5169251802
0.1324104161 0.2492196306 0.5268640672
0.1424318803 0.2495312232 0.7729302094
0.1523670642 0.2488216299 0.0171366385
0.1324481868 0.2460866843 0.0262291093
0.1425792602 0.2516279275 0.2723624612
0.1424548389 0.4994743511 0.7711074012
0.1523244796 0.5007253039 0.0226872699
0.1323082129 0.5005001193 0.0266438467
0.1323352449 0.496379372 0.5263271303
0.1525422168 0.0015649413 0.5168548229
0.1823885019 0.2506388172 0.7619174486
0.1825403254 0.2528873903 0.2603535899
0.1623577934 0.5018184966 0.7628006172
0.1623829739 0.5019834574 0.2709293952
0.1723196391 0.2520881158 0.5120834906
0.1825284758 0.4982973687 0.7633588465
0.1623574231 0.2481336385 0.7618202445
0.1724314701 0.2489924821 0.0130185177
0.1624744383 -4.1655234412e-04 0.2643139624
0.16231669 0.2544597549 0.2626346459
0.1724022163 -1.4240318052e-04 0.5131731022
0.1824710791 -3.7040259236e-04 0.2621949131
0.2024118043 0.2495338416 0.2573902537
0.1925421636 0.5009125213 0.0131051682
0.202715081 0.4983281352 0.2655822443
0.1925940058 0.2494127394 0.5123584393
0.2024614246 0.2500863294 0.7590753861
0.1924736579 0.2495822825 0.0120165749
0.1925621599 0.0012021584 0.5124371284
0.2024995657 -0.0010870002 0.7621350006
0.1923014678 8.3014555958e-04 0.0112824526
0.202534374 0.0025659654 0.2589047861
0.2122825558 0.2486710704 0.5085350784
0.2223765991 0.2484491588 0.7566989775
0.2124636332 0.2493741177 0.0095695313
0.2224528811 2.0133064423e-04 0.2611090046
0.212392165 0.0014585023 0.5119390731
0.2124995524 -0.0012554959 0.0111115585
0.2223521592 8.2242120397e-04 0.760385327
0.2325076725 -2.2259246548e-04 0.5074315805
0.2225536031 0.2485689518 0.2601527015
0.2323895463 0.2504051228 0.5125074856
0.2324250953 0.2498395428 0.0126839504
0.2324991555 8.8310321797e-04 1.011209841
0.2524439541 0.2518720957 0.5081647771
0.2422880705 0.2529502325 0.7596586107
0.2625587342 0.2524677876 0.2522958335
0.252582817 0.2476865424 1.0072753896
0.2424980313 0.2530844268 0.2609590325
0.2425065483 0.0038100448 0.2593667369
0.2524680236 0.5017451807 1.0065718172
0.2524983884 0.0035214943 0.5087822545
0.242286219 0.0025745407 0.7607223012
0.2626242775 0.252285807 0.7578969022
0.2525835576 0.0027183577 1.0035908917
0.2624095028 4.6507156594e-04 0.2552924968
0.2624820818 0.0019791762 0.7574423574
0.2725753844 0.2508044327 0.507163112
0.272595751 0.2503252608 1.0099878467
0.2723424649 0.0012949161 0.5077241185
0.2726005649 0.5003934185 1.0063126062
0.2824120683 0.2506335804 0.7522294408
0.2822632072 0.0015710946 0.7524673593
0.282446136 0.2530019464 0.2519820032
0.302497211 0.2518989346 0.2483752685
0.3125705174 0.2498356152 0.4945515754
0.3125083068 0.2495770457 0.9951850521
0.3124627597 7.7476585748e-04 0.994037118
0.2925709143 0.2511350089 0.4983740106
0.3024638839 0.2498048487 0.7458898824
0.2923953914 0.5018479539 0.4957698667
0.302562384 0.5011206862 0.2436474466
0.2924305701 0.24948671 0.9978512214
0.3025468314 0.0032187389 0.7495466078
0.2924209422 0.00345479 0.501332718
0.3124805342 0.5026321724 0.9904822255
0.2924901886 -5.0767355608e-04 1.001267251
0.3225068123 0.2509438638 0.2397000347
0.3326575116 0.2512914598 0.4849376278
0.3225305116 0.2513516836 0.7443272109
0.3326060397 0.2476053712 0.988649234
0.3224123854 0.0010255456 0.2439964556
0.3325356825 -0.0021636968 0.492598236
0.3225271789 -6.2432441796e-04 0.7422683357
0.3323209077 -0.0010469383 0.9909265871
0.3623678961 0.2495619897 0.2304739777
0.3524827028 0.2473147259 0.4809763296
0.3423979171 0.250536044 0.7393133313
0.3524216031 -1.8992760573e-04 0.9878067986
0.3525119566 0.2500928755 0.9867514399
0.3422209131 -5.7175952341e-04 0.2357192957
0.3423782912 0.0014555565 0.7405371771
0.3423482967 0.2502316521 0.2390844088
0.3624456594 0.2469795674 0.7309741459
0.3624049263 -9.0868544151e-04 0.2324513867
0.372269753 0.2495397331 0.4815067862
0.3823826816 0.2497105854 0.7325192281
0.3725696971 0.2468250803 0.9829003063
0.3825085841 -1.3965383361e-04 0.734834537
0.3824715539 0.249323713 0.2317052295
0.3923771138 -0.0010380357 0.4797311914
0.3923437867 -0.0028513609 0.9784937208
0.3725734001 2.6600575732e-04 0.4781101975
0.3726844905 3.7220817785e-05 0.9814653887
0.3925178283 0.2479431481 0.4833740305
0.3925992946 0.2493073478 0.9794657617
0.4125140987 -0.0020520865 0.4747413814
0.4024085761 0.2478272827 0.7270239568
0.4023271099 -7.7390198214e-04 0.2235539721
0.4024122792 -1.9516445699e-04 0.7275414528
0.4025492906 0.4963440232 0.2290742388
0.4024752304 0.2466777939 0.2252767989
0.4127066554 0.2453319231 0.47386099
0.4125066927 0.2480485397 0.9724763246
0.4125029897 7.0282461326e-04 0.9722356287
0.4125733469 0.4997466673 0.9761700801
0.412591862 0.4985376093 0.4741294585
0.4224863128 0.2497524802 0.2182336681
0.4424603652 0.2473101437 0.7171137681
0.432473339 0.498692751 0.9745407544
0.4324363089 0.5003633066 0.4711827858
0.4424529592 0.2493656078 0.2164247462
0.4224826098 0.5006827545 0.2201518288
0.4424307411 0.498243691 0.7146401554
0.4323992788 0.2500981124 0.4702412948
0.4224937189 0.2483594777 0.7202381854
0.4325473993 0.2442950266 0.9667921996
0.4425010983 0.4995823611 0.2165710152
0.4323807637 -0.0032054375 0.9706433331
0.452351113 -0.0016604354 0.9647185123
0.4723770075 0.2506433995 0.4650024571
0.4624825567 0.252818002 0.7208528855
0.4723992256 0.2471320907 0.9612932252
0.4624270115 0.2506754752 0.2159618696
0.4524288763 0.5020724839 0.9645796493
0.4624121994 0.5013092128 0.7135912769
0.4724103346 0.5012339331 0.4620354179
0.4524992335 0.2492346865 0.4654097885
0.4524770155 0.2500090859 0.9693009909
0.472517722 -3.4853873834e-04 0.9630151263
0.4823233006 6.5418735716e-04 0.2103777259
0.4825084512 0.2483791159 0.7101308113
0.4824343909 0.2507042779 0.2127717239
0.4924473382 0.2495070028 0.4592063159
0.4924473382 0.2513182987 0.9619967977
0.4824677181 0.5025457643 0.2113219943
0.5025010186 0.2487306396 0.2082707115
0.5124584207 -0.0013550616 0.9553684043
0.5222862173 -9.5404966558e-04 0.206621945
0.5024676915 0.250022178 0.7076220199
0.5025454548 0.5001616878 0.7070647165
0.5123436273 0.2531394137 0.454617357
0.502326977 5.0186044606e-04 0.7059769564
0.522493586 0.2498670363 0.20385672
0.5125213719 0.2516377466 0.9563867329
0.5225454282 0.2506695838 0.7098651201
0.5124621237 0.4977232789 0.4604940387
0.5223528715 0.5031565121 0.2077643245
0.5223676836 0.4991581762 0.70813211
0.55258427 0.2519977802 0.4614484903
0.5522584048 0.001816572 0.9612654526
0.5324065519 0.5041816257 0.9641723178
0.5325361574 0.5010499887 0.4598765613
0.5323991459 0.0014652447 0.4542433527
0.5322621344 0.2537246319 0.4544136913
0.532436176 0.2524645145 0.9564700507
0.5423454389 0.0016850615 0.7058047663
0.5423195178 0.2532277856 0.2054666049
0.5424120932 0.2530130747 0.7094735264
0.5526842513 0.2516560756 0.9634872604
0.5624268786 0.5039322207 0.7096845982
0.5623824425 0.5008575344 0.2125689839
0.5622676491 0.0013087283 0.2127994965
0.5623417093 0.2534261313 0.2135299158
0.5625527811 0.2541946393 0.712337807
0.572458341 0.0020522303 0.4657782383
0.5724176078 9.0824010403e-04 0.959534294
0.5724546379 0.2508653111 0.4630389344
0.5722768933 0.2543039585 0.9619227374
0.5925731078 0.4981435362 0.9722171137
0.5824786942 0.2516174538 0.7133542841
0.6024786677 0.2472937785 0.219768567
0.5926138409 0.2520449118 0.4713123913
0.6024268255 0.2480465759 0.7196919909
0.5924842355 0.2513529928 0.9664959585
0.6024342315 0.498286895 0.7222470699
0.5824675852 0.2553814407 0.2163367997
0.5924657204 0.4999273387 0.4678815497
0.5824342581 0.5031807325 0.2164812172
0.6125508631 2.9886699899e-04 0.9690973252
0.6124582878 0.5005066654 0.4727815617
0.6223527387 0.2495757364 0.7256640252
0.6223638477 0.4995797427 0.2287298586
0.6123842276 0.5033430749 0.9682363747
0.6223194115 0.5028252813 0.7224461069
0.6123509004 0.2508607288 0.4731287192
0.6123212763 0.2503534089 0.9746518448
0.62245272 0.2509242256 0.2169940845
0.6423823362 0.2477317102 0.2272181035
0.6524656407 0.2499213686 0.4780278054
0.642611923 0.2498598356 0.7285042362
0.6524841558 0.2508692387 0.9777531182
0.6324693703 0.5020063686 0.9784289181
0.6423379 0.5000661152 0.7291106046
0.6525100769 0.4995967625 0.979558337
0.6424971296 0.5001551417 0.2302592029
0.6523767684 0.499055403 0.4811901786
0.6324212311 0.2506316166 0.477755634
0.6324767763 0.252719811 0.9745592694
0.6625489452 1.9295168221e-04 0.7336180972
0.6726211407 0.5014021669 0.4863077426
0.682656306 0.5008987746 0.734181881
0.6724619111 0.5014741736 0.9873809521
0.6827636934 0.4981965593 0.2380244213
0.6625637573 0.2484478496 0.2305647015
0.6623304674 0.2507645017 0.7330700513
0.68237858 0.0014216479 0.2342001346
0.6823896891 0.0027175722 0.7363712874
0.6624526669 0.5000936087 0.7350067271
0.6625415392 0.50067359 0.2316404268
0.6824378282 0.2518923885 0.2367533621
0.6725285653 0.2479830791 0.4890350117
0.6826007608 0.2537999116 0.7358112067
0.6724693171 0.2514511838 0.9811321176
0.7026007342 0.2514177989 0.2391751326
0.6924766966 0.2505203335 0.4884230888
0.7026155463 0.2500051582 0.7394716351
0.6924581815 0.2527839624 0.9891491408
0.7026451704 0.5011534165 0.7336569789
0.7025822192 0.0017244688 0.7378654532
0.7025748132 0.002426796 0.239514884
0.6926248171 0.4982816582 0.9875013
0.6926951744 0.4992504757 0.4867539557
0.712469264 0.2503900668 0.4903042194
0.7125840574 0.2475595487 0.9931576524
0.7224711022 0.4996432395 0.7422979598
0.7225784896 0.2505072414 0.2404471176
0.732343335 0.4988969882 0.991343176
0.7324951585 0.2481873163 0.4948672572
0.7225710836 0.5001433588 0.243477108
0.7327284483 0.5005642707 0.492256633
0.7225377565 0.2513228809 0.7431635391
0.7325173766 0.2488766168 0.9900471215
0.7125988695 0.5000968817 0.9905562858
0.7627524781 0.4999063913 0.7442253781
0.7425266208 -0.0045657096 0.7395790225
0.7526654705 0.4969043663 0.9926299731
0.7624155039 0.5008136758 0.2461534607
0.762463643 0.2485820439 0.2438779591
0.752524756 0.2479169638 0.4916363784
0.7623303346 0.2473454924 0.7426969594
0.7525432711 0.2490428868 0.9905099981
0.7423896094 0.4999031183 0.7443133246
0.7526210344 0.4996929896 0.4900598206
0.7424192335 0.2486154288 0.2407914978
0.7424895907 0.2493433512 0.7430931818
0.7825376767 0.4999626874 0.2476624385
0.7824821315 0.4993388475 0.7502714726
0.782319199 0.2479942074 0.2483900805
0.7724802933 0.2505916856 0.501914091
0.7823932592 0.2506427449 0.7451668691
0.7723729059 0.2517437929 -0.0014657253
0.7927839138 0.5030111895 0.5005939669
0.8126246577 0.4990815872 0.504319198
0.8027561279 0.5009661991 0.7510731749
0.8024043417 0.5002186385 0.2508636932
0.7923950974 0.2539949843 0.5003856724
0.7924173155 0.2483398395 1.0040722834
0.8124543191 -0.0017825195 0.5070973835
0.8026339285 0.2487090376 0.2530929071
0.8125543004 0.2481500037 0.5077704062
0.802493214 0.2496438155 0.7529922614
0.8124728341 0.2499370792 1.0058589871
0.8324431835 -2.0858388835e-04 0.5052653178
0.8224709694 0.247219808 0.2567338947
0.832606116 -8.2168824992e-04 1.0101822549
0.8325246498 0.2488956004 0.5066363584
0.8227486953 0.2479876613 0.7592003628
0.8327431275 0.2468342448 0.0077440385
0.8326616612 0.4969966658 0.5072140285
0.8326690673 0.4961712071 1.0009524949
0.8225117025 0.4973174229 0.2540186604
0.8426338754 0.4991280643 0.7529515283
0.8427708868 0.4961744802 0.2546740937
0.8426857175 -0.0039395786 0.2577929564
0.8425857362 0.2491666074 0.2531919627
0.8427264507 0.2476976707 0.7542651722
0.8624486981 0.2453751271 0.2561617792
0.8525912774 0.2481369116 0.5105967309
0.8626782849 0.2472289725 0.7596132488
0.852480187 0.2510571107 0.0058693881
0.8926060363 0.4980669473 0.0139351985
0.8725394087 -2.7312808016e-04 0.515680042
0.8824153444 0.2482265926 0.2633400699
0.8724357243 0.250351445 0.5119140778
0.8925690062 0.2509229164 0.5141701385
0.8825375439 0.2489401136 0.7611666627
0.8725542207 0.2497668815 0.0128067053
0.8923690435 -0.0030326869 0.5108920462
0.8725653298 3.3395390245e-04 0.010992877
0.8925578972 0.2497845559 0.0145527685
0.8724912695 0.5008077843 0.5128509401
0.8925727092 0.4995155913 0.5137572525
0.9124689983 0.4977213151 0.5121964325
0.9025597354 0.498692751 0.7659287375
0.9127763484 0.4969037117 0.0126737672
0.9024967842 0.4954400118 0.2665959441
0.9125837917 -0.00120136 0.5117511452
0.902459754 0.2482030268 0.2616903776
0.91268007 -0.0018189811 0.0130661014
0.9123616109 0.2490239032 0.5140062801
0.9026412017 0.2497007663 0.7630727887
0.9126097128 0.2476184633 0.0114549204
0.9426004154 0.2483215106 0.7658093153
0.9324356446 0.2505897218 0.0148066101
0.932561547 0.5004778627 0.5099385203
0.9326874495 0.4996373481 0.0137255154
0.9226300661 0.5014728644 0.7609352244
0.92262266 0.4988734224 0.2607201882
0.9424041557 0.4988492019 0.7653816173
0.9224856485 0.2506224521 0.2629003371
0.9225337877 0.2468263895 0.7612194307
0.9425670883 0.2502152869 0.2638594175
0.9325022988 0.2504561821 0.515323627
0.9726540692 -0.0012794545 0.5181156988
0.9627336973 -0.0030289556 0.7729015111
0.9624670803 0.2474849236 0.2712682208
0.9526429867 1.8169245199e-04 0.016952321
0.9727022084 -0.0010255327 0.0226821782
0.9525207873 0.2502827114 0.5174750776
0.9725133547 0.2480367568 0.5231230982
0.9626966671 0.2508273439 0.7694558574
0.952724453 0.249342042 0.0180905346
0.9526911259 6.8947064254e-04 0.5178018685
0.9726318511 0.2484530865 0.0238323341
0.972580009 0.4966045566 0.5255791216
0.9627633214 4.333886158e-04 0.277499466
0.952728156 0.4984963691 0.5224759967
0.9624855954 0.5005956918 0.7675404739
0.9826744225 0.2503704286 0.2692667423
0.9824781628 -1.2544887456e-04 0.7781347942
0.9926836667 0.0015484452 0.0298983323
0.9925244372 0.2501040038 0.5246357791
0.9824559447 0.2505982317 0.7721692402
0.9923392865 0.2473867326 0.0240853424
0.9923985347 0.4995083906 0.0280387717
0.0226722171 0.7514670516 0.7756148939
0.0026104404 0.5009491793 0.2789399381
0.002561968 0.7505047801 0.7777811565
0.012461566 0.5034281738 0.5276342939
0.0024181059 0.4984322177 0.7781227594
0.022407859 1.0033072288 0.2811395279
0.0225046928 1.005375785 0.7843391926
0.012472638 0.7512313933 0.0302623385
0.0227899729 0.7501185624 0.2769134642
0.0024791316 0.7503542207 0.2822078471
0.0125253689 0.7513426763 0.5299847814
0.0527649007 1.0043022305 0.5336155857
0.0526701036 1.0023580495 0.0317559488
0.0325597804 0.7528875475 0.0309353611
0.0427734309 0.7521805725 0.2828605032
0.0325538555 0.7501185624 0.5304735791
0.0427493613 0.7520692895 0.7822062571
0.0425845773 0.5022328625 0.7854991614
0.0323253796 0.5022433362 0.0327890894
0.0324727595 0.5007390506 0.5298598047
0.0427030737 1.0018605486 0.2810728736
0.0526756581 0.5035892069 0.531085502
0.0527245379 0.7506815239 0.0347730713
0.0527245379 0.7528155408 0.5405559579
0.0425305133 1.0025740696 0.7821507119
0.0726030525 0.5006284222 0.0433807251
0.0725989792 1.0003156775 0.5396727893
0.0726485995 1.0043611451 0.0381392953
0.0724667816 0.7533392259 0.0356953992
0.0625667762 0.7532606731 0.2852600556
0.0726815563 0.7508189912 0.5338460982
0.0625012329 0.7517878087 0.7909138922
0.0926104319 1.0006167964 0.5388646067
0.0922830856 0.7478405321 0.0329245271
0.1025493189 0.7522787635 0.2789658592
0.0824649168 0.7515390583 0.2887094123
0.0925089694 0.7531559361 0.5326703916
0.1024945143 0.7501054702 0.7797530109
0.0824645465 0.748959909 0.7897650324
0.1025844975 0.9979721866 0.7843179003
0.1024374879 0.4987058431 0.7814517682
0.0825115748 0.5010480249 0.7887059707
0.0926767159 0.4987451195 0.0349873831
0.0824364036 0.5009079391 0.2888306859
0.1123511944 0.7511135641 0.0302956656
0.1224241305 0.7512510314 0.2807608948
0.1123871137 0.7481940195 0.5303319389
0.1225374427 0.7497127064 0.7765239836
0.1223763616 0.9999163676 0.2808784654
0.1224774539 0.9978543574 0.7785078728
0.1223604387 0.5002998097 0.2801869278
0.1124659878 0.9996348868 0.5265909699
0.1424248445 0.7473037548 0.272869774
0.1525211096 0.7513950449 0.5209022162
0.1324833654 0.7493264886 0.5236415201
0.142500386 0.7473888536 0.7722618156
0.1525359216 0.5005858727 0.5186720766
0.1326077867 0.9973372183 0.0283626002
0.1425566718 0.5005871819 0.272220821
0.1425737057 1.0021813058 0.2692676681
0.1324952151 0.9966236974 0.5274852476
0.1425733354 0.9990653793 0.7688022756
0.1525681379 0.999955644 0.018313456
0.1526122037 0.7487111586 0.0176816294
0.1324315232 0.7506684317 0.0243851013
0.1724722032 0.7520954737 0.014984725
0.1625392411 0.7490122775 0.2652897063
0.1723692595 0.751309946 0.514959806
0.1624337052 0.7481547431 0.7663758763
0.1824988517 0.9993534061 0.762737666
0.1725525586 0.5045992646 0.0132648606
0.1724074005 0.5012417884 0.5135193339
0.1824047951 0.7501643848 0.2584261716
0.1823922049 0.7499025422 0.7628311671
0.1724636863 1.0009048233 0.0136884853
0.1624092653 0.9988624513 0.7681857239
0.182405906 0.4991130083 0.2657905388
0.2025336334 0.4973953211 0.762812652
0.1924347762 0.5003397407 0.5143071499
0.1924484774 0.75253406 0.0142071849
0.2024318005 0.7500203714 0.2594704213
0.1924980978 0.7503345825 0.5088377997
0.2023507046 0.7480107297 0.7628385731
0.2325732158 0.7493068504 0.0103215207
0.2323073394 0.5032632129 0.0080261155
0.232370661 0.7536403448 0.5093090081
0.2126821109 0.7511855708 0.0135187947
0.222397336 0.749261028 0.2611377029
0.2124540053 0.7502167533 0.5126981908
0.2224288116 0.7508713597 0.7549141252
0.2324521273 0.5002179839 0.5057948487
0.2225010203 0.4992596402 0.7557611894
0.2126647068 0.4996183645 0.0075348182
0.2224162213 0.497545226 0.262450421
0.2123599488 0.5016384798 0.5120242424
0.2522943523 0.7538301807 0.0049980692
0.2423754616 0.7504065892 0.2572643513
0.252494315 0.7521020198 0.5077852182
0.2421925328 0.7510481035 0.7589726275
0.2425820897 0.4957574959 0.7582283219
0.2625539203 0.500424185 0.7558815374
0.2623491436 0.7513557685 0.257329154
0.2424502625 0.5017851117 0.2557090858
0.2623465515 0.7520169209 0.7559694839
0.2625850256 0.5007613073 0.2567838853
0.2524195142 0.5007652349 0.503831326
0.2723158032 1.0024889708 1.0080252498
0.2826486908 0.498634491 0.2504285892
0.2726379654 0.5019828028 0.5039766693
0.2824909425 1.000165118 0.2469496085
0.2824946455 0.5008955016 0.7545919631
0.2826442472 0.7503083982 0.2516728016
0.2824239179 0.7503018522 0.7510222585
0.2722654423 0.7537385358 1.0070254363
0.2725864935 0.7479190848 0.5031259021
0.3123916619 1.0028359122 0.4934527063
0.2923694704 0.7480565522 0.9988232624
0.3023483499 0.7500596478 0.2505276448
0.2922383837 0.7518336312 0.5014984278
0.3024538858 0.7478012557 0.7474025633
0.3026579218 0.5003973461 0.746038003
0.2924938916 0.50044906 1.0016375523
0.3023861206 0.9987053457 0.246759829
0.3125383012 0.7516437953 0.9949999014
0.3122257669 0.7525733364 0.4949644613
0.3124897917 0.5016090226 0.4925001061
0.3323879323 0.5027918963 0.4872927441
0.3225964252 0.5023997871 0.7415221786
0.3324045958 0.7526584352 0.9931761675
0.3322301839 0.5026053335 0.9877142232
0.3224479344 0.7533064956 0.2442954739
0.3324749531 0.7493984953 0.4909142908
0.3223457312 0.7531755743 0.7482699941
0.3225812428 0.4996596047 0.2442241909
0.352341618 0.4990023798 0.481740076
0.3523667985 1.0019456475 0.4885776896
0.3625086106 0.749064646 0.2363247383
0.3624789865 0.7514539594 0.7336069882
0.3623123509 0.5004745896 0.7310704242
0.362604889 0.4975629003 0.2280096225
0.3522731123 0.7506487936 0.9858164291
0.3424782725 0.7510219192 0.2391714296
0.3524782592 0.749568693 0.483443462
0.3422568323 0.7498239895 0.7432144555
0.3624160353 1.0007477177 0.7308880509
0.3424630902 0.4983189707 0.7387763944
0.3523619846 0.5011913837 0.9882604177
0.3423212648 0.4993931799 0.2345111877
0.3723438133 0.4994501306 0.9809747395
0.3825530202 0.4979681017 0.2332438314
0.3722475349 0.4969312052 0.484010023
0.3925733735 0.4997348844 0.9831595172
0.3823049184 0.4992275644 0.7337736238
0.3725919151 0.7484296778 0.9780308441
0.3824197118 0.748246388 0.2283336362
0.3724363886 0.7523442242 0.4839822504
0.382490069 0.9991308399 0.235519333
0.3825419112 0.7494508638 0.7303298216
0.3925918886 0.7464462204 0.9804285451
0.39242155 0.7482660262 0.4795182682
0.3924919072 0.4961594242 0.4769104212
0.4025826178 0.4948744318 0.7275923693
0.4025826178 0.7504065892 0.2241936676
0.4024011701 0.7482987566 0.723406113
0.4123881963 0.748344579 0.9702730318
0.4124363355 0.7500923781 0.4736388092
0.4224640948 0.9998116306 0.715740876
0.4423381658 0.9980965618 0.2165015837
0.4322585643 0.9966957041 0.4682203754
0.4423048386 1.0008459087 0.7188227086
0.4224826098 0.4988681855 0.7217647525
0.4323363275 0.7463480295 0.9666348215
0.422538155 0.7472775706 0.2180142646
0.4323511396 0.7465836878 0.4709504218
0.4224270646 0.7457654298 0.7198799188
0.442401117 0.7484165857 0.2203508658
0.4424973953 0.749267574 0.7144133458
0.4225714821 0.9961982032 0.2167052495
0.4723955226 0.999752716 0.4653699811
0.4725658612 0.4986600207 0.9618579347
0.4624455266 0.5011200316 0.216992233
0.4723140563 0.7497519828 0.961515406
0.4624121994 0.747631058 0.2179605709
0.4725473461 0.7497912592 0.463479593
0.4625158838 0.7477030647 0.7176238581
0.4523659251 0.9958119854 0.4653162874
0.4624121994 1.0000145585 0.2155545382
0.4624047934 1.000472783 0.7128562289
0.4523770341 0.7513884988 0.9662552627
0.45234741 0.7493264886 0.4652598165
0.4524807185 0.4996321112 0.4669493162
0.4925991617 0.4985402277 0.9567662918
0.4924880714 0.497566828 0.4592340885
0.4824677181 0.4987267905 0.7154770363
0.4823010825 0.9967218883 0.7128682637
0.4923399508 0.9998836373 0.4596053156
0.4925547256 0.9990719253 0.9606822281
0.4926287858 0.7493264886 0.4570622714
0.4925880527 0.7490253697 0.9601638062
0.4825565904 0.7478798084 0.2093084809
0.4826528687 0.7485867834 0.7082830078
0.5023010559 0.5000379672 0.2069450328
0.5124139845 0.9982143909 0.4595423643
0.52248618 1.0039618352 0.7064296497
0.5024010373 1.0024889708 0.2080309414
0.5225343192 0.7524816915 0.7065972111
0.5026935753 0.7475721434 0.2031725883
0.5027602295 0.7498501737 0.7063870651
0.5124324996 0.7503345825 0.9564422781
0.5126361653 0.5008221856 0.9564515357
0.5124510146 0.7481547431 0.4580731939
0.5227564999 0.7526715274 0.2114478967
0.5522547018 1.0023776877 0.456028205
0.5424306082 0.501325578 0.7102437532
0.5425083715 0.7528744553 0.2112220129
0.5525102097 0.5034537034 0.4603570272
0.5524768826 0.7522722174 0.46144201
0.5424565293 0.7504589577 0.7084005784
0.5323102736 1.0035494332 0.9570625328
0.5425046685 0.5009733997 0.2056489783
0.5324732062 0.7517616244 0.9577938779
0.5524361495 0.5038962173 0.9631725043
0.5424194992 0.9987838985 0.2109563217
0.5325213453 0.7561933098 0.4590211653
0.572476856 0.5026832317 0.9641075151
0.5624379877 0.9997461699 0.7104946323
0.5523731982 0.7512117551 0.9637742439
0.5624194726 0.749463956 0.2105730599
0.5625009389 0.7529006396 0.7140384158
0.5724176078 0.7535814303 0.9647740575
0.5725583223 0.5018067137 0.4663623886
0.5725398072 0.7518074469 0.4644942185
0.6024527466 0.5032344103 0.2229744505
0.6024009044 0.9983453122 0.2168191171
0.6025342129 0.9996610711 0.7217804903
0.5924953445 0.7509695507 0.9668940324
0.5924397993 1.0009179154 0.46724278
0.5923694421 0.9996217947 0.9662830353
0.6023897954 0.749771621 0.2193538295
0.5926064349 0.752121658 0.4683629414
0.6024453406 0.7501251084 0.7189402793
0.5823713069 0.9999098215 0.2164849202
0.5824305551 1.0015332454 0.7165666479
0.58241204 0.5016293153 0.7139134391
0.5823750099 0.7528679093 0.2182614407
0.582408337 0.7490711921 0.7216629196
0.6123509004 0.7505113262 0.9692361882
0.6123657125 1.0006102504 0.469167421
0.6122990583 0.7507404385 0.4712688809
0.6225712164 1.0019194632 0.7223664921
0.6225675134 0.7495621469 0.2172690332
0.6223305206 0.7542294906 0.7213342772
0.622437908 0.9976579755 0.221396967
0.6427304194 1.0012255804 0.7247827081
0.6325989757 0.5007711263 0.4713855258
0.6426785772 1.0021158451 0.2287067147
0.6524989678 1.0001323877 0.4872020202
0.6526322763 1.0018670947 0.9787344166
0.632673036 0.997919818 0.4740165166
0.6325730546 0.9995956104 0.974587042
0.632380498 0.7515325122 0.9744574366
0.6324360432 0.7521347501 0.4758013688
0.6526730094 0.7531166597 0.9815579641
0.6426748742 0.7514605055 0.2285447079
0.6525952462 0.7533654101 0.4776223255
0.6425897049 0.751205209 0.7296086599
0.6726137346 0.7474608603 0.9861404427
0.6626044904 1.0023449574 0.2305341517
0.672717419 1.0009310075 0.9858256866
0.6826822271 0.7481678353 0.2372912247
0.6725544864 0.7482594802 0.4872399761
0.682660009 0.7515979728 0.7369128531
0.6726248437 0.9995563341 0.4824158759
0.6625637573 0.7498501737 0.2325041546
0.6625674603 0.7523049478 0.7314555376
0.7025674071 0.4985552837 0.239297332
0.6926692533 1.0011470276 0.4878046856
0.6926285201 0.9993730443 0.985242462
0.6924915086 0.748953363 0.9864274262
0.7025711101 0.7519710985 0.2384687828
0.6925211327 0.7511135641 0.484636758
0.7026636855 0.7485082306 0.7367499205
0.712469264 0.503183351 0.4897404357
0.7126507116 0.7509499125 0.4916289723
0.722411854 0.997507416 0.7392290877
0.7324951585 0.9988493591 0.9936297866
0.7325655158 0.7451042773 0.9961663505
0.7225340534 0.7515456043 0.2403730573
0.7325877338 0.7499876411 0.4955504631
0.7225858956 0.7507862609 0.7423590595
0.7224673992 1.000060381 0.2457840851
0.7325618127 0.9999425518 0.4909420634
0.7127358809 0.7516896177 0.9903896502
0.7125396212 0.9983125819 0.4888044991
0.7125766514 0.9986791615 0.9901489543
0.7424488576 0.4972303603 0.2426763314
0.7423710943 0.7487242507 0.2418301929
0.7425488389 0.7480761904 0.7417693547
0.7526062223 0.7506291554 0.9911209952
0.7623377406 1.0004073224 0.7501946351
0.7524766169 0.9992093927 0.9905285132
0.762445128 0.7497978052 0.244178829
0.7526284404 0.7492479358 0.4936248964
0.7625340003 0.7511790247 0.7424562636
0.7524210717 0.9992159387 0.4941377637
0.742559948 1.0001192956 0.2404517463
0.762448831 0.9974943239 0.2446861417
0.7825228647 1.0017361734 0.2481975239
0.7725506506 1.0032352221 0.495783753
0.7823599321 1.0004335067 0.7488513671
0.7725395415 0.9991897545 0.9947129179
0.7825895189 0.7518859997 0.2480095959
0.7727543163 0.7515783347 0.4966715503
0.7824265863 0.7491039224 0.7517424945
0.7725247295 0.7485082306 0.997860479
0.7725543536 0.501140979 0.4962595901
0.7725654626 0.4974804199 0.9933890907
0.7926580114 0.9991308399 0.5024214038
0.7922173528 0.747526321 1.0033687109
0.7925024848 1.0014612387 0.999860106
0.812424695 0.7496865221 1.0018967632
0.7927357746 0.4989316823 1.0010172976
0.8023969357 0.9981816606 0.2506952062
0.812428398 0.4980734933 0.9995268348
0.80250062 0.7481089207 0.2554443204
0.8124839432 0.7495556009 0.5035767439
0.8025154321 1.0010291985 0.7508074838
0.8024191537 0.7508582676 0.7541855574
0.8124839432 0.9990915635 1.0122374271
0.7924543457 0.7502363915 0.5006893195
0.8226264959 0.9986137008 0.7595132674
0.8225561387 0.9982340291 0.2546259545
0.8327357215 0.749267574 1.0078308416
0.8225709507 0.4972604722 0.7557556349
0.8226227929 0.7477750714 0.255483202
0.8325320558 0.7465967799 0.5035693379
0.8225561387 0.7485998755 0.7555908508
0.8425672211 0.7463283913 0.2553850722
0.8425783302 0.7519710985 0.7544549516
0.8625412735 0.4983287898 0.7603186727
0.8427338567 0.9973175801 0.7565647433
0.8624412921 1.0009310075 0.2621088181
0.8626375518 1.0012255804 0.7581801827
0.8525172172 1.0000145585 0.0091997855
0.8626708789 0.7519710985 0.7589929941
0.8525912774 0.4978803845 0.5080286913
0.8526394166 0.7492479358 0.0070911047
0.8525616533 0.5016064041 0.004607679
0.8625708976 0.4965953921 0.2592139876
0.8624820253 0.7504458656 0.2573615554
0.8526616347 0.7478863545 0.510281049
0.8526023865 1.0004465988 0.5062373588
0.8823931264 0.9998639991 0.7649048544
0.8927615629 1.0001258416 0.0117317206
0.8824005324 0.748547507 0.7637615491
0.8724283183 0.7494050414 0.0104948217
0.8925764122 0.7499549108 0.0147078322
0.8825042168 0.5009681629 0.7613619967
0.8824560776 0.4994664958 0.2661034434
0.882563465 0.7483642172 0.2661858354
0.8724357243 0.7494574099 0.5103097474
0.8925578972 0.7480565522 0.5164002781
0.8725320026 0.5006925736 0.0093645696
0.8825190288 0.9993010376 0.2671189947
0.9126208218 0.7515979728 0.5120094303
0.9025671414 0.9978412653 0.2649962425
0.9026041715 0.997402679 0.7631949881