POSCAR file written by Ovito 3.7.11
1
270.1248204618 0.0 0.0
0.0 15.2805673852 0.0
0.0 0.0 10.8049928184
Sr Ti O 
800 800 2400 
Direct
0.022505378 0.4999548446 0.7716694114
0.0126853623 0.4988455926 0.0213794171
0.0125071113 0.2482711274 0.5222976584
0.0225245914 0.2488300072 0.7722987501
0.0026547772 0.2489255534 0.765856358
0.0125461674 0.2479871066 0.021627358
0.0023982661 0.0019817126 0.2684862912
0.022562907 0.5011504808 0.2706852746
0.0126258342 0.0020615525 0.5215452285
0.0025007373 -0.001881233 0.7623385398
0.0123381524 4.5855143711e-05 0.0180427189
0.022668747 0.2488666551 0.2740614916
0.0026759155 0.2472849075 0.2702910124
0.0424404214 0.4986204701 0.2674210429
0.032548698 0.2479039945 0.5237099685
0.0424015505 0.251430696 0.7737147621
0.0525505623 0.5011524441 0.0179987577
0.0323909931 0.2502481483 0.0217766409
0.0324913171 8.5027553532e-04 0.520832595
0.0325834967 0.0014430546 0.0222924209
0.0424344982 0.2498365143 0.2684548243
0.0525302013 0.2490407324 0.5152435121
0.0524631953 0.2485937594 0.019551651
0.0623519571 0.249339805 0.26498143
0.0624456175 0.4988541001 0.7637647324
0.0624696804 0.4986610445 0.2646695372
0.0725154067 0.4999496092 0.5152407356
0.0723014315 0.2508593821 0.5170685943
0.062374169 0.2496375688 0.7653362281
0.0725979611 0.2486755627 0.0180431817
0.0624644976 -0.0018030291 0.2665464472
0.0624252565 -0.0026667405 0.7662126748
0.1027114471 -0.0010080324 0.2628731454
0.0924439715 0.2496526206 0.5187270869
0.0826677503 0.0012594226 0.2652942483
0.1024656348 0.2482096114 0.7636259077
0.0825996336 0.2487023941 0.770432946
0.0925183815 0.2501650362 0.0148307779
0.0825163388 -0.0018949759 0.759161305
0.0924972802 -0.0017502823 0.0168478083
0.1025400448 0.2499857235 0.2656079922
0.0824215678 0.249021754 0.2656246512
0.1026148251 0.497303765 0.2640327945
0.092671644 0.5017316111 0.5170759983
0.1125976175 -0.0012510862 0.0127065747
0.1225493131 0.249923553 0.2651887416
0.1125232074 0.2496022298 0.5155989034
0.1225548661 0.5023428449 0.7617304876
0.1127205236 0.4994031635 0.0110473417
0.1225085912 0.2511061007 0.767779543
0.1125406068 0.2491264622 0.0150493805
0.1125457896 0.5003036536 0.5128196327
0.1526324428 0.2519633987 0.5079755758
0.1327023971 0.249994231 0.5122226864
0.1426463186 0.2506250976 0.7583551961
0.1526613183 0.2465087583 0.0067928271
0.1324617676 0.2516309503 0.0101544212
0.1425678364 0.2526080083 0.2584659236
0.1428713997 0.5018147232 0.7582228499
0.1525765427 0.4987199428 0.0030964804
0.1326054049 0.4976198528 0.0160563224
0.1326735216 0.5017361921 0.509559103
0.1526753859 -0.0020085843 0.5050861708
0.1826396816 0.2514444389 0.7518165523
0.1824068263 0.2508364772 0.2529073822
0.1627225929 0.4989686247 0.7496305258
0.1625311999 0.5024154862 0.2528685113
0.1723418497 0.2498024842 0.5020459096
0.1826252438 0.5031792013 0.7496573653
0.1625752537 0.253494101 0.7534324719
0.1724551306 0.2526649433 0.0035362771
0.1624549389 0.0018650939 0.2526926666
0.1626452213 0.2516263693 0.2569499577
0.1722981662 0.0032114444 0.5038469289
0.1824808661 0.0021632503 0.2514108518
0.2025497365 0.2498051019 0.2555348712
0.1924892023 0.5034023606 -0.0025931856
0.2024268303 0.5025725485 0.2502549047
0.1923500074 0.2516525464 0.5017201343
0.2025245629 0.2514941753 0.7505449179
0.19254066 0.2550686499 6.0189287292e-04
0.1923577815 0.0033444892 0.5043753883
0.2024790284 0.0042569553 0.7522182184
0.1924884619 0.0038871392 0.0053956027
0.2025752802 0.0012759142 0.2504640673
0.2123522418 0.25329581 0.4988196234
0.2223887131 0.2501440945 0.7485190027
0.2123429869 0.2518966473 8.0494714948e-04
0.222373535 -0.0015050035 0.2455302371
0.2123814876 0.0018814545 0.5009121745
0.2124692248 0.0016152995 0.0023645039
0.2223546548 0.0014319293 0.7482256198
0.2322545225 0.0024055188 0.4980801504
0.2225852889 0.2499026114 0.2480327838
0.232346332 0.2525811768 0.5023855674
0.2322319404 0.2492135008 -6.6317043898e-04
0.2322719219 -0.0016500897 1.0011660933
0.2522830412 0.2505315147 0.5006521095
0.2424342609 0.2498679268 0.7501525068
0.2621129413 0.2493738352 0.2502428732
0.252388548 0.2522951927 0.99796387
0.2421355101 0.2513240245 0.2479115436
0.2423779906 -0.0030609667 0.2496190875
0.2525736476 0.5040495878 0.9995464717
0.2522537954 -0.0019303149 0.4983429919
0.2422487911 -8.9022046909e-05 0.744992855
0.2624057689 0.2459649303 0.749311229
0.25248517 7.7076278102e-04 0.9951781208
0.2624420484 -0.0014961687 0.2492331548
0.2623369118 4.8880785346e-06 0.7462931798
0.2723145214 0.2473510045 0.4943800091
0.2722949008 0.2503090099 0.9947061168
0.2724526057 9.9987731007e-04 0.4941680701
0.2722397412 0.5003409559 0.9954650252
0.282398008 0.2479687826 0.7411011356
0.2823006456 -0.0030501686 0.7434546772
0.2824731584 0.2470061221 0.2475441209
0.3025231486 0.2498921405 0.2376061226
0.3124470793 0.2553075154 0.4911213304
0.3123441639 0.2533743411 0.9919851524
0.3124563343 0.0015036544 0.9946690968
0.2923097221 0.2499399136 0.4886798665
0.3022902933 0.2498476396 0.7358294986
0.2924907495 0.4983953475 0.4897525188
0.3025216678 0.499898564 0.2408268559
0.2923385976 0.2471605666 0.9892549331
0.3023458232 -0.0023504564 0.737571286
0.2922786254 -0.0013788956 0.4912953241
0.3124778059 0.497180733 0.990291491
0.2924178203 0.0010884866 0.9935122243
0.3224002558 0.2527899387 0.2435404162
0.3323848991 0.2500223713 0.495870061
0.3225612924 0.2502684355 0.7410354253
0.3325903597 0.2532473824 0.9965571129
0.3224217273 5.919081658e-04 0.241743099
0.3325718497 2.7038869103e-04 0.4938145298
0.3225653646 5.8261531715e-04 0.7413149257
0.3326399664 0.0034266197 0.9943636825
0.3623651134 0.248089197 0.2435829891
0.3524352595 0.2524070995 0.4984318397
0.3425587143 0.2489484583 0.7424412568
0.3525152226 0.0028558948 0.9951318459
0.3525059676 0.2496801065 0.9953076905
0.3425446468 -0.0014587356 0.2469638336
0.3425550123 0.002408791 0.7452445905
0.3424569095 0.2506113547 0.2438226931
0.3624354513 0.2529888842 0.7446596757
0.3624243453 0.0018181061 0.2435792871
0.3724937643 0.2513848862 0.4896738514
0.3824373156 0.255429893 0.7417406548
0.3725011683 0.253242147 0.9946968618
0.3826335212 0.0038324292 0.7417082624
0.3824632295 0.248858802 0.2388074191
0.3924475027 0.0030432569 0.4937414155
0.3925326485 0.0037946688 0.9908838097
0.3726714599 0.0028505939 0.4955026383
0.3723567906 0.0030541858 0.9919388775
0.3924104828 0.2504948669 0.4949084685
0.3924993306 0.2518685069 0.9924386465
0.4125678307 0.0013633455 0.4901976833
0.4025872595 0.2522533094 0.7416943799
0.4024650938 0.0047537301 0.2422937703
0.4024687958 0.0027626391 0.7421284385
0.4027871671 0.5041549504 0.2416079762
0.4023984579 0.2535719777 0.2405001551
0.4122938833 0.2527572174 0.488929751
0.4125011949 0.2524313133 0.9877741362
0.4127085064 0.0026643443 0.9928921406
0.4126085526 0.5045299365 0.9844238332
0.412449367 0.5044317726 0.4922235986
0.42252619 0.2555489986 0.2439966868
0.4424503124 0.2541550713 0.7340747543
0.4326067149 0.5039455341 0.9831466459
0.4325400791 0.5016000715 0.4767613024
0.4425058423 0.2542859564 0.2357329145
0.42250768 0.5026739845 0.2362734054
0.4424281005 0.5051738916 0.7330835458
0.4324401253 0.2504974846 0.4888325737
0.4225632099 0.2550693043 0.7416851249
0.4326252249 0.2532022271 0.9873391521
0.4425317562 0.5002408288 0.235488583
0.432554887 0.001387232 0.9868116182
0.452701129 0.0013605969 0.9867653433
0.4725327017 0.251235677 0.4828011028
0.4624410707 0.250917626 0.7362089528
0.4725623176 0.2524718877 0.984044379
0.4624928986 0.252738239 0.2355950153
0.4527529569 0.5000595528 0.9843312834
0.4626668923 0.502390618 0.7349280635
0.4727511192 0.5002375566 0.4847316917
0.4524419896 0.2516931208 0.4844077674
0.4525197314 0.2523023914 0.9854326261
0.4725623176 0.0015984153 0.9854511361
0.4826465446 0.0015974991 0.2286519288
0.482472551 0.2495106102 0.7356795679
0.4824096171 0.2527316948 0.2307528094
0.4924494201 0.2504680354 0.4777432558
0.49254197 0.2478333165 0.9828782514
0.4826465446 0.4984562092 0.2298439703
0.5024818192 0.2508672352 0.2332979291
0.5125919601 3.8137933406e-04 0.9753632071
0.5225207034 0.0027165675 0.2241586356
0.5024892232 0.2484792349 0.7271871976
0.5024188854 0.5009449911 0.7263570259
0.5123069067 0.2466442245 0.4789741683
0.5024855212 0.0033956653 0.7257101027
0.5223578158 0.2504660721 0.2313007042
0.5123883506 0.2514398579 0.9760018008
0.5225392134 0.2491755441 0.7268216259
0.5125956621 0.4986584268 0.4727363113
0.5224503656 0.4980223247 0.2237005141
0.5223059879 0.499858644 0.7255999685
0.5525956887 0.2462005237 0.4792259037
0.552484629 -3.9935083775e-04 0.9783340559
0.5324790627 0.4976015289 0.9733826412
0.5325382945 0.5017060885 0.4753277059
0.5324013208 -2.6591338424e-04 0.4756997561
0.5325049766 0.2476834529 0.4780884666
0.5325271886 0.2460794549 0.9790929643
0.5424189119 -0.0038000099 0.7282922423
0.5422856402 0.2469485326 0.2290572969
0.5424300179 0.2474550583 0.7280210714
0.5523920791 0.2511028286 0.977353028
0.5623060145 0.4968764249 0.7283616547
0.562509624 0.4981217975 0.2312423979
0.5624614981 -0.00204713 0.2308435082
0.5624652001 0.2476042674 0.2319790943
0.5624652001 0.2480263721 0.7318618884
0.5723347116 3.9178470684e-04 0.4838311821
0.5724198574 -0.0023740157 0.9890420686
0.5723532215 0.2486297529 0.4809047572
0.5723828375 0.2476121205 0.9838407694
0.5921440723 0.5000863842 0.9889587738
0.5823078788 0.2475139566 0.7338045088
0.6024541208 0.2485243903 0.2333960319
0.5924291257 0.2491945225 0.4844151714
0.6023800809 0.2465028685 0.7334472666
0.5923995097 0.2471756184 0.9887273992
0.6021542594 0.4968901678 0.7420682811
0.5824115345 0.2504261521 0.2350230575
0.592244026 0.5008690777 0.4861643628
0.5822486469 0.5008808573 0.2373821521
0.6124865198 -0.0038508588 0.989328973
0.6122088704 0.4999967279 0.4912897711
0.6223819452 0.2508718162 0.7333537913
0.6223560312 0.4963437222 0.2394497147
0.6124569039 0.4974870043 0.9884497498
0.6223227133 0.4953175822 0.740200626
0.6124346919 0.2473215554 0.4908066611
0.6123717581 0.2490276438 0.9868301282
0.6225189189 0.24810294 0.2336690538
0.6424837633 0.2495825971 0.2380809031
0.6525605863 0.2520301502 0.4890445128
0.6425911211 0.2469439516 0.7394037722
0.6525420763 0.2522415297 0.9908190249
0.6323217945 0.4963110009 0.9922998218
0.642624439 0.499858644 0.7434232103
0.6524754404 0.4997945102 0.9929384155
0.6426429489 0.5010712953 0.2425973337
0.6524125066 0.4973194713 0.4941838035
0.6323736224 0.2498103373 0.4859246588
0.6324439602 0.247333335 0.9867468334
0.6623412499 -3.4313564767e-04 0.7386596717
0.6726068745 0.496248176 0.4901662164
0.6825541277 0.5003167422 0.741858193
0.6724587948 0.4970727527 0.9896806623
0.6825800417 0.4994103622 0.2450563821
0.6625818794 0.2494582561 0.2386963593
0.6624745216 0.2468948696 0.7437536131
0.6825171078 -0.0030213085 0.2429203325
0.6824689819 -0.0024675986 0.73947411
0.6625670714 0.5008690777 0.7431326039
0.6625633694 0.5000130885 0.2466232503
0.6826911014 0.249101594 0.2366556361
0.6725328346 0.2490505488 0.4911130009
0.6825726377 0.2488666551 0.7461062292
0.6725920665 0.2474858163 0.9935307342
0.7024449322 0.248513265 0.2432729473
0.692475467 0.249348967 0.4909825057
0.7024486342 0.2500459306 0.7418063652
0.692497679 0.2475414425 0.9903470209
0.7025263761 0.5033794557 0.7473852675
0.702544886 -8.9180637361e-04 0.7418443106
0.7024153163 -0.0016375902 0.243391411
0.6926013348 0.4999483003 0.9899953316
0.6924606591 0.501396545 0.4925549269
0.7125698811 0.2486814525 0.4938302633
0.712618007 0.2483077753 0.9928921406
0.7224949224 0.4975949846 0.7453806387
0.7225467503 0.2532938467 0.2426954365
0.7325902554 0.4989221604 0.9897454471
0.7325014076 0.2483077753 0.4909713997
0.7225060284 0.5009744403 0.2488685086
0.7326198713 0.4986374851 0.4958247116
0.7225652603 0.2499772159 0.7421154815
0.7325273215 0.2472076853 0.9934844593
0.7125291592 0.4979084546 0.9946968618
0.7625837968 0.4999397928 0.7426587489
0.7425338066 -1.4078714045e-04 0.7425402851
0.7526809675 0.4996217418 0.9922442919
0.7626837506 0.4977540101 0.2447380107
0.7628577443 0.2472940695 0.2418134368
0.7525736097 0.2478208824 0.4883559422
0.7627763004 0.2480774174 0.7409956288
0.7525884177 0.2477600208 0.9886348494
0.74283737 0.4961670271 0.7384921566
0.7525180798 0.497670898 0.4931370652
0.7425930385 0.2492809067 0.2390397191
0.7426374624 0.2490584019 0.7409956288
0.7825449392 0.4981964021 0.2438245441
0.7825634492 0.4987906208 0.7469956328
0.7826930189 0.2518475653 0.2411887256
0.7724496063 0.2506283697 0.4928186939
0.782655999 0.2507036287 0.7423829505
0.772575474 0.2467764185 -0.0067168626
0.7925662323 0.5027125956 0.4961893579
0.8126347325 0.5002153061 0.5047816819
0.8024949756 0.5024410088 0.7520331188
0.8024690616 0.5000071987 0.2525519909
0.7926069542 0.2492344425 0.4935304019
0.7925107024 0.2505393678 0.9970661368
0.8125347787 1.4454257867e-04 0.500206945
0.8026763732 0.2496500029 0.2487713313
0.8124385269 0.2493011939 0.5024623838
0.8026282473 0.2525870667 0.7501784207
0.8126458384 0.2496277525 0.9990467027
0.8325699609 1.4639025358e-05 0.4995230019
0.822430204 0.2497573288 0.2526334347
0.8324700071 0.0018705911 1.0011660933
0.8327180406 0.2476965414 0.5023337395
0.8226560256 0.2511990292 0.7531363125
0.8326514047 0.2532015726 0.0050247556
0.8324477951 0.4999142702 0.5034693257
0.8324144772 0.5022008345 1.0045349063
0.8224042901 0.4973273244 0.2552988692
0.8426726978 0.4974948574 0.7510400594
0.8426689958 0.4988325041 0.2593294133
0.8424875982 2.7948521189e-04 0.2474043707
0.8426504859 0.2498718533 0.2537505109
0.8426615918 0.2500642546 0.7553426999
0.8624598465 0.2528409839 0.2566130765
0.852653269 0.2491290799 0.5034804316
0.862715284 0.2518279325 0.7514213646
0.8527347128 0.2489811796 1.879175862e-04
0.8923571362 0.4995242323 0.0040445606
0.8726255173 3.0232467794e-04 0.4998274908
0.8825357507 0.2489432229 0.2460105706
0.8724922456 0.2531839031 0.5005225398
0.892453388 0.2484419326 0.4998996796
0.8825949826 0.2512225885 0.7490502385
0.8724885436 0.2510596365 9.3895927002e-04
0.8925533418 -6.2270641833e-04 0.499697921
0.8725959014 0.0015154995 0.0052288279
0.8925163219 0.2509503473 0.003316934
0.8724811397 0.5008860928 0.5064984809
0.8927828653 0.5012623877 0.4998793187
0.9125441001 0.5045692021 0.4991250377
0.9026968006 0.5013494263 0.7531011436
0.9124330403 0.5018716582 -0.0021931853
0.902511701 0.5001557534 0.2520744339
0.9125070802 -7.4181194329e-04 0.5035304085
0.9023043895 0.2517428572 0.248694515
0.9124848682 0.001357652 0.0028339166
0.9123886164 0.2492723992 0.5016590514
0.9024783831 0.2501336237 0.746936401
0.9124478483 0.2518331679 0.0040242922
0.9424932177 0.2505910675 0.7631816686
0.9325496664 0.2487560571 0.0026861145
0.9324275006 0.5016347561 0.5124559119
0.9326681301 0.5001642609 0.0046667729
0.9224395255 0.4996381024 0.7522996623
0.9224580354 0.5031405902 0.2511757753
0.9425709595 0.5009050711 0.7576184997
0.9223839956 0.254108607 0.2530721208
0.9224987573 0.2530785405 0.7539202094
0.9424598997 0.2509627814 0.2586880431
0.9324163947 0.2511407853 0.5078423041
0.9723645934 -0.0047976103 0.512444806
0.9624284461 0.0038411331 0.7636740336
0.9624987839 0.2473123934 0.2628046585
0.9525441267 -3.9620959313e-04 0.0155964424
0.972512673 -0.0019388879 0.006172003
0.9525589347 0.2491801251 0.5119968649
0.9724534412 0.2472129207 0.5082819156
0.9625728238 0.2515949569 0.75723812
0.9524885968 0.2502802151 0.0112138388
0.9525737426 -0.0019218074 0.5113490162
0.9723127655 0.2514673438 0.008177835
0.972512673 0.4977173622 0.5117562354
0.9626135457 -0.0024273514 0.2618921174
0.9527625442 0.500132194 0.5120542458
0.9627097975 0.500812797 0.7563514928
0.9825006482 0.2482626199 0.2636727757
0.9825820921 0.0018781824 0.7604172058
0.9923849676 -0.0019718055 0.0132138402
0.9924849214 0.2469609667 0.5144642427
0.9825191582 0.2479000679 0.7628818072
0.9925589612 0.2492324792 0.0112915807
0.9925219413 0.4992323583 0.0174691877
0.022566609 0.748799662 0.7729197593
0.0025091038 0.4990137801 0.2614765688
0.0025552676 0.7505273465 0.768236739
0.0126294622 0.4989031821 0.5221060803
0.002585809 0.4989489919 0.7668623744
0.0223925783 1.0019250795 0.2690064211
0.0223256463 0.9980835991 0.7684560821
0.0126325348 0.7506320547 0.0156194873
0.0225862666 0.7498663763 0.2728638971
0.0026236434 0.7495522518 0.2638948953
0.0125459823 0.7465026268 0.5170713708
0.0525509325 0.9989278086 0.5155905739
0.0526886466 1.0032601085 0.0185424879
0.0324805813 0.7484331834 0.0206972325
0.0424692969 0.7503048417 0.2679309923
0.0325827563 0.7494082781 0.5185512422
0.0425459282 0.7512930249 0.7727827856
0.0424915089 0.5009521898 0.7677508526
0.0324950191 0.4971872772 0.0238567903
0.0325664676 0.4978750789 0.5183254207
0.042339357 1.0006227719 0.270758389
0.0523836024 0.5022145775 0.5202467547
0.0523898958 0.7516202379 0.015533416
0.0524406131 0.7494344551 0.5164568401
0.042354165 1.0024289875 0.766573619
0.0725746385 0.5007021991 0.0163658089
0.0723621442 0.9999487131 0.5140403646
0.0724987477 0.9980181565 0.0143425776
0.0724595066 0.7473533806 0.0183112059
0.0623904578 0.7462015909 0.2622067868
0.0724702424 0.7508283824 0.5171676226
0.0624345115 0.7488847373 0.7630770873
0.092379927 0.9982733827 0.5114286091
0.0925705796 0.7522877523 0.0152735361
0.1025178329 0.7487276751 0.2640587084
0.0825907488 0.7480994262 0.2695200725
0.0925191219 0.7484920818 0.5151944607
0.1025711416 0.7512864806 0.7694713535
0.0824678427 0.7486425997 0.7673177195
0.1025396746 0.998685671 0.7592621843
0.1024186195 0.4996734414 0.7689058741
0.0825015308 0.4982395942 0.7672159147
0.0926316625 0.5008697321 0.0177654397
0.0826159224 0.4990955833 0.2673793955
0.1125228372 0.7479489082 0.01374304
0.122586333 0.7508611037 0.2645436694
0.1125568956 0.7524906244 0.5131463335
0.1224886004 0.7516267821 0.7619794466
0.1226662961 0.999340097 0.2564131689
0.1225245098 1.0021541286 0.7596545954
0.1225426495 0.501189092 0.2607037779
0.1125339432 0.9994971592 0.5114915429
0.1425848655 0.7510116217 0.2548379712
0.1524610405 0.7510050774 0.5016081491
0.1325854142 0.7495980616 0.504254148
0.1426041159 0.7498401992 0.7530743042
0.1526165242 0.5023205945 0.5019727953
0.1326372421 1.0006293161 0.0062530766
0.1424978687 0.5007447367 0.2560818406
0.1426733432 1.0015324239 0.252520524
0.132592448 1.0016371321 0.5083809439
0.1425185999 1.0031684889 0.7537878632
0.1526498421 0.9996018674 0.0033388683
0.1525461864 0.7516595034 8.7815404682e-04
0.1324447385 0.7504553596 0.0074664972
0.1723673934 0.7506844087 0.0011173027
0.1625171324 0.7503048417 0.2540790627
0.1723977498 0.7532955683 0.5010463717
0.1623683123 0.7528505587 0.7559054028
0.1824705006 1.0019185353 0.7498711553
0.1723625808 0.5008697321 -0.0012295753
0.1725062181 0.5026268658 0.5036183309
0.1822346837 0.7508741923 0.2534450966
0.1822713334 0.7505993334 0.7512297865
0.1724125577 1.0033648166 0.0059296151
0.1624482753 1.0016436764 0.7506809661
0.1824593946 0.5027937444 0.2498199206
0.2022528367 0.5021543703 0.7522358029
0.1925032698 0.5030280289 0.5001236501
0.1924592161 0.7502524876 -2.0005120475e-04
0.2023576031 0.7526804079 0.2556690684
0.1924784665 0.7512406708 0.5016747849
0.2022617215 0.7542510302 0.7503848068
0.2321490158 0.7535507944 5.8384566056e-04
0.2324014916 0.4976885675 -0.0033922606
0.2321623429 0.7525298899 0.5005688147
0.2122915292 0.7486164227 -1.7025016689e-04
0.2222635858 0.7489109144 0.2497431043
0.2123585352 0.7537274894 0.4993379023
0.222338366 0.7481517803 0.7525597272
0.2323859433 0.5030182125 0.4989112477
0.222557524 0.5033153219 0.7490465366
0.2123577948 0.4997650611 -0.0025934633
0.222533461 0.5007990541 0.2483289432
0.2123959254 0.499990838 0.4984466476
0.2525029395 0.7519867164 -8.6715021361e-04
0.2424139 0.7498401992 0.2476810946
0.2523296863 0.7518100214 0.4941005087
0.24230247 0.7510901528 0.7517841598
0.2424327801 0.5020045067 0.746416271
0.2624657411 0.4994398114 0.7494343202
0.2625697671 0.7475431641 0.2499522668
0.2425334743 0.500096855 0.2516533323
0.2625072035 0.7490156225 0.7484810572
0.2623232144 0.4979235064 0.2473747547
0.2523778122 0.5002951461 0.4986882026
0.2723530221 0.9973048322 0.9935584992
0.2822310481 0.5013769122 0.240544579
0.272490366 0.4974385768 0.4932768154
0.2821929176 0.9994513494 0.2413108914
0.2824413213 0.4982271601 0.7403616627
0.2823495119 0.7459463648 0.2450156601
0.2824690862 0.7482106786 0.7444717996
0.2723781957 0.7478834656 0.9953262005
0.2724089222 0.7495980616 0.4929158712
0.3124989072 1.0009303521 0.4954785753
0.2924570614 0.7514958969 0.9904303157
0.3025161148 0.7519539951 0.2450545311
0.2924300369 0.7496111502 0.4902957861
0.3023280536 0.7498205665 0.7429123353
0.3022699323 0.5002748589 0.7412779058
0.2923119433 0.4987677159 0.9899120368
0.3023643331 1.001911991 0.2419985364
0.3123141778 0.7501346909 0.99316979
0.3125614709 0.7501477794 0.491572048
0.3123678567 0.5028506795 0.491094491
0.3323301097 0.4985170708 0.4959098574
0.3224065491 0.4993691334 0.7400506953
0.3325596332 0.7468952824 0.9904765906
0.3324433906 0.5007107066 0.9956593798
0.3224683724 0.7523662834 0.2401623483
0.332457088 0.7507040415 0.4943744561
0.3225061327 0.7513453789 0.7422256158
0.3224383863 0.5046451155 0.2422521229
0.3525640889 0.5013978539 0.4936821836
0.3524626543 1.0026842136 0.4936266537
0.3624613652 0.752556067 0.2378486031
0.3624095373 0.7503179302 0.7425236262
0.3625280011 0.5005340116 0.7397860029
0.3624687692 0.5025516068 0.2389008944
0.3524393317 0.751698769 0.9914113436
0.3425046652 0.752202677 0.240055916
0.3525329921 0.7500692483 0.4905419686
0.3425316898 0.750337563 0.7475129863
0.3624687692 1.000701303 0.7445458394
0.3425783349 0.5008055984 0.745496326
0.3526503453 0.5017414275 0.9945210172
0.3423354842 0.5009273216 0.240059618
0.3724197245 0.4997938558 0.9893845029
0.3825113554 0.5006184325 0.2416348157
0.37263444 0.5032315554 0.4915100396
0.3925807744 0.5031373181 0.9878019012
0.3823632757 0.5037878175 0.7472020189
0.3723790025 0.7500038057 0.9938639135
0.3825076534 0.7539041845 0.2380448087
0.3724234264 0.7510508873 0.4879829665
0.3826705411 1.0003413687 0.2463548558
0.3825779913 0.751397733 0.7431298274
0.3925622644 0.7539107287 0.9978805752
0.3926177943 0.7517838443 0.4945151318
0.3923623569 0.5037335001 0.4916220249
0.4025724516 0.5032138859 0.7422876242
0.4026427894 0.7534068207 0.2427944648
0.4026390874 0.7524644473 0.7421228855
0.4127344204 0.7561226885 0.9907079651
0.4126159566 0.753112329 0.4922023122
0.4225780179 1.0011201356 0.7397443555
0.442635412 1.0026973022 0.2382734067
0.4326030129 1.0014866141 0.4839228064
0.4425835841 1.0007143915 0.7391696212
0.422515084 0.5025280475 0.7374815127
0.4325289731 0.7527523948 0.9920962122
0.4227186936 0.7540677909 0.2391915008
0.4326326289 0.751574428 0.4882171175
0.4226705677 0.7535704272 0.7424134919
0.44263171 0.7495653403 0.2356598001
0.4426057961 0.7516791362 0.7383098334
0.4226964816 1.0046016817 0.2403058005
0.4726696754 1.0008125554 0.4851555699
0.4726030395 0.5033879632 0.9862933393
0.4625484285 0.5027642953 0.2306621106
0.4725586156 0.7513911888 0.9829708012
0.4627261241 0.752732762 0.2346917292
0.472403132 0.75036374 0.4806224803
0.4624966006 0.752228854 0.7348938201
0.4525530493 1.002442076 0.4844272029
0.4625114086 1.0028674529 0.2303826102
0.4626446803 0.9998832705 0.7327401861
0.4526493011 0.7510312545 0.9870892677
0.4524938175 0.7501019696 0.4866798652
0.4525234334 0.5015529528 0.4851176244
0.4926641357 0.499797128 0.9785376655
0.4925900959 0.501971131 0.4774989243
0.4826021207 0.4982278145 0.7290289388
0.4825539948 1.0024813416 0.7312168162
0.4924753341 0.9993270085 0.4772296044
0.4925456719 1.0007340243 0.9777602471
0.4924272082 0.7512341265 0.47980434
0.4925900959 0.7485967899 0.9773807929
0.4826354386 0.7518165656 0.2317218059
0.4826169287 0.7504946252 0.7344866009
0.5025447531 0.5022878732 0.2273710394
0.512640086 0.9993270085 0.4805660249
0.5223504118 0.996643862 0.7294629974
0.5025484551 0.9984762547 0.2267130103
0.5225614254 0.7455340764 0.7329178817
0.5025558591 0.7491137864 0.2286287913
0.5025299451 0.7496242387 0.722209869
0.5124142645 0.7517773001 0.9757426613
0.5124512844 0.4983037279 0.9767699642
0.5125401323 0.7487407636 0.4699292756
0.5225318094 0.7466793218 0.2265038477
0.552451311 0.9978676386 0.478871438
0.5425966076 0.4961565563 0.7267022367
0.5428224291 0.7484462719 0.2286167598
0.5523883772 0.4964674087 0.4849408543
0.552466119 0.748675321 0.4821986035
0.5424781438 0.7489501799 0.7298322711
0.5325123806 0.9979461697 0.9761313705
0.5423596801 0.4944236364 0.2261225425
0.5324420428 0.748976357 0.9780841714
0.5524068871 0.4988514824 0.982628367
0.5424892498 0.9993270085 0.2295727993
0.532778924 0.7467643972 0.4754619031
0.5724716853 0.498139467 0.9867283234
0.562528134 0.9971608585 0.7333251008
0.5525031389 0.7481975901 0.9782415061
0.5623615444 0.7508872808 0.2382937677
0.5623319284 0.7517314903 0.7358304241
0.5724494733 0.7469280037 0.9837759846
0.5722088438 0.4981388126 0.4860930994
0.5722236518 0.7476936821 0.484375375
0.6022505112 0.4948352703 0.2409508726
0.6024133988 0.9974684387 0.2379855768
0.6023911869 0.9961203212 0.7386948406
0.5921551782 0.7476478723 0.990744985
0.5924846555 0.9992877429 0.4825595478
0.5923106619 0.9973506421 0.9862563194
0.6021024315 0.7461165155 0.2408527698
0.5921773902 0.7477983902 0.4872583015
0.6022505112 0.7466989546 0.7412862352
0.5824559585 0.9996018674 0.2354237981
0.5825411043 0.9954658953 0.7338878037
0.5823486007 0.4984346131 0.7372677226
0.5824411505 0.7499841729 0.2408185264
0.5824818724 0.7491203307 0.7364431038
0.6123532481 0.7473533806 0.9906339253
0.6123717581 0.9960941442 0.4833008717
0.612405076 0.7473795576 0.4910398866
0.622481899 0.9981490417 0.7398692977
0.6225337269 0.7476347837 0.2371045026
0.6224115611 0.7503833728 0.7423246441
0.6223486273 0.9972328454 0.2362234285
0.6424985712 0.9974422617 0.7405356563
0.6324661722 0.4984457383 0.4910148981
0.6424948693 0.9993924511 0.2384409218
0.652690156 0.9992746544 0.4894980068
0.6524088046 0.9992092118 0.9906524352
0.632551318 1.0018334599 0.4897969427
0.6322995825 0.9996084116 0.9903562758
0.632521702 0.7480797934 0.9894492877
0.632540212 0.7458940107 0.4871000413
0.6525013544 0.748675321 0.9930587302
0.6425652071 0.7507629398 0.2460077941
0.6524680365 0.7448403849 0.491809901
0.6424282334 0.7489959897 0.7415685122
0.6724995167 0.7488454718 0.9942156028
0.6624708196 0.9973310093 0.2433738266
0.6726105764 0.9977105763 0.9914576185
0.6825578297 0.7493951896 0.2397125562
0.6725069207 0.7482499442 0.4908760734
0.6825060018 0.7478572886 0.741885958
0.6725883645 0.998482799 0.4883152203
0.6625448594 0.7514042773 0.2431526325
0.6624523096 0.7486098784 0.7408919731
0.7023412765 0.5039121584 0.2421762321
0.6925939308 0.9991961233 0.4879755625
0.692497679 0.9997851066 0.991263264
0.6924458511 0.7502590319 0.9933548896
0.702541184 0.7482892097 0.2426278751
0.6923533013 0.7478442001 0.493491531
0.7024449322 0.7489305472 0.745214049
0.7125735831 0.498144048 0.4932111051
0.7125254572 0.749709314 0.4948501621
0.7225689623 0.9991437692 0.7400386638
0.7325014076 1.0011266799 0.9948727064
0.7325014076 0.7501935893 0.9932345748
0.7227244459 0.7504553596 0.2414293551
0.7325717454 0.7508283824 0.4925280875
0.7225800682 0.7453770142 0.7439923916
0.7225319423 1.0011201356 0.2412664675
0.7324014538 0.9975535141 0.4935887083
0.7125809871 0.7500430713 0.9920499373
0.7125439672 0.9991045036 0.4930074955
0.7125624771 0.9982472056 0.9886348494
0.7425708266 0.4990563178 0.2412849774
0.7427040983 0.7490745209 0.2433479126
0.7425893365 0.748799662 0.7391085383
0.7525513977 0.7506320547 0.9902081962
0.7628281283 0.9993859068 0.740427373
0.7525513977 0.9987969234 0.9981304596
0.7626578367 0.749179229 0.2417384715
0.7525773117 0.750514258 0.4911518719
0.7626652407 0.7483742851 0.7423209421
0.7525513977 0.9972197569 0.4934480326
0.7425412106 0.9985678743 0.2421743811
0.7625726908 0.9987642021 0.2481003452
0.7824820053 0.9992484773 0.247492293
0.7724385003 0.9978152845 0.4935924103
0.7825745551 0.999542969 0.7468929025
0.7726976397 0.9981163204 0.9941878379
0.7827226348 0.7471570528 0.250110527
0.7726569178 0.7486164227 0.4943198517
0.7825671512 0.7491661405 0.7460710603
0.7726680238 0.7489959897 0.9935214792
0.772590282 0.4990020004 0.4930019425
0.772579176 0.5005857112 0.9953632204
0.7925736363 0.9995364248 0.4952453498
0.7926217622 0.7515678838 0.9937343438
0.7925477223 0.9977171206 0.9969088022
0.812349679 0.7490941536 0.9996390215
0.7925995502 0.4986014917 1.0008791889
0.8024394457 1.0007798341 0.2454015928
0.8125866066 0.5013500808 1.0018231969
0.8025393995 0.7495457076 0.25251312
0.8125384807 0.7500627041 0.5000320258
0.8025764194 0.9991241364 0.7472418153
0.8026023334 0.7485378916 0.7492575501
0.8126014145 1.0009368963 1.0023137109
0.7926032522 0.7504880809 0.5016868164
0.8225079459 1.0013949945 0.7539340919
0.8224968399 1.0013753617 0.2475950233
0.832529239 0.7492250388 1.0049884003
0.8226486216 0.4995340487 0.7573038303
0.8225264558 0.750514258 0.2564446358
0.8325514509 0.7527458505 0.5066817295
0.822448714 0.7494998977 0.7547827736
0.8424209623 0.7516398706 0.2513099725
0.8425283201 0.7478900099 0.7514370981
0.86270788 0.4994672973 0.7554963326
0.8426208699 0.9975666026 0.754127521
0.8626486482 0.9982537499 0.2541151572
0.8625079724 0.9977105763 0.7575574168
0.8524385534 1.0008190996 0.0029050874
0.8626412442 0.7488062062 0.7520645858
0.852671779 0.5050541317 0.5056544266
0.8527310108 0.7518492869 0.0092765863
0.852631057 0.5024815832 0.0059447007
0.8625783103 0.5004823119 0.2584187232
0.8624191246 0.7517314903 0.2594821205
0.8525274013 0.7500888811 0.5046835791
0.8525385072 1.0000207 0.5028603479
0.8825098367 0.9985809629 0.7497767545
0.8925348318 0.999516792 3.8125413303e-04
0.8826542144 0.7492512159 0.7509697215
0.8726921532 0.749329747 0.0045201741
0.892445984 0.7510247102 0.00115858
0.8826134925 0.4980269057 0.753153897
0.8825579626 0.4961447767 0.2544992389
0.8826283005 0.74749081 0.2510193661
0.8725625835 0.7516856804 0.5067909382
0.8924089641 0.7523008409 0.5024725642
0.872784703 0.5026105052 0.0049095311
0.8825098367 1.0000795983 0.2473182993
0.912603332 0.7508218382 0.5024818192
0.9023895353 1.0002301163 0.2529425511
0.9025783369 1.0003871785 0.74929457
0.9027116086 0.7496438714 0.750295959