POSCAR file written by Ovito 3.7.11
1
270.0619891647 0.0 0.0
0.0 15.2770131103 0.0
0.0 0.0 10.8024795666
Sr Ti O 
800 800 2400 
Direct
0.022589649 0.502607185 0.7777210566
0.0127851963 0.5004765329 0.024244047
0.0125651358 0.2527140958 0.5244162497
0.0224894128 0.2518382702 0.7800695915
0.002515369 0.2472097476 0.7772517199
0.0125094819 0.250384452 0.0258439574
0.0026651124 -0.002519828 0.27708322
0.022487043 0.5024049204 0.2787022927
0.0127265061 6.5382906291e-04 0.5274646239
0.0027462419 -4.0475482932e-04 0.7774674111
0.012531773 1.7428506127e-04 0.0314920126
0.0226102739 0.2543256674 0.2850536123
0.0025549525 0.2493246898 0.2789457553
0.0424413506 0.50027165 0.2796437432
0.0324477191 0.2503392861 0.5286587942
0.0425057802 0.2537450565 0.7807823908
0.0525123717 0.5002880144 0.0336993761
0.0324873396 0.2492500679 0.0249067652
0.0325506584 0.0015946543 0.5277664065
0.0326547086 -6.4073027649e-04 0.0264737203
0.0426039058 0.2516805168 0.2775405224
0.0525097797 0.2541142386 0.5315877514
0.0524490529 0.2515397825 0.0319693104
0.0626792967 0.2505782071 0.2873503072
0.0626407871 0.4999024678 0.7853683749
0.0626019071 0.5013955608 0.2871559074
0.0725366632 0.502427176 0.5421631012
0.0725374038 0.2530158564 0.5380297909
0.0625700626 0.252037262 0.7871725903
0.0724607547 0.2523187306 0.0386526834
0.0626507848 1.6917935118e-04 0.2841538189
0.0626593013 0.0011170086 0.7855275976
0.1025445885 1.8894761333e-04 0.2789698239
0.0925246668 0.2483454408 0.534182526
0.0823644069 1.6787019474e-04 0.2858756458
0.1025716194 0.2478106504 0.781036962
0.0824410559 0.2493947297 0.7905366328
0.0923347104 0.2501075654 0.0326983097
0.0823755154 -0.0010057885 0.7865995737
0.0925180016 0.0040415332 0.0336921556
0.1025545862 0.2502149162 0.2834225053
0.0824662353 0.2519011097 0.2887629459
0.1024846023 0.5016384093 0.2812915131
0.0924343171 0.4995378678 0.5356849589
0.1124034362 -0.0010439505 0.0309498222
0.1223978082 0.2468065274 0.2761214038
0.1123930682 0.2476195136 0.5277978808
0.1225166698 0.5017640883 0.7805898424
0.1123334522 0.5008633887 0.0265410196
0.1224937121 0.2467377967 0.7753290132
0.1124312076 0.2504361636 0.0289328779
0.1125771 0.4960600937 0.5327995102
0.1522391051 0.2477497746 0.514502785
0.1323914397 0.2471541085 0.5247596894
0.1426102047 0.2485149766 0.7723241475
0.1523846273 0.2499661765 0.015494204
0.132517707 0.2471514901 0.0271441219
0.1423387855 0.2503196487 0.2701848038
0.142414694 0.4978549472 0.7737173462
0.1524386889 0.496958175 0.0228962083
0.1324466122 0.4987117901 0.0251695752
0.1324118054 0.4983314801 0.5259557111
0.1523542639 -9.1447488676e-04 0.5177242676
0.1823081275 0.2497488565 0.7615053351
0.1823062761 0.250719596 0.2603352133
0.1621790452 0.5002768866 0.7676687349
0.162414917 0.5042868327 0.2649526717
0.1725029713 0.2488429203 0.5108878742
0.182342564 0.5002271386 0.7595446741
0.1622597674 0.2492225756 0.7638251729
0.1724048456 0.2506318825 0.0114818845
0.1625234106 -7.5443051275e-04 0.2638455185
0.1623893673 0.2505179859 0.2624995312
0.1725611061 -0.0032161028 0.5106869944
0.1824188428 0.0017143112 0.2581125755
0.2022942796 0.2486877852 0.2612812924
0.192448392 0.500678143 0.0111170608
0.2024679435 0.5019198779 0.2584393523
0.1923802595 0.2498686443 0.5128550152
0.2024098087 0.2499740314 0.7576469617
0.1923702618 0.2525164132 0.0100296253
0.1923639669 -9.1932129043e-06 0.5149989674
0.2024038841 -7.2706914328e-04 0.7617747177
0.1923584127 5.0779266274e-04 0.0114529096
0.2024338772 1.209369366e-04 0.2615941835
0.212474535 0.2486681479 0.5061954331
0.2221460182 0.2503923069 0.7592743658
0.2124108459 0.2472110568 0.0095341835
0.2224989001 3.2307046042e-05 0.2659218936
0.2122645832 -8.4057300608e-04 0.5116265935
0.2126748593 -0.0016301253 0.0081703299
0.2223752248 4.8075858238e-04 0.7630410936
0.2324325454 1.784086745e-05 0.5103315205
0.2223889254 0.2517839402 0.2606619901
0.2322388862 0.2535729025 0.5123986385
0.2323288655 0.2539204835 0.0090518868
0.2324369888 9.9532228908e-05 1.0119561676
0.2524327684 0.2553232446 0.5047346573
0.242602803 0.2493495638 0.7639825441
0.2624741667 0.2515266909 0.2524286952
0.2525931019 0.2528528664 1.0050225742
0.2424765357 0.2477301373 0.257522896
0.2424184009 0.0010605185 0.2585698779
0.2524601695 0.5019375515 1.0011438351
0.2525245991 0.0019235799 0.5049531257
0.2422425154 0.001118776 0.7545254561
0.2626907836 0.2480011327 0.7536534341
0.2523009468 0.0036456443 1.0054391453
0.2623179063 0.0012765293 0.2531165003
0.2625260066 0.0016348454 0.7481574737
0.2725655535 0.2522231622 0.5002384674
0.2724144771 0.2499557032 1.0057724021
0.2724703902 8.083749799e-04 0.5051688169
0.2726029523 0.5010080505 1.0007828069
0.2824836468 0.2493822927 0.7513150821
0.2824388423 -5.3004110002e-04 0.7554409867
0.2827250728 0.2508262923 0.2537728311
0.302512752 0.2490556582 0.2463115811
0.3125256383 0.249715473 0.4907184309
0.3125004589 0.2491008241 0.9913590446
0.312394187 -0.0011347405 0.9968392679
0.2925124554 0.2520496989 0.4981250637
0.3024149967 0.250736615 0.7464513839
0.2925380051 0.4996504552 0.4974724358
0.3025638514 0.4970288695 0.2415136086
0.2924517286 0.2536298508 0.9976909242
0.3025371908 0.0021457437 0.7475215086
0.2924428417 9.2397326345e-05 0.5006522613
0.312538228 0.5026850798 0.992358815
0.292476908 0.0010283787 1.0020232629
0.3224389179 0.2484613012 0.2371525728
0.3324703185 0.2491152248 0.4897223632
0.3225274161 0.2537169097 0.7431984271
0.3323677495 0.2514389775 0.9883689903
0.322500015 0.0021711414 0.2419829453
0.332376266 -0.0046910835 0.4943509302
0.3225166778 -0.001041594 0.7414812287
0.3324325494 0.001789195 0.9939602992
0.362558966 0.2532757239 0.2333201194
0.3524623952 0.2496336507 0.4860158068
0.3425465236 0.2507732714 0.7394752078
0.3524723929 3.1678673907e-04 0.9908406451
0.3522261532 0.2505919533 0.9829998527
0.3425524482 -0.0013256809 0.2398630616
0.3423158359 -0.0011994782 0.738786477
0.3424843157 0.2491597361 0.2412812546
0.3624515833 0.2495020805 0.7362389138
0.3625885889 -0.0013259428 0.232862817
0.3723122823 0.2458338242 0.4856353386
0.3823951526 0.2490648223 0.7292923605
0.3723641223 0.2477281736 0.9828517385
0.3825062382 -0.0020988033 0.7308984732
0.3825321582 0.2475527466 0.2305883392
0.3925928113 -0.0020303344 0.4823953417
0.3925891085 -0.0028997452 0.9834997379
0.3726048078 -0.0015943853 0.4847170309
0.3725603735 -8.8835721591e-04 0.9794821418
0.392652057 0.2463306491 0.4811854343
0.3925187542 0.2478479614 0.9773252296
0.4124586207 -0.0038420105 0.4714895123
0.402512756 0.2484141715 0.7241009598
0.4024683218 -8.7277825435e-04 0.228140753
0.4026830873 -0.0044157483 0.7268040429
0.4024275904 0.4979393878 0.2307271962
0.4024312932 0.2476240956 0.2244351223
0.4125585978 0.2471488718 0.4733853733
0.412451215 0.2481313937 0.9779362004
0.4123660494 -0.0035557634 0.972724434
0.4124845407 0.4991104282 0.974659175
0.4125437863 0.5008195319 0.4776954949
0.4224341082 0.2486007263 0.2218468276
0.442644283 0.2494091304 0.7151992998
0.4323910815 0.4973810326 0.974455518
0.43245403 0.4965431724 0.4670442366
0.4423184319 0.2477006813 0.2188641791
0.4221712056 0.4982575128 0.2243082995
0.4422591862 0.4994318261 0.7179033086
0.4323614586 0.2475422733 0.4694797885
0.4225118681 0.2516045858 0.7195057185
0.4326650926 0.2472706234 0.9690956375
0.4422221577 0.497451727 0.2220578903
0.4322688873 -0.0023371352 0.9707341502
0.4524235193 0.0014621022 0.9698547225
0.4723670886 0.2504675834 0.4624027096
0.4623767896 0.2492598866 0.7181236284
0.4724004143 0.2500061057 0.9626063866
0.462469361 0.2485215224 0.2156389936
0.452353165 0.4998540291 0.970169465
0.4623767896 0.5009092091 0.7188854905
0.4724263342 0.4995273945 0.4632238174
0.4523716793 0.2457605114 0.4684179952
0.4524346278 0.2480266612 0.9688086664
0.4724670656 2.9014540564e-04 0.9616529018
0.4824499588 -9.1643862141e-04 0.2096125994
0.4825129073 0.2494988076 0.7123027426
0.4823684961 0.2496676888 0.2134728243
0.492358795 0.2519115829 0.4579259597
0.4922810351 0.2495983035 0.9584406764
0.4823499818 0.4998193364 0.2139560467
0.5025675623 0.2497063089 0.214319852
0.5123690157 0.001775907 0.9610234167
0.5224963202 0.0033332141 0.2105142443
0.5023602025 0.2500270523 0.7107244013
0.502423151 0.5019526068 0.7074621873
0.5125023184 0.2497200551 0.4604161287
0.5024749909 -8.0673131227e-04 0.7100430762
0.5224592916 0.2541554771 0.2074575387
0.5126022954 0.2525641974 0.9563022784
0.5223963431 0.2518749266 0.7089562887
0.5126245126 0.4995345949 0.4607271684
0.5225851887 0.4999489429 0.2109261867
0.522474103 0.5032198702 0.7095820709
0.5525523826 0.2528646488 0.4644179877
0.5524190798 0.0011334385 0.961939873
0.5323755335 0.5019611163 0.9625415867
0.5324866191 0.501464946 0.4637394398
0.5323977506 0.0037895206 0.4619352244
0.532590299 0.2529091601 0.4568512064
0.5325347562 0.2501036379 0.960903074
0.5424621066 0.0030757685 0.7057107375
0.5424287809 0.2503831428 0.2097153536
0.5425176494 0.2517400834 0.7120583543
0.5525190569 0.251045576 0.9651058128
0.5623205103 0.5022209839 0.7118778402
0.5624612187 0.5017221953 0.2140588009
0.5623464303 3.944851734e-04 0.2067169679
0.5626796871 0.2523501503 0.2159666962
0.5625130587 0.2530027648 0.7150687742
0.5724367062 6.6102942329e-04 0.4641661936
0.5723515406 7.8860671775e-04 0.9664018115
0.5725811175 0.253208957 0.4635367085
0.5723589463 0.2522912383 0.9623471869
0.5922765956 0.50212607 0.9724189486
0.5824899537 0.2518389248 0.7168128183
0.6024039002 0.2501370214 0.220660063
0.5924987669 0.2469020958 0.4678634929
0.602281706 0.2513316266 0.7194455471
0.5923654641 0.2494209128 0.9685031809
0.6025038772 0.4997434053 0.7269197571
0.5823344338 0.2485247952 0.219180773
0.592369167 0.503443736 0.4689660176
0.5823159195 0.5007128357 0.2215450451
0.6126756159 7.3604408694e-04 0.9719931204
0.6124534447 0.4995993981 0.4758440681
0.6224918808 0.2515201452 0.7249461361
0.6224585551 0.4992105787 0.2252728929
0.6124201191 0.5041834094 0.9718172349
0.6224622579 0.4989572569 0.7238362058
0.6123830905 0.2475128173 0.4722411916
0.6127385645 0.249974686 0.9716228351
0.6225733435 0.2490949329 0.2260116122
0.6424095301 0.2525831802 0.2264068918
0.6526553259 0.2474414683 0.4814798112
0.642690947 0.2496369236 0.7262634263
0.6524294518 0.2505854075 0.9803523124
0.6324821797 0.5029953499 0.9752886601
0.64246137 0.5020645397 0.7301606797
0.6526553259 0.5020887591 0.9774548294
0.6423465816 0.5036073806 0.2269891655
0.6524553718 0.502000391 0.4810678687
0.6325192082 0.2483375859 0.4744601266
0.6325043968 0.2485234861 0.9721504917
0.6625678649 -0.0013729415 0.7338718646
0.6725248382 0.5015402225 0.4865230978
0.6824632971 0.4990050411 0.7340329388
0.6725063239 0.4976369726 0.982055625
0.6825521656 0.5021430891 0.2374895325
0.662464185 0.2493672374 0.2324925316
0.662490105 0.250539587 0.7341310644
0.68249292 0.0029136949 0.2387077713
0.6824262686 -2.3096431276e-04 0.7372322043
0.6624530765 0.5018609659 0.7326341858
0.6624086422 0.5024585958 0.2337681647
0.6825891942 0.2503942706 0.2358260255
0.6724470782 0.2543564326 0.4869452231
0.6825151371 0.2521269392 0.7374006841
0.6725137296 0.2504944211 0.9868508204
0.7025031406 0.2501226207 0.243224327
0.6924313789 0.2519822774 0.4931539828
0.7025327635 0.2523292038 0.7377857809
0.6924906246 0.2491047515 0.993256757
0.7025883063 0.4995758333 0.7403953669
0.7025512777 9.0427068866e-04 0.7408906236
0.7025179521 0.0025202279 0.2388345941
0.6926498473 0.4993244753 0.9879061336
0.6927127958 0.5014407267 0.4888429355
0.7126267423 0.2506024265 0.4922319722
0.7124378968 0.2474571782 0.9915164159
0.7224689271 0.4991680311 0.7383976774
0.7223245158 0.2503464864 0.2405527181
0.7324777403 0.4974549999 0.9873877341
0.7324962545 0.2508969867 0.4900833915
0.7225948241 0.4981193968 0.2401787299
0.7325962316 0.4997931533 0.495766346
0.7226133384 0.247401539 0.744325946
0.7324962545 0.2489325975 0.9912942446
0.7124490053 0.5002958694 0.9916460157
0.7625560198 0.4955069751 0.7428716502
0.7423939821 -0.0021820001 0.745475682
0.7526175608 0.4992649087 0.9927383575
0.7625152884 0.4991693402 0.2421282823
0.7624856656 0.2491034424 0.2431863727
0.7525249895 0.2484711198 0.4940195248
0.7624042028 0.2479834591 0.7448295341
0.7526990236 0.2505683884 0.9915441873
0.7426420733 0.4989782034 0.7410526234
0.7525953437 0.5018648933 0.495152598
0.7424754449 0.248543778 0.237571921
0.7423680621 0.2486498197 0.7395936991
0.7825329148 0.5014439995 0.2489137615
0.7825551319 0.4992217065 0.7492350041
0.7825440234 0.247978877 0.2469188491
0.772538913 0.2510115379 0.4975529728
0.7825144005 0.2477438834 0.746835555
0.7723537703 0.2510187382 -0.0071071995
0.7925972708 0.4989854038 0.498896183
0.8125371372 0.4986031301 0.5058714334
0.802480187 0.5012142426 0.7503190145
0.8026505182 0.4990272968 0.2531340888
0.7926268936 0.2491139156 0.4990331885
0.7924491566 0.2505467874 0.9975798386
0.8124964059 4.2053738643e-04 0.5030063504
0.8025320269 0.2496434694 0.2511225136
0.8125889772 0.249819551 0.5022241226
0.8024838898 0.250372015 0.7569906309
0.8125667601 0.2488723763 1.0035229186
0.8326251179 0.0013664029 0.5070656036
0.8223534021 0.2476083857 0.2563583486
0.8326288207 0.0028752057 1.0094104557
0.8325917922 0.2480895007 0.5078959686
0.8227533102 0.2477857764 0.7533951601
0.8325769808 0.2481831054 0.0056896958
0.8325843865 0.4977410506 0.5052391711
0.8327287978 0.4985658191 1.0101510264
0.822557059 0.4994815741 0.2526869693
0.8424376798 0.499802972 0.7565259228
0.8424747083 0.4992806185 0.2596575911
0.8426265253 -0.0045530788 0.2583430781
0.8427339081 0.2502862652 0.2538459624
0.8425154397 0.2478747991 0.7543088392
0.8626182317 0.2466481195 0.2530905803
0.8524835215 0.2491990108 0.5054159824
0.8625700947 0.2491531903 0.7557603578
0.8525279558 0.2507601799 0.0081552408
0.8925039629 0.5008149499 0.0133947786
0.8725307707 0.0010633332 0.5132780662
0.8827210238 0.2469930822 0.2583199353
0.8726307478 0.2508609849 0.5044328748
0.8925150715 0.2490059102 0.5152470586
0.8824655269 0.2486825486 0.7655414455
0.8724344966 0.2497167822 0.0106167127
0.8925928314 0.0013221534 0.514812899
0.872701102 -0.001220883 0.0107338155
0.8925335857 0.2498836996 0.0124866538
0.8723900623 0.4986875707 0.5079117057
0.8926742942 0.4997401324 0.5119450389
0.9125401035 0.4992439622 0.5111581825
0.9026386731 0.5001610262 0.7640390127
0.9126956234 0.5002330298 0.0152490751
0.9026238617 0.5001714995 0.2603852018
0.912554915 -0.003575859 0.5152155843
0.9025757246 0.2472431311 0.2619450289
0.9126660006 0.0012964285 0.0136107475
0.9124697493 0.248773535 0.5136261344
0.9025164789 0.2498620985 0.7644722465
0.9125364007 0.2495668838 0.0127060478
0.9425258117 0.247372083 0.7678307347
0.9326799241 0.2498627531 0.0145057273
0.9324059129 0.4968383872 0.5159117208
0.932683627 0.4979688438 0.0117283094
0.9225637282 0.5004942066 0.7611637469
0.9226414881 0.5008614249 0.2652053915
0.9425924631 0.5016102624 0.7612072554
0.9226674081 0.2509506621 0.2685823939
0.922467454 0.249049767 0.7666772958
0.942544326 0.2473897566 0.2612655553
0.9324947814 0.2530466216 0.5144453908
0.9726077941 -0.00225132 0.5236266162
0.9623805126 -1.3068292994e-04 0.7719362736
0.9625878724 0.2493057071 0.2724787216
0.9526049791 1.1753312987e-04 0.0236165985
0.9725670627 -1.6504828633e-04 0.0275886495
0.9525975734 0.2493914568 0.5167133886
0.9726670398 0.2502777557 0.5225555658
0.9624767868 0.2486884398 0.7703486751
0.9526012763 0.2511980927 0.0190926371
0.9525901677 -0.0012249413 0.5193331575
0.9726003884 0.2505029306 0.0235858648
0.9726966626 0.4978123996 0.5191230206
0.9625952781 5.8162885606e-05 0.2694507131
0.9525790592 0.5009720487 0.5160413207
0.9626619294 0.4994004064 0.7670457297
0.9825573617 0.2502404447 0.272829567
0.9825536588 -0.0014446832 0.7692498533
0.992688369 -6.9237649779e-04 0.0260380795
0.9926846662 0.2500375255 0.5257316885
0.9825092246 0.2485895985 0.7720732792
0.9926735576 0.2506155181 0.0233529553
0.9925587691 0.5033756599 0.0239835512
0.0226547822 0.7515347714 0.7726314844
0.0025834645 0.5007219998 0.2758409126
0.002677517 0.7517376906 0.7778052965
0.0125219605 0.5021064327 0.5277006809
0.0024801919 0.5001001505 0.7738710146
0.0225544719 1.0002155817 0.2785041901
0.0226308248 1.0026767958 0.783375314
0.0126084591 0.7504874462 0.0275636552
0.0224692322 0.7513449437 0.2781653789
0.0025878338 0.7511682076 0.2744995539
0.0124017659 0.750343439 0.5253465917
0.0525812448 1.0016098333 0.5326874989
0.0525645819 1.0016883827 0.0285237126
0.0326573006 0.7502452523 0.0221162022
0.0427031423 0.7504612631 0.2764972434
0.0326095338 0.7526999206 0.5256261571
0.0429179078 0.7496626777 0.7755650701
0.0425202213 0.5021227972 0.7783459131
0.0325443635 0.5021542169 0.0273017709
0.0326458217 0.5019846812 0.5258529569
0.0426535241 1.0037895788 0.2746328566
0.0524801569 0.504682198 0.5334512124
0.0526119785 0.7500161499 0.0297513011
0.0525086688 0.7535705096 0.5314331573
0.0427146212 1.0039466776 0.772955484
0.0725159272 0.500703017 0.0426564864
0.0726832962 1.0043721534 0.537128146
0.0725066701 1.0033117367 0.0372493944
0.0725833192 0.7533741362 0.0335107158
0.0625819117 0.7509587425 0.287121656
0.0725899843 0.7511616618 0.5379909109
0.0625878363 0.7497412271 0.7836280337
0.0925246668 0.9996133698 0.5334604696
0.0924976359 0.7507820064 0.0300529911
0.102366111 0.7484778911 0.2814599929
0.0825554741 0.7523464484 0.2861857598
0.0925435513 0.7498394138 0.5352720907
0.1025538457 0.7490997404 0.7830402057
0.0824784548 0.7499965126 0.7873419959
0.102602353 1.0006672407 0.7788800498
0.1025116331 0.5002749229 0.7818090069
0.0826606352 0.5002088105 0.790283913
0.0923895126 0.5000929501 0.0355621892
0.0825802832 0.4992701453 0.2896146022
0.1126015388 0.7500292415 0.0278824709
0.1223644825 0.7510242004 0.2755946729
0.1125067458 0.7488837296 0.5296743018
0.1224881578 0.7499310547 0.7730887868
0.1225448115 0.998736235 0.2714002655
0.1224278013 0.999246806 0.7773618798
0.122353374 0.4997015123 0.278068179
0.1126567113 0.9999013842 0.5285662229
0.1425113385 0.7507689149 0.2706809862
0.1523935141 0.7502779812 0.5137640657
0.1322740592 0.7485957152 0.5229499197
0.1422673205 0.7536294217 0.7716678167
0.1523590776 0.4996733655 0.5167207943
0.132538443 0.9983042133 0.0217831305
0.1422858347 0.5000595666 0.2713141741
0.1424783831 1.0007261527 0.2698441413
0.1324181003 0.9969295991 0.5234322164
0.142412102 0.9964386654 0.7716094968
0.1524460946 0.9986576856 0.0168462084
0.1525716214 0.7497215897 0.0149425714
0.1324825299 0.751155116 0.0227800313
0.1725063038 0.7481047815 0.0117610796
0.1624815684 0.7507100028 0.2666606129
0.1726033186 0.752267899 0.5110517255
0.1623738153 0.7505921787 0.7637353787
0.1822355516 0.9998752011 0.75937712
0.1723522651 0.4992066512 0.0114607782
0.1725100067 0.5006709427 0.5135196774
0.1824888268 0.7519209725 0.2604694418
0.1823851469 0.7503696221 0.76089529
0.1724437256 0.9994955457 0.0141292396
0.1624534267 0.9988475133 0.7629179737
0.1824032908 0.4987824845 0.2603018876
0.2025382977 0.4981979462 0.7589466633
0.1923058321 0.5002251749 0.5093049043
0.1923661887 0.7487659055 0.009429763
0.202311683 0.7505987245 0.2611609497
0.1923299007 0.7512009365 0.5086226536
0.2024546132 0.746108318 0.7599362509
0.2325406687 0.7514300389 0.0103027107
0.2324621682 0.499343458 0.0138176445
0.2324666116 0.7519798846 0.5095872469
0.212453799 0.7507623691 0.0103513107
0.2223474534 0.7486939019 0.2573757076
0.2124341738 0.7513776726 0.5095011556
0.2224526145 0.7509980172 0.7613877695
0.2325402984 0.5025823111 0.5107749372
0.2223722625 0.5001885185 0.7635604188
0.2125337806 0.5030084415 0.0123968596
0.2222815426 0.502427176 0.2623717828
0.2125656251 0.4995156121 0.5142352539
0.2524435066 0.7537276084 0.0040704379
0.2424417289 0.7496430403 0.2581412726
0.2523205719 0.751214028 0.5028610134
0.2424732031 0.7516787786 0.7572988934
0.2424669083 0.4971368749 0.7588670519
0.2627296636 0.5019362424 0.7509012882
0.2623501211 0.751246757 0.2556344407
0.2424939391 0.5014551274 0.2565518227
0.2622664366 0.7499965126 0.7523537325
0.2624600958 0.5010113233 0.251366902
0.2525142311 0.4990043865 0.5047337316
0.2722408132 0.9991748024 1.0057261164
0.2824044057 0.4989232188 0.2463717525
0.2725637021 0.5044386949 0.4998089364
0.2824032949 1.0018651188 0.2501569946
0.2825973244 0.499958107 0.751551139
0.28242292 0.750284527 0.2506846512
0.2822848035 0.7533283157 0.7542523707
0.2723963331 0.7509980172 1.0027730907
0.2723467149 0.7524970014 0.4993757025
0.3125423012 1.0003072227 0.4966735451
0.2925287479 0.7533544988 0.9996534366
0.3023598242 0.7515675003 0.2515529704
0.2922662156 0.7552396841 0.4992183312
0.3024194401 0.7540287144 0.7474891086
0.3025012732 0.5027839212 0.7424273078
0.2925387456 0.4981429616 0.9937196137
0.3024938675 1.0020745839 0.2450322452
0.3123878922 0.7534003193 0.9938121851
0.3124441756 0.7528308362 0.4946379014
0.3125567423 0.4993938606 0.4900667286
0.3325236396 0.5003528177 0.4879996106
0.3225007556 0.5006539236 0.735285429
0.3323144284 0.7532628579 0.9888040756
0.3325510407 0.5005635918 0.9859436212
0.322468911 0.7511354787 0.241124809
0.3324543962 0.7506772739 0.4906490023
0.322379302 0.749924509 0.7414951144
0.3225740721 0.5006231585 0.2398528788
0.3524409187 0.5018374011 0.4852946761
0.3524172204 1.0019043935 0.4860546868
0.3623590119 0.7492895681 0.2353742774
0.3622923606 0.7480655068 0.7350067893
0.3624515833 0.5010414339 0.7376515524
0.3625626689 0.5032460534 0.2382421375
0.3523120594 0.7515413172 0.9860732211
0.3423062084 0.749413938 0.2427929445
0.3524931289 0.7493419343 0.4820574564
0.3424117398 0.7503696221 0.7371674043
0.3624700975 0.9985005868 0.7354761259
0.3424272918 0.5022569857 0.735140092
0.3524157393 0.5010800541 0.9874432769
0.3424339569 0.5026746066 0.239038251
0.3723233909 0.5011834774 0.9782231716
0.3824506954 0.4968089312 0.2312696642
0.3724678022 0.5019899178 0.4840051573
0.3925891085 0.4982850051 0.9827961957
0.3823914497 0.5004470769 0.730292131
0.3725307507 0.7470443648 0.9809817975
0.3824247754 0.7450348097 0.2325406687
0.3723641223 0.7504023511 0.4850049278
0.3826691638 0.9988736964 0.2383874745
0.3824729125 0.7450806302 0.732439786
0.3924372915 0.7469919986 0.9774826008
0.3925298628 0.7472996503 0.4807596062
0.3923817487 0.4971964415 0.4801319725
0.4025831102 0.4958984129 0.7223198872
0.4025534874 0.7497870475 0.2317732523
0.4024720246 0.7468479913 0.7267290601
0.4123771579 0.7470050901 0.9768068301
0.4125585978 0.7478822249 0.4770697126
0.4225081653 1.0007392443 0.7177737088
0.4422591862 0.9983107591 0.2171710493
0.432528087 1.0019240309 0.4686920064
0.4421814263 1.0015640129 0.7200148609
0.4224378111 0.4979145138 0.7249248447
0.4323207272 0.7497019524 0.972307863
0.4225340853 0.7496692235 0.2209377771
0.4323873786 0.7497674102 0.4706397074
0.4224748396 0.746828354 0.7226374069
0.442366569 0.7498001391 0.2165637813
0.442466546 0.751155116 0.7198750782
0.4223193198 0.9978721917 0.2217459249
0.4725448255 1.0020156718 0.4648493701
0.4723967114 0.5007167631 0.9646244418
0.4624323325 0.5004078022 0.2140236237
0.4724226314 0.7496495861 0.9611530166
0.4623249497 0.7512009365 0.2185883165
0.4723448715 0.747338925 0.4659648548
0.4622805155 0.7513514895 0.7169498238
0.4524716564 1.0047059883 0.4673450934
0.4624582524 1.0014461888 0.2113649749
0.4624730638 0.9986184109 0.7199324724
0.4522939194 0.7494663042 0.963874614
0.4525420106 0.7529813892 0.4689604633
0.4522976222 0.4992295614 0.4685790694
0.4925180177 0.4985998572 0.9631618147
0.4925883719 0.4986011664 0.4615232819
0.4824277417 0.4988564519 0.7112724236
0.4823610904 0.9967463172 0.7124684453
0.4924180406 0.998585682 0.4611131909
0.4924254463 0.9974008954 0.9635413572
0.4926846461 0.7472145551 0.4641828565
0.4926142919 0.7502321607 0.9608290169
0.4823536846 0.7523202652 0.2129581276
0.4825314216 0.7495710367 0.7141708322
0.5024194481 0.4973574677 0.2098606906
0.5124652899 1.0017538405 0.4658047063
0.522551863 1.0003006769 0.712627668
0.5023564996 0.9950247765 0.2084915605
0.5224555888 0.7521697122 0.7128526164
0.5025786708 0.7516787786 0.2144327891
0.5024712881 0.7515282256 0.7104309501
0.5123171757 0.7495775825 0.9623934726
0.5124393699 0.5011998419 0.9589127902
0.5125837812 0.7488444549 0.4610280252
0.5224111545 0.7518686063 0.213864401
0.5524968398 1.0029058982 0.4621314756
0.542628735 0.5018171091 0.7136441013
0.5425917065 0.7502779812 0.2114399577
0.5524524055 0.5006545782 0.4613103678
0.5524709198 0.7512598485 0.4621231442
0.5425213523 0.7513973099 0.7174311948
0.5324310763 1.0000715745 0.9614770163
0.5424287809 0.5033841694 0.2116510203
0.5324347791 0.7526213712 0.9617454732
0.5525005426 0.5047358734 0.9671886679
0.5423213982 1.0019240309 0.2103790901
0.5325125391 0.7538847072 0.460970631
0.5724737348 0.4966138669 0.9698639796
0.5624315959 1.0017276574 0.7099477277
0.5526227368 0.7540287144 0.9625786152
0.5623649445 0.7529028398 0.2131738188
0.5625537901 0.7534657771 0.7152872426
0.5726255518 0.7494859416 0.9658556406
0.5724885462 0.4991726131 0.4670044309
0.5724848433 0.7519275183 0.4646003532
0.6026556942 0.4989147093 0.2247017277
0.6026223685 0.9985987735 0.2155167994
0.6025779343 0.999246806 0.7215533965
0.5924469269 0.747338925 0.9727336911
0.5925135783 0.9990766156 0.4686123951
0.5925950411 1.0020745839 0.9652724412
0.60258534 0.7522155327 0.2225614784
0.5924506298 0.753138488 0.4729799108
0.6025149858 0.7508998305 0.7185920394
0.5823085138 1.0012367237 0.2147614173
0.5823122167 0.9997442854 0.7153724082
0.5824529251 0.5023813556 0.7194723928
0.5825084679 0.7505725414 0.2184031738
0.5825417936 0.7475811189 0.7162666474
0.6125830446 0.751305669 0.9699287796
0.6125571246 0.9999472047 0.4673747163
0.6124534447 0.7512271196 0.475611714
0.6224585551 1.0027357079 0.7210257399
0.6223882009 0.75043508 0.2196538126
0.6225289093 0.7504874462 0.7204286548
0.622536315 0.9995610035 0.2223605985
0.6425687528 0.999665736 0.7279037904
0.6325969681 0.5006853434 0.4734112933
0.6423836101 1.0008177937 0.2251257045
0.6526627316 0.9986904145 0.4809901088
0.6525997831 0.99660231 0.9770197441
0.6326191853 1.0007392443 0.4734834989
0.6325821567 0.9995740951 0.975973688
0.6324599626 0.7488248176 0.9734002048
0.6326932423 0.7509521968 0.475572834
0.6523850176 0.7502583439 0.9814724256
0.6424428558 0.7490080995 0.2301532539
0.652425749 0.7482160598 0.4810576859
0.6424132329 0.75043508 0.7248813362
0.6726211124 0.7499703294 0.9855918502
0.6626752477 0.9992729891 0.2320185664
0.6725655695 0.999397359 0.9857029358
0.6825188399 0.7523071737 0.2349123464
0.6726470323 0.7505987245 0.4888540441
0.682718794 0.7502910728 0.7403259384
0.6723359926 0.9990438867 0.4880551534
0.6625345392 0.7519340641 0.2350243577
0.6626382191 0.7524642724 0.731719581
0.7026919862 0.4988819804 0.24010097
0.6925757902 0.9997966517 0.4861750295
0.692557276 1.0027684368 0.989452075
0.6924350818 0.7511158413 0.9881190477
0.7025846034 0.7517507822 0.24301419
0.6925646817 0.7492830223 0.4908378479
0.7024994378 0.750703457 0.7437177523
0.7124304911 0.4979446244 0.4919709211
0.712608228 0.7484386164 0.4932946912
0.7226281498 1.0018323899 0.7401676414
0.7325703116 0.9978132797 0.9938954993
0.7324999574 0.7489819163 0.9908684165
0.7224393042 0.7512860317 0.2400176558
0.7324518203 0.7507230944 0.4872072
0.7225800127 0.7498001391 0.7408369322
0.7225763098 0.9976954556 0.2455728618
0.732585123 0.9983827627 0.4956654432
0.7124675196 0.7508147353 0.9946453271
0.7126119309 1.0017734779 0.490821185
0.7125452795 0.9988082386 0.9935344711
0.7425717191 0.4980951774 0.2427772074
0.7424939592 0.7469592696 0.2401093014
0.7424643363 0.7494270295 0.7414256859
0.7524953667 0.7474436575 0.9913683017
0.7624227171 0.9996133698 0.7456487904
0.7525138809 1.0001043034 0.9941084134
0.762526397 0.7491848356 0.240688798
0.752436121 0.7452704578 0.4884967187
0.7626930254 0.7502452523 0.7425726448
0.7525064752 0.9997377396 0.4931752742
0.7427494561 0.9987886012 0.2444240515
0.7624967741 0.999004612 0.244089869
0.7825181034 1.0005625082 0.2461671698
0.7726203758 0.9991486192 0.4983537149
0.7824366406 1.0002614022 0.7471558518
0.7726240786 0.9980882025 0.9973854388
0.7825847547 0.7518620605 0.2470715918
0.7724241246 0.7500619704 0.4895538834
0.7825366176 0.7497674102 0.7466365266
0.7723352561 0.747849496 0.9937473851
0.7726462958 0.4981488528 0.4939454677
0.7725685358 0.4999168686 0.9948674983
0.7925121052 0.9998752011 0.5009346038
0.792719465 0.7493746633 0.9981352666
0.7924010195 1.0000846661 1.000440293
0.812518623 0.7496757692 1.008114457
0.7925046994 0.4962728316 1.0042264607
0.8025320269 1.0003923178 0.2539820423
0.812518623 0.4979511702 1.0045134319
0.8025431355 0.7519209725 0.257448839
0.8125667601 0.7498001391 0.508737442
0.8024912955 1.0003530432 0.7584976923
0.8024764841 0.7505136294 0.7500727747
0.8124815944 1.0008112479 1.0107527401
0.7924269395 0.7515020425 0.498282435
0.8226014932 1.0006214202 0.7588929719
0.8225681676 0.9998882926 0.2541875507
0.8327250949 0.7451657253 1.0045041747
0.8226014932 0.4969948314 0.7519510472
0.8225126248 0.7478233129 0.2579191014
0.8326288207 0.7489819163 0.5033590472
0.8224163506 0.7486742646 0.7569980366
0.842685771 0.7480458695 0.2550095842
0.8426561482 0.7495644909 0.7553678553
0.8625441747 0.4992223611 0.757810813
0.8425265483 0.9970343316 0.7602324792
0.862510849 0.9959673691 0.2580690669
0.8625589861 0.9990897072 0.7596233598
0.85262423 0.9989784289 0.0102552216
0.8625960146 0.7470247275 0.7566777398
0.8526279328 0.4979007677 0.5044393547
0.8525279558 0.7490931946 0.0116807277
0.8526353385 0.499560778 0.004810916
0.8624775233 0.4977292682 0.2543236305
0.8625700947 0.7502452523 0.2582708724
0.852420573 0.7480524153 0.5050475484
0.8527575327 1.0009945298 0.506550907
0.8825432868 0.9964975775 0.7681186316
0.892729837 1.0002221275 0.0125085006
0.8825840182 0.7525755507 0.7648564176
0.8725011479 0.7488313633 0.0108625822
0.8927409455 0.751155116 0.0144150999
0.8824173898 0.4999070499 0.7628411395
0.8824692297 0.4972579718 0.2672428866
0.8825729096 0.7470050901 0.2632660219
0.8725640964 0.7474698406 0.5078320943
0.8927742712 0.745807212 0.5164680746
0.8726122335 0.5001832819 0.0092822969
0.8827543494 0.9952211499 0.2650794944
0.9127326519 0.7480982357 0.5134946831
0.9025386961 0.99936463 0.2660172421
0.9025201818 0.9988213301 0.7629281566
0.9027238387 0.7493353886 0.7590521946