POSCAR file written by Ovito 3.7.11
1
270.0576903048 0.0 0.0
0.0 15.2767699301 0.0
0.0 0.0 10.8023076122
Sr Ti O 
800 800 2400 
Direct
0.0225226548 0.498940221 0.7714129373
0.0124823186 0.4988426873 0.0240044863
0.0123613815 0.247241726 0.5188641211
0.0223520986 0.2495975905 0.7714249718
0.002522817 0.2506815893 0.7653318293
0.012532493 0.2474197741 0.0229248096
0.0024168766 0.0021084277 0.2724232591
0.0224321186 0.4994154523 0.2725602668
0.0126383223 1.9637430284e-04 0.5203314002
0.0026708224 -0.0036876274 0.7696170248
0.0124477704 -0.0020306017 0.0189615823
0.022372983 0.249730472 0.2717502547
0.0025166701 0.250354295 0.2702644611
0.0423648225 0.4992354405 0.2748773643
0.032456199 0.247610914 0.5249887384
0.0422807664 0.2493940134 0.7804897016
0.0525252442 0.4997754761 0.0228052981
0.0324043582 0.2497455275 0.020815538
0.0325809871 -0.0020915439 0.5208340706
0.0326376417 -7.9403889756e-05 0.0211616678
0.0423581573 0.2488474319 0.2733082551
0.0525204304 0.248578396 0.5227947627
0.0524278576 0.2494804191 0.0242265685
0.0623127825 0.2502770535 0.2726519139
0.0625038528 0.5002533258 0.7714712582
0.0625049637 0.5001721568 0.2725315692
0.0723869263 0.4989205833 0.5192297837
0.0723702632 0.2515463009 0.5183818167
0.0623664748 0.2492009098 0.7735161916
0.0726265047 0.2506828985 0.0203876665
0.0624149829 -0.0021954926 0.2735498702
0.0623816567 -0.0025411154 0.7765747974
0.1023816285 -4.6085328153e-05 0.2595278662
0.0926007554 0.2509558619 0.5119924412
0.0824644027 0.0027965313 0.2676289131
0.1024001431 0.2504256451 0.7551303053
0.0824866202 0.2489521661 0.7673369564
0.0924859651 0.2499877253 0.0106546535
0.0823522045 -3.0255315597e-04 0.7652762856
0.0924263482 -4.549619838e-05 0.0147199886
0.1024075489 0.2516615085 0.258765992
0.0824455178 0.2485201376 0.2605924536
0.1024719796 0.4963205573 0.2569367532
0.0925052203 0.5008182358 0.5117508262
0.1123417226 -5.9967093812e-04 0.0100749626
0.1224288266 0.2505048503 0.2544567276
0.1124591049 0.250550017 0.5049328385
0.1224699289 0.5013916554 0.7552858276
0.1124487368 0.4984113134 0.0030465569
0.1224943681 0.252381556 0.7557311028
0.1123620886 0.2489992965 0.0042027914
0.1123309841 0.5006663712 0.5019890231
0.1524620391 0.2498352062 0.5007929823
0.1324144707 0.2485829781 0.5066389554
0.1425352712 0.2516595447 0.7498101457
0.152623486 0.2465694635 0.0014093142
0.1323896612 0.2512046056 1.9985035674e-04
0.1424375143 0.2522879498 0.2495920262
0.1425852605 0.5017451333 0.7518300845
0.1524716666 0.4998913383 -0.0016592894
0.132338561 0.4974359763 0.0038817488
0.1324259497 0.499863191 0.4991951756
0.1525431328 -0.0038563149 0.4982537101
0.1825156176 0.2513027939 0.7476624565
0.1824574818 0.2497003609 0.2503270544
0.1625369234 0.4991287425 0.7479623924
0.1624654572 0.4978162923 0.2492069233
0.1723040957 0.2480488338 0.499884843
0.1826022657 0.5013209599 0.7488714574
0.1625265553 0.2540154092 0.7476291303
0.1723544554 0.2504806306 0.0015791853
0.1623432611 -9.5092320051e-04 0.2537578028
0.1627176255 0.2496610856 0.2461011055
0.1723300161 0.0018244017 0.5009873852
0.1823878671 -0.0024005752 0.250427033
0.2025276379 0.2505644179 0.2493467083
0.1923927664 0.4993342834 -0.0028195878
0.2024483956 0.4980434346 0.249095836
0.1923238922 0.249109922 0.4947859325
0.2025006067 0.2507450844 0.7462488696
0.1924338687 0.2526276813 3.1945443083e-04
0.192373141 -4.8007759421e-04 0.4974224062
0.202436176 0.002937006 0.7499832569
0.1924464586 -2.0953611071e-04 0.0022275652
0.202500977 0.0010402045 0.2486320462
0.2123373938 0.252758599 0.4972891014
0.2224759682 0.2518264648 0.7479114774
0.2123773852 0.252761872 -0.0037066483
0.2222337977 0.0011234027 0.2478405486
0.2124866211 0.0012793912 0.4995932387
0.2124440376 0.0026757597 6.7113854652e-04
0.2222449065 0.0031801857 0.7487483356
0.2323112741 0.0037833891 0.5031702522
0.2226881451 0.2522722397 0.2493957719
0.2324938277 0.2519613101 0.4999431639
0.232330159 0.2515836124 -0.0033358942
0.2322990545 1.2142390395e-04 1.0041141425
0.252720617 0.2494359071 0.4980833761
0.2425850049 0.2501716647 0.7475513691
0.2624233587 0.2493508106 0.2491004646
0.2525036264 0.2520326602 0.9967638612
0.2424639197 0.2516196148 0.2454197696
0.2423950455 -0.0015564177 0.2512611141
0.2525810172 0.5022125096 1.0004575164
0.2523829114 -9.032036889e-04 0.5019140391
0.2422254521 -9.5637687943e-05 0.7462784929
0.2627699513 0.2468273714 0.7459961459
0.2524466015 5.9933906752e-04 0.9994207009
0.2625618476 0.0013000107 0.2489532738
0.2624933437 0.0027348036 0.7452870381
0.2725174982 0.2504387369 0.5012984299
0.2727293048 0.2531997918 0.9997169339
0.2726000731 0.0046398529 0.4987536033
0.2723897477 0.5031675544 0.9961806524
0.2825364686 0.2510625599 0.7502572724
0.2825612781 0.002457978 0.7518717423
0.2827097649 0.2488271397 0.2509074859
0.302518125 0.2502934182 0.2480247685
0.3124663698 0.2520608075 0.4966614577
0.3124178616 0.2512510814 0.9984672009
0.3125881956 5.22293985e-04 0.9963380262
0.2923602954 0.2499314307 0.5025111337
0.3024166652 0.2500525296 0.7454083085
0.2924332428 0.5004876685 0.4953173004
0.3025751499 0.5001531737 0.2483654365
0.2925317403 0.2477091023 1.0028644095
0.302580334 -0.0015420822 0.7409555562
0.2923680716 0.0014740004 0.4973594567
0.3125922688 0.4956515677 0.9922092788
0.2926032065 0.0032581472 0.997911764
0.3225671745 0.2509355697 0.2429591842
0.3324554321 0.2508720746 0.4941036709
0.3225356998 0.2480665077 0.7465886119
0.3327050084 0.2524306501 0.9937737593
0.3224834887 1.2574418895e-04 0.2426175905
0.3327027867 -5.0488650354e-04 0.4952052873
0.3225242208 5.5659442955e-04 0.7459739284
0.332591329 2.8624932264e-04 0.9942366234
0.3625271549 0.251273992 0.2383194348
0.3524933729 0.2546110849 0.4940416471
0.3426040044 0.250284254 0.7346032098
0.352588908 0.0029398862 0.9925055118
0.3526737047 0.2519207256 0.9923388807
0.3424477415 -0.0014515526 0.2458196841
0.342508099 0.0033933852 0.74206643
0.3425369817 0.250180829 0.2379093373
0.3627419238 0.2545600269 0.7380339582
0.3623864442 0.0027973168 0.243869175
0.3725472362 0.2534354437 0.4907636438
0.3824229038 0.2555811852 0.7415869028
0.3725916711 0.2540592666 0.99257957
0.3825339912 0.0036135888 0.7377340223
0.3826228611 0.2501114426 0.2392340542
0.3923689268 0.0010681554 0.4927465534
0.3925281521 0.0012148488 0.9901171332
0.3725916711 0.0023948102 0.4958514456
0.3724731779 0.0037864002 0.9896079827
0.3925911016 0.2518107547 0.4901869152
0.3925911016 0.2508962943 0.988858143
0.4123831689 0.0010787598 0.4850343124
0.4024630663 0.250169701 0.740772262
0.4024112256 0.0047239675 0.2386758402
0.4023704935 0.0017921959 0.7375923859
0.4026963498 0.5032565785 0.2403125275
0.4023890081 0.2519816023 0.2399542707
0.4125609087 0.2530584006 0.4836290571
0.4125423942 0.2511142724 0.9867104537
0.4124498214 0.0011637908 0.9916538419
0.4125386913 0.5021463961 0.987015944
0.4125053651 0.5030019435 0.4900397244
0.4225995046 0.2543485948 0.2374946111
0.442473036 0.2534210427 0.7348550078
0.4325492305 0.5020567175 0.9853218615
0.432486281 0.5005177796 0.4811240368
0.4426063409 0.253759465 0.2355663194
0.4224847143 0.5011311292 0.2351525189
0.4424656302 0.5061099303 0.7366129656
0.4325381217 0.2504642658 0.4871320123
0.4225846929 0.2526322634 0.7409166756
0.4326751295 0.2526119712 0.9835722353
0.4423915719 0.5015448292 0.2368678931
0.4323529761 0.0028013752 0.9857384392
0.4524079503 0.0020758292 0.9855625508
0.4727073167 0.2509152774 0.4839197357
0.4625206043 0.2499720152 0.7292774959
0.4726184468 0.2515940858 0.9814893471
0.4627427791 0.2517583876 0.2305701647
0.4524486823 0.4992910805 0.9843776188
0.4624650606 0.5028540065 0.7349596151
0.4724258953 0.5002637992 0.4796447232
0.4527486182 0.2516831099 0.4815970839
0.4527412124 0.2504852127 0.9837203519
0.4724036778 0.0015738906 0.9806747063
0.4825385494 0.001531866 0.2303165152
0.4824941144 0.250188684 0.7315751531
0.4824570853 0.2525805509 0.2255527182
0.4926660151 0.2485535216 0.4778867655
0.4925067898 0.2463658864 0.9821280995
0.4825570639 0.4972029428 0.2315514365
0.5024194866 0.2514873879 0.2350969752
0.5123729155 -2.5660103368e-04 0.9783418714
0.5224485404 0.0017323011 0.2303813161
0.5024009721 0.2508812388 0.734094985
0.5023824575 0.49928388 0.7336358239
0.5123247776 0.2480867999 0.4839141814
0.5024639216 0.0030641926 0.7309169604
0.5223263443 0.2495583152 0.2336611709
0.512350698 0.2515646293 0.9819707257
0.5224929754 0.2507306834 0.725548663
0.5122877485 0.5005518182 0.4797891368
0.5224004025 0.4981789344 0.230218388
0.5223263443 0.499272752 0.7299893808
0.5525902482 0.2464058163 0.4792411058
0.5525013783 -0.0013838681 0.9797582355
0.5322945848 0.4979164444 0.9758238909
0.5323427226 0.5023100433 0.4809166737
0.5324427013 2.5685829286e-04 0.4818025955
0.5324649187 0.250203085 0.4814036067
0.5325908178 0.2474472668 0.9817578082
0.5423850214 -0.0041442029 0.7313289094
0.542273934 0.2464509829 0.2314005428
0.5424146447 0.2469543616 0.7315436783
0.5523606677 0.252669575 0.9813690024
0.562421481 0.4994010514 0.7340070409
0.5626399528 0.4986201272 0.2363383766
0.5625177567 -0.0036251142 0.234491549
0.5624733217 0.2454108416 0.2330085326
0.5625288654 0.2466237943 0.7330387293
0.5724304535 -0.001502545 0.4812406785
0.5725489467 -0.0033401717 0.9850256285
0.5724267506 0.2478923871 0.4834328027
0.5724119389 0.2477869983 0.9830815994
0.5925076451 0.4978961521 0.9822021577
0.582565325 0.2453898947 0.7342921651
0.6026795458 0.248626181 0.2376269902
0.5925224568 0.2498437158 0.4856091896
0.6023981244 0.2467874415 0.7388606334
0.5925261597 0.2479781382 0.9853681479
0.6024129361 0.4973554619 0.7377525369
0.5825764338 0.2478419838 0.233129803
0.5924113694 0.4982299923 0.4821340062
0.5824949697 0.50026249 0.2356811097
0.6124922639 -1.9218951184e-04 0.9969860359
0.6122515746 0.5000648043 0.4899249341
0.6224271782 0.250269853 0.7417942659
0.6224679102 0.496336922 0.2426166648
0.6125996484 0.4978509855 0.9916816137
0.6224568015 0.4956280025 0.7388356388
0.6124700465 0.2471507382 0.4927372962
0.6123996911 0.2482943045 0.9899597594
0.6224568015 0.2479833749 0.2417094512
0.6424043912 0.2471291367 0.2437654934
0.652487422 0.2509309875 0.4929668767
0.6426302689 0.2462258044 0.7445881134
0.6524318783 0.2497802207 0.9961713952
0.6323880128 0.4952313218 0.9907373711
0.6425636164 0.4993912326 0.7423432227
0.6524800161 0.4975086356 0.9947272593
0.6425932397 0.5000962245 0.2412752847
0.6523874433 0.4962655718 0.495271014
0.6323917158 0.2471671029 0.4913662928
0.6324398536 0.2438974326 0.9894043226
0.6624149304 4.4760542156e-04 0.7464543813
0.6726349689 0.4964986054 0.4958588514
0.6824587958 0.5008830401 0.7456249289
0.6724868524 0.4990443006 0.9933294098
0.6824736075 0.4987084966 0.2473415812
0.6624630683 0.2471762671 0.2438339973
0.6623408721 0.2449303735 0.7482891744
0.6824958249 -0.0011948884 0.246249222
0.6824291725 -5.7820043084e-04 0.7443594585
0.6625852644 0.4993146457 0.7457249075
0.6624186333 0.4974529956 0.2485635423
0.6825254482 0.2491275959 0.2406457896
0.6724053883 0.2496146098 0.495546881
0.682536557 0.2484959178 0.7513227855
0.6724387146 0.2476875009 0.9988467495
0.7023804651 0.247599786 0.24707312
0.6924307392 0.248704077 0.4927502563
0.7024989583 0.2503071646 0.7460183633
0.6923640868 0.248497227 0.9913113225
0.7024767408 0.5010211583 0.7454444119
0.7024804438 -0.0012166862 0.7419932974
0.7025804224 -0.0025307074 0.2433498415
0.6924418479 0.5013104865 0.9914038953
0.6924307392 0.4990613199 0.4977954746
0.7125819891 0.2466813981 0.49395
0.7126745619 0.2485535216 0.9935793564
0.7223502723 0.4958073598 0.7367962597
0.7225391208 0.2536920424 0.2443514793
0.7324666293 0.5009223154 0.985766211
0.7325443904 0.2460837587 0.4903859467
0.722490983 0.4987418806 0.2410929163
0.7326665865 0.4994776383 0.4902748593
0.7225539325 0.2506711159 0.74158968
0.7325332817 0.2464241448 0.9918575021
0.712500525 0.4968461919 0.992875803
0.7624305973 0.499896575 0.742750543
0.7424793047 -2.454936201e-05 0.7432967226
0.7526215821 0.5016790199 0.9915797837
0.7625898225 0.4976356258 0.2447263992
0.7627083157 0.2481882612 0.2434812949
0.7525216034 0.2494221607 0.490691437
0.7626823954 0.2490785017 0.7409092698
0.7526623141 0.2487616808 0.9944310263
0.742634827 0.4968488103 0.7356465054
0.752369784 0.4984852819 0.4911820729
0.74254966 0.2478059814 0.2411253168
0.7426089066 0.2496839962 0.7424570872
0.7826040647 0.4972173437 0.239531213
0.7825374122 0.498442079 0.7429153226
0.7825151948 0.2519744018 0.2433026293
0.772387729 0.2512268616 0.493432518
0.7826077676 0.250882548 0.7446158852
0.7725025193 0.2476390613 -0.0027550923
0.7925574935 0.5003541325 0.4919550559
0.8125902502 0.4995961188 0.4916912234
0.8025923864 0.5009851559 0.7490890035
0.8027071767 0.500128954 0.2472823346
0.7925389789 0.2490870114 0.493442701
0.7925611964 0.2502966912 1.0001335116
0.812512489 -7.1370027861e-04 0.4981731717
0.8026479301 0.2492905884 0.2448856244
0.8124014016 0.2496709044 0.4979111907
0.8024294582 0.2503837514 0.7439725042
0.8127087434 0.2514271657 0.998041366
0.8326378185 0.0016482519 0.5065260166
0.8222548518 0.2503726234 0.2505242345
0.8325674632 0.0025415036 1.0032624726
0.8325822748 0.2515633202 0.4989535605
0.8225510848 0.2514356754 0.7487899933
0.8324971078 0.2559916123 -8.1021160333e-04
0.8324378612 0.5010414505 0.5006356085
0.8323341797 0.5028232408 1.000642662
0.822332613 0.4984682626 0.2468481681
0.8424320221 0.4991064865 0.7458563609
0.8424949716 0.5005014149 0.2491078704
0.8426356823 0.0029093824 0.2469805472
0.8425801386 0.2497167256 0.2516128907
0.8425394066 0.252042479 0.7545832
0.862498105 0.2517721339 0.249412435
0.8523891538 0.2516811461 0.4985406858
0.8626425186 0.2495282041 0.7460516895
0.8524484004 0.2507876326 -0.0028769459
0.8923583915 0.5007056466 0.004946799
0.8727144406 0.0011192134 0.4979343339
0.8826049199 0.2495111848 0.2503631578
0.8725107804 0.2530839296 0.4981472513
0.892673139 0.250879275 0.5055512249
0.882686384 0.2512779195 0.7522466622
0.8723774756 0.2510501227 -0.0032265194
0.8925953779 8.9508221353e-04 0.5052235171
0.8725329979 0.0028978616 0.005266453
0.8925805662 0.2524247588 0.0030345225
0.87248486 0.5004431565 0.5014169231
0.8928101468 0.5031596993 0.5029128997
0.9124540977 0.5021693067 0.5017011216
0.9027339523 0.4995614256 0.7519134
0.9124096627 0.4992609694 9.3237902414e-04
0.9025895387 0.499276025 0.2504353646
0.9124022569 -0.0019906063 0.5059113331
0.9024229077 0.2503549495 0.2558277309
0.9124022569 -4.6253461875e-04 0.0053621733
0.9125577792 0.246858137 0.505196671
0.9025302921 0.2499844524 0.7545193247
0.9125466705 0.2506082753 0.0074395998
0.9424217686 0.2508877847 0.7540129514
0.9325201806 0.2467344198 0.004246856
0.9323794699 0.5001891761 0.5034405648
0.932501666 0.4979131714 0.0015147546
0.9224149323 0.4971361747 0.7560801024
0.9226778391 0.4995372058 0.2541049509
0.9424995298 0.4980362341 0.7538074398
0.9223927148 0.2502273048 0.2533514082
0.9225223168 0.2504204084 0.7527780301
0.9422921667 0.2505257972 0.2523136669
0.9324498252 0.2482367007 0.5060029802
0.972496824 -6.6224961177e-04 0.5196593216
0.9624286049 0.0052971908 0.7630017716
0.9623693583 0.2494417984 0.2586317614
0.9524122266 -0.0012283379 0.0079491205
0.9726116143 5.889311082e-04 0.0144417147
0.9524603644 0.2487780455 0.5048078652
0.9724857153 0.2496702498 0.5111129995
0.9626063447 0.2539885711 0.7580370916
0.952478879 0.2481031646 0.004621961
0.9524677703 -2.3074478253e-04 0.5049059924
0.9722672435 0.2520385515 0.0140451328
0.9723894396 0.5008647116 0.5149186678
0.9624878515 -6.0890063789e-04 0.2599592555
0.9526529159 0.5009138057 0.5045810618
0.9624693369 0.5009079144 0.7574020421
0.9822799189 0.2521485224 0.2658876185
0.9826168839 0.0022517826 0.769088434
0.9924073846 -0.0012539323 0.0191829239
0.9923444351 0.2495007114 0.52270867
0.9824132237 0.2509676445 0.7648735938
0.992348138 0.2496191919 0.0172753685
0.9923703555 0.498881308 0.0232550168
0.0225427246 0.7469239255 0.7720433582
0.0024802335 0.4991876555 0.2690989693
0.0024011393 0.7503539699 0.7719183849
0.0122885452 0.4994468726 0.5206813254
0.0026005781 0.4977370871 0.773341229
0.0225426135 1.0007537611 0.2671123568
0.0226083402 0.9957788875 0.771693433
0.0125495264 0.7492869905 0.0242345297
0.0224891064 0.7476570648 0.2711837091
0.0024778266 0.7497124731 0.2686296252
0.0126019967 0.7476570648 0.5207248346
0.052640775 0.9978932088 0.5216052021
0.0527177956 1.0026258846 0.0254824113
0.0324173184 0.7478468955 0.0230155309
0.0424570251 0.7469370173 0.2720612994
0.0325221108 0.7467995537 0.523512202
0.0425273804 0.7492608069 0.7748964523
0.0424770208 0.5008935135 0.7743549013
0.0322773483 0.4964246369 0.0246547177
0.032467678 0.4959258403 0.5238537957
0.0424685041 0.9974611803 0.2744820784
0.052353429 0.4990750663 0.5287110912
0.0524815498 0.7502295981 0.0247908923
0.0524445207 0.7473428622 0.5241565088
0.042369266 0.997880117 0.7713481364
0.0724939405 0.5007933614 0.0198674073
0.0723417508 1.0020629384 0.5174088765
0.0724413591 1.0005115633 0.0187602365
0.0725894756 0.7481741898 0.0196235705
0.0624612693 0.7488222325 0.267983467
0.0726716803 0.7530312375 0.5173690702
0.0625427334 0.7508449114 0.7695337092
0.0923259993 1.0001384478 0.5109074878
0.0925844626 0.7527235808 0.0061612618
0.1024390237 0.750007038 0.2562609717
0.0826125192 0.7497779319 0.266604132
0.0926737028 0.7500266756 0.5083385923
0.1025771423 0.7524028324 0.7599329828
0.0824270033 0.7512180269 0.7671721768
0.1023571893 0.9996016851 0.7558764422
0.1024553165 0.5000504033 0.7593997634
0.082561419 0.4991195783 0.7651901929
0.0924867057 0.4983412724 0.011538909
0.082599559 0.5010054481 0.2635520064
0.1124065236 0.7489793338 0.0056230434
0.1223418081 0.7501510475 0.2562554173
0.112455402 0.7541898594 0.5045773589
0.1223229233 0.7499939462 0.7543239961
0.1222821912 0.9979783053 0.2546733479
0.122336624 1.0023771409 0.7566105446
0.1224665963 0.5006585162 0.2528487378
0.1122995094 1.0001449937 0.5091097238
0.1424926877 0.7489989715 0.2498058694
0.1525894192 0.7498172073 0.4974529552
0.1323711466 0.7500921345 0.5021232536
0.1424049287 0.7479058084 0.747524523
0.1525020305 0.50103425 0.4949127573
0.1322878311 0.9996475063 0.0012540695
0.1422808811 0.5005511636 0.2511565068
0.1424582506 0.9989929177 0.2499826835
0.1322870905 1.0005835681 0.5061760914
0.1423575314 1.0023575033 0.7485724472
0.1523420647 0.9987572658 0.0033621376
0.1525375785 0.7521802722 -0.001124774
0.1324041026 0.7498695744 0.0017349853
0.1724610992 0.7512965776 0.0012836928
0.1626487514 0.7487764113 0.2476498486
0.1725173835 0.7512442105 0.4993145945
0.1624228737 0.7529068656 0.7505664656
0.1824437811 0.9987310822 0.7477846526
0.1722659557 0.5014859162 -0.0029635293
0.172557375 0.501591305 0.5024056007
0.1824330426 0.7482396487 0.2516351082
0.182458963 0.7502295981 0.7497610822
0.1724274027 1.000701394 9.9773542995e-04
0.1623728844 1.0011857896 0.7508395554
0.1824471137 0.4997571476 0.2489329078
0.2024369166 0.499723109 0.7516541962
0.1925819852 0.4996203386 0.4964522431
0.1924871907 0.7506419889 -0.0014207293
0.202595031 0.7492804446 0.2515749359
0.1926575246 0.7494179082 0.4977741829
0.2026024368 0.7513751282 0.7471218313
0.2324056984 0.7526515761 0.0011355763
0.2324156963 0.4990096074 8.2675344478e-04
0.2323408974 0.7510347421 0.5014502493
0.2125854889 0.7488811455 -6.8042451983e-04
0.2225411395 0.7497779319 0.250301134
0.2125958571 0.7516500554 0.5004856406
0.2226274173 0.7465180805 0.751491268
0.2324816081 0.5017163314 0.500331044
0.2225852041 0.5010794167 0.7473347487
0.212532167 0.4994678194 -0.0047457411
0.2226177898 0.4993526118 0.2494689044
0.2124984705 0.4989572403 0.4998126362
0.2527361693 0.7526319384 -0.0042145583
0.2425716744 0.7485734889 0.2475341326
0.2525695382 0.7520166251 0.4919106209
0.242484656 0.7492608069 0.7504683384
0.2424094868 0.5005924027 0.7467422827
0.2627018177 0.5009655182 0.7469996351
0.2626499769 0.7498041155 0.2476396656
0.2425401997 0.4986751126 0.2519979936
0.2626684915 0.7511329304 0.7445797818
0.2624433544 0.5009412985 0.2481488161
0.2525506533 0.49943509 0.4959375383
0.2725685984 1.0006752105 0.9975692446
0.2824524124 0.5042842826 0.2479183098
0.2726156254 0.4995712444 0.4938703874
0.2823750216 1.0014345333 0.2454225468
0.2825101779 0.5021522874 0.749547239
0.2824309356 0.7503343323 0.2442681638
0.2825435041 0.7518006108 0.7479022201
0.272551565 0.7522784605 0.9968471767
0.2724638059 0.7535810919 0.4941879121
0.3125130265 0.9978277499 0.4971206188
0.2925658071 0.7543404147 0.9945421137
0.3025466375 0.7524944748 0.2468435394
0.2924432407 0.7507009019 0.4943582461
0.3024307363 0.7500659509 0.7448213969
0.3024992402 0.4997643481 0.7458508065
0.2924384269 0.5015762494 0.9965694583
0.3024251819 1.0018796536 0.2470147991
0.3123700941 0.7503605158 0.9944680554
0.3125537585 0.7508252738 0.4908062273
0.3124648886 0.502293024 0.4938777932
0.332483204 0.4988472694 0.493613035
0.3224275747 0.4994324717 0.7456989871
0.3325750362 0.7490317009 0.9904966817
0.3324906098 0.5023080795 0.9906447982
0.3225875406 0.7514340412 0.2388628372
0.3324624676 0.7523242817 0.4956662999
0.3225123714 0.7497713861 0.7432893168
0.3225456977 0.5040643408 0.2420047585
0.3525744667 0.5021856715 0.4909636011
0.3525155903 1.0028026235 0.4906905113
0.362438285 0.755014641 0.2418501619
0.3624605025 0.7511918434 0.7478198303
0.3625493724 0.5020239881 0.7396363936
0.3625752928 0.5052943129 0.238839694
0.3524578249 0.7533650777 0.9927462011
0.342472551 0.7528937739 0.2384212649
0.3524652307 0.7523504653 0.4921485331
0.3425177266 0.7514929542 0.7448741634
0.3625493724 1.0005639304 0.7431698979
0.3424988417 0.5024134683 0.7454777381
0.352703328 0.5024029949 0.993172036
0.3422955518 0.5013078681 0.2414632076
0.3724916925 0.5013831458 0.9916260701
0.3825599116 0.502658939 0.2417548119
0.3727138672 0.5040728505 0.4976353237
0.3925466666 0.5028631707 0.9921907642
0.3825265854 0.5037377011 0.7403325412
0.3725065041 0.7508056361 0.9906262837
0.3824710417 0.7538952945 0.2424250391
0.3724028226 0.7513423988 0.4895092822
0.3826969193 1.0009501377 0.2440515434
0.3824192009 0.7523701029 0.7469940808
0.3926059132 0.7537054638 0.9901449051
0.3927318123 0.7522915523 0.4881447589
0.3923281948 0.5047627869 0.494733166
0.4025963712 0.5036938437 0.7388523019
0.4026111828 0.7505896219 0.2439043526
0.4025926683 0.7526973973 0.740275146
0.4125423942 0.754150584 0.9872010896
0.4124905534 0.7531490634 0.4870459196
0.4223588152 0.9997980617 0.7368406947
0.4425285797 1.002717527 0.2349710762
0.4323307586 1.0029204495 0.4859091255
0.4424804418 1.0004984715 0.7381506
0.4225106347 0.5013157232 0.7396817543
0.432356679 0.7528675903 0.9866178809
0.4226069104 0.7524617454 0.2362874616
0.4323900052 0.7513227611 0.4829412411
0.4225735842 0.752658122 0.7416054173
0.4423286224 0.7498630285 0.2370197125
0.4424471156 0.7529134115 0.7386727106
0.4224773084 1.0044521869 0.2339981359
0.4723999749 1.0006621187 0.4826292707
0.4723740545 0.502016133 0.9800914976
0.4625057927 0.5039072396 0.2326558301
0.4723666487 0.7513751282 0.9800822403
0.4625724451 0.7525664795 0.2327428486
0.4722370468 0.7513554906 0.4804251121
0.4622169655 0.7537316473 0.7308790055
0.4523412978 1.002259315 0.4855767891
0.4624243286 1.0024687833 0.2317912001
0.4624391403 1.000701394 0.7289294221
0.4523561095 0.7519969874 0.9832204587
0.4523524066 0.7507663608 0.4829949333
0.4523820299 0.5020004229 0.4854666274
0.492414217 0.501672474 0.9826557645
0.4923475646 0.5028284775 0.4784338709
0.4823978387 0.4991503439 0.7290979046
0.4824830057 1.0022658609 0.7313187264
0.4924401374 0.9983448749 0.4786430854
0.4923253471 0.9994511297 0.9839425266
0.4924253258 0.7520886298 0.4810601616
0.4924660578 0.7471988527 0.9854236916
0.4825015202 0.7511787516 0.228406738
0.4824607882 0.7528217691 0.7282156857
0.5023343197 0.5003973353 0.2303359555
0.5125358436 0.9993594873 0.4830902833
0.5224818666 0.997592098 0.7347753952
0.5025120595 0.9976575569 0.2302961492
0.522337453 0.748566943 0.7327545307
0.5022861818 0.7485342135 0.234757233
0.5024009721 0.7498041155 0.73003289
0.5123358863 0.7524093783 0.9843776188
0.5120877912 0.5000890241 0.9815263762
0.5123432922 0.7490775221 0.4814202698
0.5222782064 0.7490906139 0.2300674943
0.5525124871 0.9956414239 0.4786504912
0.5426034932 0.498482009 0.7297736861
0.5425960874 0.7484229335 0.2279929376
0.5524495376 0.4959670794 0.4852824075
0.5523273415 0.7488025949 0.4861599978
0.5422665282 0.7492673528 0.7294700473
0.5325093537 0.9975724603 0.9819336966
0.5423961301 0.4959939175 0.2294130045
0.5323649401 0.74954228 0.9807395073
0.5524532405 0.4983596009 0.9837388664
0.542529435 0.9979913971 0.229309323
0.5325908178 0.7489138749 0.4758427578
0.5726155991 0.4977429784 0.9823410169
0.5625066479 0.9963745631 0.7345893239
0.552431023 0.7483640205 0.9821558713
0.5622215237 0.7472184904 0.2319763457
0.5623289081 0.748678223 0.7321740992
0.5724822943 0.745510014 0.9815726626
0.5723971273 0.4955069036 0.4820775368
0.5723749098 0.7454445552 0.487708741
0.6025795671 0.4975315463 0.2352089883
0.6025055089 1.0001188101 0.2335806325
0.6024499652 0.9988554541 0.735450251
0.5925891092 0.749313174 0.9843220751
0.5926076237 1.0002104525 0.4819729295
0.5925261597 0.9978473876 0.9870900022
0.6023981244 0.7460664144 0.2402208804
0.5925520801 0.7465704476 0.4814063839
0.6024129361 0.7490644303 0.7398298708
0.5824875639 0.9975659144 0.234420268
0.5826541949 0.9958247087 0.7313927846
0.5827208473 0.4993480297 0.7365833423
0.582565325 0.7464133464 0.2342564141
0.5827060357 0.7475916059 0.730182858
0.6126218659 0.7501968687 0.9922463079
0.6124959668 0.9981943195 0.4894185608
0.612658895 0.7492018939 0.4871421953
0.6224975335 0.9974480885 0.7413795397
0.6227160054 0.7484229335 0.2442431691
0.6226604617 0.750982375 0.7447399328
0.6223049821 0.9974415426 0.2397978227
0.6425191815 0.9952944919 0.7424718989
0.6324065274 0.4985533591 0.4938768675
0.6425117757 0.9977688369 0.2397191358
0.6525059365 0.9966167609 0.4934297408
0.6523837404 0.9972975331 0.9956807593
0.6325324264 1.0013756203 0.4968790038
0.6324065274 0.9989405506 0.9935793564
0.6326064847 0.7490382468 0.9886915119
0.6325472381 0.7468257372 0.4889482909
0.6524244724 0.7471661233 0.9947642884
0.6426450805 0.7479712673 0.2436349657
0.6525503715 0.7446394112 0.4925623335
0.6425932397 0.7455558352 0.7405843392
0.6724127942 0.7481938274 0.9950234923
0.6623371692 0.9960996359 0.2484654151
0.6723683592 0.9987899952 0.9951623515
0.6825958036 0.7505372548 0.2455086395
0.6725238815 0.7475588765 0.494055533
0.6824847162 0.7504325206 0.7456841755
0.6725201786 0.9989274588 0.4931992345
0.6624815828 0.749948125 0.2450985419
0.6624593653 0.7485865806 0.7456647352
0.7023693564 0.5015683944 0.2423574609
0.6926158848 0.9989667341 0.4915671758
0.6924714712 0.9979913971 0.9929776331
0.6926047761 0.7497124731 0.9938570748
0.7025063641 0.7465835394 0.2443311133
0.6923714926 0.747009022 0.4947720466
0.702469335 0.7490120632 0.7460368779
0.7124301697 0.4980165964 0.4872634657
0.7125301483 0.7483443828 0.4917014064
0.7226687228 0.9993922167 0.7407630048
0.7323703535 1.002082576 0.9923111089
0.732477738 0.7497321107 0.9906077691
0.7225243092 0.7506550807 0.2402829042
0.7325554992 0.7496797437 0.4913662928
0.7224687655 0.7477617989 0.7410203572
0.7225280121 1.0008388576 0.2387647101
0.7323851652 0.996152003 0.492850235
0.7126190182 0.749025155 0.9914224099
0.7124486842 0.998456155 0.4928122801
0.7125079308 0.9981026771 0.9907558856
0.7424607901 0.4988269772 0.2376816082
0.7427162911 0.7509300079 0.2414844993
0.7425385513 0.749830299 0.7379580485
0.7526363937 0.7501641392 0.9918297302
0.7627083157 0.999608231 0.7397095261
0.7525475238 1.0011137849 0.9958473903
0.7625305759 0.75046525 0.2420130901
0.7525549296 0.7495226424 0.4917578758
0.7627083157 0.7494768212 0.7448195454
0.7526141762 0.9969702388 0.4923105355
0.7426496387 0.9977164698 0.2427907017
0.7625120614 0.9981288607 0.2475609787
0.7823596724 0.998168136 0.2475933792
0.7724025407 0.9991762025 0.49328255
0.7825114918 0.99805031 0.7481021773
0.7725839834 0.9999027959 0.9949401768
0.782633688 0.7474475964 0.248966234
0.7726913679 0.7470482973 0.4934195578
0.782629985 0.7495291883 0.7469792691
0.7726987737 0.7475130553 0.992051905
0.7727320999 0.4994049789 0.4940296126
0.7724840048 0.5000019638 0.9928480312
0.7925278702 0.9983841502 0.4985314285
0.7927685595 0.7499284873 0.9934590118
0.7925093556 0.9976837404 0.9998557931
0.8124754599 0.7492346234 0.9978747349
0.7925908197 0.4984486249 0.9970045505
0.8026849592 1.0010745095 0.2502483675
0.8125347065 0.5017110947 0.9916168128
0.8025738718 0.7488615079 0.246344572
0.8127087434 0.7484753006 0.4976251407
0.8027553145 0.9984954303 0.749938822
0.8025590602 0.747873079 0.7438512338
0.8124125104 1.0006621187 0.9984857155
0.7926463634 0.7477356154 0.5015335648
0.8226769839 1.0033001109 0.7526826801
0.8226473606 1.0032804732 0.2506677223
0.8326341156 0.7505634383 0.9986801184
0.8226325489 0.5015402471 0.7500397263
0.8226103314 0.752023171 0.2525969397
0.8326452243 0.7520100792 0.504297789
0.8226251431 0.7497386566 0.7497555278
0.8425431095 0.7532930729 0.249994718
0.8426171677 0.7493262658 0.7527641442
0.862457373 0.5008692937 0.748654837
0.8426282765 0.9991107436 0.7516893738
0.8626906564 1.0020498466 0.2501520918
0.8624832933 0.9994838591 0.7546554068
0.8525039441 1.0002890032 0.001923371
0.8626499244 0.7494768212 0.751821753
0.8525372703 0.5058624958 0.4985934523
0.8526594664 0.7533781695 6.7002767277e-04
0.852552082 0.5019925678 1.1496108743e-04
0.8623944234 0.5024389973 0.2501382058
0.8626054895 0.7511525681 0.2548797853
0.8525002412 0.753286527 0.4973029873
0.8524372917 1.0008912247 0.5004384284
0.8824864267 1.0008584953 0.74837249
0.8925361313 1.0004002832 0.002161746
0.8826382461 0.7499743085 0.7517032598
0.8726440853 0.7511132928 1.0727754397e-04
0.8926175954 0.7505503465 6.4716218801e-04
0.8826086228 0.5002395794 0.7483049118
0.8825012384 0.4994403267 0.2494031777
0.8826974927 0.7505045253 0.2537050363
0.8727477668 0.7542945935 0.502138991
0.8925768633 0.7521606346 0.5045421812
0.8727144406 0.5008954773 0.0021846115
0.8825049413 1.0041838056 0.2489440166
0.9128280918 0.747702886 0.5032072813
0.9025969446 0.9966363986 0.257717142
0.9026043504 0.998744174 0.7540055456