POSCAR file written by Ovito 3.7.11
1
270.0828132373 0.0 0.0
0.0 15.2781910978 0.0
0.0 0.0 10.8033125295
Sr Ti O 
800 800 2400 
Direct
0.0226214972 0.497675772 0.7722346531
0.0124246987 0.5016932633 0.0248213039
0.0126793984 0.2500234173 0.5205997964
0.022680442 0.2506897266 0.7702287869
0.0027071237 0.2525492399 0.7741368475
0.0126565906 0.2509489196 0.0231574624
0.0025092955 0.0020377117 0.2689492038
0.0225674767 0.498396407 0.2697887612
0.012524557 -0.0011329516 0.5224075753
0.0024374657 0.0022196704 0.7722772326
0.0127471924 9.1460754701e-04 0.0195179306
0.0226742588 0.2482712466 0.2690945296
0.0027308942 0.2521054701 0.2696656508
0.0426280645 0.5036051388 0.2752370901
0.0326363143 0.2527272715 0.5229990605
0.0427006349 0.2496948444 0.7775154408
0.0525331746 0.5011035338 0.0264062807
0.0327192519 0.2517670792 0.0266684226
0.0326903718 5.358977925e-04 0.5254112836
0.0326122477 0.0027985348 0.0263770305
0.0426291753 0.2513180732 0.2809307141
0.0525646465 0.2482856462 0.5272783036
0.0526512866 0.2507996872 0.0254567572
0.0624468006 0.2514169069 0.2781324983
0.0625004879 0.5017240261 0.7775441357
0.0625563966 0.501603593 0.2754712775
0.0723752369 0.4996046652 0.528063248
0.0725503684 0.2485389484 0.5276041296
0.0626437773 0.2503552629 0.7802368284
0.0725740648 0.2503316999 0.0283676236
0.0624901207 0.0013273527 0.2793737842
0.0623742303 9.5302832577e-04 0.7820066559
0.102297911 -7.3211881208e-04 0.2783583549
0.0924783302 0.251996164 0.5289157643
0.0826024704 9.938708572e-04 0.2790396275
0.1024112096 0.2503395542 0.777083166
0.0824832477 0.2522560115 0.7795435225
0.0925442359 0.2501386142 0.0327128649
0.0825747012 0.0027936258 0.7815040323
0.0925542329 -0.0013093468 0.0325979928
0.1024086178 0.2478615122 0.2751982131
0.0825232355 0.2508834668 0.2797347846
0.10235419 0.4994227065 0.2807548421
0.0924709251 0.5007710337 0.5275319295
0.1125673538 0.0011913419 0.0224680442
0.1225857625 0.2510268084 0.2706162851
0.1124396152 0.2510562621 0.5249688268
0.1224058177 0.4982746649 0.7702158279
0.112608082 0.4983905163 0.0244516951
0.122504306 0.2524000076 0.7708804388
0.1123374243 0.2489624279 0.0251723074
0.1125281066 0.5020977614 0.5174202161
0.1523862518 0.2497949871 0.5186198482
0.1323842386 0.2529956278 0.5186068892
0.1423256339 0.2519935458 0.7670853066
0.1524288314 0.2497969507 0.0144836413
0.1323731309 0.2507591065 0.0170540566
0.1425266833 0.2495508483 0.2686779907
0.1425029869 0.5022136128 0.7627051685
0.1524469739 0.5016199562 0.010734606
0.1324516253 0.5003999165 0.0157352944
0.1324967967 0.4994069979 0.5162326174
0.1525151012 0.0017118223 0.5148691467
0.1823818665 0.2496719359 0.7589896415
0.182463323 0.2487713057 0.2599982455
0.1625209211 0.4992715106 0.7598421578
0.1624005877 0.496661254 0.2621929428
0.1723212486 0.2484283332 0.5104371727
0.1824370348 0.4977327159 0.7582704176
0.1625175888 0.2488151591 0.7627051685
0.1722927388 0.2466931802 0.0134820041
0.1622521147 -8.4011589037e-04 0.2623373429
0.1623946636 0.24948605 0.2632713157
0.1723330968 9.5008295091e-04 0.5107629987
0.1823937147 -0.0025730436 0.2610414441
0.2024286808 0.2521447418 0.2587967622
0.1923606577 0.5006165651 0.0055234266
0.2024682983 0.4981195418 0.2604619922
0.1923551039 0.2494709959 0.5099234414
0.2024742224 0.2516492643 0.7614796185
0.1924395224 0.2461335589 0.0108460533
0.1923291859 4.2632984763e-04 0.5085608964
0.202440529 0.0015074788 0.7585388538
0.1923562146 -6.0147507375e-04 0.0086636671
0.2024383075 0.0014045216 0.2575934276
0.2123893294 0.2517998056 0.5130826576
0.2226969087 0.2519994366 0.7579214506
0.2125340998 0.2535375768 0.0106742542
0.222227423 0.0021018554 0.2597585043
0.2125566855 0.00152934 0.5118950589
0.2121486625 -9.1008883733e-05 0.0124662045
0.2223433134 0.0023481542 0.7597005346
0.2324405868 -6.8492736151e-04 0.5088163736
0.2224877136 0.2494814684 0.2592577319
0.2324953848 0.2504475513 0.5058783858
0.2325231541 0.2496104103 0.0090828904
0.2322369456 -8.8213657173e-04 1.0089731528
0.2523985395 0.2473136725 0.5050804824
0.242299785 0.2531821682 0.7491380335
0.262380663 0.2516630093 0.2519210933
0.2524237169 0.2473673437 1.0033082237
0.2424715842 0.2547320899 0.2541296752
0.2423216302 0.0024625002 0.2576674789
0.252484439 0.4989756641 1.0060666369
0.2523118994 -1.2039717958e-04 0.5080786369
0.2425415627 0.0016773287 0.7620470371
0.2623062413 0.254378645 0.7500479396
0.2524803662 -0.0022427034 1.0067978941
0.2624176886 -0.0010565028 0.2506798074
0.2624039891 -1.9887505647e-04 0.7552704119
0.2723409413 0.2480388892 0.4988916399
0.2724653476 0.2515157406 0.997587756
0.2724416512 6.6058532834e-04 0.4980307928
0.2724912656 0.5005661665 0.9972174992
0.282425626 0.2533353277 0.7450679856
0.2824178506 0.0021798751 0.7434231197
0.2822856689 0.2548898311 0.2414928103
0.3023650658 0.2547248901 0.2466875133
0.3124330889 0.2509404107 0.4925935716
0.312382734 0.2510104452 0.9968750117
0.312427535 0.003012369 0.9949589327
0.2924277433 0.2517310802 0.4929342078
0.3024231961 0.2512513114 0.7439424049
0.2924162654 0.5025101139 0.4951520461
0.3024402279 0.5040279638 0.2440531362
0.2924732849 0.2505706025 0.9954680358
0.3024546679 -8.1845495273e-05 0.7440201588
0.2924010849 0.0040759111 0.4984769522
0.3124193894 0.4995333217 0.9933205463
0.2924058982 1.9115802807e-04 0.9971619607
0.3225233274 0.2515929749 0.2439522412
0.3325376632 0.2515975566 0.4911486444
0.3224444627 0.2479793272 0.7426890856
0.3326950224 0.2486017831 0.9898956708
0.3225148115 -0.001199648 0.2397128007
0.3326239331 0.004623489 0.4894343554
0.322583309 3.5459360654e-04 0.7390540894
0.3325665433 -9.9576258864e-04 0.9888959775
0.3623955424 0.2477325702 0.2408698533
0.3525319011 0.2492569653 0.4897712891
0.3423676112 0.2516721727 0.745038365
0.3525485626 0.0015791496 0.9893217728
0.3528114449 0.2493741258 0.9965788062
0.3423191076 0.0023653028 0.2374070265
0.3426727028 0.0016651545 0.7381589935
0.3424387005 0.251490214 0.2420528238
0.3625917785 0.2487281069 0.7404721729
0.3623659218 -5.4734562906e-04 0.2414011718
0.3726775739 0.2507152532 0.4851458559
0.3825856461 0.24643006 0.731696161
0.3725813071 0.2471644401 0.9884239
0.3824893793 -0.0012327671 0.7363169659
0.3825375127 0.2478660939 0.2303749241
0.3924233694 -0.0010044024 0.475692274
0.3923678309 -0.0016766678 0.9778345554
0.372462825 1.4095574986e-04 0.4832195949
0.3724517173 -2.9639969079e-04 0.9909971848
0.3924048566 0.2475911922 0.4804584047
0.3925307439 0.2472370927 0.9842492545
0.4124764781 8.2644265947e-04 0.4866241062
0.4022684979 0.2470178259 0.7321525025
0.4023388467 -0.0020951728 0.2299472775
0.4023425493 -3.2363197587e-05 0.73150733
0.4022796056 0.496827504 0.2300204032
0.4023943852 0.2476612267 0.231815223
0.4123246728 0.2463207539 0.484217437
0.4124727755 0.2483877525 0.9761221176
0.4125246115 0.0017984164 0.9836846129
0.4124727755 0.4998828395 0.9773439651
0.4123172676 0.4961330501 0.4784442077
0.4223364168 0.2490082448 0.2295150026
0.4421858842 0.2492818374 0.7260090164
0.4324703456 0.5015859207 0.9728823706
0.4323999968 0.5034611427 0.4777407198
0.4424376589 0.2506681272 0.2215239351
0.4225474632 0.4988532674 0.2265122199
0.4424080383 0.4983590989 0.7237550781
0.4323666737 0.251089643 0.4760597539
0.4223253091 0.2457958226 0.7274095128
0.4321408171 0.2489218471 0.9786583768
0.4425080077 0.502112161 0.2201465798
0.4325295867 0.0014862066 0.9791952491
0.452423485 -7.0142146074e-04 0.9690779819
0.4724839987 0.2505418033 0.4657592095
0.4624759573 0.2511158241 0.7198442406
0.4723840294 0.2489872999 0.9651995418
0.4624241213 0.2509855731 0.2177917465
0.4524531055 0.5011945131 0.9664861842
0.4623537725 0.5002912648 0.7134600876
0.4723914345 0.5004058072 0.4662044433
0.4524901312 0.2523489544 0.4686240715
0.4524679158 0.2508795396 0.9696241107
0.4724321628 4.0963939007e-04 0.9686892122
0.4824216914 3.6650601154e-04 0.2163384885
0.4824661223 0.25042857 0.714883725
0.4825327685 0.2501811585 0.2168633275
0.4924815689 0.2483668076 0.468920277
0.4925297023 0.2517009719 0.9661159274
0.4823624504 0.4999541831 0.2152841823
0.5025007181 0.2498591309 0.2125165126
0.5125568929 -0.0016985945 0.9657364142
0.5223316726 -0.0021958392 0.2175223847
0.502578472 0.2510798251 0.7187556856
0.5023822359 0.5000130906 0.7188621344
0.512453221 0.2544349343 0.4641689565
0.502415559 0.0011145658 0.7184048673
0.5226352832 0.2477450062 0.2174418538
0.5123014158 0.2497949871 0.966856441
0.5225723396 0.2505071133 0.7198414637
0.5123273337 0.5017652613 0.468004817
0.5223094572 0.5034055079 0.2142548683
0.5223909137 0.4995614664 0.714247809
0.5525446281 0.2515242495 0.4671421187
0.5524557665 0.0015710989 0.9722621904
0.5324100629 0.5017672249 0.9685688788
0.5325137348 0.499564739 0.4674679447
0.5324878169 -4.040695052e-04 0.4670347442
0.5324322783 0.2508769215 0.4676475192
0.5324026578 0.2542130494 0.9683467247
0.5425365866 4.6488153194e-04 0.7238346833
0.5424069967 0.2525230588 0.2168559224
0.5424403198 0.2519300567 0.7165156319
0.5525261152 0.2521237969 0.9646349002
0.5625859927 0.5013031647 0.719354576
0.5625267516 0.5006892177 0.218059257
0.5625859927 -2.6053157025e-04 0.2246285384
0.5623490283 0.2517912968 0.2213480631
0.5624082694 0.2513350909 0.7202061666
0.572475552 7.4528121882e-04 0.4704605453
0.5726977061 6.1496081357e-05 0.9707626504
0.5724126083 0.2491758039 0.4690017335
0.5725681162 0.2507879057 0.9734562686
0.5926730608 0.498431097 0.9691057511
0.58256505 0.24972168 0.7189185986
0.6025922407 0.2505948201 0.2219617638
0.592576794 0.2545462041 0.4753581172
0.6026848049 0.2511406962 0.7220593019
0.5926138197 0.2527272715 0.9699018033
0.6026699946 0.5000163632 0.7236199344
0.5826724245 0.2538609135 0.2176603053
0.5926619531 0.4984684051 0.4745231881
0.5826391013 0.5009831007 0.2189997093
0.6124262614 -4.0498584405e-04 0.9725213702
0.6125965796 0.5012730565 0.4723451524
0.6224972466 0.2483746619 0.7271725484
0.6225231646 0.4978688577 0.228223732
0.612592877 0.4975383211 0.9739561153
0.6226046211 0.4995817568 0.7285989628
0.6126076873 0.2529661741 0.4760653077
0.6124262614 0.2487110892 0.9757703737
0.62254538 0.2502453022 0.2195301022
0.6425910835 0.2470708427 0.2313579559
0.6524473197 0.2513887622 0.4805879946
0.6424651962 0.2493040913 0.729493133
0.6526398532 0.2498211683 0.9788990437
0.6326682011 0.4973720711 0.9798431985
0.6426429194 0.4966461998 0.7262413526
0.6525028582 0.4962783552 0.98291633
0.6427132682 0.4966435817 0.2314847688
0.652710202 0.4978256588 0.4845738091
0.6326496882 0.2498538946 0.476992801
0.632583042 0.2504972954 0.9802689939
0.6622591251 2.8174466828e-04 0.7314443864
0.6725596694 0.4996603001 0.4834759977
0.6825936289 0.5019675104 0.7409609119
0.6725855874 0.5032012952 0.9900622864
0.682438121 0.500708199 0.2373866623
0.6626701101 0.2491960943 0.2364776819
0.6624220381 0.2481711038 0.7308316113
0.6823973928 -0.0011146248 0.2386862637
0.682464039 0.0012210574 0.7420522439
0.6626441922 0.4986169829 0.737141713
0.6627071358 0.5007716882 0.2338766278
0.6824047979 0.2503061733 0.2412937973
0.6725670746 0.2476304639 0.4868147885
0.6825788186 0.2490998787 0.7384875965
0.6724597001 0.249332236 0.9850175374
0.7025689836 0.2521525961 0.2411799433
0.6924979985 0.2488210499 0.4894649016
0.7025134451 0.2495063404 0.7427455497
0.6924239471 0.2513030191 0.9901178249
0.7024986348 0.4994495422 0.7410386659
0.7024579066 -4.6408969962e-04 0.7425178418
0.7025319579 -0.0019004508 0.2441882799
0.6923943266 0.5018313686 0.9944683424
0.6923943266 0.4991635135 0.4913439548
0.7124622455 0.2488563944 0.4917456835
0.7125992405 0.2517827879 0.9937278288
0.7225702563 0.4984454966 0.7448014007
0.7226739282 0.2506157649 0.2441373696
0.7325634875 0.5035534311 0.9969675759
0.7325042465 0.2476199914 0.4936599112
0.7224665844 0.4996989172 0.2450917065
0.7324598156 0.5009215751 0.4886216417
0.7224369639 0.2526631277 0.7402148445
0.732585703 0.2507486341 0.9925059813
0.7124511378 0.4997682972 0.992256058
0.7624913452 0.5011709501 0.7457362991
0.7426826061 6.6732696413e-04 0.7413941124
0.7525388423 0.4985921108 0.9944035475
0.7624284016 0.4991824948 0.2478075402
0.7624876427 0.2470813151 0.2440170361
0.7526165962 0.2481665221 0.4930600951
0.7625987197 0.2469667728 0.7435240147
0.7525092217 0.2483432446 0.9949496763
0.7423604827 0.5011421509 0.7445190798
0.7526277039 0.4978439856 0.4923732688
0.7425641239 0.2518416954 0.2486869001
0.7426122573 0.250062689 0.7448847084
0.7824963205 0.4971986212 0.2500531477
0.7824370794 0.4989946454 0.7494240569
0.7825185359 0.2470420434 0.2461487897
0.7725216021 0.2460811967 0.4987139166
0.7826259104 0.2479380919 0.7467767207
0.7726363817 0.2481311776 0.0011716132
0.7925895211 0.5001754134 0.5000810898
0.8125167424 0.5010622985 0.5022313563
0.8024901881 0.4989547192 0.7514373283
0.8023939213 0.5004935139 0.2508362409
0.7923081259 0.2520387083 0.5008725138
0.7924858492 0.2487392339 1.001419914
0.8125056347 -0.0012893837 0.5033735985
0.8025642394 0.2502086487 0.2521867526
0.8124612039 0.2498434222 0.5023692769
0.80259386 0.2484427328 0.7470284954
0.8124315833 0.251372399 1.0037247626
0.8325032048 6.5338552312e-04 0.5061347886
0.822532189 0.2538334233 0.2507658921
0.8324550715 -0.0016759478 1.0038358396
0.8324254509 0.2536920454 0.5021452715
0.8224359223 0.2523332457 0.7556832482
0.8325476357 0.2496143375 0.0020183905
0.8325883639 0.5022856109 0.5068984433
0.8324217483 0.5001335237 1.002632505
0.8223581683 0.4995280855 0.2559170899
0.8425964054 0.498407534 0.7578029684
0.842737103 0.4988172684 0.2540509956
0.8427296978 0.0013546466 0.2573222145
0.8425408669 0.2501517048 0.2558671052
0.8425667848 0.2505712571 0.7559452049
0.8624940062 0.2491155873 0.2594946963
0.8526599854 0.2480742337 0.5106972781
0.8626939449 0.2478667484 0.7607168895
0.8525229904 0.2477279885 0.0082881342
0.8928180387 0.4970808062 0.0047631968
0.8725946119 -0.0043618024 0.5065633609
0.8824878738 0.2491928216 0.260721172
0.8724613194 0.2445960733 0.5151051854
0.8928291464 0.2488505036 0.5117756511
0.8827248381 0.2463757342 0.7550741758
0.8727167966 0.2477266795 0.0073307426
0.8928032284 -0.0030379546 0.5072020539
0.872576099 -0.0017288337 0.005942835
0.8926366128 0.2468627028 0.0117349473
0.8727612274 0.4995084497 0.50862384
0.8926699359 0.4987086168 0.5084822168
0.9126934241 0.4999607283 0.5148163851
0.9026520595 0.4982439021 0.7608501819
0.9127119369 0.4981437593 0.0113464554
0.9026224389 0.5000458169 0.2658973621
0.9127896908 0.0026411863 0.5120190949
0.9027298134 0.2517140625 0.2626502099
0.9128007985 -0.0031131599 0.0153735535
0.9127526651 0.2501170148 0.5150922264
0.9028001622 0.249542994 0.7612732003
0.9126971266 0.2478968567 0.0140192467
0.9427286562 0.2500135994 0.765729241
0.9325651069 0.2489225017 0.0170657197
0.9328650149 0.5006820179 0.515382878
0.9325836197 0.4977621696 0.0181665858
0.9227014655 0.4987007624 0.7656042793
0.922645927 0.4982812101 0.262197571
0.9424250456 0.4973576715 0.7708211978
0.9226385219 0.2475650111 0.264739384
0.9228014349 0.2482784464 0.7617702701
0.9427064408 0.2498997116 0.2684456546
0.9327058045 0.2462232292 0.5173748596
0.9726713242 0.0017412106 0.5159188248
0.9627965752 -9.4045499401e-04 0.765292338
0.9625781236 0.2495312125 0.2627696177
0.952588595 -0.0016900202 0.0123906721
0.9726528113 6.5881417263e-05 0.015063556
0.9526256207 0.2511262966 0.5145460976
0.9725158163 0.2502453022 0.5192002257
0.9627225238 0.2510726253 0.7660606209
0.9526219181 0.2473339628 0.0136216835
0.9527700208 4.3078063631e-04 0.5150144725
0.9726157857 0.2487287614 0.0183851299
0.9725676523 0.5000785433 0.5214263948
0.9626336622 0.0012823867 0.2726267796
0.9527737234 0.4974061065 0.5189345664
0.9625818262 0.5017652613 0.7674537121
0.9826941759 0.2494814684 0.272886885
0.9826238272 0.0019010463 0.7751754178
0.9926022481 0.0028554132 0.019907811
0.9925800327 0.2499848002 0.5205785067
0.9826571503 0.2515006865 0.7679368972
0.9924800634 0.2484028066 0.0246778294
0.9926688943 0.4961736308 0.0210433886
0.0225106793 0.7501735955 0.7740211422
0.0026180029 0.4994423424 0.2695869712
0.0024956701 0.7480725615 0.7667974319
0.012631191 0.499611865 0.5192798309
0.0026635445 0.4994233611 0.7734129954
0.0224539189 1.0019376935 0.2733080521
0.0225351162 1.0004519155 0.7693929321
0.0123883395 0.7503699538 0.0193393742
0.0226710375 0.7483736442 0.2696998995
0.0025769785 0.7496696092 0.268167962
0.012589352 0.7512797474 0.5204387347
0.0526520271 1.0031420245 0.5309623588
0.0526127798 1.0018460596 0.0281522267
0.0324060146 0.7535051418 0.0294340558
0.0424488602 0.7506121291 0.2779112699
0.0323290012 0.7488514495 0.52459857
0.0422989062 0.751836096 0.7770415121
0.0425532727 0.5018621314 0.774329381
0.0324782147 0.5016428646 0.0244582671
0.0324504454 0.4997689517 0.5255695684
0.0424588572 0.9985799661 0.2780640008
0.0526468435 0.4982576471 0.5277874067
0.0524835602 0.7513713813 0.0258641322
0.0525383582 0.7485634573 0.5288491181
0.0423740684 0.9977552612 0.7809356881
0.0725855428 0.5013771264 0.0290593559
0.0723430246 0.9971530956 0.5305800687
0.0725126022 0.9997973877 0.0318908023
0.0725351878 0.7494470697 0.0308752804
0.0624801237 0.7521044524 0.2781454573
0.0725836915 0.7499903278 0.5280641737
0.0624812345 0.7516201018 0.7835941319
0.0923679937 1.0024744062 0.5346445628
0.0924516717 0.7493750717 0.0331700395
0.1025219164 0.7525495312 0.2787397195
0.0824291902 0.7504877688 0.284000143
0.0924190891 0.7545131145 0.5286121537
0.1024789666 0.750821578 0.7746755711
0.0824813964 0.751646283 0.7854954007
0.1023112402 0.9997646613 0.7788205961
0.1025108087 0.4998939665 0.7771248199
0.0823658763 0.5019622742 0.7767369759
0.0927252915 0.5000543258 0.0292453174
0.0824673267 0.5027640707 0.2767662507
0.1123307597 0.7498136053 0.0244775205
0.1225191162 0.7489430834 0.2715011989
0.1123259464 0.7489169022 0.5238339896
0.1224565428 0.7504550425 0.773641629
0.1223813807 0.9995552125 0.2736746063
0.1224850526 1.0003602816 0.7687921905
0.1225631768 0.4996622637 0.2704404131
0.1122300498 0.9990315903 0.5245532135
0.1423245231 0.7484980045 0.268832573
0.1523999513 0.7515415585 0.5179265423
0.1325234552 0.7524513521 0.518387512
0.1425381613 0.7474769412 0.7676555021
0.1525717505 0.4995752115 0.5158549555
0.1323872007 1.000628638 0.0206308299
0.1426681214 0.4997977509 0.264798625
0.1423685837 0.9987501433 0.2646440428
0.1325441896 1.0017413351 0.5188133073
0.1424889171 1.0027558532 0.7630670946
0.1523344159 1.0002948288 0.014839273
0.1522751748 0.7502521389 0.0163720436
0.1324060838 0.7496237922 0.0183975335
0.1722490485 0.7527000726 0.0109412093
0.1622036111 0.748674727 0.2622123812
0.1720820627 0.7477714787 0.5108259424
0.1622832163 0.7478042051 0.764389837
0.1825262667 0.9984294247 0.7586064257
0.1724238097 0.5009719737 0.0120263395
0.1723145839 0.4983394631 0.5062828914
0.1821160221 0.7482558292 0.2586671723
0.1822359853 0.7502259577 0.7612371003
0.1723530906 0.9994177616 0.0082335213
0.1623561569 0.9998759311 0.7617064008
0.1823711291 0.4999044389 0.2573185119
0.2024605229 0.5019904189 0.7586064257
0.192391389 0.4996740452 0.5069160305
0.1923488095 0.7529226121 0.0089867162
0.2023498161 0.7484849139 0.2570685886
0.1923017869 0.7492834378 0.5083081961
0.2022572519 0.7529291573 0.7612583901
0.2323206236 0.7487009081 0.0099169864
0.2323469118 0.502264666 0.0047232091
0.2324187416 0.7521502693 0.5101011647
0.2124174689 0.7510702985 0.0102541978
0.2223951494 0.7516397377 0.2632805721
0.2123223129 0.7499903278 0.5129613985
0.2223029554 0.7504223161 0.7574012398
0.2324598401 0.4985135675 0.5026627054
0.2224225484 0.5008129235 0.7571800114
0.2123989561 0.4973995613 0.0047236719
0.2225847209 0.4980285624 0.2581340025
0.2123756299 0.5016840999 0.5043149764
0.2524592616 0.7497874242 0.003868101
0.2423734662 0.7523989899 0.2594095372
0.2526577192 0.7520520902 0.5072566668
0.2422957122 0.750775761 0.7576280221
0.2426467157 0.5016441737 0.7538671386
0.2624002866 0.5000183268 0.7506051761
0.2625746775 0.7517771885 0.2508158767
0.2423871657 0.5005471852 0.2548924042
0.2625180282 0.7530338818 0.7524629396
0.262545057 0.5020120183 0.2511259668
0.2524574103 0.5034028898 0.5032569676
0.2725864216 1.0040060012 0.9999759124
0.2826240836 0.5023150646 0.2458581381
0.2724783066 0.4985181492 0.497634618
0.2825485512 0.9994701239 0.2461673025
0.282453025 0.5022024859 0.7440719947
0.2825852067 0.7541138526 0.2482740638
0.282551143 0.7499576014 0.7464703332
0.2724490563 0.7540614903 1.0008089902
0.2726001211 0.7504419519 0.4992174658
0.3124267945 1.0020816896 0.4906848977
0.2923529515 0.7503437727 0.9927559047
0.3024524464 0.7510702985 0.2424045677
0.2925217886 0.7496761544 0.4952649744
0.3024924341 0.7475620298 0.7451429626
0.302609065 0.4994861957 0.7418310154
0.2925269722 0.5035665217 0.9972267556
0.302348034 0.9983836078 0.2456767123
0.312479371 0.7498528769 0.9925800327
0.3125363905 0.7517902791 0.4893445681
0.3124971433 0.5001217422 0.4901591331
0.3325698756 0.501085207 0.4929277283
0.3226284803 0.5008868851 0.745752035
0.332740564 0.749879058 0.9892477214
0.3326131956 0.5002650837 0.9901918763
0.322529992 0.7518622771 0.2428285118
0.3325028591 0.7500165089 0.4889900472
0.322528511 0.7512535663 0.7454317629
0.3225433212 0.4997290255 0.2403774117
0.3524656251 0.4990293354 0.4970125866
0.3525381954 1.0013028016 0.4936099265
0.3625029169 0.7493881622 0.2426915167
0.3626325067 0.7512666569 0.742258662
0.3625214297 0.5010243359 0.7382756244
0.3625917785 0.4968589213 0.2343977643
0.3526044714 0.7501670502 0.9887108491
0.3425927273 0.752497169 0.2384039429
0.3524037922 0.7526215293 0.4920400376
0.3424524 0.7509917552 0.7448513853
0.3624732963 1.0008708132 0.7408433554
0.342547556 0.4991694043 0.7411423378
0.3526366837 0.4999757825 0.9920986988
0.3426671489 0.4997270619 0.238900087
0.3724443121 0.499255802 0.9918024934
0.382526405 0.5007180169 0.235924148
0.3724998506 0.4965584931 0.4838897597
0.3922456461 0.4997558612 0.9812686872
0.3824634613 0.4975147581 0.7367427613
0.3723369376 0.7500492353 0.9901455942
0.3823857074 0.7509197572 0.2333027298
0.3725553892 0.7492572567 0.4876265765
0.382337574 0.9986716 0.2307201885
0.3823820048 0.7501735955 0.7332753063
0.3924826105 0.74862891 0.9853137429
0.3922937795 0.7488972664 0.4829215381
0.3925270413 0.4994501967 0.4793809574
0.4023943852 0.4979977996 0.7337205401
0.4023573595 0.7476013015 0.2278571778
0.4023647647 0.7490936247 0.7329485546
0.4123468882 0.7488841759 0.9770014775
0.4122469189 0.7488187231 0.4824911146
0.4223697399 0.9981872495 0.7304863469
0.4425154128 0.9993130372 0.2265418405
0.4323666737 0.997303637 0.4784923411
0.4425968693 0.9988155961 0.7246696124
0.4223919554 0.4986942171 0.721756617
0.432355566 0.7471234962 0.976834862
0.422480817 0.7485700025 0.2325761008
0.4322667044 0.7474311243 0.4785626899
0.4223549297 0.7494994319 0.7279843365
0.4424561717 0.7489889003 0.2261253016
0.4424524692 0.7482623745 0.720616226
0.4224771144 0.9983443361 0.2309117964
0.4723247883 0.9987632339 0.4688073487
0.4724247577 0.4975834836 0.9646996951
0.4624463367 0.4998736761 0.216032101
0.4722174138 0.7488252684 0.9690687255
0.4624722547 0.7469009568 0.2165985939
0.4724284602 0.7513582907 0.467141193
0.4625314958 0.7487859967 0.7222435047
0.452423485 0.9950193352 0.468793464
0.4624537419 0.9981872495 0.2189830478
0.4623574751 1.0027034909 0.713857188
0.4524345927 0.7499641466 0.9731878324
0.4522531668 0.7467962323 0.4676928757
0.4525012389 0.4997905511 0.4687462563
0.4924297329 0.4996681544 0.96251518
0.4922557122 0.5006944539 0.4674272164
0.4823069118 0.5004503151 0.7196220865
0.4824550146 1.0017871521 0.7147263659
0.4926111588 1.0022649573 0.4665228642
0.4925259997 1.0021340518 0.9655975679
0.4922038763 0.7527458896 0.4662201792
0.4920816915 0.7494470697 0.968596648
0.4823587478 0.7462137027 0.2147685997
0.4822291579 0.7492703472 0.716461019
0.5022859691 0.5037759706 0.2134208649
0.5125235698 0.9993392183 0.4644994107
0.5223872112 1.0028802134 0.7119253731
0.5024303693 1.0059826749 0.217358546
0.5224612625 0.7515022868 0.712970423
0.5023489128 0.7498725128 0.2129719285
0.502467395 0.7492048945 0.7178309692
0.5124939493 0.7526411651 0.9632927193
0.5125124621 0.5013627268 0.9681153142
0.5122273644 0.7522157221 0.4645466185
0.5225982575 0.7521044524 0.2165624939
0.5523335817 1.0011653507 0.4675780961
0.5423736736 0.5017475891 0.712507602
0.5423033248 0.7526411651 0.2188858554
0.5525409255 0.5045319501 0.471550026
0.5525483307 0.7513779266 0.4701930348
0.5425180738 0.7528702498 0.7166489244
0.5324100629 1.0037965523 0.9695963414
0.5425180738 0.4999600738 0.2165541631
0.5324137655 0.7491787133 0.9622467438
0.5524631716 0.5006793998 0.9643294383
0.542558802 0.9989988639 0.2184526549
0.5323952527 0.7501081427 0.4650492421
0.5726754907 0.5032392578 0.9731600632
0.5623786489 0.9990643167 0.7200515844
0.5522669355 0.747778024 0.9703553679
0.5625563721 0.7493947075 0.2213499144
0.5624045668 0.749643428 0.7201811743
0.5724607417 0.751247021 0.9719382157
0.5724977674 0.5017070084 0.4712788128
0.5724200135 0.7503437727 0.4684037687
0.6025329996 0.5032536574 0.2264390942
0.6024145174 1.0004911871 0.2254792034
0.6024922713 1.000510823 0.7240855323
0.5926323326 0.7524317162 0.9705034706
0.5924879324 1.0016235202 0.470735461
0.5925360658 0.99820034 0.9737154484
0.6024256251 0.7487401798 0.2227170877
0.59262863 0.7490412625 0.470924292
0.6025070816 0.750893576 0.7255878493
0.5826872347 0.9986716 0.2240250198
0.5826242911 1.0009231755 0.7214169064
0.5825354294 0.4998265501 0.717624551
0.582539132 0.7515873755 0.2248266258
0.5823910293 0.7517313716 0.724611297
0.6125151231 0.7491394417 0.9796025316
0.6124521794 1.0012504393 0.4781905818
0.6125336359 0.748203467 0.4756802406
0.6225379748 0.9968978298 0.7287137424
0.6227119955 0.749996873 0.2290956868
0.6225342723 0.7503699538 0.7322108179
0.6225046517 0.998246157 0.2277562828
0.6425651655 1.0001704686 0.7250195051
0.6326422831 0.4993343453 0.4778508712
0.642509627 0.9998890216 0.2274267542
0.6522140579 1.0001442874 0.4818450165
0.6524139966 1.0022911385 0.9820739958
0.6324756675 0.9977683517 0.4761125155
0.6324349393 1.0003144647 0.9739098332
0.632420129 0.7507626705 0.979324839
0.6324386419 0.7487729061 0.4803149302
0.6526657712 0.7509524835 0.9791859927
0.6426244066 0.7503045011 0.2277812751
0.6526583661 0.7529029762 0.4817265343
0.6427280785 0.7493816169 0.7332234703
0.6723893513 0.7502914105 0.9875075144
0.6623331764 1.002965302 0.2311450582
0.6724152693 1.0012177129 0.9866281545
0.6825454955 0.7495256131 0.2420620802
0.6723486231 0.7496565186 0.4854670537
0.6824196082 0.7516724641 0.7385718299
0.6726559362 1.0020489632 0.48584379
0.6625368177 0.7496499733 0.2320512618
0.6623664995 0.7491983492 0.7343999613
0.7023801527 0.5006506006 0.2431784044
0.6926164807 1.0003602816 0.4944689223
0.6925646447 0.9969763731 0.9897753374
0.692527619 0.7504550425 0.9934131105
0.7023505321 0.7486420006 0.2390102384
0.6923980291 0.7519408204 0.4896046735
0.7026356299 0.747071134 0.7388458199
0.712517784 0.5015846117 0.4917743784
0.7123622762 0.750350318 0.4906654592
0.7224665844 0.9976898084 0.7449920829
0.7324709233 1.000936266 0.994459086
0.7325708927 0.7505008594 0.9949589327
0.7224073433 0.7487663609 0.2418288184
0.7325708927 0.7498397864 0.4985713677
0.722418451 0.7496565186 0.7423817724
0.7225406358 1.001597339 0.2401959859
0.732585703 1.0005370041 0.4902526229
0.7124918661 0.7502455936 0.9899419529
0.7124844609 0.9966556545 0.4925583972
0.7125585123 0.9997450255 0.9935519568
0.7426344727 0.5009929186 0.2443993263
0.7424752623 0.7534658701 0.2444456084
0.7425085854 0.750396135 0.7443682002
0.7525166269 0.7516790093 0.9944961117
0.7624654273 0.9977552612 0.7482901454
0.7525832731 0.9991952222 0.994107342
0.7624358067 0.7495976111 0.2485332435
0.7525092217 0.752660801 0.4963202063
0.7622284629 0.749145987 0.7438627997
0.7524610883 0.999260675 0.4950409691
0.7424234263 1.0018722407 0.2426878142
0.7625431812 0.9984425153 0.2471845831
0.7824074589 0.997585084 0.2469105931
0.7725067919 0.998599602 0.4919243324
0.7825259411 0.997113824 0.7495184724
0.7725216021 0.9982592475 0.9920616732
0.782388946 0.7468027776 0.2452111143
0.772540115 0.7471824037 0.4984325214
0.7825000231 0.747306764 0.7487418587
0.7724956842 0.748910357 0.997698833
0.7724142277 0.4992302754 0.4992730044
0.7725586278 0.4964249694 0.9955235743
0.7926783827 0.9977683517 0.4981316878
0.7922636951 0.7484063706 1.0022622482
0.7927228135 0.9983836078 0.9991706039
0.8124834193 0.7505204952 0.9987818342
0.7927672443 0.5029342479 0.9968102167
0.8025235112 0.99961412 0.2470059342
0.8124908244 0.5004346064 1.0052428155
0.8026642088 0.7472805829 0.2496014344
0.8123612345 0.750703763 0.496569204
0.8025975626 1.0000002913 0.7436267609
0.8024716752 0.7507430347 0.7534450458
0.8125611732 0.999686118 1.0006516311
0.7924673363 0.7480791067 0.4976364693
0.8225914301 1.0003537363 0.7502886065
0.8224692454 1.0015384315 0.2524348246
0.8325180151 0.7535640493 1.0076032026
0.8224655428 0.501427525 0.7585906898
0.822558107 0.7527720707 0.2527449147
0.8324920971 0.748556912 0.5066614789
0.8226062404 0.7511422966 0.7544373341
0.8424779232 0.7505008594 0.2567927472
0.8423779539 0.7497350619 0.7559813049
0.8625310319 0.4975088674 0.7589461363
0.8425704874 1.0006417285 0.7524370217
0.8625310319 1.0021405971 0.2596668657
0.8626865397 0.9982788834 0.7560590589
0.8524304262 1.0003013741 0.0059772689
0.8626421089 0.7514368341 0.7585268205
0.8525785289 0.4994403788 0.5088265556
0.8524933698 0.7469860454 0.0034482298
0.8524341287 0.4995221947 0.0062149737
0.8626643243 0.4992119486 0.261207134
0.8625495447 0.7484849139 0.2565335675
0.8527266316 0.7483343726 0.5080406856
0.8524082108 0.9986977811 0.5050286464
0.8825878431 0.9992934014 0.7551084245
0.8926921514 0.9989923186 0.0089419151
0.8827840792 0.7451860941 0.7542651646
0.8726686632 0.747778024 0.0069853856
0.8925847769 0.7474180337 0.0085209331
0.8827988895 0.4980449256 0.7567514391
0.8826359765 0.5016899906 0.2535150489
0.8826359765 0.7506972177 0.2563197442
0.8725909093 0.7488841759 0.5080397599
0.8926699359 0.7501081427 0.508450745
0.8725279657 0.4982792466 0.0070858178
0.8825397097 1.0008249963 0.2575045659
0.9126675061 0.7519277299 0.5149515288
0.9027705416 0.9998628405 0.2628436691
0.9027520288 0.9989661375 0.7643926139
0.9027779468 0.7491525322 0.7666622882