POSCAR file written by Ovito 3.7.11
1
270.0587577942 0.0 0.0
0.0 15.2768303164 0.0
0.0 0.0 10.8023503117
Sr Ti O 
800 800 2400 
Direct
0.0224448187 0.5007848487 0.7787574881
0.0124968725 0.5020030333 0.0325361782
0.0127056049 0.2504757256 0.5216856547
0.0225391686 0.2527484484 0.77619786
0.0027484384 0.250783381 0.7727911939
0.0124098174 0.2517652601 0.0241135667
0.0022683948 -2.1921051201e-04 0.2703690503
0.0225582385 0.5013288097 0.2763862593
0.0124255547 -5.5776241662e-04 0.5257245906
0.0024953824 0.0015253922 0.7655446228
0.0125113138 1.4415020386e-04 0.0223212716
0.022419528 0.2552483125 0.2751504172
0.0026599762 0.2497000411 0.2760159696
0.0423918112 0.499748639 0.278591335
0.032396579 0.2518248274 0.5302078742
0.0424129177 0.2517829339 0.7773207638
0.0524455492 0.501848551 0.0183455627
0.032429905 0.24974128 0.0262006125
0.0324254616 -0.0010405851 0.5276593547
0.032299563 2.4083256331e-04 0.0293718668
0.0425062307 0.2497366979 0.2751087596
0.0522559608 0.2486193196 0.5257514366
0.0524540659 0.2532911002 0.0233663219
0.0624111583 0.2462654281 0.2729981078
0.0623830162 0.4992995929 0.7707184969
0.0623630206 0.4985370002 0.2718576152
0.0724893354 0.5028644686 0.5163645905
0.0724104637 0.2518758851 0.520633106
0.0623996793 0.2457882349 0.7733725489
0.0723826919 0.2503160066 0.0198404226
0.0623637612 -0.0028673384 0.2690526701
0.0624126394 -0.0021116188 0.7738104166
0.1023980118 1.2392349494e-04 0.2599352098
0.0924153694 0.2501837802 0.5164256883
0.0822079612 -0.001698575 0.267369703
0.1023102531 0.2515878673 0.7648605124
0.0822731322 0.2474148812 0.7682412582
0.0923127992 0.2516723089 0.0158444403
0.0822538771 -6.0161968191e-04 0.7680607419
0.0923953738 0.0023730812 0.0128460188
0.1022299002 0.2486396117 0.2649720767
0.0825064147 0.2489322117 0.2635751584
0.1022595234 0.5004745749 0.2581680018
0.0923775999 0.4976919296 0.5120683032
0.1125154397 5.5176093665e-04 0.0107116684
0.1224029176 0.24782007 0.2599787189
0.1122751216 0.2509424454 0.510896336
0.1223118263 0.5009033287 0.7572010682
0.1122836383 0.4989893191 0.0113727283
0.1222888683 0.2513031224 0.7590414084
0.1122725296 0.2507166133 0.0100211706
0.1122432767 0.5010002075 0.5066620723
0.1524463795 0.2488143862 0.4996765555
0.132277065 0.2519374162 0.5070971628
0.1424078233 0.2512586105 0.7581369756
0.1524704483 0.2482056212 0.0010244247
0.1323196484 0.2462104429 0.0035766471
0.1423204349 0.252650915 0.2554241545
0.1423174726 0.5010938133 0.7553375848
0.1524311976 0.4991660574 0.0051631537
0.1322241136 0.5001152071 0.0092004232
0.1323622317 0.4990076475 0.5029276998
0.1521542208 -0.0025911685 0.504643993
0.1824087479 0.2481467084 0.7497045514
0.1822502639 0.2463263046 0.2464455529
0.1623949552 0.5029187992 0.7485853505
0.1625701023 0.4978928875 0.25060113
0.1725427468 0.2523543876 0.5000607311
0.1824987283 0.4982378544 0.7466829868
0.1624934523 0.2488916274 0.7522641796
0.1723831519 0.2495593051 0.0049627343
0.1624978958 4.4270690086e-04 0.2496004219
0.1623508907 0.2509208441 0.2540513051
0.1725064584 2.9647237749e-04 0.4971521049
0.1825146508 5.2180863953e-05 0.2457744026
0.2024040261 0.24952003 0.2516138726
0.1924891468 0.5007835395 -0.0070580663
0.2025317761 0.4985991859 0.2474508896
0.1923025207 0.2465180983 0.4947970618
0.2024003232 0.2514988436 0.7506543447
0.1926143047 0.2483293379 -2.5825909192e-04
0.1926368924 -0.0034646481 0.4919115786
0.2027780188 -0.0015479547 0.74516017
0.1924913685 -0.0033457753 -0.0027740357
0.202518816 2.366432126e-04 0.2469945075
0.2125473743 0.251771806 0.4977103167
0.2223548696 0.2490382546 0.7486223795
0.2127180779 0.2483928328 -2.3587939178e-05
0.2226299949 2.4214173541e-04 0.2475045817
0.2125651482 6.4746141703e-04 0.4960902989
0.2124851656 -5.4715812263e-04 -0.0044456164
0.222532979 0.0021820075 0.7520133083
0.2325233974 0.0036900428 0.4986184524
0.2224518855 0.2504063395 0.2485034384
0.2327103938 0.2506976303 0.5002051441
0.2324663728 0.2506577005 4.0520763459e-04
0.2326385576 -7.4549769551e-04 0.9968081838
0.2526416119 0.2501811619 0.4983694325
0.2426478608 0.2514994982 0.7480502818
0.2626598021 0.2523399867 0.2485839764
0.2525627402 0.2512186808 0.9969655569
0.2426989608 0.2469416155 0.2466445836
0.2426330492 -0.0011254849 0.2457892142
0.2524638728 0.5027034404 0.9981875132
0.2526819735 0.0023762232 0.4944156633
0.2425475123 -6.4717887093e-04 0.7498128612
0.262703126 0.2530783597 0.7480215843
0.252708264 0.0027297651 0.9942254125
0.2627268245 9.8946051797e-06 0.2436896711
0.262728676 -7.8998180292e-05 0.7442251883
0.2725146945 0.2518837402 0.4993886552
0.2727894495 0.2531078161 0.9964934375
0.2726105995 0.0039614342 0.5005874684
0.272586901 0.5028245388 1.0005573679
0.2827154375 0.2521822314 0.7512495856
0.2826843332 0.0033096629 0.7486399683
0.2824377202 0.2532348058 0.2508251553
0.3025759303 0.2563453987 0.2482775616
0.3124534104 0.2536687963 0.4980500576
0.3126104132 0.2537257453 0.998520774
0.3126137458 0.0047233069 0.9940865538
0.2926595698 0.2516003044 0.4982009507
0.3025855578 0.2529552975 0.7534148551
0.2925281169 0.5013909954 0.502775881
0.3027840331 0.503039243 0.24878023
0.2925655162 0.2529644617 1.0014645779
0.3025122404 0.0019272426 0.74736432
0.2925470017 0.0016667174 0.4983472151
0.3126607726 0.5016436656 0.9953825681
0.2927628806 0.0024202768 0.9978264807
0.3225230708 0.2548575246 0.250910322
0.3325408907 0.251368581 0.4931455694
0.3224923368 0.2546598396 0.7494453486
0.3325560726 0.2498329221 0.9965860099
0.3225515832 0.0039453968 0.250157708
0.33265494 0.0041245571 0.4928530404
0.3226041643 0.0034371108 0.7493925823
0.332601248 0.0016464906 0.996780412
0.3623351476 0.2506321717 0.2459706562
0.3525698653 0.2504927448 0.4926910386
0.3425350121 0.2524113365 0.7469283037
0.3525454262 7.5991930027e-04 0.9936792351
0.3526272603 0.253198149 0.9897634206
0.3426494317 0.0029699327 0.2414012802
0.3425557483 0.0032422405 0.7419201344
0.3423750469 0.2525717101 0.2474379295
0.3626684084 0.2515767393 0.740701881
0.3623610679 -6.9175618088e-04 0.2457133048
0.3724958994 0.2529035852 0.4888668709
0.3824418831 0.2532917548 0.7362917296
0.3724551675 0.2493504922 0.9934755757
0.382445586 0.0019828824 0.7334728986
0.3825825932 0.2506341354 0.2356108737
0.3924248957 -3.2446794871e-04 0.4811944665
0.3922397508 0.0017821209 0.9827371719
0.3724440588 3.3816950882e-04 0.4896972457
0.3725514428 -7.0851358374e-04 0.9878934572
0.3924730334 0.2509260808 0.4873060994
0.3923730552 0.2511106741 0.9853569721
0.4123650008 0.0028316187 0.4812203867
0.4022597925 0.2493753664 0.7345356303
0.4023671765 0.0013484576 0.23124886
0.4022746041 -6.4377502348e-04 0.7315825692
0.4025412127 0.5020848566 0.232253271
0.4024708577 0.2534259449 0.2315654578
0.4123983269 0.2504515059 0.4860869203
0.4124946022 0.2521193912 0.9832370631
0.4124834935 0.0033685756 0.9790527885
0.4124983051 0.5000464756 0.9781826075
0.4124797906 0.4975741041 0.4829403828
0.4224220714 0.2507139949 0.2346323829
0.4425510243 0.250128795 0.7351558657
0.4325976348 0.5005635986 0.9808301795
0.4325791203 0.4997074 0.4845835437
0.4424399373 0.2505942057 0.2323967583
0.4225257526 0.5015003112 0.2315071371
0.4426954373 0.4994933504 0.7329109838
0.4323828667 0.2517443134 0.4839771942
0.422329499 0.2482494784 0.7277972819
0.4323902725 0.2516081595 0.9830704327
0.442595459 0.500771757 0.2332206531
0.432445816 0.0023764195 0.9786362125
0.4526303123 4.41855939e-04 0.9811726975
0.4726370695 0.2514778968 0.4762529493
0.4626170278 0.2507840356 0.7282916187
0.4724519246 0.2491848819 0.9739798184
0.4628873394 0.2511440579 0.2325735717
0.4526377181 0.5005858545 0.9831537479
0.4625503757 0.4986338789 0.727511233
0.4726148521 0.5016580665 0.4778979616
0.452348892 0.2501523601 0.4832727179
0.4523748123 0.2486887057 0.9834407225
0.4725926347 0.0028344989 0.9778678612
0.4825978648 0.0040628296 0.2233450245
0.4825349155 0.2483574851 0.7266290176
0.4824867778 0.2499644939 0.2250789064
0.4925734716 0.2490415276 0.4719001928
0.4922587253 0.2489531584 0.9708786414
0.4826422995 0.5009615869 0.2243059265
0.5026009191 0.2489695231 0.2255871291
0.5126653955 -0.0018827755 0.9745630248
0.5223929082 -0.0029640862 0.2239495226
0.502786064 0.2504888173 0.7248340379
0.5026860857 0.4999142492 0.7282916187
0.5125654172 0.2539221211 0.4765519583
0.5024787234 -4.455009092e-04 0.7257949399
0.5225891618 0.2475222333 0.2309211535
0.512539497 0.248835333 0.97283192
0.5225706473 0.2484491272 0.7278296822
0.5124950622 0.5005505069 0.4760678044
0.5224706691 0.5008084138 0.2269562756
0.5224780749 0.4963965038 0.7263003854
0.5526344751 0.2478383984 0.482435863
0.5524493302 7.3386677551e-04 0.9855698887
0.5322907542 0.4996360502 0.9787658139
0.532335189 0.4977475694 0.479590186
0.5322833484 -0.004204985 0.4808510227
0.5324647904 0.2519799643 0.4754170201
0.5325832832 0.25233475 0.9827001429
0.5423441219 -0.0025069888 0.7294302598
0.5427292233 0.2510727081 0.2268637032
0.5426662741 0.2495147933 0.7319352703
0.5525344969 0.2501163578 0.9843294179
0.5624582632 0.5010551927 0.7314437106
0.5625952704 0.4989742637 0.2335492853
0.5624212342 -0.0016944511 0.2321588471
0.5625471327 0.25204215 0.2378316867
0.5624693719 0.2486664497 0.7359686518
0.5724820077 -0.0022564132 0.48735794
0.5723968411 -0.0030206424 0.9908928044
0.5724301672 0.2475248517 0.4852796885
0.5724116527 0.2449529831 0.9862826966
0.5925924461 0.497314888 0.9806728063
0.5823465277 0.2470273663 0.7387189792
0.6024717776 0.2460775619 0.243431394
0.5923480548 0.2499592572 0.4894528544
0.6023088501 0.2454779611 0.7405278448
0.5923295403 0.2484870932 0.9883192904
0.6023903139 0.4985409277 0.7365305665
0.5822391436 0.2483273742 0.2398395831
0.5924554389 0.4999122855 0.4849232846
0.5823057958 0.4986076955 0.2317515284
0.6123400005 -3.8213697964e-04 0.9947993617
0.6124547903 0.4977763712 0.4880013185
0.622437803 0.2464421664 0.7406630005
0.6224081798 0.4984571407 0.24085788
0.6124473845 0.4965810971 0.9893838735
0.6223859624 0.4992812645 0.7393456946
0.6123511091 0.2493511468 0.4910700951
0.6124251671 0.2465671923 0.9942531842
0.6223822595 0.2477729398 0.241835445
0.6423371761 0.2498381588 0.2474545925
0.6523831381 0.249508902 0.5016103939
0.6423630964 0.2507683256 0.7474263435
0.6523275946 0.2449457826 0.9912630942
0.632480062 0.4958185043 0.9860420082
0.6423334732 0.4975007905 0.7368073581
0.6525349569 0.497824156 0.9894486743
0.64230385 0.4966092443 0.2412337241
0.6524460873 0.4979590007 0.4902369431
0.632480062 0.2472152325 0.4920920949
0.6325800402 0.2486252108 0.9966137816
0.6626253536 -0.0028920817 0.7428088299
0.6725972576 0.4986980283 0.4961708369
0.6824728862 0.4975525028 0.7443529383
0.672471359 0.4977999363 0.9934940902
0.6823247703 0.4957484636 0.2452365567
0.6625438898 0.2513365062 0.2466556923
0.6625920275 0.2498774339 0.7473633942
0.6824728862 -3.7775125311e-04 0.2458280946
0.6825950818 -0.001192449 0.7462099416
0.6624809406 0.4962210747 0.7417757214
0.662536484 0.4966406644 0.2451393556
0.6824469659 0.2483725406 0.2449060731
0.6726565039 0.2472060683 0.4979324906
0.6825543499 0.2467720777 0.7405074788
0.6725009822 0.2452089262 0.9964193795
0.7025092666 0.2478266158 0.2409643383
0.6922929713 0.2472224329 0.4922485423
0.7025907303 0.2478933836 0.7454193729
0.6924336815 0.2482167491 0.9934570612
0.7023574478 0.4964599986 0.7447908059
0.7023648536 -2.2638321462e-05 0.7507478429
0.7026092448 -0.0024396973 0.2497429834
0.6925003336 0.4999135946 0.9985022596
0.6923337032 0.4969633753 0.4979232333
0.7125330111 0.2498636876 0.496241192
0.712573743 0.2507722531 0.9969377852
0.7224382629 0.4977154947 0.7460266481
0.7226567339 0.2478593452 0.2433119755
0.7326471524 0.4997813683 0.9913186377
0.7324879278 0.2469802361 0.4940176018
0.7226085962 0.4993787978 0.2434239882
0.7326360437 0.4973175064 0.4965614926
0.7226048933 0.2461678948 0.7422496923
0.7323916524 0.251806499 0.996511952
0.7125441198 0.4942075681 0.9982430567
0.7624184513 0.5031681965 0.7462802966
0.7423339332 -0.0034028552 0.7453795667
0.7526242864 0.5014368164 0.9936607206
0.762499915 0.5014197971 0.244345084
0.76242956 0.2488170045 0.2443154609
0.7525983661 0.250524165 0.4923957325
0.7624925092 0.249961221 0.7453804924
0.7525576342 0.2508442575 0.9939754669
0.7425524042 0.5017621456 0.7450314943
0.752494685 0.5007429552 0.4932427704
0.7424376143 0.2457201579 0.2460511942
0.7424894549 0.2467125104 0.7444927227
0.7826473824 0.5009177296 0.2427824611
0.7824844549 0.5014577631 0.7438558242
0.7824252085 0.2492130291 0.2460271254
0.7725755001 0.2491194233 0.4890853418
0.7826103534 0.2512540284 0.7435614439
0.7726458552 0.2518647572 -0.0034087031
0.79256004 0.5010682844 0.4949479549
0.8126371522 0.5006244751 0.4917514283
0.8025726758 0.5019140096 0.7432568805
0.8027874439 0.5007802666 0.2377455943
0.7925822574 0.2518418467 0.4960995561
0.7925711487 0.2499023082 0.9959935462
0.8126186377 0.0013351695 0.4941823808
0.8024764005 0.2507002486 0.2425593615
0.8122631596 0.2512082074 0.4894528544
0.802528241 0.2477212275 0.7449537335
0.8124853334 0.2532996098 0.9924480215
0.8326142863 5.0076868342e-04 0.4896231877
0.822472049 0.249752408 0.2412142839
0.8326290979 0.0015492192 0.9970766439
0.8325957718 0.2510007036 0.4926799299
0.8224387229 0.2506033699 0.7439696883
0.8324920906 0.2507257775 -0.0036687854
0.8326735326 0.4986103138 0.4954663606
0.8324846848 0.5011978925 0.990309598
0.82243502 0.4970910196 0.2388064746
0.8425491613 0.4969882496 0.7447676628
0.842486212 0.5002421968 0.2482025779
0.8423343932 0.001230043 0.248215538
0.8427009801 0.2488098041 0.240051574
0.8425343497 0.2475012866 0.7436512391
0.8624411286 0.2509575009 0.2496420795
0.8524358986 0.2502728039 0.4981565159
0.8624448315 0.2477035537 0.7434975689
0.8524840363 0.248926975 -0.0038646317
0.8925790144 0.4988806579 0.0020684568
0.8725167138 0.0012842427 0.498686956
0.8823034728 0.2472014862 0.2493449219
0.8725463369 0.2508076007 0.4998626261
0.8924160869 0.2489642864 0.5058104058
0.8824293714 0.2488680623 0.7503414499
0.8724537645 0.24902189 -0.0029238179
0.8924901449 6.1152464293e-04 0.4995960174
0.8724093297 0.0029140965 4.6389856589e-04
0.8924938478 0.2516696905 0.0030375052
0.8725167138 0.5017359622 0.4984360847
0.892630855 0.5003070009 0.5015381874
0.9125894745 0.4988786941 0.5107759919
0.9023694764 0.5004104255 0.7571566334
0.9126672354 0.5001629919 0.0115510228
0.9023398532 0.5000680769 0.2532764737
0.9124857934 5.137949458e-04 0.508722735
0.9023953967 0.2494643901 0.2575135146
0.9125746629 -0.0026270398 0.0071061568
0.9123154601 0.2510386696 0.5051420327
0.9025879474 0.2496588022 0.7548663911
0.9123376775 0.2501248675 0.0072639928
0.9426125705 0.2504148491 0.7666342005
0.9323888695 0.2502682218 0.0146035067
0.9324888477 0.5030863732 0.5167321031
0.9326332607 0.4972808496 0.0185821779
0.9223280959 0.5004667199 0.7606058828
0.9224799148 0.5019388839 0.2641648449
0.9427458748 0.5004359543 0.7636107844
0.922542864 0.2512304633 0.261416369
0.9226280307 0.2478050145 0.7649151302
0.9424052082 0.2495828702 0.2663588119
0.932477739 0.2515747756 0.5149389748
0.9725727172 -0.0018758369 0.5171588621
0.9625230524 -9.3329843301e-04 0.7674368036
0.9626637625 0.247557581 0.2662393934
0.9526178006 -0.0014070878 0.0186898396
0.9725949346 -0.0035240846 0.017371608
0.95256596 0.2519295612 0.5107796948
0.9726319636 0.2491207325 0.5148223335
0.9626415451 0.2501052299 0.7665064505
0.9525955832 0.2502381109 0.0127972331
0.9524437644 1.100462707e-04 0.5139493753
0.9726504781 0.2479378955 0.0163934875
0.9726652896 0.4964796362 0.5137818192
0.9625600813 -0.0023220682 0.2643462869
0.9527585107 0.4983982279 0.5171597878
0.9624526973 0.500836561 0.7691040334
0.9824853748 0.2460507239 0.2662430963
0.9825335125 -0.0019031331 0.766397215
0.9925091193 -0.0032790075 0.0164885594
0.9926128005 0.2477447926 0.5193602348
0.9826001646 0.2502348379 0.7716710673
0.9925794744 0.2486036095 0.0196757362
0.9927498077 0.498508853 0.0207679059
0.0224869207 0.749619844 0.775236958
0.0024969376 0.4999646524 0.2748847343
0.0025656634 0.7479964706 0.7742482843
0.0123603837 0.4992603178 0.5241378988
0.0025264127 0.498243091 0.769941814
0.0224140477 1.0019300366 0.2714410392
0.0224140477 0.9996455313 0.7760191952
0.0123638644 0.7496525733 0.0222788734
0.0223303992 0.7542608591 0.2771620165
0.0026490156 0.749194363 0.2726963216
0.0125707453 0.7504969893 0.5240592123
0.0523400166 0.9980352496 0.5269391411
0.052164129 0.9985196433 0.0280893682
0.0323936166 0.7506148148 0.0262413444
0.0423081257 0.7497769446 0.2785348658
0.0322358732 0.7488277949 0.5263503803
0.0423051634 0.7514461391 0.7764977947
0.0422785025 0.5006081104 0.7804126835
0.0324780427 0.4992838829 0.0265452597
0.0324980384 0.49979446 0.5306559248
0.042464388 0.9992724173 0.2777424457
0.0524140746 0.4999744711 0.5269298838
0.0525055362 0.7505362644 0.0226059318
0.0522122666 0.7504904434 0.527167795
0.0422233293 0.9986832898 0.7751323511
0.0725874622 0.5006192384 0.0153955565
0.0723419601 0.9997175358 0.5234769316
0.072441568 0.999377151 0.0192324993
0.0724841513 0.7477739113 0.0187361258
0.0624485575 0.7491812713 0.2717261624
0.0725308079 0.7488343407 0.5135929714
0.0624278213 0.7502547924 0.7748537081
0.0924379571 1.0042865464 0.5161563025
0.0923613071 0.7501238752 0.0119865762
0.1023776459 0.7488997993 0.2601453493
0.082527151 0.751262855 0.2635122092
0.0924235158 0.7507980989 0.5173532642
0.1024294864 0.749430014 0.7582628741
0.082299793 0.7501435128 0.7643772843
0.1025142828 0.9994491555 0.7587396222
0.1023150669 0.4994645486 0.7584035843
0.0824149531 0.4989035684 0.763978297
0.0922894709 0.4998265347 0.0142521942
0.0823842191 0.5007763391 0.2669003607
0.112432865 0.7466807526 0.0096650443
0.1223288596 0.7496263898 0.257706991
0.1123662129 0.7501042377 0.5041561362
0.1222877575 0.7500125956 0.7585803976
0.1224569799 0.9965100641 0.2593964382
0.1226324972 1.0031933877 0.7577629829
0.1223081234 0.4978994334 0.2607322586
0.1125172911 0.9995211599 0.508910657
0.1424563313 0.7484677725 0.2530191223
0.1523127049 0.7503595262 0.5043560927
0.1322985419 0.7491616337 0.5072693476
0.1424144886 0.7509355619 0.7555467985
0.1523119643 0.4978195739 0.508322822
0.1324299947 0.9998746364 0.0034690779
0.1422552639 0.5016043904 0.251017706
0.142639995 0.9974592139 0.2516268327
0.132432957 1.0011641709 0.5019019971
0.142413748 0.9990302204 0.7525900346
0.1524234215 0.9991218625 -0.0013185839
0.1523197404 0.7509355619 0.0021906524
0.1324807244 0.7479571954 0.0067686376
0.1724516555 0.7497245777 0.0035576697
0.1623086777 0.7510402957 0.2533597889
0.1727360381 0.748539777 0.4996117548
0.1624412414 0.7500453249 0.7498804391
0.1825357573 1.000692869 0.745822063
0.1723779679 0.4995980842 -1.0245966389e-04
0.1724723918 0.4990174663 0.5013734084
0.1826538797 0.7477739113 0.2515685121
0.1826883167 0.7488867076 0.7526446523
0.1724153671 0.9981072541 0.0016596569
0.1624275407 1.0022966048 0.7492713124
0.1824920631 0.4997663128 0.2471407719
0.2027006283 0.5003848966 0.7457128275
0.1924710026 0.5000942604 0.4981407786
0.1924710026 0.7514657766 0.0015130221
0.2028302297 0.7469033119 0.2491218223
0.1925835707 0.7469556788 0.4993645863
0.2027994956 0.7528338615 0.748026213
0.2325507989 0.748912891 4.9685435697e-04
0.2327529771 0.5031767061 0.0029193827
0.2326341141 0.7506933651 0.5023926311
0.2127132641 0.7506802734 -0.0019116956
0.2225033558 0.7534949934 0.2495902389
0.2126825301 0.7526178481 0.4987804542
0.2223956015 0.7522709175 0.7468810918
0.2326448525 0.5027027858 0.4993553291
0.2226348087 0.4998874112 0.7446824962
0.2125832924 0.4995574998 -0.0029347785
0.2226599884 0.4965287302 0.250130862
0.2125207134 0.5015219126 0.5013419338
0.2525316358 0.7523036468 -5.7439399789e-04
0.2427274731 0.7480750209 0.2459299243
0.2526623481 0.7507719154 0.495307136
0.2425467717 0.7510926626 0.7488278904
0.242501226 0.4994717491 0.7491537454
0.2626679484 0.4993643969 0.7460470141
0.2625694514 0.7509486537 0.2436535679
0.2425812086 0.5007396822 0.251562032
0.2624546615 0.7503595262 0.7442437028
0.2624902094 0.5015965354 0.2471083716
0.2527834329 0.5009943162 0.4953895255
0.2727664915 1.0051178707 0.9936977496
0.2825647296 0.5016266463 0.2484728895
0.2724143459 0.5027538435 0.5012382527
0.2826510071 1.00054886 0.2472537103
0.2825995368 0.5026248901 0.7470227276
0.2823910637 0.7514985059 0.2501280848
0.2826410093 0.7520418124 0.7490695044
0.2725313575 0.7566435523 0.9965489809
0.2725365416 0.751544327 0.4989841136
0.312550056 1.0042669088 0.499668224
0.2924966423 0.7525523895 1.0003629657
0.3025029832 0.7552296464 0.2470213535
0.2924859039 0.752434564 0.4997570935
0.3026603564 0.7505035351 0.7463589832
0.3025266817 0.5026733294 0.7461516209
0.2925766249 0.5029070166 1.0056395952
0.3026329549 1.0014980098 0.251834195
0.3124519292 0.7524672933 0.9925220795
0.3125848632 0.7544637807 0.4956635399
0.3126544777 0.5050075833 0.4986258582
0.3325993965 0.5021856628 0.4914875968
0.322654894 0.5033619539 0.7443918187
0.3326975233 0.7544768725 0.9936236916
0.3326379067 0.5067900211 0.9923091629
0.3225930556 0.7537764654 0.2447005622
0.3326516074 0.7509290161 0.4942240384
0.3226304549 0.7513675887 0.745351795
0.3226934041 0.5056346767 0.2453707868
0.3525550538 0.5005570527 0.4900360609
0.3524702574 1.0029184615 0.4972585632
0.36268322 0.748539777 0.2401274834
0.3625647273 0.7514068639 0.739902055
0.3626424881 0.5005701444 0.7405241419
0.3628202272 0.4985304543 0.2410837567
0.3526824334 0.7522643716 0.9924387643
0.3425761143 0.7525589353 0.241066168
0.352589861 0.7520418124 0.4931529751
0.342603886 0.7517276111 0.7447852516
0.3624351259 1.0029119157 0.7362880267
0.342541307 0.500007855 0.7415655819
0.3526335552 0.5005164684 0.9927257389
0.3428101374 0.5025437214 0.2398821664
0.3726403124 0.501274479 0.9859031495
0.3824381802 0.5017130517 0.2407977079
0.372366298 0.5007239722 0.489125148
0.3926026348 0.5033874828 0.9854495446
0.3823937454 0.5014970383 0.7386884303
0.3725625515 0.7499274994 0.9922813911
0.3825862961 0.7502351549 0.2374215907
0.3724033269 0.750981383 0.4895232095
0.3822604411 1.0004244887 0.2398784635
0.3823789338 0.7511450295 0.7313354008
0.3924619247 0.7503857097 0.987282479
0.3926211493 0.7519567162 0.4872505559
0.3926063377 0.5027394426 0.485009377
0.4023523649 0.5007501556 0.7307744118
0.4025930533 0.7522774633 0.2295557099
0.402496778 0.7522054589 0.733884846
0.4125205225 0.7485594146 0.983385179
0.4123279718 0.7489521662 0.48658496
0.4224776149 1.0025649851 0.7303245097
0.4425065895 1.0003066632 0.231719128
0.4324273015 1.0014718264 0.481683249
0.4424066112 1.003180296 0.7315316544
0.4224887236 0.5022131554 0.7302615604
0.4324606275 0.7486510566 0.9804969186
0.4224665062 0.7536651858 0.2354423918
0.4326050406 0.7498293115 0.4781951192
0.4223406077 0.7534557182 0.7255449943
0.4423621765 0.7504773517 0.2292992843
0.4424917779 0.7525523895 0.7289007454
0.4223813395 1.001491464 0.2316330356
0.4725148738 1.0008696072 0.4758058243
0.4727740767 0.4995411352 0.978090035
0.4627355206 0.5021660252 0.2217861045
0.472437113 0.7523167385 0.9755813217
0.4625837018 0.7508242823 0.2260342541
0.4725630115 0.7524280181 0.4740571308
0.46268368 0.7506671817 0.7263411173
0.4525081166 1.0014849181 0.4778461211
0.4625985133 1.0003721218 0.2266498608
0.4624541003 1.0005357683 0.7264688673
0.4525081166 0.7493121885 0.9759053253
0.4523933268 0.7482910343 0.4784932025
0.4525155224 0.4993814162 0.4789199614
0.4925475513 0.4994010538 0.9761645281
0.4926660441 0.5009570048 0.4771444219
0.4825238068 0.5020200525 0.7222558952
0.4824127199 1.0019758576 0.7250358458
0.492414247 1.0007517817 0.4773045722
0.4923550007 0.9990694956 0.9757294376
0.4924068412 0.7520090831 0.4760168895
0.4924364644 0.751544327 0.9756831514
0.4825571329 0.7486903318 0.2318181805
0.4825497271 0.75168179 0.728418443
0.502460209 0.500608765 0.2232413433
0.5126283665 0.9989582159 0.4720529373
0.5223817995 0.9994360638 0.7257764254
0.5023083901 1.000503039 0.2246993594
0.5222373865 0.7519894455 0.7251895161
0.5025009408 0.7489848955 0.2286096195
0.5024268829 0.7514657766 0.7251469327
0.5123691637 0.7487230611 0.9769884229
0.5125135767 0.4995162609 0.9814411576
0.5123358376 0.7472109673 0.4769731629
0.5225151038 0.7499405911 0.2277662845
0.5524974679 0.9997371733 0.485089915
0.5424181799 0.5009576594 0.7301125188
0.5425144553 0.7489652579 0.2323967583
0.5527085331 0.5011455256 0.4834791545
0.5523641636 0.7493907389 0.4822933014
0.5424218828 0.7479441037 0.7304689227
0.5322500223 1.0011903544 0.979524908
0.5422922814 0.4988112717 0.2317006135
0.5323870296 0.7461898131 0.9791453609
0.5525381998 0.499851409 0.9830704327
0.5425181581 0.9985196433 0.2293650107
0.5326314208 0.7469556788 0.482334959
0.5725375512 0.4990763791 0.9849959396
0.562502698 0.9991742293 0.735208632
0.5523900839 0.7509748371 0.9832092913
0.562284227 0.7481470254 0.2352516926
0.5624471545 0.7494692892 0.7337496902
0.5725486599 0.7471127794 0.9870880769
0.5724449788 0.5006702961 0.4871802009
0.5725153338 0.7475120769 0.4816545515
0.6024606689 0.4980879542 0.2350350731
0.6024162342 0.9972693839 0.2421390826
0.6025051037 0.9947230442 0.7432522519
0.5924035983 0.7483434012 0.9866159574
0.5923702722 0.9993967886 0.487545862
0.5923961925 0.9977145025 0.9885414643
0.6025162124 0.7451293837 0.2361385366
0.5923813809 0.7447693614 0.4860906232
0.602386611 0.7475251686 0.7311585874
0.5823761509 0.9966147979 0.239604449
0.5822317378 0.996608252 0.7407500186
0.582372448 0.4966864854 0.7339903786
0.5824168827 0.7488605242 0.2359469117
0.58255389 0.7463927348 0.7360223438
0.6126399352 0.7459148869 0.9938366082
0.6123696236 0.999940095 0.4916671874
0.612502928 0.7486248732 0.4887631897
0.622508158 0.9992462338 0.7481919176
0.6225303754 0.7486117815 0.2366874912
0.6227044116 0.7483761305 0.7379950626
0.6223193102 0.9958031112 0.2432027401
0.642451966 0.9977472318 0.7449046701
0.6323282432 0.4975610124 0.4885428673
0.6425075094 0.9993640593 0.2432175516
0.6526053119 0.9971515585 0.4960079094
0.6524460873 0.9986898357 0.9928738548
0.6324134098 0.9957376526 0.4871440976
0.6323430548 0.9956329188 0.9878749427
0.6323911924 0.7490372624 0.9882544897
0.6322467794 0.7482844884 0.4833162269
0.6523979497 0.7489652579 0.990346627
0.642485292 0.7491223586 0.2385000598
0.6524016525 0.7453846722 0.4910858324
0.6423816109 0.7469229495 0.7319593391
0.6725009822 0.7481404795 0.9906984023
0.6626586797 1.0017794818 0.2426361967
0.6726046633 0.9996258937 0.996058347
0.6825543499 0.7470538667 0.2439109193
0.6726972358 0.7492140006 0.4931381636
0.6825395383 0.7495478395 0.7415387359
0.6725120909 0.9980941624 0.4974918457
0.6625031579 0.7468640367 0.242950943
0.6624920493 0.7463927348 0.7411795548
0.7025240782 0.496808893 0.2507501716
0.6926262322 0.9985130974 0.4946711633
0.6924670075 0.996045308 0.99477159
0.6925373626 0.7474466183 0.9929664272
0.702420397 0.7495151102 0.243095356
0.6924040583 0.7499602287 0.4929557958
0.7025759187 0.7508177364 0.7437549203
0.7124552503 0.4982516007 0.4954274802
0.7125033879 0.7461636296 0.4910210317
0.7225049151 0.99792397 0.7488297418
0.73269529 0.9998877281 0.996437894
0.7325064423 0.7476822693 0.9946512458
0.7225567557 0.7516948817 0.2455281599
0.7326397466 0.7494823809 0.4951821632
0.7226826542 0.7476560858 0.7442057481
0.7224530745 1.0027417233 0.2427926441
0.7325767973 0.9965231558 0.4972594889
0.7124959821 0.7477608196 0.993827351
0.7125626343 0.9972366546 0.4924457217
0.7124811705 0.9979763369 0.9955954847
0.7424598317 0.5003829328 0.243804461
0.7426338679 0.7506475441 0.2455744461
0.7424561288 0.7479113744 0.7428208643
0.7525835545 0.751308676 0.9944753581
0.7625628643 0.9989647618 0.7425533299
0.7526353951 0.9966737106 0.9909761196
0.7623147701 0.7490765376 0.2391619527
0.7526909386 0.7490110789 0.4948646397
0.7625443498 0.7503464345 0.7469560755
0.7526428009 0.9971188291 0.4941888608
0.7425820274 0.9999924619 0.2466094061
0.7624925092 0.9980221579 0.2375835925
0.7824770491 1.0049934993 0.2433999194
0.772616232 0.998297084 0.4904720771
0.7825251867 1.0007190524 0.7415109642
0.7726754784 1.0004964932 0.9906706306
0.7826695997 0.7510992084 0.2432101458
0.7724458987 0.7500976918 0.4940444478
0.7827103316 0.7512497632 0.7422922756
0.7726199349 0.7495543854 0.9946419885
0.7726014204 0.4993257764 0.4911959936
0.7725125509 0.5016246826 0.9922906484
0.7925044965 1.0008434238 0.4973520613
0.7924748733 0.7505886313 0.9936514633
0.7926192863 1.0026566271 0.99685447
0.8122631596 0.7475709896 0.9909205762
0.7926378008 0.5014400893 0.9952714812
0.8024875092 1.0015307391 0.2431407165
0.8125482827 0.4969221364 0.9919111013
0.8026615454 0.7531349711 0.240313554
0.812537174 0.7520352665 0.4855074168
0.8024171541 1.0017794818 0.7425042665
0.80256527 0.7537699195 0.7470088418
0.8126741812 1.0025715309 0.9932441446
0.7926007718 0.7506409982 0.4973131809
0.8226831142 0.9974461222 0.7445130886
0.8225349983 0.9999662785 0.2438081639
0.8325254167 0.7520418124 0.9975024771
0.8226831142 0.5020377264 0.743755846
0.8227016287 0.7509879288 0.2420011497
0.8326846413 0.7470145915 0.4956339167
0.8227016287 0.7491878172 0.7442122282
0.8425861902 0.7509944747 0.2443469355
0.8425750815 0.749757307 0.7412489841
0.8626855199 0.4993977808 0.7501961111
0.8426195163 0.9972890215 0.7467015013
0.8626558967 1.0003524842 0.2455040911
0.8625522156 0.9986374688 0.749682334
0.8524284928 0.9979108783 -0.0015427018
0.8624411286 0.7509879288 0.7464802531
0.8525803116 0.5032519835 0.4969317824
0.8526839927 0.7479441037 -0.0042124912
0.8526210435 0.4996543786 -0.0059666002
0.8625225924 0.4988079988 0.2467667793
0.8625892446 0.7498227656 0.2500956844
0.8525506884 0.7518061614 0.4954589548
0.852458116 1.000830332 0.4942953191
0.8825478641 1.0002542963 0.7528584947
0.8925642028 1.0027613609 0.004531069
0.8824404801 0.7474793476 0.7479058688
0.8724537645 0.7512170339 0.0016252199
0.8925123623 0.7519108951 0.0039642479
0.882658951 0.4985808574 0.7538434655
0.8824849148 0.4997257284 0.2513630012
0.8824515887 0.7481273878 0.2500531011
0.8725944746 0.7516425149 0.4997987511
0.8924753333 0.7506279065 0.502231555
0.8723500833 0.5006447673 -0.0014122672
0.8824145598 0.9999728243 0.2508334868
0.9125783658 0.7496067523 0.5088208618
0.9025953532 1.0002281129 0.2608109452
0.9023879909 0.999658623 0.7587655425