POSCAR file written by Ovito 3.7.11
1
270.0421027311 0.0 0.0
0.0 15.2758881638 0.0
0.0 0.0 10.8016841092
Sr Ti O 
800 800 2400 
Direct
0.0225070546 0.5004484191 0.7818917873
0.0123343075 0.5001230698 0.0352272932
0.0125971184 0.2485900683 0.5314502846
0.0226463291 0.2510115314 0.7810021112
0.0025492778 0.2545812093 0.778108118
0.0125287957 0.2531004443 0.0312667071
0.0024648836 0.0029186573 0.2787776483
0.0225944113 0.5010205626 0.2850238965
0.0124475862 0.0016900544 0.5301097529
0.0024142618 1.1849274254e-04 0.7765204026
0.0123505272 0.0024799266 0.0294480092
0.0225404568 0.2493481257 0.280080223
0.0025960853 0.2508000871 0.2824817003
0.0427113114 0.5026937877 0.2885585305
0.032662508 0.2513912148 0.5335999493
0.0427650067 0.2506122093 0.7868965624
0.0527741867 0.5039212123 0.0403866739
0.0327032424 0.2553778897 0.0350016803
0.0326162189 4.2610169789e-04 0.5376391343
0.0324518001 0.0024615971 0.0382359907
0.0425305988 0.2531449589 0.2899416482
0.0526064351 0.2517355482 0.5402405805
0.0526923476 0.252096902 0.0403738981
0.0625004478 0.2516713949 0.2903758397
0.0625130384 0.5029968798 0.7897794462
0.062561179 0.5007947165 0.288124339
0.0726370153 0.500862143 0.5380881384
0.0725618418 0.2513656843 0.5368957317
0.0623008493 0.2507778298 0.7865095857
0.0726636778 0.2500420297 0.0376287706
0.0625526619 0.002540545 0.2926227116
0.0625582165 0.0022254733 0.7877677228
0.102523466 3.4014924878e-04 0.2889890189
0.0922872844 0.2515679639 0.5387630331
0.0827069265 0.0016073751 0.2888455228
0.1024205191 0.2510553914 0.7889841998
0.0825495436 0.2522815067 0.7887879341
0.0925479845 0.2499543098 0.0375734089
0.0827069265 0.0013729534 0.7893248874
0.0924143016 -0.0014293714 0.0388568199
0.1023075737 0.2517362029 0.2893019331
0.0824595577 0.2500498852 0.2905785859
0.1025186519 0.4989493246 0.2827807278
0.0923806032 0.5004124146 0.5411987644
0.1125193147 -0.0015106106 0.0347132993
0.1224603571 0.2495124369 0.2808375123
0.1125448663 0.2517244196 0.5357255438
0.1223148243 0.4974148803 0.7782469852
0.1124348834 0.4978613355 0.0358688599
0.1224236962 0.2496793667 0.7809863729
0.11251376 0.2487583073 0.0321061133
0.1123019412 0.5015200426 0.5328537694
0.1526937908 0.252358098 0.5223091174
0.1325102715 0.2503051895 0.5257196967
0.1423383685 0.2486201811 0.7711601274
0.1525875111 0.2501925938 0.0213403846
0.1324802761 0.2514632237 0.0235800354
0.1424287248 0.246799665 0.2716546849
0.1423805842 0.4989362321 0.7756770156
0.1525060423 0.4999024607 0.0192712628
0.1325017543 0.4979477462 0.0280853514
0.1325010136 0.5013393657 0.5270630057
0.1524456813 -0.0011851303 0.5237977742
0.1825976462 0.2493880579 0.7647333518
0.1824195258 0.248534425 0.2686653363
0.1626977864 0.4974515393 0.7730579796
0.1624744878 0.4959884493 0.2702798993
0.1725255131 0.2508275814 0.5181542097
0.1824169337 0.5012202236 0.7693168963
0.1626307598 0.2511293642 0.7718979753
0.1725181069 0.2521479629 0.0180904285
0.1624618972 0.0017371875 0.2705067158
0.1625700285 0.2478045166 0.272777658
0.1723788693 0.0037901614 0.5204214488
0.1824524837 5.3804281592e-04 0.268195965
0.2024871373 0.2514370386 0.2635716861
0.1923787136 0.5003044013 0.017404054
0.202296056 0.4998710386 0.2628190257
0.1923368683 0.2517983924 0.5128430009
0.2024826936 0.2495091638 0.7656045122
0.1925316527 0.2494777417 0.0139581099
0.1923498292 -0.0011857849 0.5115043208
0.2024034467 0.0014563528 0.7608663622
0.192604234 -0.001533588 0.0148476934
0.2023756732 -0.0029566149 0.2610035681
0.212549272 0.2516281895 0.5131355479
0.2227128723 0.2514337655 0.7602571979
0.2125311267 0.2514939911 0.0088314093
0.222365519 9.0450268653e-04 0.2542472142
0.2125751939 -3.3843649949e-04 0.5083955463
0.2122408016 0.0010302564 0.0101542586
0.2225569707 3.3000253925e-04 0.7570215913
0.2324083974 0.0020417197 0.5093963162
0.2223677409 0.2494993444 0.2563978048
0.2326179944 0.2504740831 0.5021104153
0.2325898506 0.2491766136 0.0047735236
0.2323909928 9.7114365622e-04 1.0068465235
0.2524563824 0.2498004725 0.5081474368
0.242555704 0.2502056863 0.7521714217
0.2625014826 0.2495726626 0.2627607015
0.2523523245 0.2525374656 1.0056337497
0.2424098008 0.2511470391 0.2562422735
0.242465718 -3.9885851817e-04 0.2571041761
0.2525048933 0.4990972702 1.0085499616
0.2523130714 -0.0014469154 0.5074873546
0.2427130869 5.7280347889e-04 0.7579992167
0.2622633716 0.251317242 0.756726267
0.2525593293 -0.0029973981 1.0097164464
0.2626166499 6.2347156389e-04 0.256265418
0.2623722435 2.3637374105e-05 0.7599970533
0.2723677219 0.2507156403 0.5050516233
0.2724299344 0.2524085042 1.0003290213
0.2725706532 9.0829951978e-04 0.5011929657
0.2723336531 0.5007914433 1.0060318357
0.2825268785 0.2519751415 0.7540711255
0.2825661316 0.0017806547 0.7496764404
0.2824046753 0.2503830901 0.2525160027
0.3023911883 0.2507248051 0.2497229197
0.3123440807 0.2518239228 0.4960770968
0.3123648182 0.2525427026 0.9964129653
0.3123744464 0.0012202945 0.9969221452
0.2923920068 0.2510750302 0.5029315835
0.3024982087 0.2504956858 0.7503828118
0.2925653131 0.5011220297 0.5038934705
0.3024141477 0.5029674216 0.251857772
0.292519024 0.2505454374 1.0036803506
0.3023230508 -0.0017901361 0.7471518341
0.2924734756 -5.1335267924e-04 0.4991173635
0.3124381401 0.4973016299 0.9985607785
0.292305724 9.3389541285e-04 0.9977738642
0.3223854779 0.2508216898 0.2466558054
0.3322920812 0.2509283939 0.4895188602
0.3223721466 0.2483949896 0.7378199559
0.3323613297 0.2527345082 0.9868774152
0.3223369669 -7.0476544482e-04 0.2426684642
0.3323250391 0.0048697713 0.4859397887
0.3223106747 0.0027110752 0.7420850316
0.3324146547 2.9386716079e-04 0.9860997587
0.3623599852 0.2458602761 0.2300204365
0.3522863708 0.2501369505 0.4833725964
0.3424308706 0.250758191 0.7281788667
0.3522937771 -8.2691873502e-04 0.9818133901
0.3524470865 0.2493841301 0.9824892106
0.3424208722 3.3825083216e-04 0.2393208381
0.3425638128 1.603888335e-04 0.7346380447
0.3424012456 0.2511562039 0.2317368355
0.3624340477 0.2508662044 0.7293527578
0.3624007196 -4.8436994875e-05 0.2324302459
0.3725250667 0.2494076967 0.4806554275
0.3824975857 0.2488519189 0.7291740819
0.3724398948 0.25111038 0.9771196775
0.3824642576 -1.4643457014e-04 0.7237138223
0.3824050076 0.2493441979 0.2294788543
0.3923071672 -0.0010904059 0.4737370619
0.3923775266 3.9945840254e-04 0.9749811221
0.3722214104 -0.001520299 0.482471811
0.3722510354 -0.0017223822 0.9804247177
0.3923219797 0.2507215319 0.4753164453
0.3923219797 0.249240767 0.9810449914
0.4124114396 -1.7576183381e-04 0.4681453413
0.40250928 0.2489841534 0.7264550615
0.4024537331 -0.003006301 0.2243370635
0.4022907955 -4.6150626668e-04 0.7222038725
0.4025129831 0.4994769535 0.2207394763
0.4025055769 0.2486732058 0.2300472841
0.4122966427 0.2497088248 0.4718049558
0.4124892052 0.2481992563 0.9691672139
0.4124114396 -0.0021597381 0.9724167072
0.4124855021 0.4961377041 0.9692227608
0.4123892208 0.4952991277 0.4686535953
0.4225987399 0.2464815166 0.2190573312
0.4424511998 0.2488093681 0.7173509256
0.4326564308 0.500108668 0.9590947105
0.4325490402 0.4992471796 0.4668723916
0.4426659811 0.2496610371 0.2142571538
0.4227209431 0.4964630534 0.2180935926
0.4426881998 0.4987359164 0.71745091
0.4326860558 0.2476506794 0.4656781334
0.4225172711 0.2446112489 0.7206198603
0.4324120245 0.2521237417 0.9663250645
0.4426030279 0.4993067506 0.2158420918
0.4326156964 2.5013811586e-04 0.9632514697
0.4524163125 -0.0010814375 0.9652511579
0.4725353974 0.247987812 0.4620407376
0.4625332534 0.2474195963 0.7090059306
0.472494663 0.2500446482 0.9622238522
0.4625517691 0.2496950777 0.2118640085
0.4525755469 0.4977742702 0.963084829
0.4625517691 0.4977042251 0.7115379431
0.4726613037 0.4990193696 0.4645838596
0.4525829532 0.2508714414 0.4626619371
0.4524866719 0.2492374938 0.9599001405
0.4722354442 -0.0012212002 0.9651215485
0.4823820101 -0.0010388213 0.2108928636
0.4824153383 0.250108147 0.7113972243
0.4825005102 0.2490705641 0.2110919066
0.4924582167 0.2463165507 0.4575247752
0.4926063417 0.2483308362 0.9550397872
0.4825893852 0.4975706814 0.2076720695
0.5023122356 0.251224285 0.2043762872
0.5123625203 0.0010244302 0.9509293171
0.5225164925 0.0010280307 0.1991650628
0.5024714701 0.2495274933 0.7041566867
0.5024788763 0.4978613355 0.7037919288
0.5124106609 0.2468801841 0.4536790786
0.5024381419 -0.0014517597 0.7016218968
0.5223498518 0.2508452563 0.2037634198
0.5123291922 0.2482130035 0.9522809582
0.5223091174 0.2505120515 0.7031642489
0.5122736453 0.5031703558 0.4510406011
0.522472055 0.5010238357 0.2005361453
0.522531305 0.50059571 0.7037345303
0.552156315 0.2513584834 0.454410446
0.5525266276 0.0027332016 0.9584744368
0.5325075271 0.4984531178 0.9508737702
0.5322742301 0.5015331351 0.4497195108
0.532329777 0.0013479466 0.4524468633
0.5324223552 0.249613904 0.4566591694
0.5324001364 0.2523135834 0.9537251774
0.5424393117 0.0020728145 0.7093669854
0.5424282023 0.2505212162 0.2089005817
0.5423689523 0.2507077848 0.7047538158
0.5522303775 0.2539848446 0.9519106456
0.5625361779 0.5006487348 0.7103807162
0.562510256 0.5033948926 0.2091024021
0.5625546935 0.0031587742 0.210471633
0.5623584278 0.249380857 0.2095032655
0.5623288028 0.2485416259 0.710398306
0.5723939 0.0016744743 0.4604937566
0.5723383531 0.001977239 0.962733032
0.5723420562 0.2512904023 0.463335906
0.5724420406 0.2505539476 0.963436626
0.5924648443 0.50214652 0.9629922509
0.5822997627 0.2491209703 0.7170231989
0.602459582 0.2532182771 0.2180417488
0.5922352504 0.252834666 0.4645347932
0.6025077227 0.2511234725 0.7175110858
0.5923500473 0.2499313978 0.9671952992
0.6024077383 0.5018951435 0.7130682601
0.5823701221 0.2502063409 0.2119612155
0.5924537349 0.4995018293 0.4668048096
0.5824997315 0.5000608803 0.2110678363
0.6122247259 -3.3332344508e-06 0.970315183
0.6124469135 0.5024404473 0.4676796731
0.6223342606 0.2503614874 0.7193931997
0.6225860732 0.5028567897 0.2186823897
0.6124728354 0.4969350391 0.9722685821
0.6225268232 0.5012110589 0.7211836613
0.6124950542 0.2520131099 0.4675935755
0.6122654603 0.2497945809 0.9670564319
0.6223120419 0.2522860891 0.2233529577
0.6425977675 0.2522487754 0.2268875917
0.6523851302 0.2538591564 0.47858538
0.6423126268 0.2523188204 0.7262384286
0.6525332552 0.2519797239 0.9795174518
0.6324289828 0.4998029574 0.9722963556
0.6425200018 0.5001394354 0.7235564394
0.6524628958 0.5026859322 0.9804802646
0.6425977675 0.4988563676 0.2253257982
0.6526850834 0.5027592504 0.4782817236
0.6324882328 0.2522579401 0.4722354442
0.6323845453 0.2503483949 0.9746293251
0.6625057742 0.0037390351 0.7284723395
0.6725190276 0.4988269095 0.4812562598
0.6826285623 0.5005400668 0.7394280385
0.6726893714 0.5012856863 0.9842204221
0.6824804372 0.5000706997 0.2337411526
0.6626316805 0.2544843246 0.2320553044
0.6626020555 0.2522088432 0.7272336438
0.6826841092 -0.0016511589 0.2335504416
0.6827026248 -1.8093338253e-04 0.734119607
0.662616868 0.5004366358 0.7294545937
0.662587243 0.5002323924 0.2309712141
0.6825544997 0.250048576 0.2341586801
0.6725930901 0.2505873335 0.4788705207
0.6825507966 0.2477069773 0.7343890095
0.6726079026 0.250682909 0.9840167502
0.7025736003 0.2503909456 0.23453177
0.6927455032 0.2504472435 0.4835373855
0.7024736159 0.2496767482 0.7369728658
0.6926381125 0.2493199768 0.9824521793
0.7025106471 0.4993597754 0.7402973474
0.7024143658 -7.3258706772e-04 0.7343973415
0.7024588034 -0.0032416392 0.2352612859
0.692593675 0.5016719159 0.9858405399
0.6925270187 0.5005315567 0.4871970001
0.7124905724 0.2496211049 0.4854704174
0.712597963 0.2525341925 0.9873865951
0.7226926852 0.4994298204 0.7420415199
0.7226223258 0.2481632519 0.2432665191
0.7327318605 0.4985329822 0.9959408167
0.732483751 0.2475943815 0.4907732942
0.7225815914 0.5002605413 0.2417491631
0.7324393135 0.49667057 0.4910436225
0.7224334664 0.2484427773 0.7364692406
0.7324689385 0.2485265695 0.9916914793
0.7126498068 0.499430475 0.988747494
0.7623827924 0.5014977853 0.7450392006
0.7425895826 6.6595681863e-04 0.741604551
0.752399164 0.5002003157 0.9934689799
0.7625753549 0.4984151494 0.2437294099
0.7624753705 0.250134332 0.2437747732
0.7524324921 0.2492329114 0.491236185
0.7626864487 0.2522481207 0.7454419156
0.7522954765 0.2471714928 0.9930986673
0.7426192076 0.4960296908 0.7429321217
0.7524917422 0.4966306378 0.494953198
0.7424451606 0.2478765255 0.2420889249
0.7425599575 0.246848762 0.7406685858
0.782579643 0.4985774968 0.2500876776
0.782609268 0.5020646917 0.7471110997
0.7825574242 0.2540051381 0.2523206628
0.7724997333 0.2495130915 0.4891429929
0.7825426117 0.252184622 0.7520436639
0.7726293427 0.2477383993 -0.0051218315
0.7923447869 0.499083523 0.5037212752
0.8125823719 0.497793909 0.5040508534
0.8024135872 0.4979398907 0.7551126298
0.8025950404 0.4991516042 0.2538741242
0.7924855057 0.2495569515 0.4996626488
0.7926669589 0.2515201762 0.9995328492
0.8126082937 -0.0015883147 0.5040360409
0.8024209934 0.2490149208 0.2555599725
0.8125490437 0.2471112672 0.5048803537
0.8025876341 0.2496433622 0.7525185898
0.812586075 0.2478307016 1.0044950384
0.8326459099 -0.0054055985 0.507324417
0.8226733909 0.249619141 0.2545305034
0.8325940661 -0.0048363485 1.003208202
0.8325237067 0.2472461203 0.5054793344
0.822354922 0.2487943117 0.7566975678
0.832501488 0.2491176972 0.0057933645
0.8325422224 0.499805576 0.5062866159
0.832619988 0.4994160732 1.0081611333
0.822647469 0.4971353548 0.2579679303
0.8426776789 0.4976178145 0.7599202134
0.842592507 0.4986239753 0.256434836
0.8423925382 0.0014570728 0.2556497733
0.8425184445 0.2475014246 0.2590547979
0.842533257 0.2491111509 0.7590638655
0.8625449513 0.2531632885 0.2627282991
0.8525428073 0.2485115131 0.5069948388
0.8625264356 0.2507025478 0.7631623005
0.8526057604 0.246372194 0.0088397413
0.8925921177 0.4983431405 0.0147527082
0.8726100484 -0.0016538428 0.5087075347
0.8824788799 0.2501952123 0.2632680298
0.8724952515 0.2455552202 0.5139909701
0.8924773208 0.2469515384 0.5108701604
0.8825455362 0.2499202692 0.7601137018
0.8724989546 0.2483262538 0.0088192816
0.8926217427 -1.4283412482e-04 0.5149111969
0.8724545171 5.7705855063e-04 0.0116551357
0.8925217583 0.248187473 0.0130904674
0.8727840954 0.498063615 0.5122199499
0.8924995395 0.4989794374 0.5163665255
0.9125889994 0.5004922791 0.5171534399
0.9025498242 0.4988923721 0.7636585194
0.9123038587 0.4991444033 0.013461891
0.9025350117 0.4998455082 0.2664314254
0.9125371557 9.1870807987e-04 0.5113821176
0.9025424179 0.2501644448 0.2649381397
0.9123594056 -0.0018159938 0.0121825534
0.9125852963 0.2492964102 0.5094620467
0.9025201992 0.2474974968 0.7631484137
0.9125001244 0.2498227298 0.013073433
0.9425435877 0.2504799748 0.7689586188
0.9326006937 0.2492898639 0.0149123129
0.9325969906 0.5011757091 0.518352327
0.9323414749 0.5008195923 0.0173739661
0.9225541122 0.4969055809 0.7668857939
0.922402284 0.4980498679 0.2642752801
0.9425732127 0.4994245834 0.7708953539
0.9224430184 0.2469155339 0.2606508453
0.9226281747 0.2502907877 0.7626290503
0.9425472908 0.250162481 0.2719648218
0.9326192093 0.2478942004 0.5133244073
0.9725759416 3.249619158e-04 0.5258937436
0.9625886101 5.3804281592e-04 0.7658304029
0.9627071101 0.2484814003 0.2720111108
0.9524975911 -0.0018847296 0.0168634901
0.972527801 -5.0877029429e-04 0.02043173
0.9526012786 0.2489671331 0.5219739845
0.9726425979 0.2477095958 0.5230275239
0.9625812039 0.2491713766 0.7759334571
0.9524198254 0.2483936804 0.0196266704
0.9524716692 -0.0022403881 0.5198659799
0.9725055822 0.2490751465 0.0218442875
0.9724537384 0.502109861 0.525515099
0.9624775163 -0.0027325362 0.2663305152
0.9523235441 0.499381378 0.5187717061
0.9625293601 0.4990501371 0.7733792258
0.9824632887 0.2474045398 0.2804662739
0.9827151013 3.1815380102e-04 0.7749965662
0.9924802452 -3.3359226397e-04 0.0262893351
0.9925394952 0.2504073112 0.5275823692
0.9827002888 0.2500387566 0.7785987822
0.9927394641 0.2515843295 0.0303151888
0.9926320734 0.4974253543 0.0280751678
0.0224564699 0.7515532949 0.7910227708
0.0025042108 0.4998618738 0.2759123544
0.002451145 0.748731855 0.7803762828
0.0126514803 0.4979137056 0.5311494056
0.0025820875 0.5020195225 0.77799795
0.0226895817 1.0002851499 0.2839925758
0.0225992624 0.9965930569 0.7762241525
0.0125115391 0.7509444923 0.031906237
0.0224527667 0.7518871544 0.2873383504
0.0026642969 0.7504862538 0.2795080899
0.0127096564 0.7505386239 0.5322038708
0.05250571 0.9986616764 0.5393647911
0.0526412444 1.0007106571 0.0449646637
0.0326110345 0.7520246259 0.039881012
0.0424280222 0.7514616472 0.2926921452
0.0326732471 0.7510295938 0.5390666895
0.04236618 0.7534517115 0.7937732678
0.0427127926 0.5007626398 0.7887157232
0.0328365549 0.5014886205 0.0360338341
0.0326810236 0.5022951202 0.5379566774
0.0425043066 0.9997810876 0.2896176246
0.0526349491 0.4993316264 0.5415885185
0.0525579241 0.7540801529 0.0415028887
0.0526419851 0.7504797076 0.5371919818
0.0426635411 0.9997090787 0.7918300523
0.0725507324 0.5011711267 0.0348588322
0.0726196106 1.0000953082 0.543018851
0.0726562715 0.9985111123 0.0423912687
0.0726170184 0.7481426912 0.0419887389
0.0626448697 0.752076996 0.2914284534
0.0724533402 0.7509248535 0.5430660658
0.0627063416 0.7532618699 0.7899229423
0.0925053986 1.0005208154 0.5363837745
0.0926579674 0.7505320777 0.0402603047
0.1024271847 0.749052622 0.2897074254
0.0824758514 0.7490657145 0.2887649798
0.0923594954 0.7475797125 0.536220837
0.1024538472 0.7498185349 0.787199293
0.0825399155 0.7517955067 0.7874353673
0.1023875613 1.0006255556 0.7867252928
0.1023794144 0.5012653929 0.7870298749
0.082375867 0.5012555735 0.7868521249
0.0922898766 0.5013786432 0.0392020438
0.082482517 0.5021497932 0.287437409
0.1126033757 0.7486991237 0.0336008802
0.1225851525 0.7473767783 0.2807504888
0.1124993178 0.7508462984 0.5317641245
0.1224444337 0.7495763231 0.7849440891
0.1225022025 0.9994537744 0.2841990251
0.1224870196 0.9995061445 0.7827620219
0.1224814649 0.49863314 0.2796978752
0.112382299 0.999296664 0.5382538533
0.1425546311 0.7495370455 0.2730026229
0.1526015829 0.7483456254 0.5218091954
0.1326235871 0.748830049 0.5290895416
0.1426716499 0.7466370505 0.7738958119
0.1524316095 0.4992897303 0.5241523485
0.1322832698 1.0000756695 0.028475198
0.1424283545 0.497685241 0.2751337721
0.1424142826 0.9954016368 0.2773500931
0.1324995324 1.001921716 0.527231498
0.1424535358 0.9998072726 0.7757594102
0.1523693969 0.999394858 0.0220078731
0.1523890235 0.7496614245 0.0244920228
0.1325269355 0.7455961945 0.0299975532
0.1725666178 0.7521293661 0.017113266
0.1624263472 0.752076996 0.27007345
0.1725177366 0.7488365952 0.5202122222
0.1626337223 0.7514289159 0.7727709873
0.1825091415 1.0007302959 0.7661192468
0.1724129381 0.4983876551 0.0237757456
0.1723681303 0.5000582618 0.5227349769
0.1825117337 0.7498839975 0.2702734189
0.1826102368 0.7509510386 0.7679050794
0.1724758912 1.0008481286 0.0179787792
0.1625000394 1.0019413548 0.7689752829
0.1824906259 0.5024044428 0.2688930785
0.2023653045 0.5030656155 0.7636418553
0.1925338746 0.4999731603 0.5171775102
0.1925472058 0.7484700044 0.0145581089
0.2026541483 0.7489216967 0.2628690179
0.1925483168 0.7488627803 0.5176394752
0.2025834186 0.7532815086 0.7633178318
0.2323043396 0.7512652593 0.0080243129
0.2325902209 0.4986128466 0.0039782772
0.2324483912 0.7482998016 0.507638257
0.2123600422 0.7483194404 0.0072158279
0.2226021488 0.7522864765 0.2607924899
0.2124866891 0.7495632306 0.5104137501
0.2225092003 0.7498774513 0.7610144872
0.2324461693 0.4990704305 0.5083131517
0.2225051269 0.5002068619 0.7580047714
0.2123137531 0.4973140678 0.0127267278
0.2225769676 0.5005989832 0.253375128
0.2124385485 0.4994160732 0.5091713512
0.2524904511 0.7479266645 0.0074456069
0.2424542383 0.7532553236 0.2599491029
0.2524141667 0.7513372682 0.5083103744
0.2425819962 0.7521817363 0.7591027483
0.242419429 0.5079314537 0.7534341878
0.2622289325 0.5018178976 0.7556134776
0.262602578 0.7503749673 0.2540981634
0.2424342415 0.5010604948 0.257672606
0.2624455654 0.7520180797 0.7573854235
0.2623914998 0.501571758 0.2556488475
0.2524660105 0.5022650074 0.5076632531
0.2726247189 1.0003898901 1.0018750765
0.2824250425 0.5051604201 0.2560608203
0.2723892 0.4957351089 0.5046053966
0.2825331738 1.0017318743 0.2558886249
0.2823791237 0.5020038115 0.7510206753
0.28232728 0.7516253038 0.2518337017
0.2824950316 0.750316051 0.7526472735
0.2725091813 0.7503880599 1.003310038
0.2724617813 0.7532749624 0.5050673616
0.3123603745 0.9986813152 0.4961409757
0.2924020052 0.7527512612 0.9997550367
0.3024970977 0.7508855759 0.242516636
0.2927652819 0.7484569119 0.4994728636
0.3023460102 0.7504207912 0.748542358
0.3023226805 0.499528669 0.7486904831
0.2924208912 0.5021995448 1.00300453
0.3024178508 1.0020395487 0.2495572048
0.3123511167 0.7506368179 0.9948946835
0.3125147949 0.7498905438 0.4957836241
0.312398887 0.5008870188 0.4984202499
0.3324065078 0.5002075166 0.4905992473
0.3222877154 0.4998697293 0.7443180167
0.3324890876 0.7484438194 0.9874143685
0.3325501891 0.4993859604 0.9900343303
0.3223125263 0.7495043142 0.243609984
0.3323465172 0.7524108555 0.4898660283
0.3224876842 0.7495108605 0.7408056015
0.3223088232 0.5019822088 0.2391745646
0.3524448646 0.4997590975 0.4829846939
0.3524630099 0.9959318842 0.4823746039
0.3624636727 0.7486663924 0.2252230364
0.3624932977 0.7474029634 0.7308099379
0.3624932977 0.49675829 0.7309404731
0.3622340789 0.4974024424 0.2283808773
0.3526326131 0.7478742944 0.9836186641
0.3424364253 0.7501916719 0.2350677976
0.3524141287 0.7503749673 0.4872960587
0.3424934534 0.7506957343 0.7348009823
0.3624081258 0.9983736408 0.7325291143
0.3423749534 0.5006304052 0.736378514
0.3524715271 0.4991777892 0.9802765927
0.3424741972 0.5004111054 0.2358639697
0.372562098 0.4973801851 0.9802117879
0.3824087107 0.4998225962 0.2272569785
0.3724769261 0.4976590559 0.4756599102
0.3923590109 0.4977101168 0.9749533487
0.3825457264 0.4973337066 0.7272697492
0.3723806448 0.7493275651 0.9788879203
0.3825383201 0.7497923498 0.2275421192
0.3725954261 0.7443196729 0.4753025585
0.3823198357 0.9989300732 0.2208968592
0.3823976013 0.7490002518 0.7249265961
0.3924293703 0.74930138 0.9738609264
0.3924997297 0.7481950614 0.4713318814
0.3925849016 0.5004588931 0.4788427472
0.4024463268 0.5010781697 0.7262810145
0.4023278268 0.7440578224 0.2207820623
0.4025129831 0.7479463033 0.7224445757
0.4125891897 0.748136145 0.9679729557
0.4124410646 0.746054433 0.4650634144
0.4223098961 0.995159425 0.7235194081
0.442547481 0.9996305235 0.2163031311
0.4324823839 0.9966388807 0.4671177237
0.442662278 0.9944917061 0.7136709439
0.422513568 0.4966437303 0.7170750427
0.4326193996 0.7489282429 0.9658066268
0.4224320992 0.748136145 0.2153903104
0.4325120089 0.7481819688 0.4651615473
0.4223987711 0.7494453978 0.716895441
0.4425696998 0.7496156007 0.2147792946
0.4424623091 0.7476779065 0.7153938234
0.4225061618 0.9992770252 0.2181213661
0.4722613661 0.9977059218 0.4621092455
0.4725205849 0.4998828219 0.9638347121
0.4625443628 0.497770997 0.2124222547
0.4727390694 0.7489216967 0.9623904929
0.4626776754 0.7508070208 0.2087681949
0.4725983506 0.7500345616 0.4581107949
0.4625962066 0.7508855759 0.7116258924
0.4524348281 0.9979546798 0.466730747
0.4623518002 0.9971494894 0.2167660218
0.4623518002 0.9988842494 0.7127136857
0.4526385001 0.7474553335 0.9661676816
0.4525385157 0.7466894206 0.4625017769
0.4526125782 0.4997807001 0.4652522739
0.4925026542 0.5011776729 0.9578356476
0.4923841542 0.5011809461 0.45794508
0.4826264165 0.4992563444 0.7047315971
0.4825153227 1.002766184 0.7085522976
0.4923841542 1.0004749916 0.4574683025
0.4922730604 1.0017580594 0.9561877564
0.4924359979 0.7513045369 0.4522033827
0.4925507948 0.7495566843 0.952392052
0.482641229 0.7494912217 0.2094412381
0.4824819946 0.7500411079 0.7106482671
0.502793642 0.5022826823 0.2045151544
0.5122514265 0.9998792815 0.450384222
0.522238758 0.9996305235 0.6976132627
0.5024640638 1.0008874062 0.2047771506
0.5225461175 0.7498119886 0.7039993039
0.5024455482 0.7523650317 0.2051020999
0.5025677513 0.7501523944 0.7061036054
0.5128661455 0.7515271098 0.9483926756
0.5124291766 0.5002467942 0.9527531068
0.512618036 0.7527185299 0.4515988474
0.5225164925 0.7512456205 0.1985827462
0.5524229401 1.0011819881 0.4606641005
0.5423578429 0.5030636517 0.7032707138
0.5424578273 0.7523257541 0.2079896126
0.5523822057 0.5006094572 0.4599892057
0.5524895964 0.7537593859 0.4577589979
0.5425096711 0.7531440371 0.704236304
0.5325297459 1.0018693458 0.9556600609
0.542417093 0.5012627744 0.2082960463
0.5327074959 0.752646521 0.9558452172
0.5524044245 0.4986992573 0.9513922079
0.5424244992 1.0053388659 0.2011740088
0.5325260427 0.7495959619 0.450693433
0.5723494625 0.5039945304 0.958317054
0.5622880684 1.0025763424 0.7101316809
0.5524895964 0.7516580351 0.9558359594
0.5625954279 0.7525876046 0.2116196021
0.5623584278 0.7489609743 0.7078412974
0.5723605718 0.7514747397 0.9602704531
0.5723716812 0.5026145779 0.4610705186
0.5724605562 0.7509968624 0.4611140303
0.6023299726 0.5007056873 0.215832834
0.6022262851 1.0027989154 0.2202460347
0.6021337069 1.0011950806 0.7139690455
0.5924241099 0.7523061153 0.9666953771
0.5922945005 1.0020919188 0.4635043983
0.5923278286 1.0000363919 0.9680840495
0.6023818164 0.7492948337 0.2158235762
0.5922648754 0.7484045418 0.4637228827
0.6024336601 0.7512914443 0.7189951136
0.582307169 1.0024126858 0.2128064541
0.5824738096 1.0020199099 0.7130460413
0.5825182471 0.4994265473 0.7143976824
0.5824219659 0.7505779015 0.2115909029
0.5825552784 0.7552584804 0.7119869472
0.6124765385 0.7514420084 0.9730184652
0.6124469135 1.0011754418 0.4748665154
0.6125580073 0.749523953 0.4676315325
0.6224009169 0.9989366195 0.7238610215
0.6225305263 0.7519395245 0.2272292051
0.6225009013 0.7500476541 0.7246988538
0.6224749794 1.0028251004 0.2242491142
0.6423940955 1.0014372924 0.7304599925
0.6323030765 0.5021884161 0.4788908879
0.6425162987 1.0004029827 0.2295103308
0.6525295521 1.0028840168 0.4737074369
0.6525406615 1.0028578317 0.981563429
0.6324326859 1.0025567036 0.4786724034
0.6323549203 1.0039641504 0.9752681144
0.6325845141 0.7531636759 0.9749903799
0.6325363734 0.7503225972 0.4752025741
0.6525406615 0.7498185349 0.9772400291
0.6425422206 0.7517627753 0.2247240402
0.652614724 0.751854423 0.4809294589
0.6426162831 0.7509379461 0.7269855343
0.6725116213 0.7528756403 0.98071171
0.6624761492 1.0011034329 0.233527297
0.6724338557 1.0002524186 0.980859835
0.6825248747 0.7504469762 0.2331366172
0.6724597776 0.7515598412 0.4771467154
0.6824100778 0.7497596185 0.7306932895
0.672648637 1.0020002711 0.4814293809
0.6626242742 0.7504928001 0.2287049009
0.6624798523 0.7483325329 0.7318875477
0.702506944 0.5017105388 0.2373720679
0.6923900031 1.0019609935 0.4848945813
0.6924233312 1.0000822157 0.9829891326
0.6926418157 0.7501065705 0.9839797189
0.7025254596 0.7492948337 0.232294156
0.69256405 0.7499494602 0.4845687062
0.7025291627 0.7516187575 0.7347315486
0.7127386818 0.4995902039 0.4887412037
0.7124016973 0.7505320777 0.4833198269
0.7224334664 0.9988122405 0.7414758673
0.7325059698 0.9982165304 0.9883123766
0.7326170636 0.7499887377 0.9888400721
0.7226371383 0.746898901 0.2447431407
0.7326540948 0.7467679758 0.4942644165
0.7225260445 0.7470167338 0.7414184689
0.7225038258 1.0008546749 0.2337346721
0.7324282041 0.9984849273 0.4891059616
0.7124757599 0.7472065755 0.9864978448
0.7124054005 1.0008350361 0.4877450627
0.7124572442 1.0016729579 0.9870810871
0.7426340201 0.4998009936 0.2413955146
0.7427451139 0.7500149228 0.2426277298
0.7426710513 0.7473113157 0.7429682272
0.7524917422 0.7480183122 0.994218863
0.7627345894 0.9985831212 0.7394826596
0.7525546953 0.9979284948 0.9945336287
0.7626271987 0.7503618748 0.2480130012
0.7525139609 0.751383092 0.4934997209
0.7624975893 0.7482016076 0.747927639
0.7525843203 0.9980266888 0.4905668449
0.7422303793 0.9973720623 0.2395874632
0.7626012768 1.0008546749 0.2435711012
0.7825500179 0.9989366195 0.2506820294
0.7725145458 1.000435714 0.4972907964
0.7827203618 1.0014569312 0.7492135496
0.772492327 1.0024454171 0.9995328492
0.7824759554 0.7475797125 0.2521614283
0.7724589989 0.750244042 0.4984489492
0.7826722211 0.7513045369 0.7498523389
0.772636749 0.7521555512 0.9965981216
0.7724219676 0.5009478991 0.5001468326
0.7724219676 0.5012071311 1.0011807404
0.7925225369 1.0017449668 0.5027677202
0.7926003026 0.7530392969 1.001652889
0.7926373339 0.9990348134 1.0044302336
0.8126786531 0.7463359223 1.0041154679
0.7924151463 0.5029359995 0.9992736303
0.8027098373 0.999767995 0.2554609138
0.812586075 0.4986999119 1.0085962507
0.8025617122 0.7477826467 0.248492556
0.8126675438 0.7462835522 0.5022085481
0.8025987435 0.9966977971 0.7519723787
0.8025135716 0.7476320826 0.7523417655
0.8126490281 0.9973917011 0.9984033957
0.7927076933 0.7503356897 0.5031519195
0.8225104533 0.9961020871 0.7552496454
0.8225548909 0.9969334626 0.2589464814
0.8324829723 0.748358718 1.0076426957
0.8226585784 0.5000857561 0.7574196774
0.8226030315 0.7479332108 0.2569819729
0.8325274099 0.7472916769 0.510380422
0.8227733753 0.7474356947 0.7546525163
0.8426739758 0.7495828694 0.2590631299
0.8426184289 0.7445815235 0.7580917948
0.8626153107 0.5009236779 0.7595536039
0.842444382 0.9988711568 0.7556236612
0.8625227325 0.9998400039 0.2598444895
0.862596795 0.9976928293 0.7618773156
0.8526501979 0.9992181088 0.0069078204
0.8626338263 0.7485158283 0.7613709131
0.8527427761 0.499153568 0.5091333942
0.8526057604 0.7490264369 0.0061833963
0.8526687135 0.4967903667 0.0110979077
0.8625338419 0.5015658664 0.2625885061
0.8626893732 0.7476255364 0.2603684819
0.8526501979 0.7502244033 0.5064393698
0.852505776 0.997116758 0.5090926598
0.8826195987 1.0008939525 0.7584417403
0.8923403051 0.9986747689 0.0166284342
0.8826381143 0.7481295987 0.7588092755
0.8726618922 0.7498381737 0.0118498275
0.8924476958 0.7466305042 0.0127769977
0.8827343956 0.4989774735 0.7638020155
0.8826492237 0.5006441524 0.2583780515
0.8825233174 0.7519918946 0.2593760441
0.8726248609 0.7496876096 0.5138632122
0.8923514145 0.7516907664 0.5105674298
0.8725248765 0.4970882217 0.0133120069
0.8825048018 1.0008350361 0.2593491964
0.9123816244 0.7476517214 0.5148315797
0.9025535273 0.9981772528 0.2610035681
0.9025646367 0.9997156249 0.7659118717