POSCAR file written by Ovito 3.7.11
1
270.0466817695 0.0 0.0
0.0 15.2761471933 0.0
0.0 0.0 10.8018672707
Sr Ti O 
800 800 2400 
Direct
0.0224210193 0.5001538346 0.7797160864
0.0124630373 0.5016941445 0.0317123573
0.0127272138 0.2516657864 0.5217708692
0.0226097274 0.2521338364 0.7768101074
0.0026633242 0.2499742604 0.7747984181
0.012411972 0.2519970218 0.0238493649
0.0023311224 -0.0016040958 0.2711003201
0.0226021731 0.5006212299 0.2762984954
0.0124690733 -3.5260221609e-04 0.5239316067
0.0024758751 0.0027831361 0.7658953278
0.012527989 5.3577623616e-04 0.0207816546
0.022467826 0.2548334699 0.2745293568
0.0026213685 0.2495160297 0.2761522244
0.0424076378 0.4996995316 0.2774575543
0.0323801122 0.2516121079 0.5292686469
0.0424935488 0.2525868302 0.7753103667
0.0524099825 0.5015219806 0.0196961015
0.0324130695 0.2489209844 0.02639698
0.0324445455 -7.6356971468e-04 0.5277800154
0.0322416176 4.0609694105e-04 0.027890981
0.0425346528 0.2498799958 0.2746876628
0.052255935 0.2488437398 0.5269329396
0.0524159074 0.2533913524 0.0243252086
0.0624178818 0.2460308577 0.2741636793
0.0624164006 0.4987248094 0.7696511599
0.0624208442 0.4987477209 0.2732036601
0.0725294669 0.5035833643 0.5149063153
0.0724272623 0.2515178433 0.5222207914
0.0623930713 0.2469172069 0.7711583068
0.0723158001 0.2498250081 0.0195569589
0.0624426923 -0.0028853744 0.270408773
0.0624341753 -0.001881129 0.7726312002
0.1024739192 -2.2573776687e-04 0.2583358603
0.0923967726 0.2503886319 0.5151757131
0.0822874094 -0.0029537162 0.2657447645
0.1023535697 0.2511434034 0.7655435368
0.0822189027 0.2484784644 0.76847266
0.0923604826 0.2511754795 0.0134646789
0.0822951858 -1.5706861968e-04 0.7681440131
0.0923182677 0.0018461197 0.0128535809
0.1022624743 0.2480824221 0.2639173027
0.0824907076 0.2507689634 0.2660308262
0.1023409793 0.5015501291 0.2600753744
0.0923745543 0.4981081617 0.5117179776
0.1124695984 -1.7160107981e-04 0.0106281323
0.1224089911 0.2471410853 0.2601040731
0.112305923 0.2514327434 0.5108523865
0.1222919743 0.5005033992 0.7585475241
0.1123307336 0.4994501231 0.0134968956
0.1222190239 0.2507853288 0.7608147247
0.1123529519 0.2510020065 0.0104352027
0.1122766688 0.4999705423 0.5090638069
0.1524860131 0.2486375359 0.5001023933
0.132348754 0.2541795092 0.5072076463
0.1423870184 0.2501771912 0.7577263698
0.1524437982 0.249176939 4.1165793029e-04
0.132289505 0.2451071955 0.0062760144
0.1423185118 0.2512350495 0.2557650085
0.142311476 0.5013602906 0.755784113
0.1524497231 0.4987064801 0.0053198834
0.1322750631 0.4997663023 0.0106394266
0.1324087436 0.4989578524 0.5059310152
0.1521112631 -0.0018087285 0.50440165
0.1824019519 0.248751439 0.7495851848
0.1821453296 0.2468746569 0.247554391
0.1623887454 0.5038910335 0.7506433352
0.1625590863 0.4992465378 0.2513842844
0.17258439 0.2532957786 0.5004699224
0.1824434262 0.4989545793 0.7441389042
0.1624802111 0.2487396559 0.7517848045
0.1723899792 0.2495755997 0.0033613331
0.1625046513 -8.1502247891e-04 0.2483024099
0.1622995016 0.2508665011 0.2541949096
0.1725543952 -8.2137224753e-04 0.4980684857
0.182528967 -0.0016538466 0.2435745236
0.2024414501 0.2489720444 0.2508704844
0.1924961326 0.5007999399 -0.0071027651
0.2024921821 0.5001433608 0.2487421486
0.1922817252 0.2478362868 0.4964733911
0.2024325628 0.2515243895 0.7518366474
0.1925676017 0.2478186122 -7.5323325793e-04
0.192691284 -0.0027204768 0.4926055413
0.2027184393 -0.0021351197 0.746009877
0.1925490864 -0.0030947203 -0.0038187773
0.2025095865 2.4977480238e-04 0.2461222312
0.2125530352 0.2523053456 0.4994886105
0.2223694861 0.2479724468 0.7503220944
0.2127433727 0.2483220113 0.0012561416
0.2226805435 0.001355551 0.2474942163
0.2125071172 4.6501231995e-04 0.4965196794
0.2125526649 -0.0014244693 -0.0043715058
0.222568711 0.0023563924 0.7530438461
0.2325184722 0.0020641066 0.4995950736
0.2224431771 0.2495834551 0.2479598765
0.2327084393 0.2514556549 0.5000422185
0.232511066 0.2518955564 0.0012034655
0.2326143815 -6.9902464402e-04 0.9971636759
0.252576856 0.2500639427 0.4973408337
0.2426389446 0.2503480458 0.7477595745
0.2627321372 0.2510131349 0.2477978675
0.2526342535 0.2502465804 0.9958398307
0.2426589411 0.2449815094 0.248993957
0.2425459977 -3.0900483571e-04 0.2466702846
0.2524398427 0.5015232899 0.9970340687
0.2526746169 0.0020688853 0.4928610527
0.2425774737 0.0012059714 0.7497370104
0.2626988097 0.2527400101 0.7475188754
0.2527179427 0.0019019584 0.9928773799
0.2626814053 -3.1447939566e-05 0.2432338417
0.262685849 1.8863373139e-04 0.7445110621
0.2725208152 0.2528571863 0.4990609067
0.2726844906 0.2518818095 0.9979042886
0.2725208152 0.0026447504 0.4989081553
0.2727548488 0.5027317097 1.0020332044
0.2827334939 0.2519230502 0.7528772082
0.2826312894 0.0030841937 0.7477105089
0.2824472471 0.2547136753 0.2501585704
0.3026244993 0.2551843438 0.248120034
0.312406882 0.2529841817 0.4987850285
0.3125605592 0.2544773592 1.0012000151
0.3125690762 0.0035725367 0.9957009658
0.2926454839 0.2537337162 0.4998209605
0.3025726564 0.2522209002 0.7542408613
0.2925577213 0.5017314575 0.503832304
0.3026563456 0.5046818088 0.2474386703
0.2925103221 0.2548891122 1.0005334637
0.3024793392 0.0019278157 0.7492861624
0.2926225249 0.0016422071 0.5015336273
0.3126201785 0.5039578042 0.9961731064
0.2926928831 0.0020192655 0.997811712
0.3225003221 0.2542999585 0.2512852275
0.3325485848 0.2525455894 0.4940626968
0.322469957 0.2555286714 0.7481289551
0.3324830406 0.2507080842 0.9956639352
0.3225477213 0.003344927 0.2493698179
0.3326470863 0.0041154747 0.491037294
0.3226428901 0.0030582709 0.748354842
0.3326470863 0.0013552892 0.9942845441
0.3623401007 0.2512730172 0.2458315408
0.3525499415 0.2502819296 0.4929739961
0.342608327 0.2525907579 0.7473790847
0.3525321668 0.0013669413 0.9934143241
0.3525866018 0.2539176631 0.9914517005
0.3427068285 0.0043117938 0.2432930908
0.3425909226 0.0017473383 0.7453248103
0.3425653715 0.2533978985 0.2473775698
0.3625993151 0.2508776296 0.7425104821
0.3623067731 -6.6059872467e-04 0.2457945101
0.3725457436 0.2522752333 0.489344994
0.3824847659 0.2526522917 0.7369447777
0.3724272455 0.2505601411 0.9923219204
0.3825180935 7.7693652045e-04 0.7351487919
0.382492172 0.2513456795 0.238215265
0.3924386005 5.5947331078e-04 0.4829803536
0.3921497615 0.0023673244 0.9835826907
0.3723828088 6.2748784265e-04 0.4908012237
0.3725198221 -0.0013338706 0.9882948389
0.392412679 0.251487731 0.4872685011
0.3923201025 0.253060117 0.9852120386
0.4123870033 0.0021191598 0.4835210009
0.4022591248 0.2510733595 0.7341434102
0.402388732 6.5262507098e-04 0.2308554264
0.4022665309 1.5465919622e-04 0.7297858302
0.4026331342 0.5015612575 0.2313340473
0.4024257626 0.2530594624 0.2324375602
0.4123573788 0.2496390974 0.485173493
0.4124499554 0.2526149786 0.9820181463
0.4125017983 0.0039152933 0.9788057388
0.4124795799 0.5004621584 0.9795556091
0.4124129248 0.4979143956 0.4823091734
0.4223889778 0.2507912203 0.2336947503
0.4426336257 0.2498996343 0.7349090185
0.432613136 0.5007063299 0.9791575298
0.4326242452 0.5001767461 0.484327343
0.442474394 0.2511191826 0.2310600206
0.4226000524 0.5018427421 0.2298648569
0.4426891716 0.4969455649 0.7316512485
0.4324613104 0.251564321 0.4832182755
0.4222556675 0.2494590782 0.7275186296
0.432439092 0.251441908 0.9828605933
0.4425780797 0.5004889976 0.2340687597
0.4324946379 0.001542771 0.9804258291
0.452628194 -8.3228011465e-05 0.9805924669
0.4725914091 0.2508193688 0.474394801
0.4625968408 0.2513122941 0.7281435216
0.4724840203 0.2486957967 0.9731400517
0.4628671644 0.2509588019 0.2318922841
0.4526948491 0.5012123476 0.9813423373
0.462548701 0.4977363402 0.726196636
0.4726654704 0.5019815206 0.477210055
0.4523208397 0.2511479857 0.4836543112
0.4524356347 0.2504959888 0.9818607662
0.4726173305 0.0035832069 0.9767320233
0.4825415406 0.003301395 0.223217858
0.4825193222 0.2481570483 0.7245348863
0.482508213 0.2492090151 0.2267653928
0.4924731568 0.2491586097 0.4714943765
0.4923139251 0.2495160297 0.9715384768
0.4826341172 0.5022080175 0.2241491784
0.5025862231 0.2486440821 0.2245167075
0.5126992894 -9.8352046256e-04 0.9761117601
0.5224013157 -0.003698603 0.225060132
0.5027639702 0.2502059942 0.7244774888
0.5026602844 0.501095826 0.7283897753
0.5126252282 0.2551352476 0.4774924136
0.5024825373 -0.0017867335 0.7260050024
0.5225568444 0.2483017183 0.2286484005
0.5125622761 0.2472170207 0.9747508843
0.5225235168 0.2483239752 0.7295803102
0.5125141363 0.5000006546 0.4756945763
0.522419831 0.5019579544 0.2273643633
0.5223828004 0.4983418594 0.7253995516
0.5526109074 0.2472405868 0.4831682841
0.5523924267 9.0020058541e-04 0.985063916
0.5323292288 0.5003960423 0.9781854757
0.5323588534 0.4968964688 0.478289498
0.5322551676 -0.0044324922 0.4786727651
0.5324810544 0.249889815 0.4765684993
0.5324736483 0.2529907278 0.9807313318
0.5423830461 -7.8065517456e-04 0.7289544925
0.5426533698 0.2514288157 0.2235474306
0.5425941208 0.2492489466 0.730557919
0.5526220166 0.2470703869 0.9826661825
0.5624351348 0.5000864092 0.7327677221
0.5625943665 0.4992190439 0.2341483755
0.5624647593 -0.0011804942 0.2322820316
0.5626091788 0.2519747648 0.2379347579
0.5623721827 0.2472202938 0.7365596591
0.5725074674 -0.0034313235 0.4876110345
0.5724371092 -0.0027297723 0.9923589511
0.5724148908 0.2470448569 0.4857206206
0.572481546 0.244667294 0.9884151885
0.5925188223 0.4993237824 0.9813978832
0.582346507 0.2477642791 0.7388740737
0.602361565 0.2467470069 0.2438828036
0.5923336692 0.2486604475 0.4904105505
0.6024060018 0.2462514631 0.7402340238
0.5923040447 0.2486401544 0.989350212
0.6023837834 0.4993552039 0.7360569682
0.5821946814 0.2476883437 0.2399371895
0.5924077304 0.5006310492 0.4862325691
0.5823094764 0.4977147379 0.2334012825
0.6124190854 -4.2035490183e-04 0.9929051529
0.6125560987 0.4989146478 0.4884201539
0.6223914353 0.2457932324 0.7387231739
0.6224469812 0.4995614077 0.2389956856
0.6123635394 0.4986135247 0.9890632246
0.6223840291 0.4994501231 0.7374280275
0.6123524302 0.2495212666 0.490353153
0.6125227712 0.2459765246 0.995913892
0.6223951383 0.2485242875 0.2419322149
0.6423546504 0.2490132851 0.2451399937
0.6523418125 0.2488587959 0.5008754078
0.6423028075 0.250710048 0.7471902285
0.6523640309 0.2440964694 0.99010934
0.632530423 0.4967524534 0.9873413001
0.6424138994 0.4956422258 0.7366087247
0.6525195596 0.497147841 0.9918497798
0.6423398381 0.4948383582 0.2391317732
0.6525380749 0.4971314757 0.4890107925
0.6324526587 0.2478218852 0.4901735544
0.6325600475 0.2499081443 0.9955250703
0.6626215167 -0.0044732747 0.74360196
0.6725716482 0.4993237824 0.4948292309
0.6824921552 0.4987418294 0.7450461548
0.6724457441 0.4972434149 0.992766288
0.6823662511 0.4975340641 0.2459592965
0.6625030187 0.2505895988 0.2457223004
0.6626141106 0.2500803081 0.7454757101
0.6824069848 -0.001043876 0.243379187
0.6825736226 -0.001378319 0.7465495985
0.6624696911 0.4965023903 0.7403154912
0.662636329 0.4972067564 0.2445419489
0.6824958583 0.2474075137 0.2453631032
0.6726420064 0.2460164562 0.4967418632
0.6825180767 0.2470834792 0.7372049179
0.6725346176 0.2464229723 0.9943308324
0.7025405408 0.2487095436 0.2422821544
0.6923274918 0.2472222576 0.4935664863
0.7025812745 0.2479711375 0.7460774579
0.6924719113 0.2493720143 0.9947289117
0.7023924183 0.496451985 0.7458025055
0.7024257459 -4.7887751153e-04 0.7504711427
0.7025442439 -0.0021146957 0.2492013285
0.6925681909 0.5003377815 0.9981079571
0.6923608194 0.4979215964 0.494235815
0.7125054846 0.2497706751 0.4979981275
0.7125647336 0.2504959888 0.9975154669
0.7225593019 0.4985487178 0.7472392941
0.722622254 0.246881203 0.2434125146
0.7325834947 0.4988982824 0.9925718772
0.7325020273 0.2477852268 0.49624843
0.7226703938 0.4999633415 0.2418313065
0.7326464468 0.496957348 0.4954272757
0.7225518958 0.2464917069 0.7454692298
0.7323798262 0.2530332778 0.9979876075
0.7125239999 0.4950151043 0.9961453335
0.7625412781 0.5022865713 0.743965786
0.7423410669 -0.0046865484 0.7436741698
0.7526800201 0.5008876584 0.9955158127
0.7625116536 0.5020358536 0.2431431167
0.7624487015 0.2498917789 0.2458509818
0.7525615221 0.249324882 0.492250973
0.7625042474 0.2505627596 0.7458895275
0.7525763343 0.2503951781 0.9938124035
0.7425669538 0.5014381899 0.7447980495
0.7525504129 0.5009079515 0.4930304679
0.7424410496 0.2463719123 0.2478571165
0.7424595649 0.2470487845 0.7455442168
0.7825748514 0.5005341661 0.2443586473
0.7825674453 0.5017033091 0.7447138048
0.7824082135 0.2491474813 0.2436791351
0.772632126 0.2488745067 0.49022262
0.7825970698 0.2525161317 0.7421725775
0.7726765628 0.2533566578 -0.0063317317
0.7926212626 0.5017962644 0.4955929878
0.8125696654 0.500454303 0.4934035515
0.8026121278 0.5010565491 0.7420762979
0.8026935952 0.4999168639 0.2395224464
0.7925360921 0.2518300949 0.4970927285
0.7925472013 0.2503159696 0.9946363351
0.8125992899 7.3955798562e-04 0.4939367926
0.8023677256 0.2510478295 0.2429588893
0.8122956387 0.2504554027 0.4895412563
0.8025825033 0.2486951421 0.7441740833
0.8124067306 0.2519741102 0.9929421836
0.8324847407 1.523680426e-04 0.4903003843
0.8224198142 0.2501830827 0.2410258902
0.8325476928 0.0015421164 0.9984875211
0.8326069418 0.2500266296 0.49370998
0.8224383296 0.2505895988 0.7461107855
0.8325106622 0.2494558051 -0.0053933569
0.8326365663 0.4987077894 0.4958522022
0.8324254917 0.5013753468 0.988591084
0.8224975786 0.4976689148 0.2396724205
0.8426015101 0.4971884272 0.7438732094
0.8424941213 0.4997047685 0.2465341971
0.8422312038 1.7050088699e-04 0.2492411364
0.842597807 0.2503401904 0.2404713564
0.8424941213 0.2471561415 0.7441129828
0.8624128996 0.2513352057 0.250148387
0.8524812834 0.2498171527 0.497430633
0.8624277119 0.2487049613 0.7456219811
0.8525035018 0.2493006613 -0.0035682928
0.8926447097 0.5001302684 0.0019947176
0.87247042 8.7656897232e-04 0.5008189361
0.8822909443 0.2489164021 0.249579041
0.8725037476 0.2505247919 0.4977129916
0.8923410585 0.2491474813 0.5057245694
0.8824353638 0.2493968897 0.7522921242
0.8724889353 0.2490427428 -0.0035129598
0.8925113994 4.2553901609e-04 0.499878358
0.8724593108 5.2418954498e-04 -0.0020851882
0.892485478 0.2516625133 0.0034854783
0.8725481843 0.5021464836 0.4970603267
0.8925854607 0.5000549877 0.5021511132
0.9125968156 0.4986089424 0.5114152522
0.9024170942 0.5006441415 0.7591927829
0.9126856892 0.5010441114 0.0109070655
0.902346736 0.4998153985 0.2565482064
0.9125338636 3.1903310335e-04 0.5088184789
0.9024319064 0.2504527842 0.2574230552
0.9125968156 -0.0021114227 0.0063425769
0.9123635226 0.251561048 0.5086685049
0.9025874351 0.2505241373 0.7544769316
0.9124523962 0.2488496313 0.0099262166
0.9425879266 0.2505261011 0.7660184547
0.9324526419 0.2499938989 0.0158470448
0.9325674369 0.5020594198 0.5176706521
0.9326452012 0.4990802655 0.0182926405
0.9224469645 0.5010048345 0.7595075433
0.9224654798 0.5018721998 0.2638043593
0.9428175165 0.5015736952 0.7635670267
0.9225099165 0.2523053456 0.262492549
0.9225210257 0.2481112252 0.7656175981
0.9423879612 0.2494846082 0.2641107878
0.9325341093 0.2509954603 0.5155256526
0.9725308978 -0.0022007777 0.5162246059
0.962565954 -0.001340024 0.7683319436
0.9627103735 0.2473898391 0.2656179346
0.9526121194 1.2991473708e-04 0.0178277208
0.9724716487 -0.0037933913 0.0195635318
0.9526047133 0.2521115794 0.511158815
0.9726123652 0.2493654682 0.5144610219
0.9624844866 0.2484516252 0.7661499134
0.9526269317 0.2518058741 0.0129472684
0.9524010448 -2.7127478447e-05 0.514717459
0.9726975356 0.2473440161 0.0142319536
0.9727012387 0.4969442557 0.5159357669
0.9626029846 -0.0014035871 0.2639895124
0.9526861807 0.498802054 0.5199193374
0.9624400498 0.5020083598 0.7699844356
0.982521763 0.2450692278 0.2676703575
0.9825402783 -0.0017201591 0.7685115421
0.9924867067 -0.0023718286 0.0172705949
0.9926015017 0.2482428029 0.5166208336
0.982525466 0.2490820197 0.7737634119
0.9926940783 0.2489628797 0.0198362625
0.9927681396 0.4993624047 0.0220356044
0.0224382015 0.7503445372 0.7733255246
0.0024814297 0.5004601946 0.2756523108
0.0025540097 0.7477064375 0.7723349552
0.0124613339 0.4992550478 0.5230891597
0.0024717277 0.4994795808 0.7703093795
0.0223176297 1.0013240514 0.2728981574
0.0223521423 1.0013436898 0.7735421539
0.0123729788 0.7491531374 0.02120223
0.0222867092 0.7544947984 0.2754338301
0.0026074079 0.7495786373 0.2721344005
0.0124303022 0.7512806372 0.5225003727
0.0522944469 0.9979462363 0.5254878191
0.0521366964 0.9970690518 0.0262988488
0.0323312318 0.7504099988 0.0243984367
0.0423428341 0.7512086295 0.2781555817
0.032213104 0.749310245 0.5247944205
0.0423346874 0.750933691 0.7759945076
0.0422983974 0.4988622786 0.779239317
0.0325371221 0.5002323884 0.0267115552
0.0325808183 0.5000896823 0.5296639489
0.0424887348 1.000708713 0.2772696238
0.0524159074 0.5004785238 0.5258849727
0.0526010605 0.7509926064 0.023063112
0.0522622302 0.7518894294 0.5273921195
0.0422965459 0.999687513 0.7748585929
0.072577977 0.5011318299 0.0133032253
0.0723298717 0.9992620131 0.5227160761
0.0724072658 0.9993929362 0.0192496972
0.0725405761 0.749349522 0.0210658647
0.0624575046 0.7482366759 0.272832428
0.0725102109 0.7487341836 0.5158848498
0.0624434329 0.7492578758 0.7738708007
0.0924119552 1.0034580973 0.5181946356
0.0924449125 0.7497946604 0.0110005679
0.1024172624 0.7500957834 0.2619167227
0.0824962622 0.7517126833 0.2631961311
0.0924178801 0.7515228448 0.5172633152
0.1023694928 0.7498797604 0.7575189983
0.0823729502 0.7500499604 0.7645288974
0.1025346495 0.9986663131 0.7579966935
0.1023413496 0.4988622786 0.7576393478
0.0824418271 0.4999057354 0.7651611955
0.0922967899 0.5012588253 0.0132961895
0.0824418271 0.5000661161 0.2684998437
0.112415904 0.7481450298 0.0105861951
0.1223408547 0.7499255834 0.2576008022
0.1124066464 0.7492775143 0.5042507502
0.1222804948 0.7506652988 0.7603897982
0.1224845336 0.9970625056 0.2586700618
0.1226163626 1.0015269821 0.7577384048
0.1223167848 0.4971452226 0.2597661686
0.1125099618 0.9991965516 0.5100997389
0.142411829 0.7478700913 0.2551465969
0.1522327236 0.7504558219 0.5055357132
0.1323435697 0.7495982758 0.5083805917
0.1424055338 0.7528648062 0.7560868385
0.1523356687 0.4969737134 0.5090536235
0.1324742879 0.9995042208 0.005132601
0.1423222148 0.5007423338 0.2523526355
0.1426132756 0.9966304595 0.2518008791
0.1324043 1.0016317206 0.5027399003
0.1424007198 0.9968988518 0.7537742753
0.152514897 0.9984241055 -0.0056250113
0.1522545716 0.7501285142 0.0026923747
0.1324020781 0.7489763912 0.0065605022
0.1724281208 0.7492382374 0.0036385074
0.162280616 0.7509926064 0.2542967438
0.1727184409 0.7480206529 0.4998033709
0.162435404 0.7504427295 0.7504850292
0.182614878 1.0001391976 0.7455016316
0.1724899619 0.4990724101 4.5590953865e-04
0.1724436736 0.4986246532 0.4996348815
0.1825848832 0.748452699 0.2526368456
0.1827485586 0.7492709681 0.7531327196
0.1724166413 0.9981557132 0.00255064
0.1624265167 1.001180036 0.750719248
0.1824360201 0.4996399616 0.2471202069
0.202593646 0.5010611314 0.746998595
0.1924850234 0.4996969131 0.4975213581
0.1925161291 0.7511628064 9.2166234544e-04
0.2028502683 0.7472285683 0.2483838773
0.1926031511 0.7470910991 0.4991090465
0.2027358437 0.7513722833 0.7493861451
0.2325006975 0.7495851835 -3.0719926406e-04
0.2328347138 0.502852159 0.0030439806
0.232653634 0.750848591 0.5018539423
0.2127789221 0.7507045757 -0.0020371131
0.2225102025 0.753067737 0.249551268
0.2126307995 0.7519941679 0.4972464056
0.2224020731 0.7534408677 0.7479697234
0.2326862209 0.5021327367 0.5011522118
0.2225813014 0.5001911477 0.7465857034
0.2125896955 0.5000189838 -0.0010227237
0.2225853747 0.4980184794 0.2520693512
0.2125341496 0.5012044922 0.5006485952
0.2524646532 0.7524131217 -9.1302044627e-04
0.2426670879 0.7481777605 0.2476543738
0.2526927619 0.7503314449 0.4954902278
0.2425982109 0.7517192294 0.7487232968
0.242623762 0.5001715092 0.7496860933
0.2626440043 0.5004634676 0.7462755718
0.2625777195 0.7504034526 0.2421868006
0.2425974703 0.501223476 0.2512787471
0.2625140268 0.750121968 0.743776004
0.2625536496 0.5015750045 0.2457621083
0.2528160739 0.5001440154 0.4958466476
0.2727337413 1.0064104124 0.9949788685
0.28253538 0.5019088583 0.248369065
0.2724615662 0.5031683382 0.5024316202
0.2826846135 1.0023387051 0.2485162618
0.2825942587 0.503612822 0.7463413012
0.2824539126 0.7518043294 0.2502002299
0.2826942414 0.7517519602 0.7480336012
0.2725389602 0.7560396905 0.9942012251
0.2725704363 0.7512151756 0.4978509307
0.3126079584 1.0043680126 0.4975352446
0.2924677368 0.7518894294 0.9995799248
0.3024667488 0.7545995368 0.2463536727
0.292406266 0.7539187369 0.5004745512
0.3026393116 0.750036868 0.7457580687
0.3023852814 0.5038812142 0.7462727945
0.2926332638 0.5025471082 1.003264473
0.3026867108 1.0016382667 0.2522498755
0.3125157521 0.7518566986 0.9913406086
0.3125235285 0.7541151215 0.4952624894
0.3126520248 0.5032874781 0.4975806071
0.3326037605 0.5025536544 0.4914076003
0.3226302996 0.5046084919 0.7428067271
0.3326074635 0.7540365677 0.9920812213
0.3326959667 0.5056807518 0.9925996502
0.3225643851 0.7541216676 0.2443808657
0.3326748593 0.7494215296 0.4932369137
0.3226347433 0.7514311987 0.7474559233
0.3225477213 0.5059386702 0.2451298102
0.352525131 0.5001780554 0.4905716337
0.3524066329 1.0035693819 0.4972612179
0.3625993151 0.7489371143 0.2401936266
0.36253266 0.752897537 0.7381408672
0.3626289396 0.5008856945 0.7402321723
0.3627622499 0.4977736533 0.2402825002
0.352689547 0.7513788295 0.9929144106
0.3426997927 0.7522756524 0.2410610693
0.3525310559 0.752085814 0.4935053858
0.342613141 0.7508616833 0.7424299404
0.3624474895 1.0037592203 0.7373289705
0.3425146395 0.4998736592 0.7412199644
0.3526525164 0.4998586031 0.9918405222
0.3427931099 0.5037404719 0.2411786415
0.3726420232 0.5011285568 0.9851935233
0.3824403291 0.5011187376 0.2404593215
0.3722457954 0.4997826677 0.4886321542
0.3926533782 0.5028482313 0.9853879341
0.3823699709 0.500837253 0.7408033698
0.3725827742 0.750848591 0.9922293438
0.3826217792 0.7498470296 0.238986428
0.3724346517 0.7517126833 0.4899541479
0.3822033331 1.0007218053 0.2382708109
0.3824736567 0.7517781448 0.730763439
0.3924904434 0.7502463449 0.985499026
0.3926126445 0.7523738447 0.487668432
0.3926570812 0.501152123 0.4860761147
0.4024220596 0.4996700739 0.7297506511
0.402566479 0.754180583 0.2281966268
0.4024776055 0.7529040832 0.7347220138
0.4125869688 0.7494542604 0.9818144779
0.4123795972 0.7501416065 0.4844310287
0.4224815543 1.0034711896 0.730514408
0.4425262369 0.9989347054 0.2304925261
0.4324650134 1.0008069052 0.480448384
0.4424040358 1.0024892666 0.7299043283
0.4224815543 0.5019291514 0.7272547864
0.4324650134 0.7491400451 0.9819348274
0.4224815543 0.754010383 0.2357055137
0.4326094329 0.7506063834 0.4785163106
0.4223371349 0.7536699831 0.7237072516
0.442418848 0.751103891 0.2278235432
0.4424818001 0.751784691 0.7283620023
0.4224482268 1.000453413 0.231418292
0.4724951294 1.0017822821 0.4726488066
0.4728580297 0.4990049847 0.9770467837
0.462722745 0.5007586992 0.2211080376
0.4725210509 0.7527207909 0.9746120194
0.4625005612 0.7514050141 0.2250175468
0.4726321428 0.7519941679 0.4724738368
0.4626746051 0.7508944141 0.7256485826
0.4525467266 1.0006563437 0.4776414619
0.4626523868 1.0004141361 0.2249582978
0.4624783428 0.9998446207 0.7273362538
0.4525319143 0.7488781989 0.9765005818
0.4523578703 0.7488781989 0.4806631617
0.4525652419 0.4982358117 0.4767379144
0.4925101874 0.4998834785 0.9760376989
0.4927471835 0.5001767461 0.4761546819
0.4826637417 0.5015946429 0.7201356469
0.4824267456 1.000754536 0.7242451215
0.4924287201 1.0018346513 0.4761935641
0.4924139078 1.0007741745 0.9735751617
0.4924509384 0.7500499604 0.4741133682
0.4925101874 0.7524851293 0.9757136808
0.4825267284 0.7503903603 0.2320302232
0.4825304314 0.751660314 0.7276287958
0.5024269914 0.5007534622 0.224795363
0.512617822 0.9999624515 0.4717295211
0.5223939096 1.0007021668 0.7234480371
0.5023529301 1.0009967437 0.2252156607
0.5222791146 0.7522232832 0.7242469731
0.5025528956 0.7492775143 0.2264839599
0.5024566159 0.7516013987 0.7239905359
0.5123512015 0.7474118606 0.9742509707
0.5125733853 0.4993558585 0.9799536885
0.5123400923 0.7475231452 0.4770545263
0.5225494382 0.7501481526 0.2263302828
0.5524405665 1.001566259 0.4855188036
0.5423608278 0.4998847877 0.7300607827
0.5424459982 0.7487210912 0.2318311836
0.5526553442 0.5016993814 0.4844967581
0.5524294573 0.7481450298 0.4815185693
0.5425274656 0.7479159144 0.7315318247
0.5321885124 1.0025350897 0.9757692268
0.5422756573 0.4994226293 0.2296621142
0.5324329146 0.7460044377 0.9767783116
0.5525442523 0.5007842292 0.9833975375
0.5425422779 0.9999493592 0.2301675823
0.53263288 0.746233553 0.4861001846
0.5724334061 0.4986239986 0.9865636567
0.5625721481 0.9993994823 0.7384445184
0.5523628022 0.7501677911 0.9835549177
0.5623573704 0.7489763912 0.2373783727
0.5624388378 0.7494738989 0.7352256305
0.5725593103 0.7468554376 0.9894613039
0.5724334061 0.5002899946 0.4890200501
0.5725074674 0.7478373606 0.4788514379
0.6023837834 0.4984570717 0.2370460227
0.602361565 0.9968857595 0.2423997267
0.6024874692 0.9953997827 0.744420337
0.5922818263 0.747856999 0.9854342224
0.5923336692 0.9976254748 0.4895403306
0.5923595906 0.9977236671 0.9867950982
0.6025319059 0.7463448376 0.2377292379
0.5922892324 0.7458015069 0.4857826469
0.6024022987 0.7475231452 0.7327566129
0.5823872407 0.9968072056 0.238669816
0.5822465243 0.9971803364 0.7425114078
0.5823279917 0.4960408865 0.7353237616
0.5823428039 0.7497619296 0.234700132
0.5823983499 0.7466394145 0.7369706991
0.61263016 0.7446886609 0.9934791278
0.6123820547 1.0008789129 0.4915094345
0.6124672252 0.7482497682 0.4904420265
0.6225210425 0.99947149 0.7465616335
0.6224840119 0.7493560681 0.2377958931
0.6226802742 0.7483610528 0.7376279929
0.6223951383 0.9971410595 0.2426432031
0.6424064933 0.9983586439 0.7438121089
0.6323674882 0.4962379257 0.4902059562
0.6425212882 0.9986008516 0.2422775256
0.652660276 0.9982473593 0.4964706138
0.6524343891 0.9987317747 0.9935161584
0.6324378464 0.9952230366 0.4870111382
0.6324008158 0.9962115057 0.9886836606
0.6324267373 0.7471565606 0.9882207776
0.6322823178 0.7480206529 0.4828766679
0.6524936381 0.7485508913 0.9902296896
0.6424842576 0.7495720912 0.2392086118
0.6524158738 0.7451468916 0.4883849748
0.642273183 0.7483741451 0.7343368952
0.6724901808 0.7489436605 0.9915165041
0.6626511412 1.0014942513 0.241935918
0.672734583 0.9995107669 0.9957194812
0.6825402951 0.7461615453 0.2408296278
0.6726123819 0.7491531374 0.4934118834
0.6825699196 0.7492971527 0.7399118573
0.6724679625 0.9974290902 0.4964706138
0.6625067217 0.7458538761 0.2415859785
0.6624808003 0.7467506991 0.7394008345
0.702547947 0.4965429765 0.2531599034
0.6926459553 0.9985681209 0.4959012678
0.6925422695 0.9971737902 0.9970710993
0.6924682082 0.7483545067 0.9941919675
0.7025109163 0.7498535758 0.2450307533
0.692457099 0.7518697909 0.4922843006
0.7025960868 0.7498928527 0.7434168068
0.7124906723 0.4977972194 0.4977731664
0.7124240172 0.7466917838 0.4932785731
0.7224630222 0.9974552748 0.7484242744
0.7326871805 0.9991049054 0.995886119
0.7325242457 0.7477457144 0.9956454199
0.7225889264 0.7506980295 0.2458278377
0.7326501498 0.749094222 0.4942191512
0.7226629877 0.7472285683 0.7443416469
0.7224556161 1.0014680667 0.2433430821
0.7325834947 0.998018244 0.4968705447
0.7124832662 0.7474838683 0.9963582596
0.712586952 0.9967613826 0.4910122983
0.7125202969 0.997677844 0.9956269046
0.7424669711 0.500403243 0.2431162695
0.7426187967 0.7501088757 0.2468239618
0.7424447527 0.7479093683 0.7441694545
0.752557819 0.7510842526 0.994395636
0.7625709026 0.9986270362 0.7438380303
0.7526022558 0.9966762826 0.990081567
0.762419077 0.7480206529 0.2417887212
0.7526652078 0.7480337452 0.4939349411
0.762533872 0.7506522064 0.745891379
0.7525356006 0.9978022209 0.4936655432
0.7425891722 1.0007872668 0.2467656385
0.7625190597 0.9979986055 0.2363878032
0.7825081963 1.0043352818 0.2420858921
0.772632126 0.9980837055 0.4905929263
0.7825267116 1.0006105207 0.7404812033
0.7726099076 1.0000868284 0.9886003417
0.7826711311 0.7501416065 0.2429412997
0.7724395667 0.7502594373 0.4942774745
0.7827229739 0.7508354987 0.7413690127
0.7726210168 0.7502463449 0.9952288252
0.7725506586 0.4996281785 0.4915575744
0.7725543617 0.5012692991 0.9914887311
0.7924287033 1.0003617668 0.4938534737
0.7924842492 0.7499844988 0.9952843712
0.7926027473 1.0026201897 0.9931088214
0.8123734031 0.7491858681 0.9890817399
0.7926619963 0.5018087021 0.9942567711
0.8024195685 1.0010491129 0.2428894568
0.8125733685 0.4961849019 0.991220259
0.8025862063 0.7523280217 0.2387744276
0.8125585562 0.7525244063 0.48724906
0.8022862582 1.0014156975 0.7419883501
0.8025380665 0.7534212293 0.7455016316
0.8126437267 1.0030064127 0.9921830555
0.7925509044 0.7508747757 0.4954976339
0.8226605134 0.9968530287 0.7435806674
0.8224864694 1.0004141361 0.2444882545
0.832499553 0.7527600678 0.9981542454
0.822638295 0.500573443 0.7427743253
0.8226049674 0.7513984679 0.2421025559
0.8326587847 0.7482563144 0.4957161146
0.8226568103 0.7499321296 0.743906537
0.8424941213 0.7501088757 0.2450566747
0.8425052305 0.749991045 0.74042288
0.8626647079 0.4982495586 0.7497971852
0.842597807 0.9979200517 0.7480798895
0.8625795375 0.9997202438 0.2445974949
0.8625647252 0.9990132593 0.7478928848
0.8524109252 0.9977302132 -1.0603034155e-04
0.862490664 0.7507111218 0.7459876586
0.8525590478 0.5012175845 0.4981499531
0.8526738427 0.7473398529 -0.0018065697
0.8526034845 0.4996026485 -0.0054572533
0.8625795375 0.4975923248 0.2459963271
0.862549913 0.7503903603 0.2496614342
0.8525220171 0.7512217218 0.4965381947
0.8524849865 1.0005057822 0.4943302431
0.8825908924 1.0004010437 0.7524439498
0.8925336178 1.0019197513 0.0064190452
0.8825464557 0.7481188452 0.7495277873
0.87247042 0.7501677911 0.0012334603
0.8924817749 0.7517781448 0.0026627502
0.8826612506 0.4982927632 0.7539103629
0.8824575821 0.4992596301 0.2492439137
0.8824798005 0.7476606144 0.2490208042
0.8725481843 0.7501023296 0.4968686931
0.8925373209 0.7504361834 0.5004143764
0.872355625 0.5005112546 -0.002227321
0.8823427872 0.9989281593 0.2494281412
0.9125190513 0.7502136142 0.5115198637
0.9025874351 1.0015597129 0.2600494529
0.9023911727 1.0000082746 0.7589937433