POSCAR file written by Ovito 3.7.11
1
270.0497757779 0.0 0.0
0.0 15.2763222168 0.0
0.0 0.0 10.8019910311
Sr Ti O 
800 800 2400 
Direct
0.0227154377 0.5003358138 0.7923198168
0.0126715486 0.50159397 0.03800573
0.0126162255 0.2519992086 0.5365401191
0.0225041433 0.2509688559 0.7913588828
0.0024004421 0.2464114762 0.7847165888
0.0125414615 0.2478352482 0.0400579442
0.0026388056 -0.0010543697 0.2796920999
0.0226012736 0.5007776741 0.2910937017
0.0127327225 -6.1375319578e-04 0.5401774115
0.0025798535 5.8254259719e-04 0.784659192
0.0126936927 -0.0016501938 0.0388253011
0.0225250654 0.2514139892 0.2929702076
0.0026048119 0.2514355912 0.2803827133
0.0424650931 0.4999862532 0.2934701154
0.0325272955 0.2529974855 0.5475547552
0.0423403013 0.2511613106 0.7983085275
0.0523162399 0.497753386 0.046526474
0.0323880619 0.2480421043 0.0472108848
0.0324995229 9.3243047754e-04 0.5410272549
0.03267986 -3.4549491071e-04 0.0462418968
0.0424462077 0.2486986759 0.2933895747
0.0525054643 0.2504248768 0.5439702308
0.0524236275 0.251115488 0.0444269536
0.0624625176 0.2492838953 0.2953975379
0.0624658503 0.4993552113 0.793676974
0.0624625176 0.5000111283 0.2972434938
0.0723795782 0.4993336092 0.5441072426
0.0723895764 0.2505413969 0.5466308514
0.0626791443 0.2501178657 0.7956062479
0.0722777451 0.2526138853 0.0485757258
0.062528061 -5.8737250059e-04 0.2940181625
0.0624936229 6.1134534131e-04 0.7950665326
0.1024325563 -1.9179299433e-04 0.2863325424
0.0926639868 0.251051991 0.5393803362
0.0824928989 4.1705615436e-05 0.2924554876
0.1024025618 0.2515815688 0.7912940799
0.082436613 0.2496308375 0.7940426473
0.0924988321 0.2512928867 0.0430215646
0.0824406863 0.0011532297 0.793900081
0.0926447311 8.7973454794e-04 0.0433821462
0.1024773629 0.2494187445 0.2875712029
0.0824521657 0.2515481838 0.293085927
0.1024521823 0.5006408611 0.2942477498
0.0926014058 0.500786184 0.5406208483
0.1124762603 0.0020401578 0.0397747557
0.122482934 0.2519363662 0.2882821829
0.1124773712 0.2495411562 0.5352977556
0.1227950987 0.4994913697 0.7838778546
0.1125792042 0.500015056 0.041185329
0.1225562538 0.251950113 0.7877252934
0.112515142 0.2510218791 0.0366284839
0.1125766121 0.4994010338 0.541972451
0.1524814777 0.249002414 0.5314836439
0.1325907002 0.2508228783 0.5343673715
0.1425551595 0.2509662374 0.7837121444
0.1525388745 0.2499529045 0.0316106127
0.1325318222 0.2486521988 0.0344809168
0.1425196105 0.2531172787 0.2860835142
0.1427143894 0.4994134714 0.7817486175
0.1524529644 0.4996412749 0.0333195569
0.1325529294 0.5007567266 0.0324490692
0.1325099744 0.4965711642 0.533435136
0.1525781265 2.1576583505e-04 0.5293395947
0.1824037392 0.2506958844 0.7758487792
0.1826370295 0.2503653074 0.274127385
0.1623189234 0.5023395684 0.7776669625
0.1626355317 0.5004791729 0.2778054107
0.1724511295 0.2496197091 0.5257217432
0.1826018508 0.4996602585 0.7702794356
0.1623633596 0.2489068412 0.7787269523
0.1724792725 0.247566859 0.0260042388
0.1626207196 -0.0026514819 0.2774054844
0.1624911139 0.2512608109 0.2762658797
0.172678495 -0.0021393167 0.5262429434
0.1826029617 -7.9874536601e-04 0.2758520671
0.2025148464 0.2507011213 0.2659964766
0.1926629589 0.5006997758 0.0177773296
0.202595202 0.5012457187 0.2682803148
0.1925577931 0.2507829472 0.5241711031
0.2026529691 0.2505832918 0.7644138503
0.192555201 0.2518479942 0.0206967913
0.1926196336 0.0022072792 0.5230601968
0.2026255667 -0.001364392 0.7648322916
0.1924748455 0.0017330813 0.0192038258
0.2026874072 0.0041379141 0.2649216747
0.2124233901 0.2504641532 0.5096089729
0.2223585955 0.2501159019 0.7585491907
0.2125996539 0.2504517157 0.0131688273
0.2226418766 4.815366104e-04 0.2589949896
0.2125570691 0.0023896529 0.5154069781
0.21271741 0.0013754036 0.012415818
0.2224622801 0.0016646093 0.7558191384
0.2325133901 -4.2149487874e-04 0.5068344844
0.2225537447 0.2516575033 0.2638357638
0.2323885983 0.2478175738 0.513069446
0.232395634 0.2498638779 0.0099796004
0.2325681948 0.0023822559 1.0090261622
0.2525915405 0.2506022755 0.5050653661
0.2424811821 0.2513806042 0.7567809981
0.2623778844 0.2514722493 0.2504336049
0.252522294 0.2466013125 1.0049250664
0.2424174902 0.2498730424 0.2574313889
0.2424274883 5.4411711809e-04 0.256425093
0.2524319402 0.5007017396 1.008905814
0.2527315146 0.0023859217 0.5038322601
0.2423693509 -2.1843553265e-04 0.755794143
0.2625515561 0.249306152 0.7544240253
0.2523993537 0.0028082092 1.0009072886
0.2624245425 -5.6551018504e-05 0.2510279398
0.2625304489 6.6724884923e-04 0.753713971
0.2724097387 0.2506952298 0.5058217081
0.2725334196 0.2490947137 1.00907245
0.2723871503 0.0012131918 0.5045904536
0.2725223106 0.4976997081 1.0071283639
0.2824141907 0.2497480123 0.7481659197
0.2823449442 0.0014481305 0.7549072695
0.2822879176 0.2503188303 0.2530784877
0.3024875271 0.2507593814 0.245463225
0.3125523382 0.2478882714 0.4954356599
0.3123860726 0.2504497519 0.9951490909
0.3124756857 6.5631689862e-04 0.9941863054
0.2924834454 0.2504890283 0.4989350148
0.3023616244 0.250663154 0.7468180201
0.2921475814 0.5022348311 0.4996876538
0.3023731037 0.5003574159 0.2485237718
0.2923423603 0.2498370389 1.0016201202
0.3025430724 0.0032964812 0.7536325045
0.2924886297 0.0024066073 0.5002495872
0.31221129 0.5008686646 0.9963710878
0.292547878 9.3668542837e-04 1.0035549486
0.3224949497 0.2491974871 0.2377572382
0.332475332 0.249691716 0.4901051611
0.3224660662 0.2505211041 0.7436602689
0.3325179168 0.2482928191 0.9932975804
0.3223679361 -6.3555322189e-05 0.2440968102
0.3325264337 -0.0032370286 0.4875167494
0.3225967828 -0.0019727845 0.7409802074
0.3323494293 -2.8023051096e-04 0.9883910775
0.3624157383 0.2510310436 0.2291504916
0.3524675723 0.2474896153 0.4837526285
0.3422735257 0.2480172292 0.7424864112
0.3525149709 -4.0689712433e-04 0.9780781639
0.3525327454 0.2493519745 0.9866321425
0.3423127777 3.6894406518e-04 0.2313861905
0.3423483267 2.6630155884e-04 0.7395128853
0.3424257198 0.2482915099 0.2362667722
0.362371302 0.2459879449 0.7312468166
0.3624083322 6.5958993772e-04 0.227208257
0.372399083 0.2495084258 0.4700458962
0.3824194579 0.248516695 0.725234962
0.3724842525 0.2474686678 0.9780874215
0.3824675972 -0.0028858315 0.7256311852
0.3825120334 0.2497722328 0.2210593906
0.3925731416 -0.0023242434 0.4706226417
0.3924879721 -0.00348087 0.9704684557
0.3726434824 -0.0012345178 0.471733548
0.3725879371 -4.9566194486e-04 0.978263315
0.3925361114 0.2483576253 0.469793165
0.3924990812 0.2505603806 0.9654693773
0.4126175944 -0.0027441089 0.4705643191
0.4023713352 0.2492452735 0.7187880023
0.4024453957 -9.085230976e-04 0.2161158575
0.4025898135 -0.0022290635 0.7203525287
0.4024713168 0.4988609824 0.2186126194
0.4023120869 0.2488760747 0.2156316875
0.4125731582 0.2486489257 0.4674935889
0.4125028008 0.250174162 0.9689872473
0.4124509585 -0.0012072206 0.9701907291
0.4125694552 0.4987876663 0.9685521423
0.4125953763 0.4990704569 0.4668140845
0.4222898854 0.2513203803 0.215845537
0.4426083618 0.2479196926 0.710887607
0.4323769147 0.4964245321 0.9685243697
0.4326213141 0.4984525071 0.4640007143
0.4424083987 0.248353043 0.2134274642
0.4225194727 0.5012666661 0.2129220019
0.442649095 0.4950007601 0.708262165
0.4324176479 0.2516601217 0.467201976
0.4225602059 0.2511842218 0.716743009
0.432606502 0.2458138193 0.9642936681
0.442637986 0.4966189506 0.209505965
0.4323361815 -0.0046418824 0.9679318863
0.4525213491 -0.0029895214 0.9590909236
0.4725991292 0.2495287186 0.4529601571
0.4624750697 0.250062224 0.7105709987
0.4725398808 0.2462072386 0.9520551836
0.4624861787 0.2489009497 0.2075035563
0.4525213491 0.4987241694 0.9565543542
0.4626342996 0.4975471845 0.7046619028
0.4725213657 0.5016967435 0.4480194013
0.4524065555 0.2465856019 0.4637526119
0.4526213307 0.247017643 0.9632012769
0.4726657835 -0.0032422 0.9531753475
0.4826195041 6.1062527271e-04 0.1993865342
0.4824454621 0.2499601052 0.6992730815
0.4824898983 0.252554316 0.1997364697
0.4926139578 0.2504674263 0.4495950367
0.4924547279 0.2511135242 0.9509998226
0.4825787708 0.5013229624 0.2023406193
0.5025158361 0.2486076854 0.1980793678
0.5124473385 1.420569944e-04 0.9508239291
0.5223381077 -9.6802694853e-04 0.1972980304
0.5023825273 0.2510277706 0.6968364936
0.502675066 0.5018839613 0.6968651921
0.5124066053 0.2538903706 0.4427305615
0.5024788059 0.0019394791 0.6997655833
0.5224269802 0.2475171088 0.1955363181
0.5123991992 0.2510932313 0.9484632532
0.5224491983 0.2493382278 0.6985047046
0.5125658352 0.5000104737 0.4481175313
0.5224454953 0.5024174667 0.1979108803
0.5223158896 0.501253574 0.6944054603
0.5525510563 0.2503129388 0.4546616953
0.5522733297 3.6894406518e-04 0.9500740674
0.5323325615 0.5043616519 0.9486021165
0.5325806639 0.4999836348 0.4496218836
0.5324954944 7.5548998351e-04 0.4457392661
0.5323103433 0.2505950748 0.4429731094
0.5322325799 0.2488367982 0.9447139444
0.5424381059 9.2856829139e-04 0.6968688951
0.5421751914 0.2511560737 0.1956020467
0.5423862636 0.2487431893 0.6994610098
0.5524103415 0.2488544726 0.9517959721
0.5622900016 0.5033574835 0.7053997298
0.5622974077 0.5015959339 0.2059001482
0.5622862986 6.1592759606e-04 0.2049475461
0.5623270318 0.2530138507 0.2062778564
0.5623344379 0.2523625159 0.7032890078
0.5724251702 0.0023577081 0.4551597516
0.572569588 0.001871269 0.9543788293
0.5722733463 0.2483039474 0.4582415909
0.5722622373 0.251552766 0.9587021064
0.5923659385 0.4995941432 0.9634234582
0.5824381391 0.2522937821 0.7058255772
0.6024751859 0.2495601398 0.2167962876
0.5925251684 0.2525471153 0.4625269119
0.6022863318 0.2505911471 0.7177317156
0.5923622354 0.2542837899 0.9587761668
0.6023455802 0.5020201197 0.7158977944
0.5823974058 0.2532593286 0.20726286
0.5923992657 0.5019821525 0.464255297
0.5822863152 0.5018793791 0.2099225548
0.6126362756 0.0043340346 0.970959106
0.6125399971 0.5002526786 0.4712280856
0.6224900146 0.250432732 0.7215106486
0.6222233971 0.5007573812 0.2245356016
0.6124177974 0.5040199466 0.9696723062
0.6225048267 0.5026780006 0.7181436767
0.6123696581 0.2544827906 0.468348061
0.6124326095 0.2550699739 0.9706628643
0.6225862931 0.2512588471 0.2194448734
0.6424159708 0.2506729731 0.2230182887
0.6525289212 0.2506441704 0.4742978901
0.6427011034 0.2517936617 0.7254849159
0.652317849 0.2506978482 0.9712460901
0.6325289046 0.5011154517 0.9770783483
0.6424085647 0.5019310931 0.7250433306
0.6523326611 0.499929957 0.9756063974
0.6425900128 0.5030216697 0.2265306042
0.6524326427 0.5007534536 0.4785933945
0.6323918928 0.2540546771 0.4738998153
0.6326511043 0.2545796726 0.9739863257
0.6623345209 -7.4814576711e-05 0.7281807152
0.6724141442 0.5044356226 0.4761142219
0.6825715309 0.5001381223 0.722201262
0.6723178656 0.5026145036 0.9776708316
0.6825159855 0.4999096641 0.2265491193
0.6624567206 0.2492766946 0.2261797429
0.6623048967 0.2508405527 0.727269772
0.6823826768 0.0026827863 0.2289995934
0.6824456281 0.0022343145 0.7295758284
0.6624382055 0.5022564332 0.7260162994
0.6624196904 0.5024292496 0.2259964434
0.6823567556 0.2518794153 0.2304882079
0.6724289563 0.2491850495 0.4789025967
0.6823382405 0.2519062543 0.7273549415
0.6724067381 0.2495961433 0.9743195976
0.7024382387 0.2493559022 0.2338848039
0.6923697245 0.2482489604 0.4786091323
0.7023975055 0.2484603987 0.7321188781
0.692451191 0.2503522153 0.9820218813
0.7026122807 0.4997276831 0.7287824561
0.7026270928 0.0010639412 0.7327502431
0.7025345173 0.0016649366 0.2319758966
0.6924178638 0.498045341 0.9818737605
0.6925363605 0.4981919732 0.4824371303
0.7125511892 0.2495935248 0.4833369644
0.712525268 0.2483170396 0.9834475444
0.7224049281 0.5004791729 0.7324965862
0.7225826731 0.2487949033 0.2338135208
0.7324030849 0.5007488713 0.9851601917
0.7325252846 0.2497421208 0.4888516885
0.7224567704 0.4992936782 0.2361279089
0.7326474843 0.5010329711 0.48859618
0.7226715456 0.2504818276 0.7385658377
0.7325215816 0.250911905 0.9852342521
0.7125104559 0.4985376061 0.9841974062
0.7627863725 0.4992858229 0.7473262597
0.7425530656 -0.002303296 0.7411736902
0.7527363734 0.499702808 0.9968339655
0.7625345671 0.5014329365 0.2499475834
0.7627345302 0.2504268406 0.2497429915
0.752666016 0.249357866 0.4968363276
0.762516052 0.2485206226 0.749632316
0.7527474825 0.2519527314 0.9954638477
0.7423827266 0.503096295 0.7428650451
0.7526178767 0.5001610335 0.4937220869
0.7427345136 0.2497165911 0.2454530417
0.7425456595 0.2523461507 0.7465708434
0.7825568018 0.5000117829 0.2472175312
0.7824938505 0.4969665474 0.7480390912
0.7825086625 0.247463431 0.2519083331
0.7726993598 0.2482771085 0.5053560532
0.7825530988 0.2492001055 0.7496545342
0.7725179118 0.2516260821 6.1438252201e-04
0.7927475157 0.4987758834 0.4999116866
0.8124957269 0.4993853233 0.5025167619
0.8025679275 0.4985886655 0.7509154128
0.8023494492 0.4987411892 0.2527109629
0.7925179284 0.2495673405 0.5038433691
0.7924327589 0.2464638448 1.0033790551
0.812514242 -0.0033311612 0.5003838217
0.8025753335 0.2480080647 0.2481534697
0.8124809148 0.2477959717 0.5053060624
0.802475352 0.2472159892 0.7497063765
0.8125920054 0.2495686497 1.0043881284
0.8325475858 -5.8711065746e-04 0.5084832545
0.8224568535 0.2483183488 0.2541051503
0.8325512888 -0.0010627487 1.0072116819
0.8326179432 0.2505381239 0.5074732555
0.8227160649 0.2473573845 0.7537824769
0.8325364767 0.2484780731 0.0045433804
0.8325475858 0.498245651 0.5111068449
0.8325623979 0.4989977954 1.0046751125
0.8225049927 0.4977317839 0.2559418487
0.8424679791 0.4992190529 0.7602646152
0.842630912 0.4983706811 0.2586348708
0.8427197846 -0.0025257972 0.2582636429
0.8425975849 0.2505021205 0.259734668
0.8425494456 0.2478836892 0.7608043305
0.8624272625 0.2441471878 0.2592754934
0.8525476024 0.2483608983 0.5111392463
0.8623902323 0.2459493231 0.7590083653
0.8525290873 0.2503063927 0.0086090198
0.892443951 0.5005623081 0.0116978948
0.8724328253 -0.0020599783 0.5137026626
0.8824383882 0.2473809504 0.2618842717
0.8724698555 0.2510552641 0.508927617
0.8925957749 0.2510847214 0.512581573
0.8824346851 0.2474922337 0.7627021288
0.8725031827 0.2485893564 0.0080042239
0.8924032178 -0.0020909412 0.5106402642
0.8724402314 -0.0036162429 0.0095194075
0.8925661507 0.2508143684 0.0069860782
0.872369874 0.5003770541 0.5116826647
0.8925402295 0.5003881824 0.512180721
0.9124587797 0.4984852375 0.5150616714
0.902479138 0.5002206028 0.7599072737
0.9127068821 0.500604203 0.016689382
0.9025531984 0.4962857552 0.2606798641
0.9125624643 -7.6516398479e-04 0.5164151255
0.9025124652 0.2491627929 0.262374922
0.9125994945 0.001570804 0.0164030459
0.9124106404 0.2488944037 0.5194404937
0.9024161866 0.2522931275 0.7629983705
0.9125254341 0.2503306132 0.0170850498
0.942438438 0.2491339901 0.7689889327
0.9323551117 0.2503090112 0.0221017175
0.9324365782 0.4988046861 0.5171668388
0.9326513534 0.4981598974 0.0185930125
0.9225309969 0.5013635481 0.7699868969
0.9226568996 0.4986953666 0.2724573225
0.9423458625 0.4966903029 0.7697804535
0.9224902637 0.2519265471 0.2695837782
0.9223902821 0.2497630682 0.765954307
0.9424606561 0.2492413458 0.2679470429
0.9324180631 0.2485618629 0.5240285368
0.9724143933 1.9540753182e-04 0.5241137063
0.9623458791 -0.0025075991 0.7767254694
0.9623680972 0.2496419658 0.2754326999
0.9523662374 0.0021431931 0.0205068264
0.9723477389 0.0010683925 0.0284808193
0.9523329102 0.2493068066 0.5193229228
0.9723440359 0.2485945933 0.5267641436
0.9624051274 0.2512117154 0.7729465365
0.9525810126 0.2487183142 0.0198472257
0.9524106736 0.0020378012 0.5232416448
0.9724773446 0.2484302867 0.0272023513
0.9726550896 0.4976807245 0.5299885491
0.9625717633 0.0019149968 0.2802642166
0.95265137 0.4990639108 0.5272186894
0.9625273271 0.4983543159 0.7746582579
0.9826421374 0.2532187429 0.2780285177
0.9823347866 9.1154848804e-04 0.7793203614
0.9925662337 0.0022838029 0.0286614341
0.9924773612 0.2490646017 0.529837651
0.9824903135 0.2509027405 0.7774336722
0.9923847857 0.2478882714 0.0271940195
0.9925403126 0.5009923855 0.0326453293
0.0228062728 0.7527048032 0.7876290149
0.0028236974 0.5021189655 0.2879877928
0.0026507664 0.7507409798 0.7850655986
0.0126342962 0.5034713853 0.5393608954
0.0025141619 0.4981009827 0.7855377337
0.0225129936 1.0009451811 0.2904558563
0.0226448952 1.002856636 0.7954118393
0.0125840462 0.7508588092 0.037938335
0.0226695203 0.7502107474 0.2870925874
0.0025235676 0.7500143651 0.2831183201
0.0125398692 0.7524495062 0.5357661877
0.0526569179 1.003615981 0.545974491
0.0524939849 0.999675242 0.0423144727
0.0327417004 0.7518734513 0.0427553173
0.0425980315 0.7527571719 0.2924036453
0.032525444 0.7513301268 0.5408208114
0.042715047 0.7524495062 0.7948971194
0.0423899217 0.5008915759 0.7978151
0.0322951161 0.5008176052 0.047066467
0.0323576972 0.5007632727 0.544094282
0.0426306181 1.0002447508 0.2932034979
0.0524551032 0.5014224628 0.5448691392
0.0525935962 0.7478607054 0.0438221577
0.0525917447 0.7519650964 0.5473862677
0.0425835897 1.001351038 0.7954627559
0.0725314021 0.4993781226 0.0479201985
0.0723629146 1.0009910037 0.5411735242
0.0723595819 1.0035636124 0.044139414
0.072536216 0.7521549327 0.0442393956
0.0624551115 0.7500601876 0.2958594897
0.0726761902 0.7501911092 0.5430889118
0.0624614067 0.74892117 0.7965551471
0.0925117927 1.0003167576 0.5441081684
0.0924395837 0.748665873 0.0425481333
0.1026147449 0.752600066 0.2879637231
0.0826117659 0.749752522 0.294462525
0.0927043497 0.7537783601 0.5445932641
0.1026373334 0.7495561396 0.7926716038
0.0827321141 0.7481421867 0.7974040646
0.1026199292 1.0002905733 0.7920096888
0.1025817881 0.4991274078 0.7884686749
0.0825543691 0.5008719376 0.7936297605
0.0927302709 0.5005407061 0.0445926638
0.0824592014 0.4999443583 0.2946698942
0.1124536718 0.7503220308 0.0361090426
0.1224122063 0.7515461474 0.2877739433
0.1124140495 0.7484891289 0.5384240311
0.1226243894 0.7502369318 0.7845555074
0.122431462 0.9995639586 0.281435297
0.1225566241 0.9990533645 0.7820865181
0.1226140209 0.5006978119 0.2835821235
0.1123933126 1.0009386351 0.5365206783
0.1425059093 0.748836071 0.280902062
0.1525440588 0.7510355533 0.5342562809
0.1324311 0.7501452867 0.5333120105
0.1423881533 0.7508195327 0.7804729267
0.1525944198 0.4981847725 0.5271566638
0.1326962363 0.9989748116 0.0326697693
0.1427647505 0.5007789833 0.2822370011
0.1426536599 1.0034261448 0.2819398337
0.1324844235 0.9975739509 0.5330324324
0.1425462723 1.0010564645 0.7812885171
0.1527495764 1.0009779115 0.0289603605
0.1526629257 0.7481945554 0.0319486059
0.1324377654 0.7527637179 0.031699948
0.172422246 0.7490782759 0.0247233638
0.1626573795 0.747409026 0.2771768229
0.1724829755 0.7503089386 0.5247709925
0.1625433265 0.7472388279 0.7776845519
0.1826407325 0.9997341567 0.773697324
0.1724677931 0.5019258562 0.0261551369
0.1724892706 0.4991725757 0.526316078
0.1825307528 0.7494775867 0.2688931648
0.1823926301 0.7497917984 0.7712792513
0.1725577765 0.9981434597 0.0255160881
0.1626151651 0.9979470773 0.77999894
0.1824963147 0.4992851683 0.2713936298
0.202559653 0.4982548155 0.7669976332
0.1925152084 0.5003292677 0.5187572864
0.1924848436 0.7522793082 0.0195463553
0.2024193085 0.7519192739 0.2643088248
0.1924666988 0.7498310749 0.5173168112
0.2024167163 0.7477232377 0.7663301636
0.232708169 0.7502042014 0.0065144985
0.2322756562 0.5036199813 0.0135164484
0.2325430143 0.7523447689 0.5074232647
0.2126663083 0.7537390836 0.0147384454
0.222502643 0.7508719013 0.2613565912
0.2124100592 0.7493728494 0.5108281926
0.2225574477 0.751677069 0.7583723714
0.2324019292 0.4999273385 0.50980153
0.2224767219 0.5006840652 0.7612931293
0.2125796576 0.502295055 0.0116491075
0.2224556147 0.5000399311 0.2661529292
0.2124104295 0.5024678715 0.5128509678
0.2523601016 0.7508849935 0.0024264559
0.2424211932 0.747409026 0.2571675487
0.2527370692 0.7502827543 0.5023834531
0.2424904397 0.7485349514 0.7546628701
0.2426581865 0.4930343182 0.7599294918
0.2624682382 0.4991791218 0.7573059014
0.2624245425 0.7500601876 0.2546457914
0.2424971051 0.4991391907 0.2594356491
0.2625530373 0.7506166043 0.7525808465
0.2625004544 0.5001872178 0.257529519
0.2524667486 0.4982999835 0.5076676641
0.2723797443 1.0013641301 1.0030735559
0.2823560532 0.496387874 0.2549661027
0.2723530825 0.5032750029 0.5075334296
0.282418264 0.9994395831 0.2521693961
0.2823360569 0.500166925 0.757231841
0.2826130429 0.7504987749 0.2552493838
0.2825549055 0.7506362425 0.7510589049
0.2724401035 0.7520109189 1.0056101253
0.2724671356 0.7493990337 0.5060772166
0.3125086426 1.0006506076 0.4915243439
0.292449748 0.7483647534 1.0028606322
0.3024608653 0.7489342622 0.2494523044
0.2923079223 0.7520371033 0.5033397583
0.3025652905 0.7494775867 0.7475447379
0.3023038572 0.5015160717 0.7527030462
0.2923501367 0.4996380019 1.0038234177
0.3024219836 0.9972924695 0.2501984631
0.3124579112 0.7506493347 0.9954268175
0.3123071983 0.7495954161 0.4928453967
0.3122812771 0.4987968308 0.4963715984
0.3322775907 0.4992282174 0.4879740725
0.3223197968 0.5014152621 0.7424956688
0.3324590387 0.7518079905 0.9887058343
0.3321661298 0.4995463568 0.9873634892
0.3225253145 0.7504987749 0.243011825
0.3324227491 0.7465907662 0.4864947156
0.322400893 0.7509046317 0.7423558797
0.3223964494 0.4964913021 0.2456678169
0.3523405587 0.4967943855 0.4811910637
0.3524201736 1.0011088331 0.4789368497
0.3625823742 0.7497263377 0.230590041
0.3624749866 0.75092427 0.7279446476
0.3622305872 0.5003790179 0.7261801581
0.3625009078 0.4986194321 0.2270675422
0.3522535377 0.7504660445 0.9818274727
0.3425223687 0.7492681122 0.2299883001
0.3524005476 0.7496281465 0.479166437
0.3423342552 0.7482534701 0.7332482995
0.3625564531 1.0000025459 0.7267254279
0.3423705448 0.4966006216 0.7382927399
0.3523690719 0.500030112 0.9834105142
0.3422039089 0.4959538691 0.2355854164
0.3723287256 0.5000589147 0.9783096027
0.3825046274 0.498090509 0.2191764044
0.3724213011 0.4975157633 0.4803801021
0.3924805661 0.4995313008 0.9699963205
0.3823676156 0.4996681138 0.7209348288
0.3724546283 0.74892117 0.9738196897
0.3824527851 0.750760618 0.2222897193
0.3724101921 0.7528095405 0.4770797846
0.382430567 0.9988177057 0.226323235
0.3825897969 0.7501976553 0.7255395354
0.3925398144 0.7487051495 0.9727458136
0.3924509419 0.7502827543 0.4715234016
0.3924324268 0.4967459445 0.464595975
0.4024861289 0.4978607416 0.71573301
0.4026046256 0.7519585503 0.2191365969
0.4025824074 0.7499750886 0.7172623577
0.4125546431 0.749084822 0.9680337194
0.4126472186 0.7529993768 0.4689164747
0.4226712966 1.0005851468 0.7140879429
0.4425343014 0.9970699028 0.2112482364
0.4325287385 0.9982220126 0.4637998254
0.4425602225 1.0020383762 0.7145406372
0.4226935147 0.4993316454 0.7184593592
0.4325879869 0.7470031691 0.9616552656
0.4225898301 0.7481421867 0.2158085068
0.4328175742 0.7488557092 0.4643321347
0.4226490784 0.7470489917 0.7189092763
0.4426935313 0.7474744867 0.2118796014
0.4426861252 0.7499292661 0.709964629
0.4225268787 0.9957803254 0.2169768099
0.4727176258 0.9966705921 0.4529481223
0.4726065352 0.4993041519 0.9518978052
0.4625787542 0.4973383646 0.2067536946
0.4723102935 0.7483189308 0.9536937704
0.4625120999 0.7457266839 0.2073776536
0.4726139412 0.7482338318 0.456289173
0.4625120999 0.7452619123 0.7074363914
0.4525954095 0.9949489735 0.4569686774
0.4625491301 0.9989093508 0.2059834662
0.4627268751 0.9982809273 0.7069355578
0.45266947 0.7498114367 0.9549620551
0.4526102216 0.7494775867 0.4591442022
0.452499131 0.4960651524 0.4611503139
0.4925139763 0.4998952627 0.9485373136
0.4924843521 0.4999090095 0.4516974269
0.4825639588 0.4986456164 0.7043804732
0.4824676802 0.9966378617 0.703492674
0.4924954612 0.9998061635 0.4501847428
0.492643582 1.0001072831 0.9526106368
0.492632473 0.7491437367 0.4498366589
0.4925584125 0.7502696621 0.9509627924
0.4825713648 0.7472126436 0.2009667985
0.482600989 0.7495299553 0.7019864701
0.5024158545 0.5010421357 0.1963213586
0.512525102 1.0000352763 0.4491145698
0.522560289 1.0041200291 0.6958033508
0.5024788059 1.0021103831 0.1995355808
0.5224195742 0.7515526935 0.6935954245
0.5025565693 0.7457725064 0.1985357651
0.5025306482 0.7514152258 0.6994406432
0.5123362479 0.7499030818 0.9495000991
0.5125769442 0.5016306281 0.9464728794
0.5124436355 0.748168371 0.4465104202
0.5225454769 0.7505642357 0.2009945711
0.5523325781 1.0024115027 0.4499347889
0.542460324 0.4987935578 0.7017689177
0.542278876 0.7506624268 0.1972869213
0.5523881234 0.5022924366 0.4507466763
0.5523844204 0.7503089386 0.4543367552
0.5424344028 0.7471209985 0.6999312935
0.532247392 1.0012201164 0.9473060591
0.5424158877 0.5016568124 0.1971795337
0.5322733131 0.7476839613 0.945343458
0.5523584992 0.5036127806 0.9535178769
0.5423381243 0.9976328656 0.201494479
0.5324843853 0.7526982572 0.4497598212
0.572391843 0.5016325919 0.9577115482
0.5624936678 1.0015343282 0.7058181712
0.5523436871 0.7509897307 0.9529716813
0.5622825956 0.7493990337 0.1969999372
0.5624344195 0.7530844758 0.7030242418
0.5724992306 0.7523120385 0.958026305
0.5723029705 0.5012365542 0.4555356082
0.5722992675 0.7512515739 0.453913685
0.6024085315 0.5060930896 0.2152752717
0.6025899795 1.0043556879 0.2134348703
0.6025307312 1.0036879879 0.7163088298
0.5924881382 0.7523774993 0.958026305
0.5924733261 1.0024704174 0.4646783672
0.5925140593 1.0038320016 0.9619052196
0.6025270282 0.7531761209 0.218099751
0.5925807137 0.7544264218 0.4602393707
0.6024233436 0.7529142777 0.7184593592
0.5825196055 0.9993021155 0.2098022066
0.5824714663 1.0011219252 0.7110755353
0.5822863152 0.5024096114 0.7083214134
0.5823085333 0.7531695748 0.212811837
0.5822826122 0.7489604465 0.7112375424
0.6123437369 0.7527178954 0.9658119068
0.6124103913 1.0037338105 0.4663512069
0.6123770641 0.7518930895 0.4679879422
0.6225492629 1.0037272644 0.7202997607
0.6224159542 0.7511141062 0.2197522242
0.6224492814 0.7533659571 0.7227817105
0.622390033 1.0009189968 0.220551151
0.6425826067 1.0010237341 0.7230557341
0.632591856 0.5015880786 0.471427123
0.642449298 1.0033672301 0.223456171
0.6524733759 1.0017961713 0.4807309634
0.6522771158 1.0016717958 0.9737085991
0.6323289415 1.0016652497 0.4721094046
0.632417814 1.0021692978 0.971579362
0.6323437536 0.7483843916 0.9717922857
0.6322808022 0.7516705229 0.4743923171
0.652488188 0.7513890415 0.9779670733
0.6424678131 0.7520698337 0.2253456374
0.6524363457 0.7526327964 0.4744626745
0.6423419103 0.7518341748 0.726214411
0.6724585804 0.7491437367 0.9781707395
0.6624345025 1.0026602536 0.2265287527
0.6724696895 1.0023067654 0.9790316918
0.6825419067 0.7499619965 0.2285672657
0.6725400469 0.7512450278 0.4831277437
0.6825789369 0.7517032533 0.7320374116
0.6724067381 1.0000614606 0.4765113709
0.6622863816 0.7506493347 0.2282460287
0.662341927 0.7528880934 0.7269253911
0.7025382203 0.4992701123 0.235526168
0.6925141423 0.999341392 0.4815558113
0.6925104393 0.9995508665 0.9796426903
0.6924030517 0.7500470955 0.9798370989
0.7025308142 0.7492484739 0.2351114297
0.6925104393 0.7511141062 0.481144776
0.7025419233 0.7472846505 0.7338204162
0.7124252864 0.5000864082 0.4826111723
0.7126622798 0.7481421867 0.4882814232
0.7226456245 0.99884389 0.7335899032
0.7326511873 1.0003363959 0.9923440525
0.7325475027 0.7465645819 0.9928069301
0.7224789886 0.7502958465 0.2317713047
0.7325808299 0.7509897307 0.4900218431
0.7225826731 0.7518930895 0.7351007357
0.7225789701 0.9978096097 0.2374998782
0.7327326538 0.9999239929 0.4889961063
0.7126733889 0.751598516 0.9850768737
0.7126363586 0.9978685244 0.4846487596
0.712528971 0.9967098685 0.9860304016
0.742453084 0.4993021881 0.2444921077
0.7425012233 0.748665873 0.2445957923
0.7425160354 0.7504725906 0.7439361439
0.7527141553 0.7530517454 0.9983151739
0.7624901308 1.0013183076 0.753097418
0.7527141553 1.0015539664 0.9973061007
0.7625641912 0.7494252181 0.2498327898
0.7526289858 0.7501125563 0.4976611755
0.7625901124 0.7509046317 0.7476743437
0.7524364287 1.0013183076 0.4985619354
0.7426937804 1.0020449223 0.2429146207
0.7626086275 0.9981172753 0.2476174574
0.7826160501 0.9994723135 0.2481821682
0.7726549236 1.0017110723 0.4968391049
0.7825049595 0.9975739509 0.7469791015
0.7726327054 0.9977899714 0.9978060085
0.7825345837 0.7510617376 0.2513963904
0.7728215595 0.7497066994 0.4965150905
0.7824568202 0.7481945554 0.7523234866
0.7726401115 0.7491764671 1.0028884049
0.7725660511 0.4996484756 0.4988785437
0.7725956752 0.4998389665 0.9978615538
0.7926512371 0.9966705921 0.5001912646
0.7924734921 0.7457659603 1.004147432
0.7925290375 0.9998258018 0.9986114156
0.812514242 0.7508980857 1.007498666
0.7926993764 0.4983346777 1.0020737402
0.8024642429 0.9973251999 0.2497439173
0.8124586967 0.4988564001 0.9982318559
0.8027123453 0.7474417564 0.2595004519
0.812517945 0.7502958465 0.5070177839
0.8026753151 0.9987849753 0.7528104338
0.802653097 0.7512973964 0.7550600191
0.8126586598 0.9998127096 1.0086466026
0.7925290375 0.7472650122 0.501929833
0.8226642226 0.9986475077 0.7565227124
0.8226383015 0.9988307979 0.2517907622
0.8326105371 0.7508326249 1.0090631924
0.8224605565 0.4967649281 0.7575743704
0.8226716287 0.749418672 0.2544171298
0.8326031311 0.7480636338 0.5075843461
0.822556835 0.7487575181 0.7548739423
0.8425087124 0.7459557966 0.261047389
0.8425198214 0.7506689729 0.7635566009
0.8623717172 0.4960553333 0.7614718
0.8426457241 0.9985951391 0.7567374877
0.8624198565 0.9998127096 0.2601586639
0.8624346685 1.0008077135 0.7579983663
0.8525438994 0.9967884215 0.015608285
0.8624568867 0.7490782759 0.761460691
0.8522698758 0.4974738684 0.5122084937
0.8525290873 0.7480505416 0.013480344
0.8524365117 0.4999351938 0.0136793813
0.8625790864 0.4964264959 0.2593319645
0.8624420746 0.7473762956 0.2630062871
0.8523994815 0.7474483024 0.5119983472
0.8524291057 0.9988831665 0.509680256
0.8825013395 1.0003756723 0.7605728917
0.89261429 1.0007291606 0.0092264985
0.8824828244 0.7487378798 0.7660894673
0.8724143102 0.7472846505 0.012266864
0.8927735199 0.7531564826 0.0105409784
0.8824976365 0.49973292 0.7570216945
0.8823198915 0.4989775026 0.2596800485
0.8825050425 0.7462634623 0.2659566691
0.872380983 0.7496346926 0.5088054173
0.8925994779 0.7482076475 0.5123436539
0.87237728 0.5012889228 0.0098912834
0.8824717154 0.9991057332 0.2609927694
0.9126402277 0.7503547612 0.5150912955
0.9026939132 0.9995770508 0.2647726281
0.902482841 1.000853536 0.7586593556
0.9025865256 0.7498114367 0.7625299383