POSCAR file written by Ovito 3.7.11
1
270.0124695209 0.0 0.0
0.0 15.2742118563 0.0
0.0 0.0 10.8004987808
Sr Ti O 
800 800 2400 
Direct
0.0224677614 0.5014193858 0.7709630452
0.0127486917 0.4977818823 0.0148266698
0.0125919212 0.251221861 0.5196968717
0.0226086438 0.2500204897 0.7716352363
0.002667824 0.2491988434 0.7622115975
0.012585403 0.2510883026 0.0178085691
0.002598642 5.7586788841e-04 0.2688584563
0.0226758999 0.5025120772 0.2720370132
0.0127092491 0.0017287915 0.5179839879
0.0027819298 -0.0012248142 0.7672928443
0.0123224521 -0.0014330737 0.0207869501
0.0226439755 0.2510333079 0.2728758633
0.0026050491 0.2481657295 0.2690047458
0.0424529865 0.4956730992 0.2744443094
0.03267529 0.2478154659 0.5243429534
0.0424292839 0.2503183774 0.7709473052
0.0525499276 0.5004995348 0.0260953161
0.0325223341 0.2498345554 0.0214123842
0.0324141909 -0.001051712 0.5220782432
0.0324267829 -0.00339946 0.020408912
0.0425037249 0.2491156967 0.2689417858
0.0526651075 0.2517181223 0.5225772942
0.0526128877 0.2495261925 0.0251930429
0.0626364988 0.2491392658 0.2740609938
0.0624635439 0.4988693361 0.7759100389
0.0624694695 0.4983567074 0.272070345
0.0726301114 0.500815754 0.522951351
0.0725304863 0.2521521873 0.5224698918
0.0624476187 0.2495563086 0.773833283
0.0725349306 0.2505442483 0.0240323558
0.0626120555 4.0662838694e-04 0.2715259257
0.0626668678 1.4042807243e-04 0.7723324264
0.102592061 0.0025595382 0.2742785763
0.0925258592 0.2498823484 0.5241577768
0.0824400287 0.0010883657 0.2731443695
0.1025050279 0.2512945325 0.773278679
0.0826200204 0.2481703124 0.7748730498
0.0924514182 0.2514464225 0.0213929406
0.0824252146 -0.0022351446 0.7679354072
0.0923691998 0.0022556927 0.0229200923
0.1024920656 0.2540462293 0.2752183478
0.082581874 0.2495222643 0.2744581977
0.1024450307 0.502161159 0.2681751545
0.0924780836 0.5004484683 0.5248225609
0.1123442032 9.1028776213e-04 0.0230622154
0.1223144834 0.2526798741 0.2695547204
0.1125216024 0.2519243523 0.5214264215
0.1224633655 0.5027942522 0.7632800667
0.1123160563 0.5030266701 0.0184335403
0.1223892948 0.2504159275 0.7669215651
0.1125912288 0.2525404233 0.0202214207
0.1122334675 0.5012419626 0.5255364168
0.1524538323 0.2512277533 0.5115463222
0.1325258637 0.2484243353 0.5138915843
0.1424842927 0.2490862353 0.7621004915
0.152412723 0.2506581658 0.0116128368
0.1325084571 0.2515020719 0.0160196703
0.1423057824 0.2520834439 0.2602023746
0.1425394753 0.4998127563 0.7624347353
0.1526019736 0.4985452605 0.0107575059
0.1325147531 0.4997289549 0.0183421556
0.1324414232 0.5013945073 0.5169969964
0.1523738359 -0.0016717767 0.5131462483
0.1824024491 0.2493448411 0.7612560861
0.1823735616 0.2506352514 0.2605968008
0.1625111455 0.4993878571 0.7645901913
0.1626281772 0.5012321421 0.2614402804
0.1725040174 0.2483758877 0.5110935653
0.1824709645 0.5018888045 0.7625588037
0.1622863411 0.2515963484 0.7619829043
0.1724314281 0.2521168335 0.0091326735
0.1624829987 0.0012506654 0.2637799871
0.162482258 0.2497821795 0.2637068424
0.1723655053 4.660981107e-05 0.5106741403
0.1823831908 0.001481512 0.2626430026
0.2024107843 0.2494561398 0.2580330303
0.1925153154 0.5004753109 0.0102529922
0.2022852346 0.5019359428 0.2545905967
0.1923531007 0.2513141735 0.5105241472
0.2023670826 0.248017113 0.7558007824
0.1923779143 0.2529692507 0.0085113133
0.1923160654 7.1865757999e-04 0.5117314988
0.2022730129 -0.0010198937 0.7598209672
0.1923982838 0.0019749581 0.0110866574
0.202213386 -0.0011973169 0.2599783108
0.2124521724 0.2500492964 0.5024476683
0.2220943197 0.249709508 0.7533434885
0.2123288448 0.2480904392 0.0030670277
0.2225168928 -8.8829931121e-04 0.2542804258
0.2122125539 -1.5883450446e-04 0.50495496
0.212550316 0.0024134095 9.1370126081e-04
0.2224354151 -0.0012228501 0.753513851
0.2322397771 0.0038311586 0.5044253548
0.2223391232 0.252493285 0.2511509407
0.2323860666 0.2494908388 0.5025569226
0.2323627344 0.2502555264 4.6148734745e-05
0.2325538367 0.0037430362 1.0020134856
0.2526077253 0.2523885333 0.4992839256
0.2426941091 0.2490397517 0.754299
0.2625091199 0.2524382904 0.2485760597
0.2524929158 0.2539185632 1.0001709781
0.2423604208 0.2493324018 0.2507666992
0.2425055993 -0.0011392452 0.253589717
0.2524277336 0.5026115914 0.997643317
0.2524610654 0.0010151704 0.4974747499
0.2423993079 -9.1285049614e-04 0.7488788799
0.2625576362 0.2493926341 0.7492473814
0.2523688475 0.0040280264 0.997976635
0.2625298597 0.0020471713 0.2525601349
0.2623857923 0.0010547142 0.7491770143
0.2726345782 0.2548770414 0.4973747545
0.2724971771 0.2519374462 0.9962452335
0.272420514 0.0024179269 0.497362718
0.2723101487 0.5025376105 0.997865529
0.282460791 0.2512310268 0.7466400944
0.2825085666 -6.9468191297e-05 0.7467243498
0.2827241122 0.2496695714 0.2507083686
0.3026254153 0.2493441864 0.2396699895
0.312553105 0.2525234012 0.4937851054
0.3126201389 0.2521227258 0.9894399922
0.3124690348 4.8132945896e-04 0.9894677687
0.2926851337 0.2515891467 0.4933138309
0.3025420858 0.2535224707 0.7420116045
0.2926192108 0.5019765341 0.4952174467
0.3025569 0.4980489992 0.2464094931
0.2924451448 0.2513194111 0.9965229984
0.3025117169 -2.5324199425e-04 0.7405551902
0.2925758795 -9.7969518899e-04 0.4868280193
0.3125860664 0.5011097136 0.9929305717
0.2924762544 0.002768125 0.9910695466
0.3224867203 0.251076518 0.2417115619
0.332532923 0.2500813766 0.4914537316
0.3225878267 0.2544488688 0.7394274645
0.3323566348 0.2548096075 0.9917917354
0.3223745033 0.0020839653 0.2449947436
0.3323144146 -8.7533628556e-04 0.492837927
0.3224552403 0.0020649136 0.7444818607
0.3323270066 0.0032787242 0.9963748571
0.362452282 0.2492413988 0.2383061636
0.3524494106 0.2512113858 0.491308368
0.3424465392 0.2494109656 0.7386487968
0.3523857098 -0.0010115135 0.9911436172
0.3523090467 0.2485317058 0.9835050811
0.3426628255 -0.0020443 0.2459150714
0.34230062 -0.0010915831 0.7455466264
0.3425928288 0.2497992017 0.2391227925
0.3623152512 0.2504231291 0.7378136502
0.3625004279 0.0014256662 0.2354359258
0.3723703424 0.2485919381 0.4863261907
0.3823624735 0.2522268229 0.7434078363
0.3723962672 0.2514307098 0.9866716015
0.3824772831 7.2474627385e-04 0.7337693925
0.3823958053 0.2493919794 0.2429411347
0.3924508965 0.0012621881 0.4917324225
0.3924768212 0.0029098672 0.9909028876
0.3725110767 -3.0496315718e-04 0.4920287051
0.3724999661 -1.3061700924e-04 0.9846346586
0.3924546 0.2497540275 0.4890538425
0.3923212729 0.2506588205 0.9885418855
0.4123610881 -0.0011744679 0.4772951263
0.4026282043 0.2503700986 0.7362970536
0.4025133948 0.0014672396 0.2344044919
0.4023948817 -0.0011327636 0.7352174738
0.4025800583 0.5025801659 0.2365173573
0.4024689524 0.2510437831 0.2369108577
0.41245738 0.2520487449 0.4795866871
0.4124870082 0.249399181 0.9843846701
0.412353681 -0.0023272606 0.980542255
0.412353681 0.4983907517 0.9824310566
0.4123684952 0.5020177801 0.4865567356
0.4224717323 0.2485133743 0.235489627
0.4426633923 0.2485991398 0.7262567765
0.4323268327 0.4977393269 0.9830976925
0.432363868 0.4963454743 0.4792441103
0.4424263663 0.2470488143 0.2298898856
0.4223902546 0.5002350367 0.2329193753
0.4425041404 0.5007548671 0.7233559846
0.4325008987 0.2468288357 0.4787756135
0.422608763 0.251096159 0.7340184551
0.4327157036 0.2496669526 0.9763294866
0.4424189592 0.4976529067 0.2274455541
0.4323120186 -0.0035492549 0.9745332732
0.4525036786 -0.0013277328 0.9764220749
0.4724509055 0.2500276914 0.4704315544
0.4624291462 0.2472877791 0.7199515122
0.4725471974 0.2507354202 0.97487585
0.4624772921 0.2485094461 0.2244373597
0.4524222009 0.498246718 0.9781349587
0.4624735886 0.4999764309 0.7269872983
0.4725879363 0.4996602116 0.4714759506
0.4524259044 0.2481807876 0.4766414528
0.4523851656 0.2482829205 0.9721352358
0.4725101621 -8.0678937723e-04 0.9692372215
0.4825245144 8.6242931896e-04 0.219576473
0.4825208109 0.2506444171 0.721965308
0.4824393331 0.2519079848 0.2178154433
0.4923981325 0.2533096938 0.4673881764
0.4925647914 0.2501966035 0.9724222596
0.4823985943 0.5013159435 0.2247262352
0.502497666 0.2518595371 0.2177450761
0.512474983 0.003127227 0.9674873023
0.5226485872 0.0052042573 0.2152044527
0.5024939625 0.2503353996 0.7183015884
0.5023902636 0.503708211 0.7167627705
0.5124712795 0.2465951084 0.4720740711
0.5025013696 0.0012010393 0.7174312582
0.522341194 0.2534635479 0.218008027
0.5125897925 0.2519937503 0.9630338043
0.5224004506 0.2509599817 0.717400704
0.5125083148 0.4999096516 0.4668039441
0.5225374813 0.4975042902 0.2165330951
0.5224004506 0.5027104508 0.7187173099
0.5524768393 0.2501743438 0.4762368418
0.5524583216 -0.0010116445 0.9696538689
0.5325036877 0.4986978052 0.9681354206
0.5323851746 0.5015522896 0.4674187305
0.5324148029 0.0024361275 0.4684251655
0.5324814665 0.2506169198 0.467018749
0.5324962806 0.2480223506 0.9682928207
0.5424217481 6.0074642248e-04 0.717012759
0.5424773011 0.2489539862 0.2240957088
0.5425587788 0.2501049458 0.7211042367
0.5523546227 0.2500898877 0.9733018486
0.562472674 0.4995135592 0.7250549802
0.5625282269 0.4999855966 0.2274909223
0.562417121 8.8756973233e-04 0.2243142172
0.56264674 0.2504800879 0.2232503774
0.5625837799 0.2515406991 0.7218754974
0.5724870263 0.0014819703 0.4751174491
0.5723018496 8.3552122027e-04 0.9754961917
0.5727018312 0.252727667 0.4791005984
0.5726203535 0.2512473943 0.9748573323
0.5924861027 0.5031235654 0.9801904194
0.5825310069 0.2525495891 0.7296390277
0.6025300832 0.2495314301 0.2299195139
0.592523138 0.2491124232 0.472803667
0.6025041585 0.2478344522 0.7304084366
0.5924453638 0.2496368365 0.9788108535
0.6024893444 0.5002101581 0.7262049271
0.5824532327 0.2496368365 0.2284269902
0.5926268369 0.5012491643 0.4780256481
0.5825347104 0.5011273904 0.2247734552
0.6126740592 -0.001591969 0.9829495512
0.6126036921 0.4984830641 0.4828004276
0.6226365621 0.24908689 0.7300769705
0.6226587832 0.5007234416 0.2278418321
0.6126777627 0.4988929052 0.9803385607
0.6225995267 0.4990709832 0.7303491801
0.6125925815 0.248722223 0.4801394394
0.6127592404 0.2527551644 0.9788571476
0.6227180398 0.2467797333 0.2351988997
0.6424504618 0.2512212063 0.232684201
0.6525536989 0.2492178296 0.4853151262
0.6426023066 0.2504119993 0.7330314636
0.6524018541 0.2497874171 0.9825606803
0.6324546271 0.4988012475 0.9820051504
0.6425689748 0.5015326486 0.7343656613
0.6525759201 0.5019254676 0.9857364595
0.6423763911 0.5010036524 0.2347813264
0.6523685223 0.500117191 0.4867261722
0.6324842554 0.2505481765 0.4825837709
0.6325138837 0.2493526975 0.9835050811
0.6626717501 -1.1935619908e-04 0.7344091778
0.6724638905 0.4982159472 0.4881788829
0.6825523135 0.4973910274 0.7362313159
0.6724416693 0.4967337104 0.9857827537
0.6825189817 0.4984090832 0.2394764799
0.662379171 0.251677531 0.2330388143
0.6625347194 0.2515145111 0.7387339781
0.68261157 -7.6096049868e-04 0.2356886919
0.6826523088 -4.6588799069e-04 0.7334657028
0.6624013922 0.500974191 0.7338971644
0.6624162064 0.4967729923 0.2352581562
0.6825893488 0.2499556746 0.2364701373
0.672412041 0.2514451131 0.4813616051
0.6824226898 0.2501854737 0.7414190392
0.6724861117 0.2495910076 0.9879956145
0.7024958368 0.2463293009 0.2419291444
0.6925296304 0.2492021169 0.48688635
0.7024365803 0.2490096356 0.7387284228
0.6926259223 0.2469623941 0.986977143
0.7024402839 0.4990650909 0.740073731
0.7025032439 8.3126568155e-04 0.740834807
0.7024439874 4.3163786066e-04 0.2381256164
0.6926074046 0.4972974056 0.9869678841
0.6925518516 0.4988366012 0.4889769942
0.712550928 0.2510392002 0.4926694162
0.7124768574 0.2489795195 0.9906528991
0.7224467673 0.5020622995 0.7438068919
0.7224430638 0.2504643751 0.24293095
0.7324018631 0.498466042 0.9904306872
0.732394456 0.2524644783 0.4966220115
0.7224504708 0.500739809 0.2424337507
0.7324166772 0.5002527135 0.4975784488
0.7226319439 0.2484027303 0.7469530429
0.7323981596 0.2488669114 0.9979858938
0.7125287068 0.4996503911 0.9900788516
0.7623745529 0.4976993903 0.7479678109
0.742260667 9.5664039928e-04 0.7490575754
0.7522898335 0.5023765547 0.9948656675
0.7624301059 0.4984824094 0.2456882301
0.7626152825 0.2497762873 0.250554672
0.7524268642 0.2496453476 0.5009616259
0.7625078801 0.2507439313 0.7507630521
0.7524490854 0.2490142185 0.9984488354
0.7426680556 0.4997780573 0.7431948831
0.7522231699 0.5012642223 0.4981006469
0.742482879 0.2494633415 0.246053028
0.7424199189 0.250807437 0.7458753149
0.7824921423 0.4993125668 0.2489862259
0.7824662176 0.4975566661 0.7483446453
0.7825291777 0.2511230016 0.2505120814
0.7724518653 0.2496492758 0.4993885504
0.7823736293 0.249577259 0.750946377
0.7724185335 0.2469434079 -7.8316481658e-04
0.7923657604 0.4981367287 0.4971127295
0.812498164 0.5008733675 0.4964044289
0.8024060375 0.500427518 0.7469511912
0.8025393646 0.4979108578 0.2491186272
0.7926583395 0.2457963765 0.4978589914
0.7924583487 0.2483654125 0.9959767273
0.8126500088 7.105393215e-04 0.4965960867
0.8024986258 0.2495648197 0.2480279368
0.8125500134 0.2500152521 0.4990543065
0.8025245505 0.2513881544 0.7534721863
0.8127018583 0.2488302483 0.9995969305
0.8326490852 -0.002535913 0.5033078138
0.8226051046 0.24792611 0.2504259742
0.832682417 0.0012212694 1.0011894496
0.8327675982 0.2473827104 0.5073668856
0.8227236176 0.2492826448 0.7500445668
0.8325898287 0.2525594096 0.0043922443
0.8325453863 0.4992955447 0.5000792592
0.8327305629 0.5023988144 1.0019579326
0.8227421353 0.4999797044 0.2487547551
0.842604181 0.5020924157 0.7517426365
0.8424782609 0.5015477067 0.2550859442
0.8424412255 -3.6519539755e-04 0.2518472049
0.8426967693 0.2483948739 0.2567645704
0.842611588 0.2500905424 0.7586775014
0.862558815 0.2499713873 0.2567590151
0.8526037192 0.2508231498 0.5041262945
0.8624995584 0.2514516601 0.7545508402
0.8526926039 0.2514267816 0.004077907
0.8924944695 0.4987508357 0.0134909908
0.8726472379 0.0010572021 0.507807606
0.8828208422 0.2479385492 0.2546257803
0.8728583393 0.2518601918 0.5049762553
0.8925574295 0.2473316439 0.5080362991
0.8826097408 0.2503183774 0.7606394479
0.872543539 0.2501815455 0.0064927955
0.8925722437 -0.0011565292 0.5116500211
0.8725250214 -5.9123958712e-05 0.0070586027
0.8928166768 0.2501448824 0.0069394415
0.8724176189 0.4984928846 0.504447576
0.8926240931 0.4978899075 0.508853854
0.9126527977 0.4974774476 0.5105074813
0.9027273302 0.499177699 0.7603394617
0.9126602048 0.498737087 0.0138299566
0.9026643702 0.4975907104 0.2545230072
0.9127009437 -0.0051882004 0.5155294716
0.9026643702 0.2460386149 0.2578071148
0.9127157578 -0.001249169 0.0114698804
0.9126602048 0.2469375156 0.5101695339
0.9026310384 0.2470324468 0.7609810988
0.9126935366 0.2491287907 0.0117520896
0.9425847487 0.2482776829 0.7679085566
0.9327814978 0.247457346 0.014866205
0.9324815116 0.4980902452 0.5188395039
0.9327370554 0.4994638021 0.0146277901
0.9225301194 0.4982205301 0.7656031075
0.9225893759 0.4989904553 0.2655150922
0.9428217748 0.4996719962 0.763831893
0.9227041854 0.2505737097 0.2630152076
0.9226338183 0.2511675211 0.767881706
0.9426588194 0.2494626868 0.2661937645
0.9325592858 0.2510928855 0.5149656087
0.9726796551 -6.7905774575e-04 0.5174349391
0.9626134534 7.2009791617e-04 0.7718889283
0.9627541876 0.2513482178 0.2711555724
0.9527546494 0.0011046677 0.0218156063
0.9727278011 7.5001762688e-04 0.0143865976
0.9526250258 0.2473480114 0.5224189682
0.9726870622 0.2491831306 0.5177080747
0.9626949311 0.2485382528 0.768903881
0.9526139152 0.2505586517 0.0225284438
0.9526768752 -0.0024264474 0.5182691599
0.972609288 0.2514294004 0.015307018
0.9725722527 0.4999089969 0.5126953432
0.9626949311 -8.9117998357e-04 0.2643345911
0.952599101 0.5014003996 0.5154591045
0.9627282629 0.4973360328 0.768507603
0.9826754898 0.2517849015 0.2626337438
0.9827199322 8.8488546945e-04 0.7615273698
0.9926898421 -0.0025868485 0.0150867504
0.9926453997 0.2507576799 0.5137462206
0.9827236357 0.2499203209 0.767366915
0.9927750234 0.2526536861 0.0113101656
0.9925972538 0.5023392369 0.0126767691
0.0225486095 0.7508149053 0.7744675129
0.0025900127 0.5005911925 0.2667205921
0.0026767124 0.7523272583 0.7691566471
0.0125752182 0.4996621757 0.5179376937
0.0025500146 0.5008471796 0.7624199212
0.0226792701 0.9986640274 0.2715879599
0.0226474197 0.9986247455 0.7746360237
0.0127704315 0.7508607342 0.0231180462
0.0223905057 0.7522094126 0.2750961312
0.0026240112 0.7500750962 0.2667826262
0.0125192579 0.7499965325 0.5204755395
0.0525299286 0.9966082749 0.5240188943
0.0525773338 0.9993056317 0.0259026398
0.0326945483 0.7468277928 0.0213338693
0.0425329828 0.7493287402 0.2762849652
0.0328078764 0.7513779458 0.5254280885
0.0426737171 0.7495906195 0.7771266494
0.0425711292 0.4974499503 0.774601766
0.0325949233 0.4968227493 0.0227951907
0.0326682532 0.5002553323 0.5200292638
0.0426000168 1.0014072132 0.2755396292
0.052334382 0.5016223423 0.5263891552
0.0525773338 0.7504613682 0.0258557901
0.0525751117 0.7509654859 0.5249716281
0.0426503848 1.0022583209 0.7692464578
0.0723423469 0.5000091658 0.0236128381
0.0726519622 1.0033320261 0.5245873866
0.0724912289 1.0006674041 0.0232915567
0.0723423469 0.7517642178 0.0204218744
0.062527615 0.749400757 0.2734536144
0.0722971638 0.7519344393 0.5244540594
0.0625228004 0.7496037135 0.7730703552
0.0925580799 0.9987491382 0.5180950938
0.0923332755 0.7513583048 0.0182967873
0.102233559 0.7483008639 0.2701796916
0.0824955817 0.7491126898 0.2693130649
0.0922914256 0.7459439502 0.5230189405
0.102326888 0.7507428885 0.775148963
0.0823933642 0.748660948 0.767113223
0.102480955 1.0012566326 0.773555518
0.1023250363 0.5020622995 0.7705639895
0.0824441026 0.4988575515 0.7717222694
0.0921355068 0.501664243 0.0216052457
0.0823907717 0.4988235072 0.2741017327
0.1123782757 0.7506315898 0.0215740434
0.1222889291 0.7521897716 0.2698741501
0.1123449439 0.7531325371 0.5216652993
0.1222807813 0.7511160665 0.7668650863
0.1223544816 1.0008638136 0.2701463598
0.1222959658 1.0007917968 0.7723889052
0.1222963361 0.5022757312 0.2662307999
0.1124797525 1.0031028817 0.5209931081
0.1425094767 0.751666013 0.2625550437
0.1524616097 0.7470700312 0.5100130597
0.1322532837 0.7465790075 0.5151331936
0.1423646686 0.7502584118 0.7634069127
0.1524142045 0.5003227662 0.5084048006
0.1324336457 1.001858955 0.0142148462
0.1423013382 0.5012426173 0.2604106983
0.1424350357 1.0006215752 0.2634883339
0.1322688385 0.9998293903 0.5174654933
0.1423191151 0.9990764873 0.7665039918
0.1524149452 1.000333508 0.0122866945
0.1523564293 0.7494596799 0.0145127028
0.1323014296 0.7500947372 0.0174459007
0.172570681 0.7458064636 0.0139408774
0.1626159555 0.7495906195 0.2636920282
0.1725377195 0.7507952643 0.5163960982
0.1624833691 0.7508279992 0.7613551556
0.1822213464 1.0007983438 0.7641837286
0.1724380945 0.4964829609 0.009190819
0.1725273496 0.5003286585 0.5154035515
0.1825813297 0.749420398 0.2637420259
0.1824639278 0.7487853407 0.7607857374
0.172435502 0.9996984507 0.0109812919
0.1623663374 1.0010602231 0.7616255134
0.1825098516 0.5003875814 0.2637707283
0.2023759711 0.4993872024 0.7550869265
0.1924953163 0.4990585439 0.5100593538
0.192407913 0.7464938967 0.0113649778
0.2023444911 0.7527528121 0.2597190636
0.1924223567 0.7491847066 0.5121129627
0.2024515232 0.7499245156 0.7556646776
0.2323305136 0.7538461582 0.0053031282
0.2325671694 0.4989465905 0.001460713
0.2323838445 0.7487198708 0.5034476222
0.2122192202 0.7500292674 0.0037160718
0.2223880099 0.7522356005 0.2516962859
0.2123462514 0.7508803751 0.5049207023
0.222426897 0.7514696035 0.757341452
0.2323868073 0.5018809481 0.5021624963
0.2225680015 0.5005676234 0.7516417153
0.2123662505 0.5043956442 0.0042407698
0.2224283784 0.5018933874 0.2493352839
0.2124636534 0.4989878365 0.505588264
0.2523469966 0.7510309557 0.0037814392
0.2423411624 0.7507625294 0.2518277613
0.2522507048 0.7505006501 0.4976395571
0.2424756007 0.7521766777 0.7524120501
0.2423337554 0.4997865684 0.7512204384
0.2623546826 0.5004124599 0.7523814959
0.2623806073 0.74980667 0.2497167477
0.2424907851 0.4991344889 0.2520610839
0.2622309846 0.7485496493 0.7481048416
0.2623661635 0.4994291031 0.2489640047
0.2524251412 0.4990775301 0.4987941334
0.2723582947 0.9978325606 0.9950138088
0.2823963496 0.5004694187 0.2468816935
0.2724238472 0.5045010506 0.4986459921
0.2824178301 1.0015577938 0.245680823
0.2825081963 0.5004798938 0.745787356
0.2823826465 0.7485234614 0.2438429449
0.2824415327 0.7525564027 0.7436411588
0.2724505126 0.7465004437 0.9947360439
0.2723234814 0.7520326441 0.49630073
0.3125564382 1.0007590619 0.4910806007
0.2926292103 0.7508738281 0.9959489508
0.3024806072 0.7508607342 0.2420809893
0.2925799533 0.7510767846 0.4923036924
0.3024746816 0.7552275716 0.7401709487
0.3023795008 0.5021146754 0.7456669912
0.2923777405 0.5002350367 0.9959859862
0.3026302299 1.0027493446 0.2417097101
0.3123879274 0.750546479 0.9941619963
0.3125008852 0.7500292674 0.4970803236
0.3124379251 0.5025886769 0.4978839902
0.3324447789 0.5007627235 0.4933193862
0.3223833917 0.5004648358 0.7404588984
0.3322996004 0.7498590458 0.9956711859
0.3323695972 0.5014449191 0.9962915276
0.3224196864 0.7509982208 0.2429087288
0.3324229281 0.7506970596 0.4979145444
0.3224519071 0.7521766777 0.7394413528
0.3225019048 0.5022835875 0.2441725593
0.3524097828 0.5002716998 0.4917268672
0.352358674 0.9989520947 0.4886899704
0.3624115431 0.749780482 0.2369247459
0.3623337689 0.7470438433 0.7377405054
0.3625485738 0.4980987562 0.7367479587
0.3622782159 0.5001329037 0.2410569625
0.3523816359 0.7496102605 0.9920139474
0.3424176517 0.7488246226 0.2445021737
0.3524460774 0.7477967463 0.4931962438
0.3424517242 0.7506577777 0.7434957952
0.3625448703 0.9993645546 0.7348711935
0.3424250587 0.5016531131 0.7422995541
0.3524064496 0.4998690603 0.9910417701
0.3423806163 0.5005211398 0.2435244411
0.3725184837 0.4971481344 0.9851994473
0.3824106195 0.4986362635 0.2374802758
0.3725221873 0.5016432926 0.4911593008
0.392565706 0.4977170672 0.9871715784
0.3824069159 0.5002396196 0.739416354
0.3724295989 0.7503958984 0.9897362748
0.3824958007 0.7496102605 0.2398847944
0.372374046 0.7509523919 0.4876539071
0.3825957961 1.0009161895 0.2381820952
0.3825143184 0.7468408868 0.739757079
0.3922546093 0.7507428885 0.9880326498
0.3924583036 0.7487918876 0.4865956227
0.3924101577 0.4997538335 0.4878900073
0.4024652488 0.5011025119 0.7343369589
0.4023319217 0.7489686562 0.2347739193
0.4024096958 0.7486020251 0.7339610503
0.41252034 0.7487198708 0.9829495512
0.4124610835 0.7487067769 0.4827235793
0.4225309888 1.000726327 0.727647453
0.4424411804 1.0005168235 0.2240216381
0.4324490493 1.0012042567 0.4770710625
0.4422597073 1.0000061589 0.7268132323
0.4225087676 0.5004609076 0.7359804015
0.4323675715 0.7499048747 0.9805607726
0.4222235956 0.7490013911 0.2292908392
0.4325008987 0.750173301 0.4774682664
0.4222791486 0.7491388777 0.7338860538
0.442230079 0.7480586256 0.2277020237
0.4421782296 0.7497673881 0.7343277001
0.4223902546 1.0006674041 0.2277112825
0.4725175691 1.0000716287 0.468223323
0.4723768349 0.5023097755 0.9772738874
0.4623698896 0.5006651734 0.2244716173
0.4725064585 0.7513386639 0.9726815069
0.4622365625 0.7511226135 0.225741929
0.4722323971 0.7484776325 0.4729962507
0.4621661953 0.750539932 0.7204561185
0.4524814574 1.0032338213 0.4744637755
0.4623958144 1.0026314989 0.2222448683
0.4625624733 0.9980944399 0.7258604985
0.4522666525 0.7494465859 0.9764405925
0.452429608 0.7519671742 0.4810449531
0.4523110949 0.4998932842 0.4770321755
0.4923944289 0.502195858 0.9739777433
0.4924833137 0.5018809481 0.4684686821
0.4824911826 0.5009781192 0.7200450264
0.4824022978 1.0012697265 0.7226374992
0.4923092477 0.9986836684 0.4672428127
0.4924462784 1.0012893675 0.9697094219
0.4923722077 0.7503042406 0.4706630252
0.4925351632 0.7525171208 0.9677465496
0.4823985943 0.7521570367 0.2218735892
0.4824726649 0.7498655928 0.7250512766
0.5025050731 0.5000654698 0.2204773574
0.5125009078 1.002598764 0.4696751078
0.5224967424 0.9991026753 0.7219875292
0.5024939625 0.9960059525 0.2166423493
0.522167128 0.7484318036 0.7226652757
0.5023013788 0.7519147984 0.221106032
0.5022495293 0.7526807953 0.7157674461
0.512245364 0.7506184958 0.96948721
0.5123231382 0.4983233177 0.9660614423
0.5124268371 0.7504155393 0.4679048192
0.5220745397 0.7487067769 0.2171747321
0.5526323877 0.998840796 0.4757229767
0.5425587788 0.4974250717 0.7232541374
0.5423995269 0.7479735148 0.2205792045
0.5523805475 0.4963638058 0.4718305638
0.5522361097 0.7483728808 0.4723092454
0.542295828 0.749420398 0.7224449155
0.532603683 0.9978718425 0.9666169722
0.5422995315 0.4991207402 0.2210014072
0.5322444404 0.7511226135 0.9712556468
0.5524138792 0.499357741 0.9734685076
0.5423476775 1.0030439588 0.2215800842
0.5323036969 0.7500685493 0.4675520577
0.5724203627 0.50070511 0.9711723173
0.5626430365 1.0021470222 0.7276678225
0.5524694322 0.7513190229 0.9707556699
0.5622430549 0.7515154324 0.2230577937
0.5624134174 0.7519082514 0.7203792702
0.5725759111 0.7514892445 0.9727648364
0.5725462828 0.5003083629 0.4742684142
0.572449991 0.7527528121 0.4765803445
0.6025708221 0.4973150824 0.2243132913
0.6025523044 1.0008376257 0.2251067732
0.6024597161 0.9987033093 0.7282844607
0.5923787002 0.7499637975 0.9780794058
0.5924342532 0.9994038365 0.4758794509
0.5924268461 1.0021142873 0.9782831
0.6025523044 0.7507756234 0.2275594377
0.5923749967 0.7524712919 0.4739239857
0.6026374857 0.7491323307 0.7267715676
0.5824828609 1.0028213614 0.2249706684
0.5823828655 1.0001763804 0.7268206394
0.582664334 0.5017663759 0.7274511658
0.5825939669 0.7513517579 0.223127235
0.5826310022 0.7514499626 0.7219819739
0.6126036921 0.7514892445 0.9748295558
0.6125185108 0.9972957081 0.4745933992
0.6126407274 0.7512273652 0.4770729143
0.6224958278 1.001073317 0.7320453981
0.6225365667 0.7496429954 0.2276455448
0.6226476727 0.7483925217 0.728432602
0.6225995267 0.9997442796 0.2291991768
0.6424430547 0.9992794438 0.7368072152
0.6324842554 0.4978460427 0.4835522447
0.6425874925 0.9987556852 0.2356711001
0.6528722027 0.9988538899 0.4839050062
0.6525870307 0.9968701542 0.9827828922
0.6326101755 0.9992990847 0.4838355649
0.6325064766 0.9972171443 0.9857457184
0.6326768391 0.7485758372 0.9826347509
0.6327472062 0.7489621092 0.4804820161
0.6525277742 0.7492567234 0.9847365057
0.6425171254 0.7498655928 0.2383783825
0.6523537081 0.7451910472 0.4849938448
0.6424282406 0.7503173346 0.7297695772
0.6726490671 0.7497673881 0.9854772122
0.6626087901 0.9957309792 0.2364423608
0.672634253 0.9979700473 0.9878937673
0.6824412075 0.7484514445 0.2333702804
0.6726638812 0.7488639045 0.4841651794
0.6824671322 0.7472337058 0.7366599998
0.6723675986 0.9976361512 0.4860197233
0.6624754629 0.7498197639 0.2354674058
0.6625569406 0.7495709786 0.736072064
0.702518058 0.4994539816 0.2390505737
0.6923740821 0.9994954942 0.4855910394
0.6923296397 1.0017738442 0.9910510289
0.6924259315 0.7495055088 0.9841254228
0.7025365757 0.7496364484 0.2422309823
0.6924629669 0.7473057226 0.4861113858
0.7023254743 0.7530474264 0.7425449132
0.7125027821 0.4986244789 0.4920722216
0.7124435256 0.7483466928 0.4923092477
0.7225875015 1.0026642338 0.7447383304
0.7325648185 1.0000912696 0.9950138088
0.7324314913 0.7510375027 0.9948471499
0.7225986121 0.752425463 0.2440383063
0.732450009 0.7512731941 0.4918398249
0.7225060238 0.7500096264 0.7451605331
0.7224541744 0.9995020412 0.2451697355
0.7324351949 1.0001960214 0.4984571119
0.7124176008 0.7493549282 0.9920417239
0.7125583351 1.0036200933 0.4933453109
0.7124990786 1.0000912696 0.9918102531
0.7423569589 0.5010462078 0.246996503
0.7426532415 0.7465397256 0.249151959
0.7424384366 0.7488835454 0.7443346453
0.752460196 0.7477574644 0.9999395073
0.7626708355 1.0002680382 0.7465475061
0.7524009395 0.999213974 0.9986432709
0.7624264024 0.7483074109 0.2437670225
0.7524638995 0.7490013911 0.4969432929
0.7626745391 0.7470765782 0.7491020177
0.7525120454 0.9993383666 0.4954137339
0.7425310249 0.9982057386 0.2500667316
0.7624708448 1.0000257998 0.2498047066
0.7825032529 0.9987360442 0.2520796016
0.7723814982 0.9989128128 0.5025198872
0.7824995494 1.0000323468 0.7502390023
0.7725000112 0.9979569533 1.0031615807
0.7825069565 0.74939421 0.2509518759
0.7724444582 0.7496560894 0.4983710048
0.7823847399 0.7492894583 0.7457012489
0.7725370465 0.7484448976 1.0000691309
0.7724407547 0.4980725683 0.4979265808
0.7722740957 0.5009715722 1.0002635664
0.7923509463 0.9995020412 0.4986839533
0.79260649 0.7495840725 0.9935138781
0.792258358 0.9973873658 0.9993191656
0.812498164 0.7491585187 0.9984673531
0.7922176191 0.4958132046 0.9991247301
0.8024912187 0.9989324537 0.2495528664
0.8126648229 0.5003149099 0.9949027029
0.8023986304 0.7514237747 0.2471298302
0.8126092699 0.7498263109 0.4975719676
0.8024356657 0.997701621 0.7529796164
0.8025541788 0.7475872428 0.7443466818
0.8126463053 0.9996460748 1.0008653905
0.7925287159 0.7499703445 0.497988615
0.8225051092 0.9995151352 0.75431474
0.8226014011 0.9984741649 0.2514333351
0.8326564922 0.7487591527 0.9982451411
0.8226014011 0.5015300298 0.7452873791
0.8226236223 0.7484252566 0.2513370433
0.8326750099 0.7528379229 0.5022661952
0.8225680693 0.7507363415 0.745954015
0.8426782516 0.7503173346 0.2541674681
0.8428004682 0.74980667 0.7548628628
0.8626736245 0.5014534301 0.7546036155
0.8425004821 1.0006674041 0.758427513
0.8625514079 0.9971516744 0.2537887819
0.862503262 1.0004513537 0.7572340496
0.8526037192 0.9992794438 0.006944719
0.8625402973 0.7473908334 0.7537425442
0.8525777944 0.5010926914 0.5048762599
0.8526592722 0.7530539733 0.0073296087
0.8526851969 0.5004550153 0.0063965036
0.8625440008 0.4996340237 0.2532323261
0.8625069655 0.7493811161 0.2577932266
0.8524592814 0.7517052949 0.5031846713
0.8526074227 0.9990306585 0.5068604275
0.882743068 0.9982122856 0.7585960237
0.8927129779 0.9974201007 0.0118567144
0.8825801125 0.7511160665 0.7604542712
0.8725620567 0.7510767846 0.0063740972
0.8927426062 0.7506970596 0.0087986149
0.8825245595 0.4986919129 0.7576414382
0.8826615902 0.4968639953 0.2582469093
0.8826282585 0.7469194506 0.2596264752
0.8726694591 0.7495906195 0.5072067078
0.8925907613 0.7494989618 0.5087881163
0.872654645 0.4997806761 0.0053064614
0.8828356563 0.9984807119 0.257924702
0.9126342801 0.7456100541 0.5120592615
0.9027199231 0.9974070068 0.2587746627
0.9027088125 0.998434883 0.758189561