POSCAR file written by Ovito 3.7.11
1
270.044403973 0.0 0.0
0.0 15.2760183417 0.0
0.0 0.0 10.8017761589
Sr Ti O 
800 800 2400 
Direct
0.0225254916 0.5002985071 0.7719363923
0.0126258975 0.4991810693 0.0217244011
0.0125602416 0.2480181083 0.5225033398
0.0225080871 0.2493247315 0.7731260115
0.0026310227 0.2498772315 0.7654818982
0.0125125828 0.2481909282 0.0212669764
0.0023830635 0.0023381859 0.2689404109
0.0226277341 0.5012339603 0.2709039768
0.0126297117 0.0025411184 0.5217923456
0.0025287803 -0.0012495291 0.7628434433
0.0123717171 -2.8193401387e-04 0.0183770813
0.0226463606 0.2488573322 0.2744737601
0.0026774965 0.2471559726 0.2704559024
0.0424178498 0.498851795 0.2663769436
0.0325428071 0.2484861622 0.5239253281
0.0424126654 0.2514862895 0.7738166386
0.0524976735 0.5014061256 0.016831965
0.0324291221 0.250102421 0.0227538615
0.0325165152 0.0010519214 0.5215729372
0.0325746538 0.0014092135 0.0225475065
0.0424359949 0.2496697166 0.2683368064
0.0525450731 0.24914602 0.5148055317
0.0524617535 0.2489738547 0.0194352406
0.0623453133 0.2488894086 0.2651058563
0.0624434453 0.4991791055 0.7644339224
0.0624656638 0.4980642862 0.264710551
0.0725017911 0.5007082998 0.5150212369
0.0723562595 0.2512709192 0.5176846878
0.0623504976 0.2492992012 0.7651523228
0.072571039 0.2489090472 0.018898477
0.0624704779 -0.0023824159 0.2676322927
0.0624341875 -0.0028661153 0.7673075239
0.1026897894 -4.4644023164e-04 0.2623442735
0.0924851713 0.2493404424 0.5188280183
0.0826627126 0.0013096456 0.2662741827
0.1024909332 0.2488671515 0.7637368149
0.0825368074 0.2483598203 0.7713457487
0.0925307194 0.2508460703 0.015027447
0.082537548 -0.0014224799 0.7604253224
0.0925333115 -0.0012482853 0.0170384125
0.1025227798 0.2498844323 0.2654428379
0.0824038663 0.2485804276 0.2655067163
0.1026027666 0.4974600711 0.2629247335
0.0926688448 0.5014499852 0.5169662874
0.1126137128 -8.8130485745e-04 0.013241537
0.1225876281 0.2498490828 0.2651993595
0.1125318744 0.2496769175 0.5154572763
0.1225620767 0.5015717446 0.7605299349
0.1127322119 0.4991313181 0.0099797586
0.122479868 0.2509619382 0.7668335278
0.1125340963 0.2490033126 0.0138914301
0.1125092856 0.4999653051 0.5127891966
0.1526397228 0.251521639 0.507956658
0.1326859673 0.250102421 0.5118847157
0.142628036 0.2500926017 0.756888867
0.1526763834 0.2461635674 0.0078445542
0.1324263804 0.2508964761 0.0090254711
0.1426028549 0.2528537924 0.2580625702
0.1428531841 0.5014100533 0.7580525645
0.1525371471 0.498851795 0.0032370712
0.132567098 0.4975255332 0.0152750914
0.1326730065 0.501766167 0.5084565758
0.1526604601 -0.0024777287 0.5051654504
0.1826377523 0.2517442101 0.7511185197
0.1824448211 0.2509920507 0.2507406262
0.162696217 0.4991535753 0.7498502097
0.1625173576 0.5012981131 0.2521302125
0.1723316694 0.2493882297 0.5012410958
0.182606276 0.5026394312 0.7485004317
0.1625936413 0.2537754986 0.7535857065
0.1724542419 0.2517055875 0.0030796897
0.162453294 0.0022718728 0.2520987362
0.1627032529 0.2521913161 0.2566794643
0.1722783449 0.0032950452 0.5025797645
0.1824388961 0.0024510425 0.2503518013
0.2025955812 0.250592732 0.2559073691
0.1924809483 0.5037562144 -0.0039026435
0.2024300528 0.5029601955 0.2505008508
0.1922969045 0.251274847 0.5002903262
0.202566697 0.2515484785 0.7508574515
0.1925613055 0.2540746603 4.5281293305e-05
0.1923072732 0.00317885 0.5036768063
0.2024633807 0.0036323713 0.7518258108
0.1924246613 0.0034324501 0.0059577349
0.2025367019 0.0011995384 0.2507739541
0.2123795276 0.2538750009 0.4997506002
0.2224541671 0.249655315 0.7488642608
0.2123776761 0.2517703949 7.8951074981e-04
0.2223686256 -0.0011269841 0.2453128152
0.2124224835 9.2839446221e-04 0.5013503371
0.2124895096 0.0012216646 0.0028064939
0.2223552944 0.0018025751 0.7484106317
0.2322773664 0.0023300686 0.4990284967
0.2225956253 0.2507321663 0.2489353676
0.2323047693 0.2524688754 0.5025927254
0.2321981202 0.2500173203 -5.9840914221e-04
0.2323029177 -0.0017258967 1.0017504491
0.2522714856 0.2508113754 0.5007828378
0.2424279192 0.2504958481 0.7496576488
0.2621313455 0.249135546 0.2509146717
0.2524188687 0.2527411976 0.9981769627
0.2421438919 0.251102027 0.2480651403
0.2423649666 -0.0028591108 0.2491436666
0.2525851377 0.5040016972 0.9992138292
0.2522574138 -0.0019886615 0.4993701072
0.2422775736 -3.1017844864e-05 0.7451833847
0.262402412 0.246312821 0.7489142526
0.2525199632 3.5520845233e-04 0.9959828791
0.2624672162 -9.9147754528e-04 0.2491408893
0.262346125 -5.781499452e-04 0.746098049
0.2723230027 0.2475690384 0.4943922222
0.2722807874 0.2503570685 0.99503859
0.2724426127 0.0011471687 0.494532014
0.2722207973 0.4991601215 0.9958162399
0.2823957906 0.2474728091 0.7405387781
0.2822695151 -0.00267837 0.743427192
0.2824646682 0.246697738 0.2454414977
0.3025676583 0.2498595567 0.2364651962
0.3124515884 0.2549034103 0.4900707106
0.3123734531 0.2533087539 0.9916410006
0.312452329 0.0015639658 0.9948812085
0.2922823128 0.2498949062 0.4887625924
0.3023102933 0.2498805046 0.7362839223
0.292501536 0.4987856783 0.4899864652
0.3025506241 0.4992792625 0.2419392959
0.2923104563 0.2469491124 0.9893080509
0.3023402883 -0.0020823377 0.7372920899
0.2922852753 -0.0015061405 0.4909974101
0.3124982474 0.4965102163 0.9903449175
0.2924174758 8.7648302938e-04 0.9929648569
0.3224232818 0.2526750809 0.2431474305
0.3323553521 0.2497855845 0.4957281136
0.3225514089 0.2499243642 0.7408072525
0.3325705019 0.2529074713 0.9964272505
0.322394768 6.4684203776e-04 0.2409005778
0.3325816112 3.320348745e-04 0.493096139
0.3225836258 0.0011414735 0.7413414239
0.3326690042 0.0029122884 0.9934925479
0.3623648612 0.2485044915 0.2423892219
0.3524368643 0.2517906882 0.4993654783
0.3425655248 0.2481542694 0.7420311253
0.3525505493 0.0027359335 0.9946590228
0.3525338854 0.2488619145 0.9960291678
0.3424885004 -0.0012706079 0.2467607252
0.3424962769 0.0023330799 0.7448278876
0.3424473961 0.250402892 0.2427715664
0.3624944695 0.2524485821 0.7450704403
0.3624055952 0.0018121981 0.2431779811
0.3725076376 0.2514803979 0.4904271335
0.3824319313 0.254826165 0.7420579727
0.3724706066 0.2529009251 0.9954737036
0.382654117 0.0040680869 0.7409535247
0.3825430242 0.2483297078 0.2386352097
0.392430287 0.0028017229 0.494045057
0.3925302706 0.0038967072 0.9912336602
0.3726927923 0.0029800416 0.4954068701
0.3723558107 0.0035504128 0.9920575987
0.3924413963 0.2502523292 0.4938719373
0.3925376768 0.2516198321 0.9923168154
0.4125936376 0.0016985559 0.4901308859
0.4025804696 0.2517357 0.7413330919
0.4024508613 0.0052445715 0.2424401395
0.402480486 0.0033959223 0.7403850997
0.4027952491 0.5038314958 0.2407339386
0.4024064241 0.2534907385 0.241337543
0.4123455303 0.2524223973 0.4881515818
0.4125492005 0.2517762865 0.9880119678
0.4127306521 0.0023823074 0.9933814551
0.4125751222 0.5044396386 0.9845680897
0.4124344046 0.5036514751 0.4911770102
0.4225475562 0.2549649446 0.2443176085
0.4424146592 0.254349601 0.7339880036
0.4326088645 0.5045195023 0.9815963562
0.4325681304 0.5021681042 0.4777245929
0.4424294716 0.2540124713 0.2345442158
0.4225327438 0.5030551155 0.2359902743
0.4424627995 0.505238276 0.7335723312
0.4324088974 0.2503335022 0.4884191304
0.4225623686 0.254398043 0.7411164609
0.4326088645 0.252902889 0.9863918639
0.4425331583 0.5011226747 0.2345997622
0.4325385057 0.0013732093 0.9864381525
0.4526648253 0.0013463044 0.9883267308
0.4725504439 0.2516780934 0.4833708866
0.4624298861 0.2509612836 0.7356590251
0.4725430377 0.2525304097 0.984910626
0.4625002449 0.2533159547 0.2355440514
0.4527425903 0.5002926155 0.98350345
0.4626372594 0.5022937914 0.73604785
0.4726837553 0.4999960723 0.484718813
0.4524315304 0.252973588 0.485667731
0.4525092954 0.252531719 0.9847810177
0.4725393346 0.0024098669 0.9864011216
0.4826598924 0.002085044 0.2296727947
0.4824784407 0.2498523559 0.7349387732
0.4823636448 0.2538540531 0.2313178945
0.492461984 0.2498955608 0.4772561514
0.4925471552 0.2476423559 0.9820222121
0.4826376738 0.4982587086 0.2305865333
0.502471449 0.2510025247 0.2333481162
0.5126179285 -5.2964254075e-04 0.9762731576
0.5225163006 0.0027955695 0.2246097385
0.5025195892 0.2489804009 0.7280065799
0.5024529335 0.5008326777 0.7259930222
0.5123068685 0.2470368316 0.4801297529
0.5024751521 0.0033511462 0.7260161665
0.5223533644 0.2500225573 0.2299033124
0.5123735242 0.251340309 0.9762638999
0.5225125975 0.2496003268 0.7260124634
0.5125920068 0.4992124911 0.4724717531
0.522494082 0.4979503821 0.2245856684
0.5223274428 0.4994553555 0.7269354598
0.5526187574 0.2460116954 0.4790623359
0.5524558212 -5.8463069154e-04 0.978087674
0.5324739222 0.4979791855 0.9742271978
0.532503547 0.5013485189 0.4760082085
0.5324035634 -0.0014962557 0.4773228072
0.5325220625 0.2477955372 0.4782291396
0.5325368748 0.2457027143 0.9787634888
0.5424093253 -0.0044527853 0.7280056541
0.5423056386 0.247588677 0.2286683303
0.5424278408 0.2472705313 0.7277612499
0.5524002748 0.2512034933 0.977384086
0.5623097562 0.4969173905 0.7284389162
0.5625319419 0.4986901037 0.230632822
0.5624282552 -0.0020776244 0.2310225727
0.5624356614 0.2478125573 0.2321964538
0.56245788 0.2476534844 0.7324169657
0.572352549 4.3120993217e-04 0.4834273588
0.5724414233 -0.0025375611 0.9890673498
0.5723599552 0.2488998825 0.4813517742
0.5723377366 0.2473654513 0.9837626666
0.5921715118 0.4993362145 0.9885766897
0.5823286861 0.2474819738 0.7330326052
0.6024513027 0.2482694827 0.2349561851
0.5923936975 0.2494019767 0.4832949731
0.602343913 0.246635549 0.7331955414
0.5923640727 0.2475480905 0.9895024634
0.6021957892 0.4968119965 0.7424134698
0.5824249666 0.2502562569 0.2351755934
0.5922344644 0.5004012826 0.4861972736
0.582247218 0.5010742328 0.2371798934
0.6124644708 -0.0033021582 0.9896413295
0.6122089572 0.5000235664 0.4908391028
0.6223924676 0.2512087302 0.732653038
0.6223591398 0.4965409835 0.2385574447
0.6123904089 0.4967864663 0.9884655969
0.6223369212 0.4948887205 0.7403850997
0.6124607677 0.2468155698 0.4893347206
0.6123904089 0.2483611296 0.9865122144
0.622525779 0.2488298381 0.2337915618
0.6424854595 0.2487591391 0.2382139826
0.6525652832 0.2524407267 0.4896383743
0.6425743337 0.2469314377 0.7403573265
0.6525282523 0.2512931763 0.9886137207
0.6323500893 0.4960473994 0.9920113101
0.6426854266 0.5003351659 0.743562355
0.6525282523 0.4995862796 0.9930481766
0.6426409894 0.5007947097 0.2426123334
0.6524245656 0.4971249053 0.4933599845
0.6324130419 0.2487650306 0.4851789225
0.6324389635 0.2466794086 0.9867529156
0.662334047 4.8783463506e-04 0.7378457025
0.6726212441 0.4969350652 0.4908816884
0.6825529441 0.500376407 0.7423681069
0.6724546048 0.4973494402 0.9890488343
0.6826121936 0.4991941617 0.2451239573
0.6625710451 0.2490720478 0.2379584691
0.6624710615 0.2466414406 0.7433299858
0.6824899915 -0.003092745 0.2431353955
0.6824307419 -0.0025320622 0.7398999943
0.6625562327 0.5012915669 0.7436132725
0.6625599358 0.499328359 0.2472560141
0.6827269895 0.2493751373 0.2384361683
0.6725434791 0.2493365146 0.4912547752
0.6825825688 0.2483676758 0.745713853
0.6725508853 0.2473962185 0.9942239091
0.7024422657 0.2489018464 0.2419309639
0.6924624255 0.2491872611 0.4904567583
0.702494109 0.2501495537 0.741717288
0.6925550028 0.2480874981 0.9906596805
0.7024867028 0.5026852547 0.7459203005
0.7025274369 -4.6837002987e-04 0.7425949215
0.7024348595 -0.0017577767 0.2433797997
0.6925846276 0.5004065195 0.9897709378
0.6924476131 0.5013537559 0.492879508
0.7125924482 0.2485751906 0.4934368237
0.7126479947 0.2485588251 0.992261269
0.7224871173 0.4971975682 0.7449417577
0.7225463668 0.2534331319 0.24336221
0.7325965658 0.4991895794 0.9900671853
0.732489176 0.2483729128 0.4912862515
0.7224648987 0.5006500385 0.2486326396
0.732603972 0.4989368958 0.4968890338
0.7225426637 0.2507989376 0.7416978468
0.7325150977 0.2472391095 0.99377028
0.7125294956 0.4972702311 0.9958254976
0.7625323833 0.5000418957 0.7427597092
0.7425319689 -1.7542720276e-04 0.7424403173
0.7526525267 0.4994389899 0.9918631863
0.7627064288 0.4976152163 0.2454387204
0.7628212247 0.2472999892 0.2415763926
0.7525821679 0.2483297078 0.4880488209
0.7627619752 0.2480992812 0.7402666007
0.7525340276 0.2477261474 0.9882341535
0.7428282164 0.4963413241 0.7388446123
0.7525636524 0.4973212915 0.4931785329
0.7425356719 0.2488468582 0.2397378061
0.7426430617 0.249045863 0.7416645189
0.7825402039 0.4983948697 0.2429576469
0.782543907 0.4987261078 0.7463970739
0.7827105463 0.2517952705 0.2408922459
0.7724566771 0.250102421 0.4923138603
0.7826735154 0.2509239702 0.7427772989
0.7725936916 0.2462368849 -0.006716366
0.7925385596 0.5022263655 0.4959049363
0.8126315514 0.5004582346 0.5046646068
0.8025109936 0.5026643068 0.7531654053
0.802525806 0.4999783975 0.2528143593
0.7926533556 0.2491617309 0.4946884697
0.7925348565 0.2503897996 0.9966679516
0.81249824 9.8335233655e-05 0.5001403509
0.8026776329 0.2499917901 0.2483021384
0.8124500998 0.2498464643 0.5037453136
0.8026554143 0.2521003238 0.7494910096
0.8126870979 0.2505835673 1.0003803041
0.8325467947 3.3331383974e-05 0.4995580393
0.8224632679 0.2497456527 0.2533698235
0.832480139 0.0020045257 1.0013245932
0.8327319495 0.2477124003 0.5021918654
0.8226150947 0.2510378742 0.7540106366
0.8327060278 0.2533473765 0.0039538052
0.8324727328 0.4996262115 0.5051756339
0.832439405 0.5023716913 1.0041852339
0.8224262369 0.4968728762 0.256439689
0.8426525401 0.4970889011 0.7512166517
0.8426784618 0.4988537589 0.2592179358
0.8425081195 7.020265748e-04 0.2468708923
0.8426784618 0.2495911621 0.2525153344
0.8426932742 0.2506765235 0.7564481987
0.8624640968 0.2529912628 0.2573469472
0.8525990525 0.2495342101 0.5041109942
0.862745532 0.2517357 0.7502020037
0.8526916299 0.2494779127 6.282409758e-04
0.8923813988 0.4997708827 0.0041424778
0.8726364979 4.9673747853e-04 0.5001431282
0.8825274638 0.2480953535 0.2470467893
0.8724772648 0.2533427942 0.5013123804
0.892429539 0.2482419886 0.5001968231
0.8826089319 0.2511079186 0.7492956713
0.872484671 0.2511609429 -4.3407824661e-05
0.8925628505 -0.0010542557 0.4983193541
0.8726142793 0.0021715849 0.0060109668
0.8925369288 0.2507635881 0.0027373386
0.8725142958 0.5008208945 0.5059171786
0.8927702238 0.5017288536 0.500221819
0.9124817968 0.503437414 0.4992923422
0.9026760021 0.5012012292 0.7527173308
0.9124373597 0.5017642032 -0.0027304196
0.9025278783 0.4996988744 0.2519978269
0.9124780937 -1.8387181164e-04 0.5033962969
0.9022649586 0.2518496041 0.248757619
0.9124558752 0.0012342988 0.0022688045
0.9124188442 0.2491126343 0.5007995018
0.9024871442 0.2504984666 0.7465053895
0.9124743906 0.2519137569 0.0038892787
0.9425250041 0.2511818908 0.7629323175
0.9325747886 0.2486930223 0.0027317839
0.9323822277 0.5018159182 0.5112172329
0.9326451474 0.4997420794 0.0038026263
0.9224171999 0.4995830065 0.7522729595
0.9225208865 0.5033798074 0.2521468764
0.9425916598 0.500928907 0.7576767004
0.9223690597 0.2543063961 0.2517904536
0.9225282927 0.2527621455 0.7533283414
0.9424398329 0.2511478505 0.2591697955
0.9324451803 0.2503845626 0.5082723468
0.9723645412 -0.0047908445 0.5112644474
0.9624550597 0.0032445085 0.7631813507
0.9624957938 0.2478590354 0.2634487214
0.9525381722 -3.2494260324e-04 0.0162716868
0.9725200711 -0.001800458 0.0054884602
0.9525715 0.249693283 0.5115745815
0.9724719309 0.2472024507 0.5085695202
0.9626142928 0.2520060584 0.7579414717
0.9524900319 0.2504434785 0.0119249017
0.9525789062 -0.0020110495 0.5108154471
0.9723534319 0.2513880964 0.0081582063
0.9724830402 0.4973730066 0.5110413359
0.9625957773 -0.0028420252 0.2617499268
0.9528010919 0.5002566114 0.5122142912
0.9626957609 0.5006880065 0.7563583987
0.9824925051 0.2485837007 0.2638218082
0.982603598 0.0013715073 0.7601457388
0.9923908773 -0.0023929553 0.014426805
0.9924649392 0.2458067991 0.5153998784
0.9825036144 0.2479120597 0.762451841
0.9925204856 0.249173514 0.0120424749
0.9925204856 0.498718907 0.0163064959
0.0225757426 0.7484744333 0.7728704979
0.0024809363 0.4984079621 0.2619360073
0.0025214111 0.7507786986 0.7683508708
0.0125729803 0.4988969639 0.5213516773
0.0025963988 0.4980407198 0.7656939004
0.0223879217 1.0022251105 0.2699976444
0.0223443362 0.9981664613 0.7691164857
0.0126247125 0.749816406 0.0158462012
0.0226094037 0.750163355 0.2727934809
0.0026078043 0.7492468859 0.2645596499
0.0125503914 0.7467135032 0.5172227267
0.0526058039 0.9993447788 0.5162580706
0.0526935672 1.0031612183 0.0185691793
0.032493556 0.7485071643 0.0225707434
0.0424974663 0.7505954048 0.2677276474
0.0325628039 0.749220701 0.519070571
0.0425459768 0.7514660505 0.7740082738
0.042461176 0.5008987944 0.7692516486
0.0324880013 0.4964218425 0.0240640164
0.032540215 0.4979674023 0.5190668679
0.0423193475 1.0005492812 0.2717927196
0.0523562153 0.5017746771 0.521074871
0.0524195382 0.7514071346 0.0173094791
0.0524317584 0.7492992555 0.517790226
0.0423012023 1.0018061532 0.7672843796
0.072574742 0.5010271001 0.0160463535
0.0723370034 1.0003201639 0.5138686487
0.0725010505 0.9983693938 0.0135148254
0.0724314323 0.7467920577 0.0187417435
0.0623219838 0.7460588824 0.2618230629
0.0724803131 0.750916169 0.5164534088
0.0623934535 0.7488148361 0.7638164314
0.0923655613 0.9986312421 0.5122985366
0.092577008 0.7526836453 0.0158718451
0.1025412953 0.749220701 0.2644439281
0.0825497682 0.7480423835 0.2696726979
0.0925488645 0.7484547946 0.5154794949
0.1025631435 0.7509816311 0.7701061377
0.0824183084 0.7487559202 0.7675213776
0.1025449984 0.9987883511 0.7591014661
0.102432054 0.4990180687 0.7688896711
0.082506442 0.498399452 0.7669742454
0.092629592 0.5011167832 0.0183905976
0.0826171646 0.4999823252 0.2674563957
0.1125366885 0.7478656359 0.0129713962
0.1225991077 0.750601951 0.264927182
0.1125700163 0.7525592673 0.5113931299
0.1224994944 0.7511256477 0.7616806715
0.1226583572 0.9989781911 0.256304526
0.1225472643 1.0019763546 0.7594514085
0.1225620767 0.5015684715 0.2619461908
0.1125107668 0.9990894767 0.5116986352
0.1425624912 0.7507721524 0.2549510449
0.1524230917 0.7511911098 0.5017641579
0.1325782073 0.7499276915 0.5056912898
0.1425743411 0.7494170873 0.7532496507
0.1526263916 0.5020090314 0.50188636
0.132582651 1.0006474743 0.0065926304
0.1425054635 0.5010094253 0.2559055175
0.1427002463 1.001485389 0.2525107055
0.1325585809 1.0014722966 0.5085852583
0.1424850965 1.0036325453 0.7533949971
0.1526508321 0.9995608037 0.0031701378
0.1525456642 0.7521075789 8.8403224192e-04
0.1325019235 0.7508048835 0.0073703729
0.1723690707 0.7506281358 -5.8127626077e-05
0.1624992124 0.7507066903 0.2531902234
0.1723805503 0.7532007957 0.4996802414
0.1623359059 0.7523236038 0.7550937918
0.1824403773 1.0020483629 0.7490151619
0.172389808 0.5005570823 -0.0020840537
0.1724838666 0.5026040817 0.5034592495
0.1822352259 0.7508245221 0.2533013162
0.1822600366 0.7506281358 0.7514434662
0.1724068423 1.0027618996 0.005505587
0.1624432957 1.0018192456 0.7502020037
0.1824648178 0.5030878465 0.2487900211
0.2022745228 0.5022741528 0.7524775554
0.1924813186 0.5036986078 0.5000394416
0.1924287347 0.7513089415 -5.683214978e-04
0.2023819126 0.7525658135 0.2553426472
0.1924731718 0.7515904285 0.5011966587
0.2022493418 0.7544118443 0.7504371503
0.2321577564 0.7539470635 -9.1280188189e-04
0.2324069747 0.4978037471 -0.0027496572
0.2321873812 0.7523759735 0.5007467327
0.2122862097 0.7494694569 -3.354894188e-04
0.2223045621 0.7496003811 0.2497120917
0.2123580497 0.7537768621 0.4995237856
0.2223538132 0.747682342 0.7515128993
0.2323777202 0.5025261818 0.4990858947
0.2225563725 0.5028750947 0.7487559453
0.2123480513 0.4996438863 -0.0027803188
0.2225285993 0.5003201096 0.2480549568
0.2124198914 0.5000720083 0.4977490775
0.2525162601 0.7520552093 -9.275216833e-04
0.2424308817 0.7491356003 0.2473559977
0.2523248101 0.7524348894 0.493505331
0.2422712783 0.7509096228 0.7516369529
0.2423908883 0.5023985308 0.7453324342
0.2624349993 0.4989781369 0.7496557973
0.2625616451 0.7473223006 0.2506665643
0.2425241997 0.4997093483 0.2523709137
0.2624994331 0.7484286098 0.7494799003
0.2623068722 0.4979608561 0.2479781176
0.2523436959 0.500314218 0.4990007235
0.2723903991 0.9969619589 0.9940850431
0.2822543324 0.5012588359 0.2409709366
0.2724814952 0.4974371594 0.4921953612
0.2821843439 0.9992793167 0.2406783922
0.2824350434 0.4983981428 0.7406109885
0.282326913 0.7459934203 0.2449462088
0.2824965148 0.7480358373 0.7450343351
0.2723833632 0.7484809795 0.9957514357
0.2723966943 0.7503793799 0.4942672427
0.3125141707 0.9997048203 0.4957179301
0.2924411756 0.7522057721 0.9910207322
0.3025409961 0.7525985446 0.245628504
0.2924415459 0.7502288171 0.4908057749
0.3023625069 0.749940784 0.743770654
0.3023365852 0.5003462944 0.7411359022
0.2923171219 0.4988216825 0.9897339068
0.3023332525 1.0018978001 0.2421661105
0.312287171 0.7506477745 0.9937425068
0.3125900841 0.7508179759 0.4914751093
0.3124082622 0.5031441439 0.4913214309
0.3323694238 0.4983811227 0.4949597214
0.3224084694 0.4998880598 0.7418228262
0.3325912392 0.7477347117 0.9901967937
0.3324475591 0.5015337766 0.9943072288
0.3224751251 0.7520486631 0.240008132
0.3324275624 0.750726329 0.4938117621
0.3225340043 0.7512631181 0.7427532288
0.3224277255 0.5048422304 0.2420198382
0.3526009114 0.5014486759 0.4935636547
0.3524713031 1.0022316567 0.4934386753
0.3624833602 0.7523563349 0.237946434
0.36243522 0.7503859261 0.7430115196
0.3625463128 0.5011063092 0.739860186
0.3624833602 0.5023533619 0.238441723
0.3524664891 0.7515969747 0.9921038874
0.3424859082 0.7520224782 0.2393313915
0.3525261089 0.7506281358 0.4899429539
0.3425766341 0.7506739593 0.7464128121
0.3624278138 1.0004379956 0.7448204814
0.3425766341 0.5011534419 0.7459989913
0.3526534953 0.5014342743 0.9948164043
0.3423148253 0.5012097393 0.241484741
0.3723928416 0.5001937678 0.9906133918
0.3825282118 0.5009086137 0.2415754669
0.3726224335 0.5031513447 0.4921046354
0.3925747077 0.5041463684 0.9876416583
0.3823541664 0.5035493542 0.7460906429
0.3723928416 0.7500193385 0.9934925479
0.382498587 0.7539536097 0.2398100165
0.3724224664 0.7505626738 0.4868166162
0.3826467108 1.0006671129 0.2465320591
0.3824763685 0.7515576974 0.7439289613
0.3926043325 0.7535019213 0.9976863027
0.3926487696 0.7519701086 0.4937460321
0.3923377097 0.5041869549 0.4920750106
0.4025545479 0.5035644105 0.741246995
0.4026063912 0.7529389474 0.2432770389
0.4026397191 0.7524283432 0.743046699
0.4126899181 0.7560222116 0.9913169798
0.4125788253 0.7532924427 0.4911733071
0.4225845871 1.0010991627 0.7396370746
0.4426627666 1.0017537835 0.2377862752
0.4325385057 1.001203902 0.4846753017
0.4426109232 1.0005230963 0.738882569
0.4224549788 0.5030963566 0.7381715749
0.4325051778 0.7523956121 0.9914002994
0.4227660388 0.7542809201 0.2397813175
0.4326051614 0.7513744036 0.4874989114
0.4226549459 0.7538554166 0.7420181645
0.442640548 0.7494301797 0.2340285599
0.4425961109 0.7514005884 0.7385585482
0.4226993831 1.004031864 0.2404839797
0.4726504274 1.0003398025 0.485136337
0.4725689593 0.5037169371 0.9858549151
0.462544682 0.5030001273 0.230015331
0.4725393346 0.7515053278 0.9843551618
0.4626816965 0.7527491074 0.2349876614
0.4723726953 0.7508114297 0.4811990215
0.4625372758 0.7517999071 0.7358062231
0.4525537325 1.0030499328 0.4839217219
0.4625187603 1.0028077231 0.2299477495
0.462700212 0.9996393582 0.7328391185
0.4526240913 0.7507721524 0.9865585031
0.4524796706 0.7498818681 0.486301886
0.4524981861 0.5012169401 0.4846799305
0.4926397326 0.5003633146 0.9778562306
0.4925545614 0.5025955716 0.47718857
0.4826006429 0.497881647 0.7289712361
0.4825858305 1.0027946307 0.7311366207
0.49242125 0.9994691568 0.4783633768
0.4925471552 1.0016228593 0.9781339627
0.4924286562 0.7510863704 0.4799594106
0.4926286233 0.7486446347 0.9773655705
0.4826191583 0.7514791429 0.2319390887
0.4826154552 0.7510470932 0.7338769108
0.5025529171 0.5024725029 0.2260752382
0.5126290378 0.9991549388 0.4800695776
0.5223459582 0.9968637658 0.729830354
0.5025455109 0.9986181497 0.2260548712
0.5225200037 0.7463861928 0.7332594197
0.5025603233 0.7483107781 0.2283943013
0.5025047769 0.7495741963 0.7221742058
0.5124179614 0.7515576974 0.9761250338
0.5124364768 0.4981101096 0.9765508897
0.5124698047 0.7482125849 0.4706183542
0.5225348161 0.7469557129 0.2265196096
0.5524373057 0.9976689495 0.47872628
0.5426092924 0.4960526363 0.7271243176
0.5427833379 0.7490439534 0.2288655201
0.55237065 0.4958745794 0.4844197881
0.5524632274 0.7487951975 0.4820951704
0.5424907934 0.7493058017 0.7296776014
0.5324776253 0.9976034874 0.9754307036
0.5423759974 0.4946360368 0.2268806613
0.5324702191 0.7491486927 0.9778840038
0.5524039779 0.497724538 0.9826424805
0.5424907934 0.9989912836 0.2301254981
0.5327849822 0.7465629404 0.4761859571
0.5724858604 0.4982600178 0.9858271419
0.5625393481 0.9974791094 0.7337963685
0.5525113676 0.7488672058 0.9792263756
0.5623282717 0.7508114297 0.2380195702
0.5623653026 0.7516624368 0.7351118929
0.5724192047 0.7472306537 0.9845032856
0.5722118314 0.4980341736 0.486036189
0.5722673778 0.7477478041 0.4845725408
0.6022365232 0.4947309568 0.2409922294
0.602384647 0.9978260585 0.2381352919
0.6024105687 0.9955217931 0.7375448261
0.5921863242 0.7486708195 0.9911873715
0.592489978 0.9988341746 0.4824127108
0.5923381511 0.9972172611 0.987160256
0.602073587 0.7457577568 0.2412866255
0.5922122459 0.7469098895 0.4881765777
0.6021846799 0.7471324605 0.7416080467
0.5824434821 0.9990240146 0.2359347279
0.5825027316 0.9955414317 0.733962082
0.5823731233 0.4985552518 0.7376623993
0.5824582944 0.7498033136 0.2410301862
0.5824768099 0.7493909024 0.7367727308
0.6123385655 0.7472175612 0.9907337424
0.6123904089 0.9965626402 0.4847289965
0.6124459553 0.7474663172 0.4909455668
0.6224369048 0.9974398322 0.7391427114
0.6225554038 0.7485529878 0.2377631309
0.6224628264 0.7500455233 0.7434919962
0.6223109996 0.9966215561 0.235050614
0.6425113811 0.9978522433 0.7409877784
0.6324685883 0.4984557494 0.4922333179
0.6425410059 0.9991549388 0.2381852837
0.6526171265 0.9986312421 0.4888199904
0.6523542068 0.9991483926 0.9902245669
0.6325574626 1.0018716153 0.490408618
0.6323093552 0.9994364257 0.9907152269
0.63249451 0.7483958788 0.9897801955
0.6325093223 0.7460654286 0.4862213437
0.6525393616 0.7492534321 0.9933907128
0.6426002554 0.7510798242 0.2458034752
0.6524430811 0.7449525731 0.4919324415
0.6424706471 0.7491028693 0.7421190738
0.6725138543 0.748559534 0.9942516824
0.6624673584 0.9983693938 0.2428502572
0.6726064317 0.9979962599 0.9907707733
0.6826158967 0.74937781 0.2402923445
0.6725249636 0.7481994925 0.4916676702
0.6825344286 0.7482584084 0.7425153049
0.6725879162 0.9982122848 0.488020122
0.662567342 0.751544605 0.2435927277
0.6624007027 0.7488344747 0.7414191889
0.7023793131 0.5037110456 0.2418217226
0.6926031431 0.9992662243 0.4877849754
0.6924809409 0.9999077527 0.9910762787
0.6924253945 0.7500455233 0.9925575165
0.7025089214 0.7480620221 0.2423133085
0.6923809574 0.7483958788 0.494061721
0.7024644842 0.7493254404 0.745558323
0.7125480111 0.4986508264 0.4923740355
0.712544308 0.7500520695 0.4939922879
0.7225759915 0.9988538132 0.7400777428
0.7325039884 1.0010729778 0.9950941364
0.7324743637 0.7498818681 0.993103723
0.7227167091 0.7506281358 0.2422670198
0.7325447225 0.7512172946 0.4924712418
0.7225574761 0.7455613705 0.7432707362
0.7225833977 1.0011777172 0.2407663407
0.732411411 0.9975380253 0.4942876097
0.7126072606 0.7502091785 0.9920113101
0.7125591204 0.9987948973 0.4933257309
0.7125331987 0.9975707563 0.9887525867
0.742539375 0.4988295379 0.2418800464
0.7426615772 0.7497443977 0.243243711
0.7425689998 0.7488279285 0.7385455874
0.7525414338 0.7500651619 0.9898264842
0.7628175216 0.9988014435 0.7394861735
0.7525303245 0.9980748144 0.9977603646
0.7626175545 0.7495480114 0.2420457599
0.7526080895 0.7506477745 0.4908409543
0.7626286638 0.7482518622 0.7428365484
0.7525377307 0.9972107149 0.4929220936
0.7425208596 0.998533049 0.2423716322
0.7625620081 0.9983693938 0.24752634
0.7824846575 0.9994364257 0.2476485422
0.772452974 0.9984610407 0.4936636383
0.7825550163 0.999475703 0.7457277396
0.7726973782 0.9985788724 0.9937887955
0.7826920308 0.7472502923 0.2498750278
0.7726233164 0.7478918207 0.4939071167
0.7825587194 0.7493319866 0.7461526697
0.7726714566 0.7485726264 0.9931222385
0.7726233164 0.49843742 0.4938839724
0.7725788792 0.5006644402 0.9957606934
0.7925385596 1.0002808866 0.4939219291
0.792631137 0.7512172946 0.9938998884
0.7925644813 0.9977540502 0.997112323
0.8123575224 0.7483566015 1.0010283456
0.7925718875 0.4986691558 0.9996859738
0.802485072 1.0013675572 0.2451313635
0.8125426772 0.5011364218 1.0013801396
0.8025443215 0.749220701 0.2522089033
0.8125426772 0.7501568088 0.500057957
0.8026183834 0.9997637362 0.7469738309
0.8025887586 0.7487428278 0.7501696017
0.8125723019 1.001046793 1.0016671295
0.7926237308 0.7506805055 0.501387368
0.8225743607 1.000699844 0.754013414
0.8225336267 1.0012562717 0.2481345733
0.8325356854 0.7496200197 1.0050832343
0.8226447195 0.5002873785 0.7569638547
0.8225336267 0.750255002 0.2564220993
0.8325653102 0.7516297057 0.5066402079
0.8224521586 0.7494563645 0.7542735564
0.8424340576 0.7517540837 0.251866367
0.8425747752 0.7484155174 0.7525414338
0.8627196103 0.4999554858 0.7550484289
0.8426710556 0.9978064198 0.7542087522
0.8626862824 0.9984217634 0.2546686839
0.8625011277 0.9980551758 0.7579609129
0.8524472256 1.0011973558 0.0031930044
0.8626418453 0.7494039949 0.7519387552
0.8526657082 0.5053207582 0.5053117226
0.8527434732 0.7516493444 0.0087095045
0.852658302 0.5025320734 0.0058726563
0.8625603772 0.500937417 0.2581357063
0.8624159565 0.7513285801 0.2592549667
0.852539803 0.7501240778 0.5040554478
0.8525435061 1.0005820122 0.5028371296
0.8825200576 0.9990894767 0.7491345867
0.8925480381 0.9998030134 -2.7781371891e-04
0.8826607752 0.749659297 0.7507574679
0.8726846381 0.7492796169 0.0038791878
0.8924628669 0.7510863704 7.7553156733e-04
0.882612635 0.4984740788 0.7531598506
0.8825607917 0.4967314781 0.2536734772
0.8826200412 0.7476954345 0.2514840225
0.8725365143 0.7519962934 0.5059653189
0.8923962112 0.7521534024 0.5017900796
0.8728253557 0.5024397719 0.0055189181
0.8824830267 0.9995215264 0.2472791585
0.9126151082 0.7499931536 0.5025686552
0.9024167854 0.9992204009 0.2522505631
0.9025723154 0.9997113665 0.748814269
0.9026648928 0.7496331122 0.7499659315