POSCAR file written by Ovito 3.7.11
1
270.1050243109 0.0 0.0
0.0 15.2794475458 0.0
0.0 0.0 10.8042009724
Sr Ti O 
800 800 2400 
Direct
0.0226113644 0.4989024472 0.7753582654
0.0124583507 0.4992650258 0.0276128263
0.0126519051 0.2475131226 0.5213487364
0.0223232172 0.2499392574 0.7744641688
0.0025385427 0.2532685662 0.7685627606
0.0124254746 0.2483731013 0.0247878141
0.0023677202 0.0012730678 0.2726371467
0.0226865944 0.4987604264 0.2717958073
0.0125007417 -1.801289522e-05 0.5227083927
0.0026971847 0.0010022465 0.7694633362
0.0126025539 -0.0016018398 0.0206668245
0.0222867129 0.2498653018 0.2728065252
0.0024823423 0.2493652838 0.2701316398
0.0422954484 0.4990130533 0.2757803685
0.0324766751 0.2497036468 0.5253425533
0.042376528 0.2499052247 0.7759422975
0.0523530177 0.5012199394 0.0225528501
0.0323852292 0.2484601463 0.0214337484
0.032576266 -0.0033287347 0.524705764
0.0324344693 -0.0017957604 0.0220388834
0.0424424283 0.2485360653 0.2751639416
0.0524670475 0.2486361998 0.5203407952
0.0524996274 0.2525486449 0.0226191206
0.0623891139 0.2480111772 0.2742615148
0.0624787087 0.5001852161 0.7724186681
0.0623480188 0.498857943 0.2727648748
0.0724392787 0.5011152236 0.5226732212
0.0724711181 0.2539001336 0.5172706931
0.062482411 0.2472847112 0.7721687653
0.0725244307 0.2523405222 0.0165400964
0.0623583851 -0.0024672507 0.2697586367
0.0623724537 -0.0029208665 0.7712978078
0.1021684554 0.0011861537 0.256792384
0.092531093 0.2503293238 0.51073157
0.0821999264 -3.8955774218e-04 0.2668819779
0.1024920332 0.2508358867 0.7555048769
0.0823817076 0.2474705817 0.7672327224
0.0925088794 0.2515564625 0.0083210712
0.0821899303 -1.4079220346e-04 0.7649086264
0.0924733377 7.4961957086e-04 0.007967505
0.1024224307 0.2494438206 0.2544358932
0.0825383133 0.2488534851 0.2613757864
0.1024616747 0.4985503403 0.254903304
0.0924551966 0.4969318262 0.5128326046
0.1123770771 0.0013208444 0.0069360543
0.1225708897 0.25053941 0.2546098996
0.1124285385 0.2513921895 0.5062814491
0.1224705583 0.5006289494 0.7556103914
0.1124644505 0.4983448354 0.006539727
0.1223913299 0.253388335 0.75538733
0.1123922563 0.2497370249 0.0033638328
0.112326356 0.501055012 0.5035001236
0.1524407524 0.2480628806 0.4987427149
0.1324115063 0.2511958473 0.5054299285
0.1424324232 0.2504863976 0.7486964141
0.1525936559 0.2468043273 9.8133357376e-04
0.1323333885 0.2477075013 8.5777052607e-04
0.1424879571 0.2534707987 0.2519313119
0.1425657047 0.4999443697 0.7494738894
0.1523896611 0.5013076389 -7.9371670983e-04
0.1322822973 0.4994325711 0.0034546308
0.1325551541 0.5002081227 0.495036749
0.1522967343 -0.0023620113 0.5007613741
0.1825172014 0.2512586768 0.748048518
0.1823276455 0.2479843438 0.2467638775
0.1624875851 0.5013861758 0.7487639804
0.1625083178 0.4966144064 0.248737184
0.1724040982 0.2504307673 0.5020127392
0.1824894345 0.4988533617 0.7489953719
0.1626019851 0.2516945565 0.7507298824
0.1724918418 0.2479895796 0.0036502028
0.1624764783 0.0021888077 0.2522867292
0.1625608899 0.2516474343 0.249600737
0.1724037279 0.0016431728 0.5011889856
0.1823254242 0.0012163249 0.2540841782
0.2025786572 0.2523673556 0.2511630922
0.1923981728 0.5013259642 -0.0061889514
0.2024979479 0.4991334765 0.2469508418
0.1921915864 0.2486545251 0.4952912796
0.2025197912 0.2512213718 0.7496553004
0.192575141 0.249020376 -3.0677648969e-04
0.192362631 -1.5479794545e-04 0.4972016477
0.2025268255 2.6112023359e-04 0.7516017655
0.1924129818 -7.1312965047e-04 0.0018933862
0.2024168683 0.001653579 0.2519748135
0.2125736582 0.2519236223 0.4962871886
0.2224413014 0.2501244735 0.7492101032
0.212648444 0.2501617785 -0.0035735151
0.2224794347 1.5299827539e-05 0.2456615285
0.2124859146 3.5261568824e-04 0.498968553
0.2123859535 5.4404931117e-04 -7.3596139765e-04
0.2222332342 0.0014491213 0.7507567238
0.2324018714 0.0043795283 0.500309698
0.2225823577 0.2534851971 0.2483984269
0.232510718 0.2495969675 0.4986242425
0.2323955776 0.2510001596 -0.0026296877
0.2323841006 3.6498524542e-04 1.0004068374
0.2525255252 0.2499026068 0.5001366171
0.2426001267 0.253112147 0.7469720848
0.2625020149 0.2506611421 0.249756232
0.2526443679 0.2520937855 0.9958715645
0.2425049786 0.2500564082 0.2468147836
0.2423209761 -0.0016101516 0.2493489831
0.2525862423 0.5038168919 0.9971395897
0.2523922437 0.0022898585 0.5019868234
0.2424005747 2.445620433e-04 0.7485483235
0.2626349262 0.2504674178 0.7461205642
0.252528487 0.0022311522 0.9972506577
0.2625882777 0.0011917167 0.2498959925
0.2625867968 -8.220995589e-04 0.7470979618
0.2725492179 0.2502462057 0.5011334516
0.2726206716 0.2525630434 1.0025448946
0.2725355195 0.0050968317 0.5003828177
0.2724207494 0.5001433298 0.9987685857
0.2825531044 0.2504340397 0.748933359
0.2825264481 0.001915434 0.7507261801
0.2825334824 0.2501604696 0.2471729776
0.3025379233 0.2531167283 0.2447516972
0.3125714279 0.2497180452 0.4943490536
0.3124896079 0.2498423952 0.9973247029
0.3125025658 0.0015977523 0.9956031504
0.2924725793 0.2492815111 0.4981410971
0.3023768748 0.2503659744 0.7518831375
0.2923659541 0.5018580515 0.4970878031
0.3026737964 0.4993337455 0.2472692365
0.2926136355 0.2489261318 0.9989722102
0.3025871634 -0.0011146494 0.7445295164
0.2924055683 0.0020189717 0.4975598417
0.3124077878 0.4957308666 0.9937982968
0.2926314064 0.0018638614 0.998435382
0.3225171888 0.2528647558 0.2472090747
0.3325240371 0.2493698651 0.4924414622
0.3224694296 0.2500060137 0.7459437811
0.3326732383 0.248770367 0.9924654819
0.322592715 9.0335549574e-04 0.2442037622
0.332679162 0.0016630688 0.4941185876
0.3227141493 7.9765795692e-04 0.7479883562
0.3326765704 -0.0010402357 0.9945942835
0.3624364759 0.2531762854 0.2410697961
0.3525325505 0.2533183063 0.4952977586
0.3425201488 0.2503901899 0.7423988637
0.3525477298 0.0028536878 0.9945387496
0.3527061867 0.252708991 0.9940481996
0.3425519883 6.4686716471e-04 0.2418722617
0.3425523585 0.0031291559 0.7407161849
0.3423853864 0.2513241242 0.2413446891
0.3626956343 0.2537410964 0.739425946
0.3624623917 0.0017608472 0.2426404814
0.3725029306 0.2550572435 0.4895814636
0.3824694242 0.2543255416 0.739221396
0.3724881216 0.2521494158 0.9919656764
0.3826545374 0.002941191 0.7341067188
0.3826656442 0.2503842997 0.2387512535
0.392410002 -0.0019051885 0.4877988237
0.3923803839 0.0015145687 0.9894851598
0.3726510212 0.0024110671 0.4897471399
0.3725288465 0.0025168301 0.9876525393
0.3925173676 0.2517802925 0.4888900659
0.3925729016 0.2521029482 0.9892167456
0.4124984843 0.0026829355 0.4856218927
0.4024653499 0.2509556554 0.7379117202
0.4024172205 0.0029769907 0.2416575304
0.4024394341 0.0016298216 0.7363567695
0.4026837835 0.5031532554 0.2377072152
0.4024727545 0.252583332 0.2381292732
0.4125688273 0.2523876443 0.4860744944
0.4127354292 0.2530709151 0.9894573928
0.4126650862 0.0034213785 0.9907439294
0.4125540182 0.5002297203 0.9849498868
0.4124318436 0.4986472024 0.4883754512
0.4226611979 0.2511251641 0.2372842315
0.4425497579 0.2522397332 0.7329303245
0.4325018145 0.5028561242 0.9835245154
0.4325129213 0.5000818092 0.4899590945
0.4423942629 0.2517253167 0.234368699
0.4225427254 0.5040695189 0.2351461743
0.442564567 0.5023286182 0.7354552683
0.4325129213 0.2526867389 0.4839336605
0.4224908938 0.2496833581 0.7359291581
0.432620287 0.2536979011 0.9794335141
0.4424868195 0.5032566622 0.2364401154
0.4324129602 0.0017624834 0.9856533169
0.4524014814 5.3174520139e-04 0.9878839307
0.4726306497 0.2518863173 0.4845417573
0.4625715995 0.2510302654 0.7274315375
0.4724788569 0.2491565066 0.983561538
0.4628196512 0.2522691846 0.2322584087
0.4524866335 0.5019909097 0.9848943529
0.4624494248 0.5016381482 0.7345167445
0.4722863392 0.4996145149 0.4807182445
0.4525310606 0.254415859 0.4843316538
0.4526532353 0.2517161541 0.9790262651
0.4723937048 0.002225851 0.9815160373
0.4824823731 0.0012866154 0.229910248
0.4825379071 0.2474424394 0.7294779637
0.4824194347 0.2500668798 0.2282590384
0.4925192098 0.2470975316 0.4771492624
0.4923452034 0.2478986077 0.9823583023
0.4824897777 0.4990215615 0.2319020658
0.5023413151 0.250387572 0.2355913715
0.5125521581 -0.0016194451 0.9822935127
0.5224149884 -1.5754673593e-04 0.2312708299
0.5025042147 0.2502527504 0.7363808342
0.5025301305 0.4997918773 0.7319880985
0.5123855563 0.2511997742 0.4874609921
0.5024227649 -3.4459538356e-04 0.7325582471
0.5222520888 0.2479195509 0.2353840447
0.5123078087 0.2496061302 0.9839039974
0.5223594544 0.250601585 0.7313837039
0.5123670449 0.5005438678 0.481069034
0.5224816291 0.4997833691 0.2337717089
0.5225297585 0.4973919214 0.7326637616
0.5525662231 0.2463501224 0.4801360636
0.5525254982 -0.0018815619 0.9821269108
0.5322593073 0.4984384252 0.9827933183
0.5323407571 0.498719849 0.4841363594
0.5324073978 -0.0034602839 0.4855413685
0.5322926276 0.2511729407 0.4764874828
0.5324296114 0.2499137329 0.98155306
0.5423998073 -0.0024963748 0.7278360098
0.5424701503 0.2494817801 0.2288116013
0.5424442344 0.2473501585 0.7303674326
0.5524477507 0.249647362 0.9800906659
0.5623550081 0.4992951316 0.7325286289
0.5626363801 0.4974874746 0.2370695003
0.5625586326 -0.0024194741 0.2335717867
0.5626104643 0.2473017275 0.2353053716
0.562591953 0.2443107816 0.7334143955
0.5725584466 -6.7006526623e-04 0.4786162844
0.5726880258 -0.0024631275 0.9861808895
0.572536233 0.2471996295 0.48498788
0.5724547832 0.2458435596 0.9847647737
0.5925469677 0.4962459376 0.9838669747
0.5826693285 0.2465556272 0.7342159356
0.6026097202 0.2479679819 0.2407912007
0.5925099451 0.2515178485 0.4816178946
0.6025134614 0.2462650408 0.7377645552
0.5925321587 0.2506094387 0.9849869095
0.6025208659 0.4990503583 0.739860962
0.5825989855 0.2482356618 0.2354284719
0.5924284953 0.4984619863 0.4859051158
0.5823213157 0.4995883359 0.2341530421
0.6124688482 3.2322980903e-04 0.9942518241
0.6123799939 0.499647893 0.4896434765
0.6225241961 0.24903412 0.7373378694
0.6224205327 0.4993880669 0.2429625783
0.6122541169 0.4964455521 0.9894666484
0.622409426 0.4989875288 0.7405366251
0.6126058319 0.2487775662 0.4875516976
0.6125243821 0.2482644586 0.9885040599
0.6225612188 0.2488155257 0.2398850717
0.6424127562 0.2477251721 0.2445915743
0.6525162336 0.2497088826 0.4980198479
0.6424756947 0.2500465911 0.7468313988
0.6524088679 0.2460032512 0.9910215991
0.632564735 0.4953957759 0.9883004354
0.6425164196 0.5000549758 0.7457781048
0.6527161558 0.4985529582 0.995205157
0.6424312675 0.4983742868 0.2450478783
0.6524903177 0.4965764469 0.4921674947
0.6326276735 0.2465647898 0.4901997416
0.6324610716 0.2468069452 0.9924006923
0.6625345589 -1.5322720803e-04 0.7471377611
0.6725862045 0.4981111883 0.4999552062
0.6824120121 0.4988219469 0.7469045185
0.6725269683 0.5001040614 0.9962695578
0.6824453325 0.4977721708 0.2441075034
0.6625234521 0.2486002037 0.2444545906
0.662508643 0.2468979171 0.7455920661
0.6823897986 -0.0018259971 0.2444092378
0.6823564782 -0.0012909647 0.746468577
0.6624975362 0.4984672221 0.744340701
0.6624123842 0.4954723494 0.2467814632
0.6826156366 0.2493233974 0.2461150558
0.6725158615 0.2473796099 0.4963751173
0.6824638438 0.2470589176 0.7476616314
0.6724899457 0.2459423851 0.997620884
0.702311679 0.2484405121 0.2439575617
0.692367399 0.2477683674 0.4932374489
0.7026596918 0.2489392212 0.7474496768
0.6924599556 0.2492743119 0.9941870345
0.7024079378 0.4976020075 0.7426321063
0.7024079378 -8.0894463302e-04 0.7445980083
0.7025338148 -0.0022872703 0.244986791
0.6924044216 0.5026198591 0.9961122116
0.6923414831 0.4986727269 0.5002513873
0.7125114152 0.2473193983 0.4953264511
0.7126224831 0.250426186 0.9926505951
0.7225186337 0.4958094035 0.7385549885
0.7225630609 0.2512711118 0.2428959376
0.7326665383 0.5015615748 0.9847740293
0.7324814251 0.2466413633 0.4908115407
0.7225112292 0.4984894742 0.2401581137
0.7326147066 0.4986013892 0.4899544667
0.7224853134 0.2506611421 0.7407152593
0.7324592115 0.2490753518 0.9918175858
0.7125151175 0.4955057276 0.9974080039
0.7623994172 0.5019902552 0.7451431666
0.7423886825 -8.784497638e-04 0.7430115883
0.7526402504 0.5012500452 0.988392992
0.7626659802 0.4998645239 0.245485671
0.762466058 0.2490013963 0.242347077
0.7526143345 0.2502193722 0.4899461366
0.7626289576 0.2487127733 0.7428449865
0.7526587617 0.2497134639 0.993224446
0.7426552455 0.4990091265 0.7384402183
0.7526032278 0.4994306077 0.4878302929
0.7424331096 0.2470333932 0.240057227
0.7425071549 0.2485897322 0.7399322306
0.7826841195 0.4980051635 0.2410151877
0.782536029 0.4987938046 0.7447942283
0.7824360679 0.2501604696 0.2401497836
0.772536215 0.2491133113 0.492311883
0.7826656082 0.2511480707 0.7442287075
0.7725843444 0.2479025345 -0.0024306633
0.7926246973 0.499774861 0.4945878496
0.8126095162 0.4997663528 0.4968249423
0.8026097022 0.5003684688 0.7481049775
0.8027726018 0.4985437955 0.2466130103
0.7925654611 0.248581224 0.4922794882
0.7925284384 0.2480864417 0.9948441863
0.8124466166 0.0015995194 0.4971183467
0.8024282913 0.2499975056 0.244334267
0.8123022283 0.2506545974 0.4977569872
0.802480123 0.2478010911 0.7442453677
0.8125724936 0.2522534772 0.9972784246
0.8325573125 0.0020255819 0.4964500882
0.822409408 0.2502926733 0.2476866667
0.8325128853 0.0034794303 1.0014619825
0.8325943351 0.2523974614 0.4958780884
0.8223464695 0.2515551535 0.749447048
0.8324684582 0.2556207455 -0.0014979798
0.8325425034 0.4996086246 0.5015425517
0.8323721993 0.5015825179 0.9957142183
0.8223464695 0.49716351 0.2467611008
0.8423905246 0.5006086607 0.7445248886
0.842368311 0.5016545101 0.2494544976
0.8423572042 0.0031165245 0.2460863633
0.8426867057 0.2486551795 0.2457133602
0.8425904468 0.2512213718 0.7517424515
0.862493816 0.2514118237 0.2505383352
0.8523829341 0.2509334033 0.5022385773
0.8626567156 0.2493070356 0.7429662356
0.852438468 0.2511016031 -0.0017563978
0.8924599376 0.4990896268 0.0041443625
0.872634316 5.507249452e-04 0.4967444181
0.8825526802 0.2489909247 0.2527920882
0.8725232481 0.2532103181 0.49989597
0.8926265394 0.2503718647 0.5072819859
0.8826304277 0.2495027233 0.7512907753
0.872578782 0.2510328833 -0.0017131739
0.8926413485 0.0012784999 0.5007576719
0.8726121024 0.0026549895 0.0017877791
0.8926228371 0.251718772 0.0027049224
0.8724973322 0.5010955893 0.4996701319
0.8927153937 0.5020092349 0.5055882003
0.9124410542 0.4983389452 0.5048810679
0.9025967353 0.4999666218 0.7527633507
0.9125447176 0.4981576559 0.0035657912
0.9024412402 0.5000733011 0.2497219861
0.9123781157 0.0010717516 0.506897876
0.9023338746 0.250941257 0.2597366092
0.9124632678 -0.002389761 0.0066543121
0.9124410542 0.2500289203 0.501601788
0.9026855896 0.2499883429 0.7586925258
0.9124965882 0.2496480165 0.0053235334
0.9425552663 0.2496375449 0.7550365405
0.9324554912 0.2461917397 0.0047850392
0.9324221709 0.5004352252 0.5005188758
0.9325591546 0.4951189335 -7.6085912037e-04
0.9223520139 0.4982401196 0.7530095512
0.9226741108 0.5013495252 0.254095285
0.9425737777 0.4973709782 0.7534926966
0.9225038067 0.2495177762 0.2524126062
0.9227000266 0.2468311607 0.7562518085
0.9423072147 0.24915847 0.2565054586
0.9324888116 0.2471053853 0.5079826393
0.9724547472 0.0010262003 0.5150382281
0.9622957359 7.3515569713e-04 0.761820013
0.9624586355 0.2503823362 0.2620181291
0.9524551192 -6.2124437733e-05 0.0117392786
0.9725843264 1.4567103331e-04 0.0154791202
0.9524773328 0.2496022033 0.5060861547
0.9724399381 0.2489424936 0.5130445592
0.9625697034 0.2527057187 0.7583426619
0.9524032875 0.248229117 0.0067863903
0.9524995464 3.2859649521e-04 0.5069867304
0.9723881064 0.2492631858 0.0126850218
0.9725473038 0.5000222521 0.5088906194
0.962410506 -7.839437291e-04 0.2613109967
0.952803132 0.501078573 0.5071292675
0.9623660789 0.5006734537 0.7601234507
0.9822731503 0.2514438929 0.2635027368
0.9824582634 0.0013036972 0.7669744895
0.9924876955 -4.4702055275e-04 0.0209042321
0.9924173525 0.2479306769 0.5232489232
0.9824249431 0.2531147649 0.7648512413
0.9923284982 0.2505819508 0.0218040673
0.9925876566 0.4996472386 0.0159546759
0.0225145872 0.7458793087 0.7713792576
0.0024601287 0.4984580594 0.2713330243
0.0024722721 0.7493283863 0.7714162802
0.0123233292 0.4977008331 0.5187275338
0.0026545716 0.4974652225 0.7727990757
0.0226464989 0.999599215 0.2707314065
0.0226640106 0.9964315612 0.7737829523
0.0125314334 0.747705291 0.0210925848
0.0224950022 0.7477380147 0.2712922994
0.0024771221 0.7481961464 0.2667940491
0.0125892998 0.7482877727 0.5203676366
0.0525947756 0.9990298227 0.524059719
0.0524229905 1.0011175945 0.0243681625
0.0325103657 0.7484448465 0.0239397181
0.0424483519 0.7494461916 0.273975515
0.0324433548 0.7460625614 0.5218670533
0.042564603 0.7505391631 0.775521165
0.0423010018 0.500274879 0.7786116296
0.0323289548 0.4946981067 0.024533376
0.0325070337 0.4958388548 0.5266975818
0.0424842639 0.9977732328 0.2767438826
0.0523785634 0.4990163257 0.5289244933
0.0525929244 0.7506438789 0.0246871125
0.052423731 0.749033873 0.5255526568
0.0423991118 0.9978583144 0.77049997
0.0725744113 0.5009398246 0.0202901192
0.0722823027 1.0008099918 0.5198548731
0.0725351673 1.0003453153 0.0175699735
0.0724370573 0.7463636194 0.0190893825
0.0623965184 0.7491582231 0.2694504233
0.072430023 0.7498977786 0.5136989343
0.0624816705 0.7502970077 0.7716393416
0.0922674918 1.0026163398 0.5101382823
0.0924748186 0.7501661129 0.0084010401
0.1024439038 0.748909523 0.2545293754
0.0824838901 0.7500744866 0.2658212794
0.0924581584 0.7500744866 0.511420191
0.1024927737 0.7493545652 0.7560324494
0.0823013685 0.7490207835 0.7672799262
0.1021817835 0.9997955572 0.7583981959
0.1024209498 0.497954769 0.7578354518
0.0825749657 0.4981583104 0.7635045429
0.092527761 0.4975555399 0.0114082037
0.0824975884 0.5015013632 0.2650826778
0.1124229851 0.7482681385 0.0058411099
0.1225105428 0.7507485947 0.252445001
0.1124500116 0.7531439693 0.5014324094
0.1223606011 0.7507485947 0.7517915065
0.1223891085 0.9982379093 0.256054708
0.1223409791 1.0038140271 0.7580455552
0.1225601531 0.501995491 0.2584778395
0.1123530123 1.0003845837 0.5068210541
0.1423965112 0.748457936 0.249579449
0.1524085427 0.7496556233 0.4961770462
0.1323611555 0.751468516 0.5020858589
0.1425708879 0.7501268445 0.7451533478
0.1525570035 0.4995988075 0.4967203534
0.132271931 1.0020011343 0.0014037619
0.1424128012 0.5009424425 0.2489472875
0.1425168348 0.9991541728 0.2494970736
0.1323319076 1.0021516633 0.5007706298
0.1423365346 1.0007772681 0.7473719293
0.1524081725 0.99872222 -0.0013199935
0.1525070229 0.752574577 -0.002788302
0.1325825509 0.7520248189 0.0022090967
0.1725821771 0.7496948917 0.0016914277
0.1625386764 0.7507289605 0.2432717174
0.17250517 0.7495378179 0.5010584808
0.1624516732 0.7514881502 0.7483123042
0.1824353814 1.0019160527 0.7516100955
0.1723837357 0.5009614222 -0.0026648963
0.1724799946 0.5011250407 0.503070661
0.1825956894 0.748156878 0.2496784845
0.1827256389 0.7485626518 0.7509760829
0.1724355674 0.9994617755 0.0028663411
0.1623180214 1.003264269 0.7538342304
0.1823742941 0.5008429624 0.2480531908
0.2024960967 0.4996452751 0.7509918175
0.1923848446 0.5012683705 0.4996886432
0.1924637028 0.7519070136 8.3537183128e-04
0.2027341523 0.7475220383 0.2494156238
0.1925647746 0.748758994 0.5001199569
0.2025468177 0.751468516 0.7468526868
0.2324081653 0.7488440756 7.1689939604e-04
0.2326654726 0.5030511574 0.0027853541
0.232424085 0.749635989 0.5031271206
0.2125425592 0.7482746833 -7.9667852071e-04
0.2225034995 0.751016929 0.2472572041
0.2125588492 0.7494985495 0.4994637307
0.22238984 0.7466974011 0.7468286221
0.232635114 0.5030838811 0.5000033356
0.2225886515 0.5000844271 0.7440324875
0.2123726253 0.5001171508 1.6415144039e-04
0.2226408534 0.4966903254 0.2475941101
0.2125603301 0.5004345707 0.5007752576
0.2527036041 0.7531963272 -0.0032653849
0.2425916115 0.7484972044 0.2468397739
0.2526351122 0.7531308798 0.4940954485
0.2424338951 0.751016929 0.7504013065
0.2426212296 0.5021918332 0.7448951149
0.2626478841 0.4992309931 0.7493156177
0.262610121 0.7511543685 0.2468184859
0.2425938329 0.5009110277 0.2514139206
0.2625653237 0.7498585102 0.7466888617
0.2624827632 0.501393375 0.2499431964
0.2526980507 0.5030282508 0.4970007999
0.2725299661 1.0021582081 1.0005364166
0.2825697646 0.5006983237 0.2489019347
0.2725610652 0.5010988617 0.494418471
0.2825057154 1.0007576339 0.2486936824
0.2826345542 0.5013246552 0.7467953017
0.2824712844 0.7527120165 0.2447220791
0.2826308519 0.7538966143 0.745920642
0.2727150793 0.7549503173 0.9975005604
0.2726647285 0.7537918985 0.4972812463
0.312636958 0.9994552308 0.497985602
0.2926295552 0.7535693773 0.9961770012
0.3025009007 0.7544529171 0.2443712896
0.292531075 0.7528036428 0.4964102888
0.3025727246 0.750290463 0.7455966939
0.3024701719 0.4990241794 0.7467064474
0.2924222285 0.5015151071 0.9977874859
0.302511267 1.0000638915 0.2489648732
0.3123748377 0.7505260736 0.9940852223
0.3126343664 0.7528036428 0.4930921351
0.3124599898 0.5027082131 0.4956374413
0.3323870534 0.4989646223 0.4940482446
0.322452029 0.4995543033 0.7485427702
0.3326969328 0.7517564845 0.9916880066
0.3324259271 0.5038162375 0.9900867776
0.3225427344 0.751494695 0.2392566125
0.3324092669 0.750892579 0.4964149166
0.3225775357 0.7489618809 0.7450034061
0.3224531397 0.5035786634 0.2451570951
0.3525232949 0.503412427 0.4905061039
0.3525429169 1.0035980507 0.493989934
0.362480903 0.7535235641 0.2419333491
0.3624734985 0.7528363665 0.7426034138
0.3626104823 0.5045492482 0.7380070535
0.3627141457 0.5031179138 0.2377062896
0.352541436 0.7524894953 0.9945850279
0.3423976039 0.7515666871 0.239797143
0.3525229246 0.7548717804 0.4911160519
0.3424816453 0.7509972948 0.7450681958
0.3624549872 1.0026817872 0.7383208203
0.3424564699 0.5019961455 0.7439371542
0.3525584664 0.5012140491 0.9930115658
0.3424361075 0.5028960471 0.2418954009
0.3725325487 0.5034111181 0.9890131211
0.3824990423 0.5036094237 0.2403348967
0.3724696102 0.5038744856 0.4908615212
0.3927024808 0.5042135031 0.9910586218
0.3823990812 0.5025766638 0.7366011189
0.3725584646 0.7508074974 0.9913640585
0.3825471718 0.7524960401 0.2442296781
0.3723585423 0.7515077845 0.4857422163
0.3824212948 1.0011961314 0.2454893732
0.3823065246 0.7507747737 0.7406014147
0.3926284355 0.7512852633 0.9916324726
0.3927135876 0.7522277058 0.4905570101
0.3925025586 0.5032893859 0.4943879273
0.4024172205 0.5030550843 0.7371962578
0.4027059971 0.7513899792 0.2410438802
0.4026282495 0.7520640873 0.7424766112
0.4125910409 0.7519397372 0.990753185
0.4123911187 0.7522277058 0.4891344153
0.4224575734 1.0023414608 0.7408726055
0.4424201787 1.000378039 0.2367723936
0.4323092968 1.0013335709 0.4896592111
0.4424534991 1.0027210557 0.7369167369
0.4223353987 0.5043057839 0.7393370917
0.4324536851 0.7502184708 0.9848665859
0.4227241364 0.7542565749 0.2395555703
0.4325240281 0.7502839182 0.4828322371
0.4225168096 0.7544987303 0.7380810988
0.4423757516 0.7497603391 0.2365983872
0.4424423923 0.7518350214 0.7381329305
0.42255013 1.0025247135 0.2361976172
0.4722604233 0.9990560017 0.4787690028
0.4724677501 0.500477766 0.9793039348
0.4625864086 0.505171653 0.2308191537
0.4723974071 0.7518481109 0.98274704
0.4625049588 0.7515797766 0.2321686288
0.4723344686 0.7526073007 0.4798139667
0.4625197678 0.7518088425 0.7306432512
0.452283009 1.0027210557 0.485836624
0.4624605316 1.0006987312 0.2319492697
0.4623383569 1.0000180783 0.7307867139
0.4524903357 0.7512329054 0.9813772025
0.4523385429 0.7502446498 0.4857523975
0.4522941157 0.5005098352 0.4857635043
0.4923266921 0.5015622293 0.9826544834
0.492382226 0.5009398246 0.4790096499
0.4823750075 0.4989135733 0.7319686616
0.4823083668 1.0004892996 0.7325915674
0.4922378377 0.9970664009 0.4805664517
0.492367417 0.9993505149 0.983561538
0.4924784849 0.7509711158 0.4788374946
0.4925599347 0.7505260736 0.9799610866
0.4824712664 0.747953991 0.229545575
0.4825268003 0.7518022977 0.7293493101
0.5023487196 0.5011328944 0.2260025088
0.5125632649 0.9985193331 0.4821963733
0.5224149884 0.9988662042 0.7335791462
0.5024597875 0.9989840095 0.2286940544
0.5222594933 0.7523913243 0.7306034519
0.5025116192 0.7492629389 0.2317437941
0.5022968879 0.7514881502 0.7275250197
0.5123707472 0.7506766026 0.9795538376
0.512170825 0.4989842565 0.9848203076
0.5123374268 0.7482092359 0.4797815719
0.5224372019 0.7503362761 0.2286283392
0.5525847344 0.9969289614 0.4816650985
0.5424886616 0.4989305896 0.7314466424
0.5425441956 0.7486739124 0.2317956258
0.5525514141 0.4957282487 0.4806553061
0.5523737054 0.7502773735 0.4849018024
0.542466448 0.7486411887 0.7310393934
0.532311139 0.9994683202 0.9843297577
0.5424035095 0.4959121559 0.2342965048
0.5324592295 0.7485626518 0.9784801812
0.5524625597 0.4952707714 0.9812383676
0.5425256842 0.9986698621 0.229895439
0.5327072812 0.748909523 0.4804646395
0.5726361941 0.4970771195 0.9818399854
0.5625512281 0.999173807 0.7335421236
0.5523663009 0.7509842053 0.9842001785
0.5623068787 0.7467693932 0.2325814312
0.5624179466 0.749033873 0.727761039
0.5725177217 0.7475613067 0.9868287856
0.5724251651 0.4973533074 0.4834107157
0.5724584854 0.7475089488 0.48508599
0.6024875455 0.4997427917 0.2386327811
0.6025356749 0.9997562888 0.2333774179
0.6026467429 0.9965493665 0.7341094955
0.5925025406 0.7500941208 0.985921731
0.5925950972 1.000554747 0.4815586584
0.5925580745 0.9986371384 0.9858199188
0.6024172025 0.7456044297 0.2408365535
0.5925025406 0.7455847954 0.4840956345
0.6023505618 0.7481896017 0.7372092157
0.5825286424 0.9979957539 0.2335310618
0.5824582994 0.9978714039 0.7312004419
0.5824879175 0.4985424866 0.7356431582
0.5824582994 0.7484710254 0.23316824
0.5825804741 0.7477511041 0.7303156009
0.6126317478 0.7473911435 0.99398341
0.6124984663 0.9999984441 0.4903320976
0.6127131976 0.7491647678 0.4907430488
0.6223872124 0.9983884383 0.7398156093
0.622635264 0.7496163548 0.2422647017
0.6228129727 0.7476267541 0.7449858204
0.6224760667 0.9963726586 0.2374249176
0.6425238241 0.9995534019 0.7461548101
0.6323055766 0.4974128646 0.4954939786
0.642634892 1.000404218 0.2437446815
0.6524718064 0.9965362771 0.4949275322
0.6524088679 0.9989054727 0.9975838614
0.632564735 0.9981593724 0.4928829572
0.6324832852 0.9974525406 0.991650984
0.6324277513 0.7494134679 0.992058233
0.6324758807 0.7483990333 0.4893926482
0.6524273792 0.750113755 0.9967045738
0.6426237852 0.7473387856 0.2433975943
0.6524162724 0.7444067424 0.4962807096
0.6425756558 0.7447274346 0.7406032659
0.6724825412 0.7470180933 0.9937057403
0.6625604747 1.000829626 0.2456189525
0.6725158615 0.9993897834 0.9942795911
0.6825193778 0.7484710254 0.2461715153
0.6724455185 0.7467235801 0.4936123031
0.6824712484 0.7494396469 0.7481771716
0.6723196416 0.9972038405 0.4938668337
0.6624753226 0.746749759 0.2476061425
0.6623494457 0.7464421563 0.7456124285
0.7024486627 0.5000157074 0.2467213015
0.6925636189 0.9988662042 0.4919907116
0.6922637356 0.998093925 0.9918360971
0.6924932759 0.748457936 0.9935113714
0.7023487016 0.7486019202 0.2473238449
0.6924192307 0.7489422467 0.4971257513
0.7025708374 0.7497930628 0.7482067897
0.7124410722 0.4996361125 0.4928126142
0.7125336288 0.7475613067 0.4919657214
0.722466802 0.9973281905 0.7415593754
0.7325073409 1.0017000763 0.9910678774
0.7325887907 0.7470835407 0.9905310492
0.7225963813 0.7513310765 0.2416482748
0.7325998975 0.7493480205 0.4907208352
0.7225667632 0.7474500461 0.738470762
0.7225667632 1.0017458895 0.2357626012
0.7324703183 0.9973085563 0.4919860838
0.7126076741 0.7480390727 0.9936687176
0.7123633247 0.9979826644 0.4916676891
0.7124188586 0.9975638011 0.9911789453
0.7425108572 0.4986517837 0.2374202897
0.7426848636 0.7512656291 0.2403191621
0.7424997504 0.7490142388 0.7354737796
0.7526587617 0.751167458 0.9947886524
0.7626363621 0.9977732328 0.7459835804
0.7526032278 0.998120104 0.994446193
0.762395715 0.7497603391 0.2426913875
0.7526402504 0.750565342 0.4928820316
0.7625734236 0.7502446498 0.7463880527
0.7526439527 0.9978714039 0.4937826072
0.7425293685 0.9995010439 0.2433957432
0.7625882327 0.997917217 0.2456976256
0.7824582814 1.0011764972 0.2463307127
0.7726398784 0.9994159623 0.496960075
0.7825175177 0.9990625464 0.745044131
0.7726806033 0.9996515729 0.9955661277
0.7826359901 0.748281228 0.2497914036
0.7724510629 0.7471031749 0.4959512081
0.7826804172 0.7496752575 0.748596453
0.7727250304 0.747679112 0.9977597189
0.7727583508 0.499585718 0.4945295389
0.7725991535 0.5007356287 0.9952144127
0.7924395841 0.9994617755 0.4952829496
0.7926246973 0.7473715093 0.9972784246
0.7925765679 0.9982575435 1.000906643
0.8123133351 0.7473584198 0.9977689746
0.7925839724 0.4974946738 0.9968526643
0.8025578705 1.0000704363 0.2469971201
0.8124169985 0.4980110537 0.9933725365
0.802550466 0.7483924886 0.2437030311
0.8125021506 0.7517761188 0.4935234488
0.8026541294 0.9997562888 0.7449793414
0.8025319547 0.7496098101 0.7465342921
0.8124540211 1.0016019052 0.994390659
0.7926321018 0.7486542781 0.4987584495
0.8226870777 1.0012681235 0.7500236756
0.8225797121 1.0023938187 0.2484104592
0.8323944129 0.754655804 0.9987963527
0.8225389872 0.5040878441 0.747677366
0.8225797121 0.7518873793 0.2468508807
0.8325276944 0.7500810313 0.4977107089
0.8225908189 0.7512198159 0.7484335534
0.8424645699 0.7510234738 0.2501514487
0.8426459808 0.7517564845 0.7502541415
0.8626456088 0.5023646143 0.750935358
0.8426570876 1.0007772681 0.7472219876
0.8627566767 1.0013990183 0.2488704655
0.8626456088 1.0002471442 0.7535796998
0.8524791929 0.9993047018 0.0023966164
0.8626307997 0.7521491689 0.7500134944
0.8524606816 0.5027298107 0.4999690897
0.8525976654 0.7531047008 -0.0020878059
0.8525902608 0.4996505109 2.3743093311e-05
0.8624419843 0.5021512558 0.2500209439
0.862564159 0.7496948917 0.2558288699
0.8524791929 0.7536086458 0.4946072864
0.8525199178 1.0012157656 0.4993073101
0.8826822594 0.9998740941 0.7503985298
0.8925043647 1.002537803 0.0015829514
0.8826563435 0.7502708287 0.7516980243
0.8727305748 0.7525353085 0.0027250072
0.8926598598 0.7511412791 0.0031552102
0.8826526413 0.5000575937 0.7494674105
0.8825563824 0.5019274257 0.2497951058
0.8826304277 0.7501530234 0.25464322
0.8726676363 0.7537657195 0.5005540474
0.892719096 0.7518481109 0.5051883558
0.8726158046 0.5005798639 0.0013715522
0.8825415734 1.0008361707 0.25007185
0.9127853647 0.7477118357 0.5059343619
0.9025634149 0.9979761197 0.2549070063
0.9025449036 0.9979957539 0.7550346894