POSCAR file written by Ovito 3.7.11
1
270.036485091 0.0 0.0
0.0 15.2755703821 0.0
0.0 0.0 10.8014594036
Sr Ti O 
800 800 2400 
Direct
0.0223970976 0.4993839837 0.7789036117
0.012464662 0.4991450401 0.0282934675
0.0125121371 0.2505749439 0.5288179613
0.0224952695 0.2505127531 0.7732238236
0.002676244 0.253088107 0.7867145932
0.012434629 0.2522154718 0.0307845198
0.0024826775 0.0036559807 0.2768149774
0.0224530901 0.4989466842 0.2799164102
0.01241141 0.0036925096 0.5285828079
0.0024293144 6.9851342755e-04 0.7802145456
0.0124551818 0.0020676931 0.02778474
0.0224896777 0.2480211931 0.2782370075
0.0026798731 0.2517546052 0.2811486511
0.0423851744 0.4993257208 0.2740523878
0.0325131751 0.2512911201 0.5267163934
0.042473681 0.2472146765 0.7730090378
0.052515287 0.4983188844 0.0214600391
0.0325483555 0.2479766776 0.0245149966
0.0324791056 0.001431252 0.5251915995
0.0324365188 6.8594433879e-04 0.0243242816
0.04247257 0.2488264003 0.2738413052
0.0523793795 0.2494574733 0.521995735
0.052468997 0.2480532704 0.0225428557
0.0624217261 0.2500407576 0.2719674843
0.0625820748 0.4992831692 0.7749485906
0.0624720897 0.4984910547 0.2722655922
0.0725862785 0.4996340562 0.5183184542
0.0725036971 0.2506102944 0.5211069662
0.0626524357 0.2480153013 0.7709759792
0.0726484923 0.2511019291 0.0270510428
0.0625028263 0.0022747557 0.270016822
0.0626542873 5.8408234863e-04 0.7657600174
0.1025792626 0.0013099472 0.2669764921
0.0925676525 0.2508714958 0.5161187514
0.0825141962 0.0012072997 0.2664534146
0.1024555756 0.2495118084 0.7696817097
0.0824145801 0.251849528 0.7706630585
0.0926180161 0.2522979565 0.0186281995
0.082490866 2.8412628248e-04 0.7708565509
0.0925609868 0.0023724935 0.0193424548
0.1025574137 0.2519614715 0.2747282224
0.082453834 0.2503274899 0.2676902845
0.1025537105 0.4988805655 0.2687327362
0.0926150535 0.4998677627 0.5208912546
0.112525326 0.0013595035 0.0235411467
0.1226532167 0.2493651691 0.2691419402
0.1125279182 0.2482967965 0.515939146
0.1225324923 0.4976046721 0.7674477523
0.1124612606 0.4994068961 0.023928687
0.1226106298 0.2473613159 0.7697178159
0.1125445827 0.2503942632 0.017014899
0.1125531 0.4998559792 0.5217883556
0.1525502878 0.2507137276 0.515195728
0.1326326089 0.2436959863 0.5184230697
0.1426538473 0.2497180201 0.7668580172
0.1525106635 0.2484453998 0.012443202
0.1325218831 0.2479184146 0.016293515
0.1426601428 0.2496591025 0.2617022048
0.1425383074 0.4989132975 0.7631677751
0.1526554588 0.4988039726 0.0106741817
0.1325526197 0.4996458397 0.0190633259
0.1325285489 0.4984930186 0.5155984513
0.1524991836 1.5666786677e-04 0.5144921194
0.1824788362 0.2494646744 0.7618401767
0.1827358385 0.2499301234 0.2610930278
0.1625859687 0.4998906751 0.7618522121
0.1625426412 0.4988216479 0.2639704168
0.1724909266 0.2517807908 0.5108759413
0.1826006715 0.4989617409 0.7641898592
0.1625944861 0.2506685574 0.7615466978
0.1725327728 0.2507798462 0.0125295792
0.1625322723 0.0013420901 0.2689540026
0.1623822925 0.2494469991 0.2648193761
0.172524996 6.9294898722e-04 0.5121100338
0.1825747491 0.0031200924 0.2614494612
0.2024824294 0.2499098296 0.2580638075
0.1926396853 0.4997761131 0.0063905013
0.2025853784 0.4995777572 0.2522914394
0.1924063835 0.2504898407 0.5078633855
0.2023331903 0.2486195341 0.7566769855
0.1925870999 0.2494437259 0.0113389067
0.192327135 0.0010414793 0.5083299891
0.2025487167 0.0011191197 0.7562196399
0.1924656348 0.0014059175 0.0126214186
0.2024768746 3.7158619177e-04 0.2603375744
0.212450712 0.2493605866 0.5043379359
0.2223623356 0.2516452803 0.754536534
0.2123910904 0.2520144973 0.0078144756
0.222313083 0.0022538727 0.2545902029
0.2123255437 2.1715660643e-04 0.5040157573
0.2122996213 0.0011460908 0.0076590336
0.2224193649 0.0014313175 0.7553012455
0.2323009926 0.0013239565 0.5047656559
0.2224371403 0.2505834542 0.2555150779
0.2325420711 0.2514888214 0.5024974439
0.2324709696 0.2530501379 0.0019078663
0.2322935862 0.0013502731 0.9997654333
0.2525049291 0.2507255111 0.4966093507
0.2425840475 0.2517906104 0.7468246132
0.2624443267 0.2533205042 0.2427686522
0.2522297811 0.253326396 0.9972935451
0.2424918377 0.254857599 0.2452090631
0.2424099969 0.0048796994 0.2516776335
0.2526286161 0.4996995202 0.9988581485
0.2522445939 0.0011328016 0.4975481127
0.242265572 7.4826607056e-04 0.746365416
0.2623710033 0.2539803814 0.7467125913
0.252271257 0.00212792 0.9981823139
0.262313974 0.0042687238 0.2435778021
0.2622628698 0.0024386121 0.7464413316
0.2723900198 0.2497409325 0.4911971191
0.272432977 0.2510986559 0.9931366994
0.2723826134 0.0031727255 0.4969778194
0.2722437433 0.4992648392 0.9942754344
0.2824801378 0.2512485685 0.7462774649
0.2823831139 0.0025805381 0.7498251336
0.2825164292 0.2496355354 0.2474004337
0.3025892723 0.2516478989 0.2458580495
0.3126312487 0.2531228029 0.4898093436
0.3124583091 0.251267553 0.9864339014
0.3127638233 0.0027055089 0.9898871385
0.2923784299 0.2509971867 0.4956428146
0.3026251934 0.2511254961 0.7391136181
0.2924973027 0.4997008295 0.4935199533
0.3024966922 0.4993970765 0.2398134959
0.2923754673 0.2499275049 0.9954789755
0.3024244798 0.0014890567 0.7452711194
0.2925228548 0.0011030155 0.4888307722
0.3125083023 0.4968858773 0.9898223325
0.2925021169 0.0025714386 0.9945716907
0.3226169363 0.2519798014 0.2355612928
0.3325870706 0.2531974319 0.4897436118
0.3227554361 0.252300575 0.7417799245
0.3328055595 0.2524550701 0.9888132096
0.3226298975 0.0019929332 0.2398477506
0.3327011292 0.0031453615 0.4864116546
0.3226224911 0.0029913902 0.7405236128
0.3326822429 0.0028167977 0.9857210348
0.3627681774 0.2541172011 0.2330088599
0.3527432357 0.2510763981 0.4865338603
0.3426190483 0.250816506 0.7412605502
0.3526502853 0.0021137143 0.9886095334
0.3527813787 0.2512099447 0.9818419294
0.3425812756 0.0023801528 0.2384183141
0.3425486874 0.0033697721 0.736911138
0.3425238759 0.2514246666 0.2377822889
0.3626237524 0.2522671884 0.7356779713
0.3626978165 0.0046982986 0.2333264096
0.3726409173 0.2527850086 0.4816206354
0.3826469726 0.2518397084 0.7287752003
0.3726335109 0.2511523364 0.9821659596
0.3825877214 0.0016739271 0.7313304106
0.3825840182 0.2503045775 0.2300685165
0.392564151 2.8700669865e-04 0.4796644182
0.3926196991 0.001919679 0.9809809346
0.3725113052 5.2045133678e-04 0.4827177093
0.372726091 0.0040359993 0.9885725013
0.3926900599 0.2503936086 0.4784284741
0.3926271055 0.2477331515 0.9761204803
0.4124281335 0.0037613123 0.4688408808
0.4025294711 0.2491596121 0.7254432432
0.4025887223 9.7784833245e-04 0.2249932764
0.4026442704 2.4759736827e-04 0.7245044811
0.4025294711 0.4974410121 0.2259551834
0.4027257409 0.2509912949 0.2294028657
0.412583668 0.2526102198 0.4765565049
0.4128836275 0.2510351558 0.9710193177
0.4126132936 0.002368762 0.9697972607
0.4125984808 0.4982756781 0.9745929089
0.4125910744 0.4983908948 0.480302295
0.4225897233 0.2489750036 0.2257700233
0.4425425826 0.2479891157 0.7147882015
0.4325698562 0.4989957822 0.9761852863
0.4325550434 0.4978894405 0.4681456044
0.4425981307 0.2481534304 0.218041438
0.4225526913 0.4985925239 0.2244720505
0.4425833179 0.4989676327 0.7193699898
0.4324883857 0.2498731697 0.4707970979
0.422637865 0.2476297183 0.7219455677
0.4325143081 0.2504230674 0.9736393341
0.4427203364 0.4975588473 0.2157287875
0.4325180113 7.9049035312e-04 0.9707600935
0.4527152821 4.1433418636e-04 0.9599004499
0.4722904147 0.2482247861 0.4590496113
0.4625620996 0.2510017692 0.7110738886
0.4724533556 0.2499248863 0.9595208715
0.4624806292 0.2504787118 0.2102869303
0.4526078892 0.4990344059 0.9609466048
0.4626472733 0.4973454346 0.7116599205
0.4724644652 0.4996779171 0.4617205467
0.4524967931 0.2475400326 0.4635675193
0.4522968201 0.2460494173 0.9624649181
0.4726051869 0.0014658825 0.9583080725
0.482533475 3.6026091909e-04 0.2106933569
0.4824742237 0.2512983211 0.7100795785
0.4823483148 0.2513690222 0.2136244423
0.4923914021 0.2508551298 0.4649812172
0.4921395843 0.2498352006 0.9677790149
0.4824594109 0.4996517315 0.208401074
0.5025122567 0.2507418771 0.2188163333
0.5124590608 1.6786221144e-04 0.9612798931
0.522465116 5.7982718837e-04 0.2195616029
0.502571508 0.2503733147 0.7185849107
0.5025937272 0.497844925 0.7150937158
0.5123664807 0.2467400625 0.4694407997
0.502353019 6.0902413414e-04 0.7178285314
0.5223799424 0.2495517415 0.2187867077
0.5123961063 0.2526802662 0.9692602962
0.5223614264 0.2499039378 0.7154307073
0.5125590472 0.4985473538 0.470387894
0.5224910385 0.4987745138 0.217785917
0.5225576961 0.496206361 0.7165490747
0.5524906883 0.2511248415 0.4763130192
0.5525017979 0.001119316 0.979175623
0.5324230297 0.499869072 0.967917885
0.5324008105 0.4995456798 0.4727653505
0.5325415322 0.0015873182 0.4703332717
0.5324452489 0.2514364502 0.4746030651
0.5323637784 0.2474032129 0.9685196555
0.5424957426 6.2334237058e-05 0.7254312078
0.5424550074 0.252447869 0.2227491352
0.5425512907 0.2499700565 0.7225677058
0.5523166378 0.2533774579 0.9763889625
0.5625263692 0.4995594273 0.7308925068
0.5624300859 0.4994612312 0.2256089339
0.5626782006 1.0017243135e-04 0.231070233
0.5624115699 0.2504446705 0.2264236386
0.56250415 0.2523640751 0.7279151314
0.5722732003 0.0032622802 0.4792496595
0.5724509541 0.0025308509 0.9812216428
0.5725620501 0.2471079702 0.4782701622
0.572595379 0.2486457197 0.9803884221
0.592451955 0.4992661485 0.9832676626
0.5823496164 0.2490437408 0.7294760316
0.6024209783 0.2487792662 0.233849487
0.5924556582 0.2477783216 0.4801773119
0.6023098822 0.2512138725 0.7361001364
0.5923593749 0.2480951674 0.9796477814
0.6023469142 0.5000759382 0.7407615436
0.5824644157 0.2509133928 0.2294593395
0.5925223159 0.4991954474 0.483449092
0.5824458997 0.4999024586 0.2308184151
0.6121529965 5.4742250641e-04 0.9853044244
0.6123788919 0.499296262 0.4901898478
0.6224071664 0.2514560894 0.7428723695
0.6224219792 0.4987561839 0.2376258286
0.6124492528 0.4992550196 0.9881281169
0.6226849067 0.4999489381 0.7411096447
0.6124973944 0.2480270848 0.489073332
0.612271499 0.2520177705 0.9820641216
0.6224293857 0.2501625206 0.236689844
0.6424526058 0.2499680926 0.2470356681
0.652566054 0.2476683421 0.4868643712
0.642456309 0.250267263 0.7394617192
0.6525142092 0.2491956173 0.9908221973
0.632472473 0.4968145216 0.992673799
0.6424859347 0.4979804355 0.7405819382
0.6526141957 0.5000176753 0.990414845
0.6426636884 0.4983084101 0.2422409457
0.6525586476 0.4991758082 0.496291801
0.6324872858 0.2500813453 0.4909073434
0.6326057883 0.2493887361 0.9896464303
0.6623758395 0.0019890708 0.7384007515
0.672311534 0.4976419866 0.4884808195
0.6825249686 0.4975850329 0.7425613004
0.6725115069 0.4996478037 0.9905074251
0.6825286718 0.4969611609 0.2405300658
0.6625795157 0.2489154314 0.2431667465
0.6624276844 0.250252861 0.7421576512
0.682495343 0.001250375 0.2447711593
0.6823768405 7.9003210509e-04 0.7425427844
0.6624536068 0.4950044419 0.744886912
0.6623239947 0.493502043 0.2437888847
0.6822916668 0.2489278695 0.2394940946
0.6723967076 0.2481691417 0.4936745621
0.6823657309 0.2470215577 0.7458627061
0.672293018 0.2453901948 0.992710831
0.7023037774 0.2460094842 0.2376156448
0.6922829093 0.2486830342 0.4888668784
0.7024630152 0.2483478585 0.7337291605
0.6924458503 0.2469403824 0.9924238328
0.7024667184 0.4995915046 0.7384905542
0.7022149005 0.0021579025 0.7387368172
0.7024148735 3.7413928792e-04 0.2443138137
0.6924569599 0.4995083653 0.9889520797
0.6924791791 0.496795537 0.4916303939
0.7122950199 0.2478608063 0.4910749134
0.7122320654 0.2496505921 0.989331658
0.7223418104 0.4983719102 0.7427557186
0.7223307008 0.2489671479 0.2388525147
0.7324922906 0.4988111737 0.9931274414
0.7324108202 0.2526193847 0.4905990517
0.722334404 0.4981329666 0.2436583467
0.7323515689 0.4998383039 0.4903314953
0.7224455001 0.2496001848 0.73991351
0.7323145369 0.2497206386 0.9907203592
0.7124690704 0.4970796508 0.9920812865
0.7623438124 0.4998474689 0.7465774243
0.742316889 0.0030711908 0.7432963862
0.75244515 0.4995692469 0.9922571886
0.7624919405 0.4999666134 0.2448729974
0.7623993604 0.2494607465 0.2446924663
0.7526673422 0.2512243468 0.4928515251
0.7624771277 0.2507235472 0.7482392368
0.7525562461 0.2466124077 0.9913221298
0.7424427979 0.4993938033 0.740578235
0.7524229307 0.4987646942 0.4947262718
0.7424057658 0.2514619811 0.2422159491
0.742372437 0.2511287693 0.7428927371
0.7828114169 0.4999358453 0.2474448721
0.7825262703 0.4979948376 0.7493548268
0.7825225671 0.2478902651 0.2487696931
0.7724535573 0.2493409474 0.4968907941
0.7824188774 0.2480709457 0.7496844119
0.7725609502 0.2460703658 0.0017886232
0.7924878871 0.4970357899 0.4935171759
0.8126259066 0.497475708 0.4983952205
0.8025494905 0.4982409822 0.7474930414
0.8028050115 0.4978553992 0.2458089821
0.7926174992 0.247382919 0.4962195885
0.7925286224 0.246620918 0.999413629
0.8125851714 0.0014019896 0.4972962949
0.8026605866 0.2485272298 0.2478494471
0.8126073906 0.2478660434 0.4999246434
0.8022421246 0.2462602114 0.7473689841
0.8126814547 0.2496859427 0.9943032084
0.8325676563 0.0025294107 0.4957835363
0.8226356651 0.2508564391 0.2474865331
0.8325528435 3.7158619177e-04 0.9929515392
0.8325009987 0.2503720055 0.4974592358
0.82268751 0.2498816801 0.7456988394
0.8324417474 0.248694163 0.0021470007
0.8325565467 0.4983660185 0.4930403885
0.832634314 0.4970724497 0.9975527693
0.8225393818 0.4997715306 0.2415456693
0.8424922412 0.4981329666 0.7546615171
0.8424922412 0.4999541752 0.2521035019
0.8426996205 0.0017773602 0.252079431
0.8425514924 0.2484192142 0.2505620435
0.8424403963 0.2505880367 0.7504194978
0.8626524799 0.2508099596 0.2592821614
0.8524242324 0.2494705661 0.5080031814
0.8624339909 0.2500630154 0.7560492926
0.8525427349 0.248186817 0.0034373819
0.8925188144 0.4978409971 0.0114986074
0.8725067038 4.5832599702e-04 0.5060775157
0.8823498182 0.248808725 0.259665443
0.8724807814 0.2471321919 0.5078883821
0.8925891753 0.2487530806 0.509785348
0.8824572111 0.2496427365 0.7577675789
0.8725659551 0.2487995601 0.005713278
0.8925373304 0.001455932 0.5095492688
0.8724474526 0.003056265 0.0109083168
0.8923373574 0.245187911 0.0127423282
0.8724289366 0.4980210232 0.5099686565
0.8924854856 0.4992766228 0.5084660818
0.9125975826 0.4965749233 0.5125683053
0.9024508056 0.4990219678 0.7614568952
0.9126642403 0.4992026484 0.0140649273
0.9023878512 0.4985735394 0.2623502654
0.9124050161 4.596352771e-04 0.5139616355
0.902365632 0.249867278 0.2622586111
0.9124938929 1.9444059705e-04 0.0158997719
0.9124161257 0.2480336312 0.5143152914
0.9023730384 0.2504721654 0.7623808444
0.9123013264 0.2519601622 0.015079605
0.9423306019 0.2481553943 0.773621918
0.9324652683 0.2521022191 0.0187740131
0.9324541587 0.4998448503 0.517645397
0.9324097202 0.4989872719 0.0195781637
0.922222208 0.4989807255 0.7674940423
0.9225517931 0.4976341309 0.2636186125
0.9424157755 0.4995168757 0.7720267632
0.922477729 0.245842551 0.2657294384
0.92264067 0.2481187344 0.7642546653
0.9423565243 0.2501140773 0.274381047
0.9324171266 0.2481730696 0.5191090881
0.9724524574 8.5097909278e-04 0.5373084806
0.9626278591 0.0028845529 0.7829364001
0.9622242099 0.2511896509 0.2813143694
0.9522440771 1.8501378048e-04 0.0292375066
0.9725635535 0.0024981189 0.0339266878
0.9524329404 0.2499962421 0.5269154406
0.9725635535 0.2505886913 0.5292614199
0.9623871509 0.252447869 0.7805913466
0.9524329404 0.2482994151 0.0239314644
0.9524107212 0.0013846417 0.5307473302
0.972389503 0.2520334819 0.0338492908
0.9724524574 0.4982822245 0.534396837
0.9625315758 0.0010251133 0.288009761
0.9523996116 0.4971922489 0.5244352202
0.9625686078 0.4994972364 0.7774278852
0.9823844486 0.2523673483 0.2858406096
0.9823881518 8.2976875549e-04 0.7827243917
0.9925719609 4.3017647532e-04 0.0375490687
0.9925053032 0.2523568741 0.5340959518
0.9824696223 0.2505769078 0.7863174247
0.9923756911 0.2530586482 0.0306705537
0.9924793808 0.4986062714 0.0366800194
0.0225005281 0.7493851231 0.7761095448
0.0025453728 0.5007639649 0.2803404269
0.0025205243 0.7505700216 0.7799784664
0.0123289026 0.5002317426 0.5342561153
0.0024183159 0.5004621759 0.7805145051
0.0224621259 0.9981614309 0.2737237285
0.0223885062 0.9956672524 0.7781935224
0.0123153118 0.7490512567 0.0324197618
0.0225018983 0.7479645542 0.2746856355
0.0025339669 0.7466290885 0.2808940558
0.0126480076 0.7480954822 0.5280078856
0.0525630583 0.9981614309 0.5243083855
0.0524175224 0.9972907597 0.0222027165
0.0325416897 0.7512508472 0.0233000682
0.0423822119 0.7503670831 0.2718082466
0.0324928075 0.7525928593 0.5267562029
0.0424859015 0.7527499729 0.7752420694
0.0423851744 0.5014578834 0.7789637887
0.0323531967 0.5000353506 0.0272815672
0.0324142996 0.5011318726 0.5260933295
0.0424255393 0.9970747285 0.2723239176
0.0526211986 0.499958103 0.5191877811
0.0523716027 0.7494964119 0.0193306972
0.0525334327 0.7496469791 0.5215754215
0.0423388844 0.9986327718 0.770544556
0.0726784883 0.5002258508 0.0231699006
0.0725459136 0.9979715853 0.5199469378
0.0725825753 0.9994576182 0.0216784355
0.0724940688 0.7454310973 0.0197242551
0.0624180229 0.7517680128 0.2728738433
0.0724840701 0.7494767727 0.5207699747
0.0624298732 0.75175492 0.7691021584
0.0924587783 0.9992677726 0.5154716166
0.0925732073 0.7494244015 0.0188652971
0.1025292694 0.7481020286 0.2693900548
0.0825182697 0.7514145072 0.2674477247
0.0925691338 0.7473622854 0.5202533779
0.1024859419 0.7493851231 0.7720887918
0.0823801403 0.7512901256 0.7705047466
0.1024974218 0.9986982358 0.7663182753
0.1026314778 0.5004562841 0.7696539357
0.0825482657 0.5001040878 0.7744671741
0.0927405921 0.5005263306 0.0175968574
0.0825182697 0.501902384 0.2695252217
0.1126856747 0.7461381085 0.0163478595
0.122598039 0.7509824448 0.2680726402
0.1125231041 0.7482591422 0.5149985324
0.1225036073 0.7489530607 0.7690558683
0.1226180363 0.9978930285 0.2650461973
0.1225065698 0.9991564838 0.767397759
0.1226495135 0.5021694771 0.2700640378
0.1124390414 0.9979061213 0.5184388083
0.1424253597 0.7516305384 0.2636704573
0.1524769644 0.7538039434 0.5180490461
0.1324081948 0.7514014144 0.5161631898
0.1424897954 0.7466421813 0.7698437248
0.1525347344 0.5011515118 0.5160224681
0.1324504113 0.9995623606 0.0135599955
0.1425423809 0.4998389586 0.2608236198
0.1425290494 0.9989208134 0.2656831483
0.1326718629 0.9975329765 0.512709027
0.1425960774 1.0001122583 0.7649082806
0.1522977293 0.9993266902 0.0193544903
0.1523177266 0.7526386841 0.0164259971
0.1324474487 0.747192079 0.0199937557
0.1725731377 0.7507140424 0.0167834488
0.1624304342 0.7487435759 0.2660136592
0.1726731242 0.7531034785 0.5144374971
0.1626274446 0.7499022887 0.7665052871
0.1823455208 0.9996212782 0.7624724987
0.1725409198 0.5036692574 0.0126148454
0.1727671855 0.5022362504 0.517728719
0.1827217663 0.7500004847 0.261705908
0.182653257 0.747290275 0.7624771277
0.1726512753 0.9982138021 0.0147567782
0.1625878203 0.9996081854 0.7633020162
0.1826721434 0.5018336468 0.2572546576
0.2025287194 0.5000923042 0.7551679302
0.1925596962 0.500794733 0.5058914297
0.1926000611 0.7507991456 0.0035375535
0.202569825 0.7495291439 0.2548762753
0.1924252699 0.7499415671 0.506712615
0.2026250027 0.7506223928 0.7539569827
0.2327190842 0.75191858 0.0018873136
0.2325642903 0.5030637154 0.0048313602
0.2326202087 0.7534504377 0.5011383683
0.2125007052 0.7520626009 0.0036821636
0.222577862 0.7515127032 0.2512795391
0.2125666222 0.7515978064 0.5045369831
0.2225452738 0.7483573382 0.7542930484
0.2325102236 0.5007973516 0.5028668384
0.2225356455 0.5048613569 0.7540838174
0.2126214297 0.5005119285 0.0058653871
0.2224926883 0.5045170163 0.2501815393
0.2125610674 0.5011940634 0.5032241976
0.2524219773 0.7527630657 1.0051796828e-04
0.24243666 0.7529005401 0.2493918312
0.2522379281 0.7544913154 0.4964760354
0.2424825797 0.7513817752 0.7467468459
0.242521093 0.5037104997 0.7472088205
0.2622713871 0.5025098899 0.7470958728
0.2623250836 0.7533456953 0.2473189632
0.2423770384 0.5027416325 0.2499287957
0.2623084192 0.7526714161 0.7469847767
0.2623628562 0.5003914747 0.2460311743
0.2524008691 0.501385873 0.4964408549
0.2723626161 0.998423287 0.9948586889
0.2824553263 0.5044934492 0.2397801671
0.2724948204 0.5034492984 0.4973286979
0.282257205 1.0001384439 0.2433167262
0.282323122 0.5018775076 0.7427288703
0.2823886687 0.7530052825 0.2418595158
0.2824519935 0.7515716208 0.7446952713
0.2723915011 0.7533391489 0.9963029382
0.272260778 0.7560035339 0.4943865029
0.3126845748 0.999830763 0.4896713993
0.2923243631 0.753731933 0.9920812865
0.3025977897 0.7497648143 0.2424177736
0.2925639604 0.7519709512 0.4927117292
0.3025289101 0.7510610016 0.7401310732
0.3023585627 0.5006101245 0.7392173078
0.2924117587 0.501302079 0.9961825841
0.3025081722 0.998619679 0.2446322892
0.31230907 0.7519382192 0.9902944909
0.3125849586 0.750903888 0.4881234603
0.3126338409 0.501933152 0.4907731023
0.3326711333 0.5027291943 0.4875559444
0.3225132466 0.5029707565 0.7360769914
0.3328000047 0.7528743545 0.9877207646
0.3325107846 0.504843027 0.9856840028
0.3225639805 0.7493131127 0.2387006833
0.332497453 0.7543472946 0.4869171419
0.3225824965 0.7521346113 0.7322497308
0.3225928655 0.5002965519 0.2369296264
0.3525647413 0.5032948033 0.4868495584
0.3526547292 0.9996278246 0.484150849
0.3626718941 0.7520691473 0.2321497167
0.3627163325 0.7488417719 0.7323561979
0.3627052229 0.503180896 0.7350391687
0.3626237524 0.5042689077 0.2410975817
0.3526265848 0.7545960578 0.9889613377
0.3424631434 0.7518138376 0.2357779301
0.3526832438 0.7527565193 0.4865162701
0.3426994078 0.7526321377 0.7362964062
0.3626089396 0.9990713806 0.7344392498
0.3426882982 0.503662711 0.7382757684
0.352585109 0.5014958525 0.9878318607
0.3425809053 0.5001872271 0.2376480478
0.3726372141 0.5028797615 0.9843508496
0.382417374 0.5012182851 0.2352983653
0.3727038718 0.5016405279 0.4848840833
0.392564151 0.5013590327 0.9842397535
0.3827173335 0.5008025887 0.7307990009
0.3724816796 0.751623992 0.9830732445
0.3825136573 0.7516108992 0.229043655
0.3725853693 0.7500135775 0.4866032954
0.3825580957 0.9992808654 0.2326190977
0.3825062509 0.7497320823 0.7320978995
0.3926085895 0.7500463095 0.9831658245
0.3926863567 0.7485275446 0.4819131884
0.392564151 0.5007718206 0.4827815896
0.4025183615 0.5005793564 0.7302935137
0.4026961152 0.7494702263 0.2350437701
0.4024702198 0.7549233778 0.7269050827
0.4126281065 0.7500463095 0.9714266701
0.4125207136 0.7498957423 0.4792515111
0.4226489746 0.9963349852 0.7180701654
0.4426981172 0.998946999 0.2163185227
0.4326920619 0.9971009141 0.4702212498
0.442768478 0.9977031829 0.718550656
0.4226415682 0.5006624957 0.7253275181
0.4327105779 0.7475586774 0.9703342251
0.4225156592 0.7495815151 0.2230453914
0.4327216875 0.748665019 0.4727412797
0.4224897368 0.7525339417 0.7258820728
0.4425981307 0.7466880061 0.219617151
0.4426833044 0.7494113087 0.7176063392
0.4226230521 0.9993266902 0.2217529735
0.4725459357 0.9973955021 0.458046969
0.4724681684 0.5015501876 0.9608817987
0.462588022 0.5006814803 0.2135911134
0.472460762 0.7493654839 0.9579192361
0.4626768989 0.7493000199 0.2110618256
0.4725163101 0.7491363599 0.4617807237
0.4624843324 0.7493654839 0.7129560417
0.4526523276 0.9988946278 0.4607975233
0.4626065381 0.9992023086 0.2118543111
0.4626028349 0.9980239565 0.7090186108
0.4525116059 0.748370431 0.9673253725
0.4526078892 0.7461512013 0.4670614916
0.4526486244 0.5006127431 0.4675169856
0.4925099046 0.5013125533 0.963381461
0.4921988356 0.5018081158 0.4627722564
0.4822261091 0.5014009297 0.7102628871
0.4823816436 0.9994772574 0.7051108055
0.4923321509 0.9994838038 0.4611002601
0.4923358541 0.999568907 0.9665014097
0.4923617765 0.7526255913 0.4622760272
0.4924543566 0.7484555342 0.9567990171
0.4824816301 0.7476306878 0.2091204213
0.4824742237 0.7497517215 0.7087223545
0.5024789279 0.5003181551 0.2152520001
0.512462764 0.9976246261 0.4681039433
0.5225132577 0.9970878213 0.7194144282
0.5022715485 0.9993790614 0.2179544127
0.5226132442 0.7474932134 0.71599452
0.5026048368 0.7488090399 0.2172841329
0.5026344624 0.7507991456 0.7134902288
0.5126553305 0.75044564 0.9696121005
0.5124738736 0.5007423618 0.9649460644
0.5126220017 0.7474146566 0.4698685197
0.5226021346 0.7480562038 0.2170397215
0.5524203275 0.9998896806 0.4779257643
0.5424772266 0.5006500576 0.7246600157
0.5425624003 0.7516305384 0.2199569199
0.5524018114 0.500689336 0.4747558223
0.552612894 0.7514799712 0.479182076
0.5425216651 0.7499284743 0.7247914794
0.5323637784 0.9968979757 0.9653626747
0.5424364914 0.5004595573 0.2218779566
0.5325156098 0.7490774423 0.974713263
0.5525536428 0.5006127431 0.9784534984
0.5423735369 0.9976573581 0.2211021355
0.5325119066 0.7515192496 0.4672327648
0.5725546437 0.5012575635 0.9819067354
0.5625374788 0.9995165358 0.7242767341
0.5526832549 0.7490185247 0.9778517278
0.5624893372 0.7515454352 0.229759299
0.5624411956 0.75093662 0.7316396281
0.5725694566 0.7486584726 0.9793792992
0.5724398444 0.5012425068 0.4786006731
0.5724398444 0.7471004294 0.4835074174
0.6022469277 0.5022061369 0.2331643944
0.602543184 0.9999944231 0.2356918307
0.6024283847 0.9964331812 0.7334153141
0.5924112198 0.7475717702 0.9843601076
0.5925667543 0.9996867422 0.4756131138
0.5924186262 0.9978144717 0.9835268869
0.6025876224 0.7473426462 0.2354816739
0.5924445486 0.7461773869 0.4867977136
0.6026394673 0.7490054319 0.7369028058
0.5825458862 0.9977359149 0.2325746593
0.5825532926 0.9962236964 0.7253682533
0.5823607261 0.5015226927 0.7289557315
0.5823533196 0.747650327 0.2351344986
0.5824792286 0.7478205334 0.7307138273
0.6123900015 0.7491559991 0.9896279143
0.6123751887 0.995529778 0.483258377
0.612634413 0.7492607415 0.4882104856
0.6224256824 0.9966033876 0.7375443857
0.6227589707 0.7485406374 0.2381331674
0.6225404818 0.7484620806 0.7405495352
0.6224886369 0.9978733893 0.2371036769
0.6424044642 0.9979192141 0.7391191729
0.6326539299 0.5019226778 0.4913193248
0.642456309 0.9994314326 0.2398070153
0.6522994234 0.999798031 0.4929524374
0.6525216156 0.9999027734 0.9951086551
0.6324317377 0.9995950926 0.49067219
0.6324243313 0.9976704509 0.9895445922
0.6327798388 0.7500724951 0.9879059247
0.632727994 0.7472837286 0.4899870974
0.6523216426 0.7480627502 0.9897667844
0.6427229397 0.7479580078 0.239608894
0.6523994099 0.7482264102 0.4919997884
0.6427525653 0.7456864069 0.7396459536
0.6726114934 0.747421203 0.9872393482
0.6624869356 0.9975460693 0.2426640367
0.6722782051 0.9970027181 0.991525806
0.6824546078 0.7492214631 0.2423964802
0.672530023 0.7484948126 0.490941598
0.6823138861 0.7486519262 0.7404569551
0.6724966941 0.9991302982 0.4904694396
0.6624721228 0.7488810503 0.2417669357
0.6624795292 0.7475455846 0.7430816004
0.7023741383 0.5002487632 0.2397949799
0.6923977086 0.999208855 0.4871124858
0.6924384438 0.9987571534 0.9866375776
0.6925569464 0.7488417719 0.9903315229
0.702459312 0.7497451751 0.2401791873
0.6923384574 0.748370431 0.489584374
0.7024926408 0.7509562592 0.7390367766
0.712461664 0.5007089752 0.4887724467
0.7125135089 0.7496600719 0.4912859959
0.7223269976 0.999274319 0.7423529952
0.7321441895 0.999307051 0.9890909498
0.7324034138 0.7499022887 0.9894890442
0.7225047514 0.7481871318 0.2379415267
0.7324330394 0.7495422367 0.4877420304
0.7225195642 0.7498695567 0.7415873579
0.7222492303 0.9996736494 0.2411586845
0.7323293497 0.999765299 0.4927987545
0.7123764904 0.7492738343 0.9895075602
0.7123987096 0.998816071 0.4920636686
0.7122950199 0.9977948325 0.9876837326
0.7425390812 0.5001407476 0.2417113876
0.7423428114 0.7490185247 0.2407402226
0.7425205651 0.7487042974 0.7406782215
0.7524969948 0.7477223374 0.9927663791
0.7623660316 0.998586947 0.7397292757
0.7524377436 0.9975395229 0.9963121962
0.7623956572 0.7491559991 0.2438749841
0.75253773 0.7504325472 0.4923025252
0.7624326892 0.7465767173 0.7445517721
0.7524229307 0.9984756582 0.4926959906
0.7421798704 0.9969830789 0.238339621
0.7622845611 0.9993987006 0.2429149287
0.7823966582 0.9992612262 0.2477994538
0.7723091324 0.999667103 0.4944864894
0.7824040646 0.9986982358 0.7475652538
0.7724572605 0.9990648342 0.9962473902
0.7824744254 0.7493131127 0.2448952166
0.7725054022 0.750871156 0.4975425579
0.782429987 0.7507991456 0.7456969878
0.7724868862 0.7509628056 0.9973676092
0.772538731 0.5016778424 0.4986942541
0.7725831695 0.5020378944 0.9976083174
0.7924989967 0.9999747839 0.4945753663
0.7925545448 0.7505831144 0.9963584863
0.7923693846 0.9992219478 0.9967565806
0.8124666689 0.7462755829 0.9977194135
0.7924323391 0.5002422168 0.9953586214
0.8024458008 0.9984101942 0.2447656045
0.8125555458 0.5006624957 0.996052972
0.8027087282 0.7500659487 0.2481966224
0.8125148105 0.7487042974 0.491546146
0.8024606136 0.9992874118 0.7456081109
0.8026828058 0.7499219279 0.7462783907
0.8124000112 0.9996867422 0.9966454845
0.7924915903 0.7478270798 0.4972407468
0.8225801171 1.0000337015 0.7488687814
0.8224468017 0.9992350406 0.2450961154
0.8325750627 0.7506616712 0.9951642032
0.822724542 0.5006212534 0.7449933791
0.8225875235 0.751198476 0.2411299847
0.8325824692 0.7488483183 0.4957094723
0.8227504644 0.7512246616 0.745091514
0.8425774148 0.7528416225 0.2499223151
0.842562602 0.751329404 0.7536662812
0.8626858087 0.5020123635 0.7536662812
0.8426588853 0.9989208134 0.7508638822
0.8626080414 0.9983512766 0.2564593947
0.8625858222 0.9977424613 0.7527932511
0.852616799 0.9998242166 0.0022382846
0.8624265845 0.7539086858 0.7574750258
0.8523464651 0.5025746993 0.5040537151
0.8527130822 0.751558528 0.0031873231
0.8525760637 0.5011187798 0.0062166359
0.8626154478 0.5007554546 0.2555372971
0.8626080414 0.7491952775 0.2554854523
0.8525797669 0.7496404327 0.5041314824
0.852416826 0.9990517414 0.5083568373
0.8823979598 0.9999224127 0.7557622943
0.8924595631 0.998750607 0.0033297112
0.8825090559 0.7496862575 0.7562974072
0.8725511423 0.7492083703 8.3819606364e-04
0.8925373304 0.7493262055 0.0113148359
0.8825534943 0.5017485435 0.7563464746
0.8824609143 0.5018428117 0.2586748361
0.8824794303 0.7496600719 0.2569704368
0.8724770782 0.7500659487 0.5056007283
0.8923595767 0.7494571335 0.508251296
0.8726696448 0.5002304333 0.0081848885
0.8825275719 0.999241587 0.2554317558
0.912349468 0.7460857373 0.5102204744
0.9022582391 0.9947900347 0.2661127199
0.9025100569 0.9993528758 0.7623475156
0.9025211665 0.7490774423 0.757911078
0.9124568609 0.7505634752 0.0155100098