POSCAR file written by Ovito 3.7.11
1
270.1295311865 0.0 0.0
0.0 15.2808338641 0.0
0.0 0.0 10.8051812474
Sr Ti O 
800 800 2400 
Direct
0.0225898906 0.4979078367 0.7722597587
0.0127566081 0.4973136283 0.021494009
0.0124061836 0.2504082543 0.5164250867
0.0226065123 0.2484764225 0.7704828334
0.0026225439 0.246030221 0.7695453202
0.0127537206 0.2490431455 0.0211309424
0.0026721868 -0.0025174718 0.2630392399
0.0223885058 0.4975917545 0.2726966439
0.0124143649 -0.0030571675 0.5158809033
0.0023810302 -0.0028370878 0.7649558553
0.012439575 4.8347702059e-04 0.0181582019
0.0225217381 0.2505718579 0.269875775
0.0024926803 0.251294986 0.2655907936
0.0426116557 0.4980995801 0.2736832076
0.0324905853 0.2478043388 0.5220834832
0.0424272997 0.2496628761 0.7707040236
0.0525572547 0.4981126684 0.0208367317
0.0323758255 0.250253158 0.0181591274
0.0323236283 -0.0016191569 0.5198262328
0.0324095131 -0.0010017168 0.0175296146
0.0425191075 0.2490981164 0.2711964377
0.0524650767 0.2500313115 0.5207600441
0.0524302786 0.2499396935 0.0187588397
0.062566897 0.250897102 0.2682635854
0.0625117383 0.4992304085 0.7649428985
0.0625202528 0.5016288378 0.2683061576
0.072523972 0.4967397067 0.5183713752
0.0723100006 0.246696415 0.5146481614
0.0625813346 0.2497741266 0.7678424334
0.0726087462 0.2490385646 0.0102625454
0.0624898969 6.536248033e-04 0.261036497
0.062499522 3.1797558117e-04 0.7629327518
0.1025740001 -0.0020238469 0.2644654076
0.0924177614 0.2506569318 0.512287257
0.0824477297 -0.0013354028 0.2620212098
0.1024281442 0.2482120391 0.7642349049
0.0826254222 0.2503866586 0.7615130625
0.0923970306 0.2465629144 0.0146645076
0.0824144123 -9.7429682855e-04 0.7633140503
0.0924718096 -0.0022026329 0.0122604758
0.1025714088 0.248423415 0.265389964
0.0825284317 0.2504449015 0.2650984372
0.1026173127 0.4999973823 0.2666310353
0.0924929106 0.5007918416 0.5148036424
0.1124970174 -0.0019212347 0.0108900221
0.1223693182 0.2502701728 0.264009145
0.1124844308 0.2505247401 0.5169813014
0.1225640396 0.5016766101 0.7685365449
0.112411873 0.4993652179 0.018667217
0.122576256 0.2514297954 0.7651557594
0.112507753 0.2502662463 0.0178974011
0.1126521282 0.5000595517 0.5174320111
0.1525415099 0.2513493024 0.5049555891
0.132491129 0.2512969492 0.5146018873
0.142571108 0.2524002922 0.76330387
0.1524504425 0.254074939 0.0014218792
0.132686961 0.2526712198 0.016614498
0.1424330261 0.2491694476 0.258605256
0.1425148387 0.5007977313 0.7569504366
0.1526218418 0.4993841959 0.0062954671
0.1326765956 0.5019311773 0.0112201415
0.1326073695 0.4995988439 0.5159419851
0.1525596494 0.0039127401 0.5020282898
0.1823790474 0.2512812433 0.7567236935
0.1824319849 0.251088191 0.2597926493
0.16256596 0.5019036919 0.7545858303
0.1625430081 0.5025993346 0.2560000244
0.1726411265 0.2540428727 0.508396531
0.1824804802 0.5034585809 0.7563942219
0.1624293589 0.2487355707 0.7553613841
0.1725759726 0.2553222531 0.0064896332
0.1625348638 -0.0010021749 0.2577390049
0.1622957193 0.2483802236 0.2550791698
0.1726292803 4.509526175e-04 0.5085825528
0.1826218938 -5.3217435931e-04 0.2562961786
0.2021669616 0.250349357 0.2475799898
0.192394983 0.5009489011 0.0066178124
0.2023439138 0.4996099689 0.2506405585
0.1926611516 0.2530540523 0.505500698
0.2022691348 0.2517236275 0.7473874318
0.1923320503 0.2541508511 0.0031480881
0.1926878055 9.2134579526e-04 0.5033637602
0.2024542312 0.0028742497 0.750758037
0.192661892 0.0026584238 -0.0012286085
0.2025582554 0.0013762293 0.2488099553
0.2123520754 0.2489148803 0.4959358423
0.2221077655 0.2531836264 0.748042673
0.2122384262 0.2515848917 -0.0013507721
0.2224187274 -5.9493271455e-04 0.2497234059
0.2123742869 0.0039528558 0.4942181478
0.2123039503 0.0030173702 -8.1667647534e-04
0.2223865207 -0.0011727153 0.7484137913
0.2323021341 -3.0954252977e-04 0.4960376453
0.2223476504 0.2489220789 0.2464758898
0.2324405862 0.2507708 0.4980283569
0.2325353555 0.249277426 -0.0018302643
0.2323332303 0.0010475824 0.9971037427
0.2523462217 0.2493245438 0.4986576846
0.2422651321 0.249449537 0.7507552605
0.2622377726 0.2497891781 0.2471755542
0.2521341012 0.2477984491 1.0002226168
0.2423336178 0.2507603293 0.2511088524
0.2423595313 0.0011694344 0.2487599792
0.2523369669 0.4984634346 0.9967798241
0.2524021208 9.1113692829e-04 0.4949696391
0.2422877139 -5.9342123787e-07 0.7497224227
0.2623877007 0.2490732486 0.7493115087
0.2521596446 8.2063139618e-04 0.995706265
0.2622133399 -0.0020523139 0.2477317688
0.2623410564 0.0011908991 0.7468599071
0.2722736986 0.2484914741 0.4968520694
0.2725357951 0.2476917795 0.9937349885
0.2723114583 -0.0013278116 0.4954619955
0.2725217278 0.5024592899 0.9930316222
0.282375519 0.2507367704 0.7459223939
0.2825591346 -0.0011627682 0.7455022251
0.2823266536 0.250942911 0.2482750267
0.3022693084 0.2510417276 0.2446860078
0.3123918595 0.2499580171 0.4951797235
0.3124451673 0.2486360997 0.9924948427
0.3124507202 6.4819316254e-04 0.9916989283
0.2925014019 0.2501844445 0.492953014
0.3023729624 0.2497414059 0.7390182987
0.292271142 0.4979176529 0.4879443058
0.3022408035 0.5025666139 0.2345519806
0.2925017721 0.2509226241 0.9911066198
0.3023911018 -5.146360494e-04 0.7463407117
0.2923929354 7.8849964183e-04 0.4918461376
0.3124111096 0.5039932376 0.9894222427
0.292365171 4.7706375801e-04 0.9921616692
0.3223518961 0.251042382 0.2432894555
0.3325781012 0.2523413949 0.4941126429
0.3225429156 0.2526227931 0.7438631966
0.3324670434 0.2508637268 0.9937442433
0.322538103 7.6507160098e-04 0.2489052799
0.3323904135 4.4676436439e-04 0.4975267457
0.3224474058 -0.0015935039 0.7453347129
0.3322515912 0.0020237071 0.9976960512
0.3625341003 0.2517491497 0.246673943
0.352420804 0.2524637704 0.4909623024
0.3425440608 0.2552103483 0.7434328475
0.3524333906 7.0290221883e-04 0.9942995325
0.3524152511 0.254273881 0.9896165939
0.3425814503 2.0436921548e-04 0.2471218762
0.3426514167 0.001106676 0.7454652058
0.3424592867 0.2517936499 0.2490635373
0.3622564558 0.2521561956 0.7414985903
0.3625118888 0.0011028804 0.2450941453
0.3723516127 0.2510070436 0.491798938
0.3824541734 0.2520344744 0.7420946006
0.3724959878 0.2521522691 0.9900608252
0.3823653272 5.0310945705e-04 0.7431172582
0.3822431635 0.254316418 0.2451080275
0.3925382245 0.0031756076 0.4926161386
0.39256784 1.7223746113e-04 0.9914490481
0.3723145934 1.3853511186e-04 0.4912732643
0.3725367091 -9.997535545e-04 0.992994603
0.3923901474 0.2527850879 0.4940228711
0.3923753397 0.2529480372 0.9915878704
0.4124768072 0.0027655514 0.4901478783
0.4023853523 0.2542234911 0.7445674884
0.4026370834 3.4546099222e-04 0.240628695
0.4024334773 4.4231434546e-04 0.748326796
0.4024112658 0.5035894638 0.2436346603
0.402448285 0.251834878 0.2397994632
0.4124582976 0.254362227 0.4949557569
0.4123065186 0.2564190519 0.9914212837
0.4123953648 0.003189154 0.9894962813
0.4125656535 0.5036980966 0.9931334252
0.4125619516 0.5049297048 0.4928891557
0.4224386947 0.2525691311 0.2350702505
0.4425882873 0.2504606075 0.7407026758
0.4324894285 0.5001969788 0.9936887144
0.4324190919 0.5009711512 0.4866495566
0.4428067011 0.2526365358 0.2392552798
0.422527541 0.5021176855 0.2377467443
0.4424772295 0.5024671428 0.735727285
0.4325708709 0.2540762478 0.4896860628
0.4224683102 0.2528884854 0.7407572793
0.4325264478 0.2539761224 0.9888576987
0.4425586719 0.5005143698 0.2369832217
0.432670823 0.0028093972 0.9900978445
0.4526390211 0.002673279 0.9788254746
0.4724776518 0.2515331929 0.4817445023
0.4625379758 0.2526496241 0.7345537739
0.4724887575 0.2509357124 0.9810188668
0.4625157643 0.2487264089 0.2322947302
0.4525242613 0.5016347275 0.985516709
0.4625342739 0.501764956 0.7307046945
0.4726220269 0.5015902274 0.4797898845
0.4526242134 0.2480680679 0.4832715475
0.4525871941 0.2520986071 0.9858683921
0.4725813057 -0.0011703594 0.9786033589
0.4825617029 -0.0012212074 0.227286022
0.4825394913 0.2496779277 0.7317782536
0.4827986263 0.2464254873 0.2272388224
0.4924717634 0.2515181414 0.4810790808
0.4925087827 0.2507917412 0.9784552818
0.4826394434 0.5000569341 0.2253749018
0.5025484106 0.2490719398 0.2242680254
0.5124029422 0.0021159141 0.9728098421
0.5224684837 -0.0028980138 0.2253961879
0.5023818239 0.2489122626 0.7236515967
0.5024743721 0.5007041501 0.7263095808
0.5125621251 0.248867108 0.4714688765
0.5027001897 -0.0012324634 0.7246335331
0.5224166567 0.2495097431 0.2272036541
0.5125843367 0.2498330239 0.9739204204
0.5224980991 0.2472408879 0.7274062769
0.5125140001 0.4992461144 0.4781721421
0.5223870413 0.499666903 0.2216979621
0.5224980991 0.4992938867 0.7232360553
0.5522578961 0.2483566647 0.4805746932
0.5525059253 -0.0018337395 0.9818147812
0.5323674384 0.4964157715 0.9752808788
0.532541429 0.4973973933 0.4754456723
0.5325303233 0.0020146762 0.4730745876
0.5324044577 0.2490058439 0.4743702623
0.5323822462 0.2492342346 0.9746330415
0.5424699992 -4.1365988451e-04 0.7261374412
0.5424366819 0.2446716564 0.230510401
0.5424440857 0.2480307662 0.7274081279
0.552468906 0.2468783422 0.9815093722
0.5623308414 0.4983934123 0.7353626451
0.562197572 0.4965669413 0.2357736168
0.5624641108 -9.5427174335e-04 0.2318060757
0.5625159378 0.2469261145 0.2298496069
0.5624752166 0.2497806707 0.7318708018
0.5724259983 -0.0024239559 0.4847328835
0.5723186424 3.7890157567e-04 0.979417783
0.5723852771 0.2480222588 0.4843913807
0.5724704215 0.2499985908 0.9833325716
0.5922905425 0.499081202 0.9894407523
0.5823027415 0.247787324 0.7365759519
0.6023819975 0.2483376867 0.2344955262
0.5924090042 0.2477899417 0.4882302797
0.6023931032 0.246960144 0.738312156
0.5924238119 0.2463993108 0.9815649011
0.6021524779 0.4968136556 0.7358207586
0.5823508665 0.2481164945 0.234660262
0.5922757348 0.49846867 0.4862839912
0.5823841839 0.4979405574 0.2380540043
0.6124105196 -0.004670764 0.986488465
0.6123549907 0.4955899004 0.4893306777
0.6223575994 0.2454870569 0.7412052125
0.6223427917 0.4971735836 0.2407045845
0.6125141736 0.498713421 0.9901811379
0.6223464937 0.4997886241 0.7370266616
0.6122550387 0.2507027408 0.4897841639
0.612292058 0.2489875203 0.9875157499
0.6222095223 0.2463502297 0.2356653354
0.6424997882 0.2524958367 0.2381197135
0.6524616757 0.2469719235 0.487266853
0.6425775287 0.2491020429 0.7338661408
0.6524727815 0.2514644794 0.9975849933
0.6322824677 0.4996904619 0.9889224825
0.6421295954 0.498288706 0.7385935025
0.6523247043 0.4999483013 0.9892464011
0.6423146918 0.500287288 0.2375681262
0.6524579737 0.5017584119 0.4917461856
0.6323009773 0.2522648284 0.4895472405
0.6324305448 0.2496995233 0.9846467559
0.662534621 -0.0044851 0.7435513092
0.6724779989 0.4967887878 0.4887485496
0.6823843574 0.497966734 0.7386036828
0.6725261239 0.4978574468 0.9904032536
0.6824732037 0.4989477014 0.2403723365
0.6624864959 0.2503042024 0.2422473629
0.6625235152 0.2514140895 0.7403796826
0.6826879155 -4.188952009e-04 0.2413653786
0.682665704 -0.0010461515 0.7406378921
0.6624864959 0.4965152425 0.7387471325
0.6624124574 0.5003697442 0.2363973916
0.6824917134 0.2473024028 0.2374561429
0.6725409316 0.2469673426 0.4892992113
0.6825435403 0.250789778 0.7398743695
0.6724520854 0.249736825 0.9847300493
0.7025487577 0.2484554813 0.249512396
0.6925387452 0.2489803217 0.4950751441
0.702382171 0.2478187359 0.745355999
0.6922536968 0.246933313 0.9915138319
0.7025931809 0.4988809511 0.7470116861
0.702585777 -0.0028643769 0.7414023402
0.7025043346 -2.13474474e-04 0.2424426396
0.6925424471 0.497166385 0.9951879951
0.6926127837 0.4971886351 0.4919072194
0.7124847318 0.2495450815 0.4956767073
0.7123440585 0.2478547287 0.9975664837
0.7226724368 0.5005281125 0.7446313466
0.7225021482 0.2481773551 0.2399327326
0.73254918 0.4978391232 0.9912546969
0.7325269684 0.2493186541 0.4891761222
0.7226502253 0.5000307575 0.2425046469
0.7326454301 0.497660468 0.4879729957
0.722613206 0.246014515 0.7429256834
0.7326676417 0.250529321 0.9894222427
0.7125550684 0.5013912853 0.9925873909
0.7628272468 0.4973712168 0.7437243743
0.7425702984 -0.0019944637 0.7450043158
0.7526876668 0.4983705078 0.9921801789
0.7625977273 0.498640781 0.2421492618
0.7626939774 0.248813446 0.2444916566
0.7526173302 0.2473619546 0.4949853723
0.7626236408 0.2491399989 0.7455707108
0.7527950227 0.249954745 0.9934851084
0.7425184714 0.4989038556 0.7411487581
0.7525469936 0.4999214703 0.4943699268
0.7427516928 0.2503545923 0.2380706629
0.7425665964 0.2496746556 0.7378836579
0.7827177045 0.4999456836 0.2496974924
0.7827658296 0.5002859792 0.7481278173
0.782540012 0.2488095195 0.2500473246
0.7726484611 0.2488514021 0.4962986312
0.782591839 0.2488127916 0.7447100126
0.7726854804 0.250586255 -0.0050552264
0.7926832939 0.500134155 0.5012721711
0.8125959631 0.5000824562 0.5002911602
0.8026525853 0.4988416862 0.7472782249
0.8025082101 0.4998128374 0.2488256884
0.7924537744 0.25079305 0.4953685218
0.7925907457 0.2504972547 0.9991305482
0.8126477901 3.2781720756e-05 0.4991370843
0.8025304217 0.2494600076 0.2500029015
0.8124923092 0.2484541724 0.4956461664
0.8024971043 0.251134 0.7504933492
0.8123590398 0.2471741376 0.9965577084
0.832627094 2.8734898028e-04 0.5042272349
0.8223986677 0.2500293483 0.2496623241
0.8325308439 2.7026876055e-04 1.0015182915
0.8324790169 0.251501781 0.504859339
0.8227207355 0.2509010284 0.7488422894
0.8323790649 0.249170102 0.0040075832
0.8325419497 0.5005994437 0.5001134677
0.8325382478 0.4981152861 1.0057847632
0.8225541487 0.5021353547 0.2502916518
0.8426037893 0.5022184653 0.7557093653
0.8425112411 0.5009148715 0.2534864154
0.8425371546 -0.0021547298 0.2560851687
0.8424149909 0.2526234475 0.2536853941
0.842411289 0.2491498151 0.7477270837
0.8626349202 0.2489299318 0.2483379595
0.8526693307 0.2498919212 0.5000551623
0.8623942949 0.2493971838 0.7577333943
0.8526397153 0.2509206609 0.0027410612
0.8925057749 0.5007519223 -3.4088954933e-05
0.8724857498 2.5502090156e-04 0.5040763813
0.882410618 0.2532412149 0.2500436227
0.8726227211 0.2483900398 0.5005993457
0.8925057749 0.2519873566 0.4994443443
0.8824772527 0.250728263 0.7526219576
0.8725597884 0.2487362251 0.0065319277
0.8923947171 0.0018732572 0.5073766499
0.8724561344 -0.003708179 0.0015725477
0.8924058229 0.2504913649 3.5479855225e-04
0.8725708942 0.5003154278 0.504936154
0.8925539 0.5007807166 0.5042725835
0.9126701752 0.5036300375 0.5031009234
0.9024417489 0.5018317063 0.7506710417
0.9124924827 0.5019017287 0.0044885561
0.9025194894 0.5034049189 0.251845536
0.9125739251 0.0011202878 0.5033128587
0.9026527588 0.2516837082 0.2527302967
0.9125480116 0.0034232381 0.0045831404
0.9123518095 0.2530056256 0.5016183013
0.9023566046 0.2514618617 0.755113355
0.9124036364 0.251789069 0.0025121895
0.9424336741 0.2479764498 0.7607069677
0.93240145 0.2521666662 0.0097315964
0.9326420753 0.5003985385 0.5058218402
0.9325791425 0.5022852156 0.0115862622
0.9226283608 0.5018814418 0.7550994727
0.9224432644 0.4996446529 0.2514420259
0.9425854532 0.5008736434 0.7594122185
0.9224913895 0.2513780967 0.2573354948
0.9223285047 0.2527752717 0.7549153018
0.9426076647 0.249721119 0.2578361805
0.9324199596 0.2539577988 0.503557186
0.9726154908 -1.9822661501e-04 0.515004472
0.962464805 -5.7418777335e-04 0.7597352117
0.9625943725 0.2480294574 0.2587885014
0.9525177252 2.1340013625e-04 0.0093393771
0.9724081829 -0.0027892501 0.0137004331
0.9524584944 0.2486446071 0.5107879763
0.9726191928 0.2491995506 0.5082697399
0.9624092761 0.2491262562 0.7600989261
0.9525769561 0.2489960277 0.0085139398
0.9524621963 5.2038600114e-04 0.5117625087
0.9725414523 0.2480379648 0.0114382776
0.9727339525 0.5009619894 0.5133524867
0.9625203339 1.3559024639e-04 0.2612299228
0.9523511385 0.4994031739 0.5106621107
0.9626054783 0.4981296832 0.761515839
0.9826255034 0.247037365 0.2616500916
0.9823811762 -6.6868523421e-04 0.7598277599
0.9924541215 6.5349392039e-04 0.0066788942
0.9926614295 0.2531679204 0.5111914864
0.9826366092 0.2492970584 0.7607486144
0.9927909969 0.2481511785 0.0122305827
0.9926725352 0.4988783335 0.0172847321
0.0225573877 0.7493842963 0.768173756
0.002783911 0.5015077711 0.2661858785
0.0027247912 0.7483241447 0.7640803494
0.0127285105 0.4984372581 0.5211533739
0.0025555391 0.5016995146 0.7716952147
0.0224321145 0.9976037347 0.2665838357
0.0224538078 0.9996258757 0.7670604012
0.0126126401 0.7517467328 0.0195479981
0.0225153338 0.7468909769 0.2703561001
0.0026200266 0.7507389344 0.2671918774
0.0126521397 0.7494824585 0.517714283
0.0523377304 0.997256895 0.5145084136
0.0523588314 0.9978655005 0.017264464
0.0325235324 0.750856729 0.0122790779
0.0424472901 0.748199806 0.2668383433
0.0326271864 0.7494301053 0.5179401006
0.0424672805 0.7492992224 0.7613270406
0.0426727375 0.4990079075 0.7670391151
0.0325068738 0.5027786442 0.0204860666
0.0326301479 0.4990380106 0.5207989143
0.0426049922 0.9987751367 0.2645089052
0.0526620192 0.4997480504 0.5153922489
0.0524076968 0.7504837127 0.0110072807
0.0525165335 0.7503201091 0.5120558865
0.0425927758 0.9990696233 0.7676166158
0.0725857942 0.4983822872 0.0166477228
0.0725924577 0.9985984448 0.5168878277
0.0724636306 0.9981207222 0.0190258412
0.0725550682 0.7510007002 0.0140021402
0.0628093733 0.7513868048 0.2684209174
0.0725169384 0.7473098022 0.5186786352
0.0625946615 0.7496460621 0.7655953633
0.092653204 0.9999923478 0.5131859
0.0924444153 0.7469106093 0.0156078513
0.1025032933 0.7487167935 0.2641414889
0.0826331963 0.7499340045 0.2655843152
0.0924384922 0.7495740765 0.5146842552
0.1025044039 0.7497180477 0.7622367894
0.0826091337 0.7487037052 0.7650298938
0.1025247645 1.0000250685 0.7643163473
0.1025651155 0.5017276544 0.7646291602
0.0824351431 0.5004358401 0.7675675653
0.0924577422 0.4982546764 0.0150103602
0.0824962249 0.4969209795 0.2660109624
0.112527003 0.7508632732 0.0163362056
0.1223915298 0.7517729094 0.2622229649
0.1124555558 0.7495871648 0.5196179994
0.1225562656 0.7519692338 0.761948039
0.1225122126 1.0020406653 0.2647745186
0.1225692223 1.0001035983 0.7616083871
0.1225396069 0.4985439276 0.2615686491
0.1126428733 1.0018966941 0.5116560783
0.1426181225 0.7514195255 0.2550865737
0.1527217938 0.7502612118 0.504373461
0.1325292589 0.7497638567 0.5079097275
0.1424918868 0.7523487942 0.7578601853
0.1524682118 0.5005405464 0.5062984634
0.13262736 0.9999530829 0.0084848797
0.142540382 0.4991054153 0.2582248829
0.1424448723 1.0006729389 0.2579324306
0.1326392061 1.0010721318 0.5105066298
0.1426351514 0.9998549207 0.7579166397
0.1525148561 1.0020079446 0.0039856493
0.152587784 0.7486578961 0.0042753251
0.1324111674 0.7491945161 0.0114938991
0.1724919388 0.7530228412 0.0067604292
0.1625311619 0.7509156263 0.2552170667
0.1725507995 0.7519103365 0.509139693
0.1626544361 0.7532257097 0.7540925484
0.1825622928 1.0010132345 0.7575908701
0.1725078571 0.5037805528 0.0059685868
0.1726577852 0.5029703876 0.5026122689
0.1825556293 0.7522440879 0.2510440686
0.1824919562 0.7534285782 0.7524590728
0.1725952226 1.002878316 0.0041364103
0.1625766956 1.0012880886 0.7579749451
0.18244161 0.5005457817 0.2565256981
0.2024483081 0.500712003 0.7468728638
0.1924801274 0.5000975078 0.5016479167
0.1924020167 0.7482717916 0.0041737997
0.2022994906 0.7517140121 0.2515577111
0.1923675888 0.7511970246 0.5042438935
0.2024494187 0.7494039287 0.7521897575
0.2323602543 0.7483503213 0.0014394634
0.2323906101 0.5009214157 -0.0030902061
0.2321955185 0.7503004767 0.5001939846
0.2122954359 0.7488934854 0.002645644
0.2222203041 0.7497376802 0.2504027097
0.2124353687 0.7502219469 0.499507277
0.2222214147 0.7541615225 0.7533641941
0.2323954226 0.5021726563 0.4996405464
0.222296934 0.4999751322 0.7501555483
0.2125075563 0.5025070621 -7.8595047525e-04
0.2224231697 0.5013703441 0.2479622138
0.2123698446 0.5016327643 0.5034812964
0.2522114715 0.7491814278 -0.0015813096
0.2422192282 0.7531210034 0.2504563876
0.2523417794 0.7468451678 0.5023651652
0.2424106179 0.7509418029 0.7497677713
0.2425053872 0.4985360747 0.7525358878
0.2625539172 0.5002997219 0.7436003597
0.2622718303 0.7503462857 0.2445425581
0.242341762 0.5019710966 0.2443824497
0.2623851093 0.7525712951 0.7432273905
0.2624732152 0.4995759394 0.2458336054
0.2524857844 0.4990209958 0.4961551815
0.2723370016 1.0013469859 0.9930316222
0.2823903267 0.4988606643 0.240194644
0.2723444055 0.4991636582 0.4990306538
0.2825154519 0.9999399946 0.2438697327
0.2823718171 0.498181382 0.7451968161
0.2824332691 0.7499274604 0.2407027335
0.2822652016 0.7503920947 0.740614755
0.2724073382 0.7492926783 0.994373571
0.2724443575 0.7463936218 0.4914083847
0.3123511383 1.0043311163 0.4915740459
0.292413296 0.746989139 0.9904495276
0.3023063277 0.7486251754 0.2368832696
0.2923503632 0.7483176006 0.4893380816
0.3023059575 0.7495020909 0.7364991369
0.302328169 0.4992853793 0.7402871344
0.2923655412 0.4998638818 0.9921894337
0.3024958664 1.0002672019 0.2418753191
0.3126069416 0.749953637 0.9904402728
0.312204542 0.7504313596 0.4931408868
0.3123511383 0.4988560834 0.4897323369
0.3323796779 0.5016936249 0.4944994943
0.3224233433 0.4987350167 0.7395698859
0.3322638076 0.74901128 0.9968538626
0.3324170674 0.496967443 0.9977700897
0.3224174202 0.7515504085 0.2449127508
0.332548856 0.7510530534 0.4958192315
0.3223878048 0.7496460621 0.7411635658
0.3224696174 0.498885532 0.2438743601
0.3523589818 0.5007519223 0.4892936584
0.3523737895 1.0031073611 0.4954221998
0.3624156387 0.7515569526 0.2432015348
0.3622786673 0.7513540841 0.7410293709
0.3625229946 0.5014442929 0.7403065696
0.3625192926 0.5016137863 0.2408369284
0.3523597222 0.7509156263 0.9906161144
0.3424241184 0.7504706244 0.2477132592
0.3524333906 0.7502546676 0.4969557233
0.342298623 0.7503331974 0.7459196175
0.3625970331 1.0024333141 0.7428349862
0.3424418876 0.4993580193 0.7416003933
0.3524574531 0.502427878 0.9904865469
0.3425522051 0.4999214703 0.2392395466
0.372640363 0.5017361618 0.9860905078
0.3825060004 0.5013919397 0.2397013621
0.3725811322 0.5023565468 0.4868614919
0.3925604361 0.4998560288 0.9940774168
0.3825985486 0.5033473304 0.7407526518
0.3724552666 0.7513409958 0.9896165939
0.3825097023 0.7504575362 0.2389739333
0.3725256033 0.7541026252 0.4966660475
0.3825504235 1.0009543372 0.2398170473
0.382731818 0.7514784229 0.7400900068
0.3924345706 0.753238798 0.9905235662
0.3923975513 0.7526694573 0.4924625086
0.3926196669 0.5001950155 0.488447768
0.402555641 0.5027498499 0.7453060229
0.4026741026 0.7543840234 0.2413653786
0.4024853043 0.7535398287 0.7393940444
0.4126248844 0.7532191656 0.9895888295
0.4126619036 0.7529181349 0.4931464397
0.4225830699 1.0035130981 0.7378660737
0.4425512681 1.0049135452 0.2349471614
0.4327078422 1.0036636134 0.4885255084
0.4424735276 1.0022173573 0.7350905534
0.4227089355 0.5015221682 0.737390376
0.4327781789 0.7539782864 0.9861830559
0.4223498485 0.7521982789 0.2366713343
0.4326115921 0.7516158499 0.4898073009
0.4224831179 0.7516354823 0.7401381318
0.4425734796 0.753598726 0.2409924094
0.4426290085 0.7528396051 0.7349980052
0.4225719641 1.0049135452 0.2386139208
0.4726479404 1.0032055232 0.4807718208
0.4725850077 0.4993855047 0.9834713939
0.4626268221 0.4996734471 0.2380142085
0.4725924115 0.7506538605 0.9786403782
0.4626046105 0.7521459257 0.2335978088
0.4727589983 0.7515438643 0.4815464492
0.4624565334 0.752564751 0.7297958713
0.4525057517 1.0004373497 0.48624327
0.4625379758 1.002747433 0.2393959531
0.4624417257 1.0040824387 0.7341113935
0.4526538288 0.7525516627 0.9847115397
0.4526649346 0.7531144592 0.4844145177
0.452590896 0.5022963407 0.4874528749
0.4926087347 0.4974196434 0.9788902583
0.4926309463 0.4974543274 0.478202683
0.4825357894 0.5030443365 0.729682037
0.4824765585 0.9975252049 0.7314358252
0.4928160427 0.9997240378 0.4738871607
0.4926013309 0.9974139545 0.9787884553
0.4926309463 0.7494955468 0.475101393
0.4924606576 0.7492337809 0.9793437445
0.4825394913 0.7525909276 0.2277598687
0.4824728566 0.7500976082 0.7285733096
0.5024928817 0.4986505972 0.2291915893
0.5125436155 1.0015105896 0.4781471541
0.522657282 1.0000316127 0.724304987
0.5025706222 0.9996193315 0.2289796539
0.5226498782 0.7472967139 0.7253045075
0.5024040355 0.7522833527 0.2282161313
0.5026557666 0.7491356188 0.7282244029
0.512621356 0.7494104729 0.9750402535
0.5126028463 0.5012774172 0.9740592427
0.5127065003 0.7502546676 0.476407248
0.5225277146 0.7489981917 0.2253878586
0.5524615021 0.9982581492 0.4778047258
0.5423404317 0.4980073077 0.7247381125
0.542581057 0.746445975 0.2274775968
0.5524874156 0.4993586737 0.4810809318
0.5524985214 0.7478725987 0.4801323128
0.5423367298 0.7470153156 0.7267445573
0.5325747464 0.9993902864 0.9789828065
0.5424737011 0.4983404047 0.2259329674
0.5324303712 0.7477809807 0.9754289559
0.5523985693 0.5006328189 0.978806965
0.5424403838 0.9973812337 0.2253202984
0.5324155635 0.7499929018 0.474079661
0.572289027 0.4984935377 0.9857388246
0.5623086299 0.9976560879 0.7299337681
0.5523911655 0.7470349481 0.978140618
0.5625233417 0.7468386237 0.2307750889
0.5623308414 0.7479838492 0.7332775343
0.5724815272 0.7488934854 0.983517668
0.5723519598 0.4996485794 0.4839443729
0.5723334501 0.7473425229 0.4875787404
0.6024449302 0.4988272891 0.2359004078
0.6023486801 0.9970409382 0.2347333751
0.6022450261 1.0002083046 0.7399021339
0.592316456 0.7447248647 0.9861090174
0.5923423695 0.9992266828 0.4880313011
0.5923571772 0.9992070503 0.9827217535
0.6025559881 0.7487102493 0.2370840992
0.5922572251 0.750719302 0.4876666612
0.6025930073 0.7477678924 0.7391876619
0.582328655 1.0002802902 0.2335302486
0.5824137993 1.0000250685 0.7358716601
0.5821842798 0.4987697006 0.7345361897
0.5822842318 0.7476762743 0.2341595763
0.5823434627 0.7472509049 0.736929486
0.612343885 0.7490309124 0.990125609
0.6124475389 0.9979898393 0.4875158077
0.6122661445 0.7462561948 0.4910659563
0.6226204363 1.0009543372 0.7390275535
0.6222465416 0.7439919204 0.2395144147
0.622228032 0.747977305 0.7349285941
0.6223909168 1.0001690397 0.242677712
0.64240724 0.9976299113 0.7381224322
0.6324231409 0.4990740034 0.4824052964
0.6423294995 0.9996716847 0.2414310878
0.6526208586 0.9999858037 0.4940052869
0.6527208106 0.9997436703 0.9906901529
0.6323861216 0.9973092481 0.4878739692
0.6324786698 0.9980749132 0.9865810132
0.6324416506 0.7480689231 0.9899312578
0.632471266 0.7490374566 0.4951121633
0.6522617716 0.7471789193 0.9888576987
0.6422443552 0.746805903 0.2374348568
0.6525209065 0.750673493 0.4900470007
0.6423146918 0.7478725987 0.738081711
0.6724113642 0.7506276839 0.9881543325
0.6624716882 0.9958826244 0.2424093222
0.6723854507 0.997394322 0.9919580632
0.6824102709 0.7491552512 0.2419530596
0.672470595 0.7495478999 0.4886134292
0.682354742 0.7489785593 0.7403472908
0.6724965085 0.999010726 0.4927040594
0.6624087555 0.7480950996 0.2366389424
0.6626530827 0.7495282675 0.7396374461
0.7025154404 0.4965878825 0.2465055052
0.6924758124 0.9985919007 0.494233881
0.6926683127 0.9978785888 0.9929575837
0.6926275915 0.7491879719 0.9951694855
0.7026079886 0.7496526063 0.2436503935
0.6924424951 0.7467535498 0.4902089601
0.7025043346 0.7477678924 0.7420057544
0.7126142992 0.4965826472 0.4973786686
0.7125069433 0.7464394308 0.4959136307
0.7224799366 0.9996978613 0.7415208018
0.7326269205 0.9988144016 0.9926799391
0.7326232186 0.7495348116 0.990893759
0.7224836385 0.7490832656 0.2390322387
0.7325824974 0.7473228905 0.4914389256
0.7226502253 0.7502219469 0.7438206244
0.7222948402 0.9978982212 0.2466906016
0.7325899012 0.9986115331 0.490546761
0.7123440585 0.7475584797 0.9936424403
0.7125624722 0.9992921242 0.4920441907
0.7125661742 1.0016087517 0.9935961662
0.7426850581 0.500658341 0.2404241635
0.7426110196 0.7470022273 0.240012324
0.7425665964 0.7488673088 0.7419937231
0.7526099263 0.7499405487 0.9921431596
0.7626458524 1.0007252921 0.7498658724
0.7527061765 1.0022893429 0.9921061403
0.7628050353 0.7477940689 0.2426888178
0.7525543974 0.7464525191 0.4942597945
0.7627643141 0.7498423865 0.7426813562
0.752728388 0.9989714611 0.4965346291
0.7427850102 0.9997436703 0.2450969217
0.7627384006 1.0002868343 0.2467998085
0.7827103006 0.998834034 0.2466350727
0.7726447592 0.9983563114 0.4944680279
0.7826880891 1.0002344812 0.7502295868
0.7727002881 0.9988536665 0.997807109
0.7826621756 0.7512297453 0.2444268728
0.772755817 0.7513606282 0.4959700851
0.7826954929 0.7495675324 0.7458307712
0.7725855283 0.7498031216 0.9963541024
0.7726669707 0.5011203577 0.4922524242
0.7727150958 0.4977834979 0.9932074638
0.7927721402 0.9980421924 0.5048713703
0.7925722361 0.7502219469 0.9994174476
0.7925537265 1.0015367661 0.9985197301
0.8125848574 0.75261056 0.9986863168
0.7927277171 0.5010621148 1.0001948524
0.802463787 0.9980356483 0.2526275682
0.8126700017 0.5004554725 1.0025825958
0.8025082101 0.7528919583 0.2491486816
0.8125367323 0.7495740765 0.5025261991
0.8024526812 0.9979898393 0.7525525465
0.8026081621 0.7509090822 0.7473022875
0.812499713 1.0005616885 1.0005650451
0.7924944956 0.7497442243 0.4993564235
0.8223727543 1.00189015 0.7507802486
0.8224282832 1.000901984 0.2527580612
0.8324531034 0.7473883319 1.0036098807
0.8225023217 0.4969105089 0.7530078836
0.8225615526 0.7497573126 0.2526914265
0.8325345458 0.7511054066 0.5046076079
0.8226022738 0.7514064373 0.7537917668
0.8425926835 0.7477875248 0.2538991804
0.8424186929 0.7493319431 0.7524100222
0.862490545 0.4985609424 0.7543350247
0.8423520582 0.9996520522 0.7519269207
0.862438718 1.0002868343 0.2528700445
0.8625645835 0.9988863872 0.7505359213
0.8526323115 0.9978720447 0.0015216462
0.8624979488 0.7470938454 0.7578222406
0.8526360134 0.497499482 0.5057431743
0.852450917 0.7490898097 0.0031367972
0.8524990421 0.4990582975 0.0038670025
0.8627015549 0.4992009598 0.2544924143
0.8627126606 0.7506800371 0.2549209124
0.8525619748 0.7498292982 0.5065205791
0.852550869 0.9981992519 0.5039246023
0.8824809547 0.9968184372 0.7553373216
0.8925057749 0.9992332269 0.0033493804
0.8825586952 0.7482587033 0.756521013
0.8725968077 0.7496198855 0.0058907538
0.892605727 0.7493123107 2.0764692531e-04
0.8826734549 0.5006917162 0.7532753478
0.8825438874 0.5012859246 0.2541962601
0.8825475894 0.7508043759 0.2521629763
0.8726930578 0.7486840727 0.5058292441
0.892705679 0.7499143721 0.5046973797
0.8724154132 0.4991675847 0.0026575827
0.8826031183 1.0008954399 0.2535780382
0.9125776271 0.7549140992 0.5040597226
0.9024602586 1.0041347919 0.2537649855
0.9025528068 1.002204269 0.7553317687