POSCAR file written by Ovito 3.7.11
1
270.111477512 0.0 0.0
0.0 15.279812594 0.0
0.0 0.0 10.8044591004
Sr Ti O 
800 800 2400 
Direct
0.0222539589 0.497677982 0.7682259252
0.0124553379 0.4980444786 0.0163918978
0.0120863791 0.2495728448 0.5168991374
0.0224904169 0.2474222949 0.7681417008
0.0023939365 0.2462966266 0.7691838631
0.0125037624 0.2489275489 0.0173032808
0.0026717477 -9.3572502344e-04 0.2708211084
0.0221356004 0.498744749 0.2726481318
0.0125619976 -0.0036840572 0.520748474
0.0024420648 -0.0050682037 0.7706341902
0.0124896941 -0.0013502589 0.0224788291
0.0225115193 0.2490878912 0.2696873173
0.0022924229 0.2506147424 0.2688552534
0.0425244415 0.4983370215 0.2728036232
0.0323290214 0.2477187645 0.522513486
0.0423489584 0.2483175938 0.7772509027
0.0525362338 0.497489498 0.0267242984
0.0323282809 0.2504910498 0.0201279478
0.0325000619 -2.6870113573e-04 0.5218082217
0.0327684696 -0.0014528125 0.0234121474
0.0423841291 0.2495656458 0.2735783033
0.0524240579 0.2498686599 0.5272504191
0.0522793028 0.2460642939 0.0260098712
0.0624462162 0.2521219598 0.2712514863
0.0624077136 0.4998304953 0.7706656587
0.0625028595 0.5007899312 0.2726527595
0.0724472722 0.497615154 0.517356356
0.0724072887 0.2470047505 0.519468447
0.0623595853 0.2509668409 0.7740318614
0.0725316818 0.2474085512 0.0181280328
0.0625069319 0.0016711787 0.2744205482
0.0624003093 0.0020220992 0.77510179
0.1026262934 -0.0010932531 0.2642053214
0.0924056984 0.2499059641 0.5143927648
0.0826600925 0.0022745892 0.2669375267
0.102470802 0.2496121123 0.7608493413
0.0826412115 0.2516389696 0.7661943566
0.092501955 0.2477364348 0.013319185
0.0826086323 0.0010503595 0.7644811751
0.0923771917 -5.9874445065e-04 0.0178005754
0.102470802 0.250158585 0.2625837687
0.082446477 0.2506481198 0.2655843816
0.102475985 0.4996367756 0.2591259371
0.092478261 0.5031040957 0.5119178607
0.1123408009 -5.9959524643e-04 0.0099197552
0.1223100182 0.2498627698 0.2546453796
0.1125758891 0.2486494041 0.5060425088
0.1224310793 0.5014463528 0.7526832684
0.112374861 0.5014941283 0.0051378407
0.1225325189 0.2510165798 0.7559152673
0.1124874071 0.2507921006 0.0094221828
0.1126240173 0.5007827321 0.5051326992
0.1524649752 0.2521965681 0.5013574061
0.1325272812 0.2499118542 0.5016582079
0.1425664695 0.2517371384 0.7529822191
0.1524335067 0.251452449 -0.0023178218
0.1326057673 0.2545814141 0.0016974093
0.1424502212 0.2492711395 0.2488736886
0.1425209328 0.5017303877 0.7514985724
0.1525812235 0.4987211885 -5.1056797709e-04
0.1326764788 0.5003678056 9.6363816798e-04
0.1323443937 0.500831162 0.5074576652
0.1525179163 9.859608493e-04 0.502157076
0.1824463003 0.2492528147 0.7471411122
0.1825125692 0.2512790176 0.2528711122
0.1625393343 0.4995111197 0.7479870592
0.1624730653 0.5032866895 0.249442898
0.1724870789 0.249781617 0.496324299
0.1826062342 0.5027186197 0.7490319982
0.1623360848 0.250636994 0.747981506
0.1723426941 0.2534118971 -0.0044499693
0.1624005027 -0.0023819469 0.2482433932
0.1625171212 0.2491323944 0.2473502435
0.1723867499 2.4668476653e-04 0.5013814703
0.1824851731 -0.0014109926 0.2465931487
0.2023295723 0.2487554264 0.2465709356
0.1925232508 0.4997761753 0.0029333805
0.2025217152 0.5009600903 0.2484044379
0.1926587504 0.2515034967 0.4993804446
0.2023525258 0.2505479876 0.7465284022
0.1922178214 0.2527129357 -0.0022693048
0.1925247317 9.3242616129e-04 0.5005512575
0.2023388278 0.0042523622 0.7474354351
0.1924162579 0.0022025334 -0.0033801795
0.2025080172 2.5584718257e-04 0.244506973
0.2121984606 0.250314346 0.5007011956
0.2225005034 0.2528955295 0.7483258083
0.2122539933 0.2524917288 -3.4508074784e-04
0.2222380192 0.0018722937 0.2556708821
0.2123239644 0.0040138121 0.5011602653
0.2124609449 0.0035102065 4.2978451123e-04
0.222491248 0.0026522117 0.7507581373
0.2323586554 -5.7466038563e-04 0.5018331356
0.2225019843 0.2486925984 0.2505285608
0.232585969 0.2523444756 0.4994600414
0.2325989266 0.2509138298 -9.2354561516e-04
0.2323046037 2.305196468e-04 1.0048189815
0.2526910014 0.2506670991 0.4944074978
0.2425503734 0.2491107972 0.7487126856
0.2624562287 0.251443941 0.2442691082
0.2524562834 0.2504701071 0.9984142185
0.242575178 0.2521880601 0.2475372033
0.2425766588 7.8059183834e-04 0.2524999691
0.252549208 0.4986950102 0.9990713546
0.2525218119 -0.0017353422 0.4965177377
0.2422527185 1.5401347286e-04 0.7514430397
0.2626853934 0.2498778224 0.7468023632
0.2522596979 8.2153952778e-05 1.0020793719
0.2623366485 1.8280963756e-04 0.2480666144
0.2623962535 0.0036420798 0.7481166354
0.2725002299 0.2510565017 0.4950674105
0.2726009291 0.2517011431 0.9917595587
0.2725161493 -0.0013908353 0.4958133988
0.2725887119 0.5035046241 0.994027141
0.2826208661 0.2523215696 0.7467671925
0.2825564483 -1.7256121314e-04 0.7460887689
0.2826230874 0.2516461687 0.2530923171
0.3024419417 0.248329374 0.2509617153
0.3124600276 0.2523699995 0.4962743196
0.3124603979 0.2516212992 0.9947027879
0.312589974 1.3398704923e-04 0.9932496842
0.2924671712 0.2512338599 0.5002402748
0.3025755902 0.2495054356 0.7422560921
0.2925523212 0.498901819 0.496756528
0.3023756727 0.5018337921 0.2434740661
0.2925452871 0.2510551928 0.998488262
0.302418618 -0.0010775461 0.7441367971
0.292412379 -3.9285187307e-04 0.4967657834
0.3126181105 0.5033770048 0.9934347929
0.292451622 5.4197634633e-04 0.996776006
0.3224803349 0.2497142078 0.2405160282
0.3325546939 0.2522495792 0.4915938447
0.3225447528 0.2504530912 0.7420765366
0.3325117487 0.2539642599 0.9923333958
0.3225484549 5.7234321092e-04 0.2414721149
0.3324980506 7.2188692986e-04 0.4916688138
0.322364827 8.1802685245e-04 0.7386094496
0.3323851343 0.0039115857 0.9919539229
0.3626915103 0.250856892 0.2426605131
0.3525979 0.2526042956 0.4879971815
0.342654598 0.2522731397 0.7369999289
0.3526090065 0.0027493987 0.9893253785
0.3525331119 0.252464896 0.9874557801
0.3425464944 6.7064284586e-04 0.2435860569
0.3426072101 0.0022388558 0.741830342
0.3426760706 0.2511409269 0.2407677761
0.3624656776 0.2533732841 0.7417063191
0.3626026581 0.0036499333 0.2431214339
0.3726392549 0.2510434126 0.4906840352
0.3826536387 0.2531743288 0.741335176
0.3727540224 0.2537770848 0.9916670043
0.3824092952 0.0034590278 0.7444885037
0.3825647865 0.2522574327 0.2400014258
0.3926124899 0.0059229978 0.4923666738
0.3926606182 0.0029352649 0.9902879441
0.3724615505 0.0025215163 0.4956393966
0.3724763592 0.0034883476 0.9957856742
0.392616192 0.2519118787 0.4910959021
0.3925902768 0.2521782432 0.9896030416
0.4124709574 0.0010817081 0.4874603662
0.4026712998 0.2537836294 0.7406447204
0.4025861497 0.0021253073 0.2362168773
0.4024898932 0.0010571005 0.7420441426
0.4025195106 0.503154489 0.240660413
0.4026231715 0.2519910682 0.2362066963
0.4125598096 0.2520028484 0.4860165178
0.4123969139 0.2516219537 0.9825226317
0.4122377203 4.0669981808e-04 0.9879000411
0.4125746183 0.5048305566 0.9890754817
0.4126856835 0.5062252072 0.4894299233
0.4225112564 0.2536128158 0.2355828798
0.4426140675 0.252112143 0.7377681303
0.4325737685 0.5008213452 0.9905285854
0.4324701075 0.5030523935 0.4809741553
0.4427436436 0.253257445 0.2382438182
0.4224631281 0.499961387 0.2388768901
0.442329 0.5053024211 0.7373359013
0.4325959815 0.2502220674 0.4892957195
0.4227556 0.2545028791 0.7402050871
0.432607088 0.2504046613 0.9901306016
0.44241415 0.4998979045 0.2382234562
0.4325441511 0.0034761092 0.9851604315
0.4525321947 0.0026926572 0.9801347287
0.4724350883 0.2500676153 0.4797690973
0.4625058545 0.250754142 0.7376255965
0.4726016862 0.2522960457 0.9779967226
0.462431811 0.2497233702 0.2316159991
0.4525247903 0.4998547103 0.9861785296
0.4624614284 0.5029836753 0.7322324529
0.4726276014 0.5023796103 0.4847337142
0.4526728773 0.2476369572 0.4824809406
0.4525692164 0.2505591134 0.9870207745
0.4724758122 1.7770486291e-04 0.9815230444
0.4824494721 3.7436957863e-04 0.2312966865
0.4824976004 0.2519354392 0.7353617164
0.4825901547 0.2490950902 0.2312318984
0.4924490472 0.2520866191 0.4836554556
0.4925601124 0.249678867 0.9815045335
0.4824605786 0.5002709457 0.2298546893
0.5025744962 0.2499053096 0.2279499201
0.5122593864 6.5918982581e-04 0.9788112011
0.5224292615 6.3674190652e-04 0.2283830746
0.502400494 0.2500028239 0.7281702412
0.5022005765 0.499937172 0.7336559392
0.5124296865 0.2461146872 0.4741751106
0.5025189636 0.0017878031 0.7301860756
0.522503305 0.2515565079 0.2292956608
0.5125296452 0.2517305938 0.9776912931
0.5225403268 0.2486448229 0.726379314
0.5123519408 0.4994934493 0.48034386
0.5222663658 0.4979842685 0.2261515886
0.5222293441 0.5008010569 0.7266939989
0.5523539433 0.2491539915 0.482405046
0.5525686694 -0.0017646619 0.9843366975
0.5324103257 0.4989829718 0.9750720042
0.5325102845 0.500588358 0.4790184813
0.5324843692 0.0023496556 0.4768619642
0.5325769236 0.2479622229 0.4832213756
0.5324954758 0.2469772632 0.9796164242
0.5424950509 -0.0023252709 0.7347147613
0.5423358573 0.2455891572 0.2358512875
0.5424099008 0.2493536013 0.7306155279
0.5524576042 0.2504026979 0.9832075341
0.5625608402 0.4970254871 0.7342279253
0.5624904988 0.4974692098 0.2301952894
0.5625127119 -0.0040780411 0.2336364612
0.5623350075 0.2474589445 0.2305766134
0.5623720292 0.2510820256 0.7340566997
0.5724086261 -0.0044485953 0.4889606726
0.572323476 -0.0038157996 0.9830224253
0.5724123282 0.2479916736 0.482256959
0.5724530522 0.2498117221 0.9819117728
0.5925003306 0.5001904474 0.9870670517
0.5822341989 0.2472076325 0.7349859456
0.602399947 0.2491683896 0.2341353293
0.5925558632 0.2466526519 0.4869975943
0.6024443731 0.2481559426 0.7369582795
0.5924262871 0.245654603 0.9852159641
0.6024999057 0.4966681529 0.7354005893
0.5824600316 0.2484648469 0.2324184456
0.5926410133 0.4986472347 0.481538737
0.5827562056 0.4967106926 0.2345583028
0.612525396 -0.0045084128 0.9863636384
0.612525396 0.4976249709 0.4889208742
0.6223213515 0.2471605115 0.7469846953
0.6226064189 0.4950706202 0.2399662551
0.6129363374 0.4984194832 0.9920094555
0.6226175255 0.4964168409 0.7413370271
0.6123069677 0.248149398 0.4948499078
0.6124180329 0.2482174617 0.9901120907
0.6223879906 0.2469563206 0.2422430929
0.6424908017 0.2477901004 0.2443107577
0.6523533963 0.2465564465 0.4900565165
0.6425204191 0.2432926631 0.7400375636
0.6524052267 0.2508215512 1.0015795783
0.6323912679 0.4981760247 0.9975256965
0.6424870995 0.4965739109 0.7424837759
0.6522164158 0.496963968 0.9944066139
0.6425907604 0.4997355989 0.2408779158
0.6525459094 0.4984973638 0.4995572235
0.6322950113 0.2500793955 0.4948480567
0.6324653114 0.2471500402 0.9922038197
0.6623381627 -0.0037799353 0.7441053286
0.6724562073 0.4976033737 0.4926063896
0.6825076129 0.4996407024 0.7459110645
0.6724636117 0.4973690777 0.9961651471
0.682552039 0.4998651816 0.2489912326
0.6622863322 0.2476160145 0.2463737948
0.6622937366 0.2473175815 0.7467061066
0.6825890607 -4.8977714561e-04 0.2482063715
0.682614976 -8.2080214797e-04 0.743406543
0.6625454845 0.4976976157 0.7481073799
0.6624381214 0.5009286763 0.246779183
0.6823965476 0.2492030759 0.2407742549
0.6724154834 0.2498522985 0.4959568581
0.6825483368 0.2514851719 0.7458462765
0.6723377377 0.2507724668 0.9949341739
0.7025993174 0.2490787288 0.2456583494
0.6925849336 0.2504321485 0.4947814175
0.7023253565 0.2497901249 0.7411167477
0.6923961227 0.2478300224 0.993268195
0.7026215305 0.5017231887 0.7463544
0.7025400826 -0.0012778758 0.7405734535
0.7024253152 -2.3545465467e-04 0.2417729166
0.692592338 0.4960752136 0.9927128688
0.6926256576 0.499066088 0.490396191
0.7125433599 0.2496821393 0.4921880438
0.7124730186 0.2476094699 0.9934810701
0.7224318697 0.5007742242 0.7387621643
0.7225799567 0.2491572638 0.2420191113
0.7323574013 0.4977179039 0.9891495252
0.7325388079 0.2492979723 0.4907941749
0.7225059132 0.4999450255 0.2410065664
0.7324610622 0.4992067966 0.4886996693
0.7225762545 0.2465662634 0.7425828091
0.732605447 0.2472966389 0.9917317924
0.7125433599 0.500784041 0.9836795614
0.7625375331 0.4982015486 0.7372970285
0.7426420439 -0.0012385429 0.7414545712
0.7524120841 0.4995006483 0.9909913573
0.7623931483 0.4985006361 0.2387676759
0.762681918 0.248299269 0.2443089066
0.7524120841 0.2468849846 0.4942316445
0.7625597462 0.2489085696 0.744315427
0.752515745 0.2485911574 0.9926943579
0.7423347633 0.4982080932 0.7382882859
0.7522639971 0.499654446 0.4936226367
0.7426679591 0.2498536074 0.2424837342
0.7426383417 0.2489131508 0.7439553905
0.7824219159 0.4991943618 0.2447948171
0.7825588963 0.4991570577 0.7432205087
0.7826477485 0.2497410406 0.2501777798
0.7724667669 0.248902025 0.4980606192
0.7825218746 0.2478064619 0.7462053874
0.7724667669 0.2494079213 -0.0068914149
0.792465917 0.4992912217 0.4925036543
0.8125502172 0.4998926688 0.4944186043
0.8024803008 0.5003586431 0.7424661905
0.8023507247 0.5014097032 0.243620302
0.7925029388 0.2493176061 0.4983521654
0.7925547692 0.2512220797 1.0011075509
0.8127279216 -0.0016388096 0.502463431
0.8027061335 0.2490407702 0.247984241
0.812672389 0.2488234901 0.4962965327
0.8025284291 0.2512515303 0.7480398152
0.8124909824 0.2477658855 0.9942122497
0.8326937522 7.4498930745e-04 0.5082138345
0.822542388 0.2514694649 0.2508395436
0.8326752414 -3.0565163946e-06 1.0030697038
0.8324901326 0.2513241752 0.5029576713
0.8227163902 0.2508248235 0.7467579371
0.8325715804 0.249757402 0.0026873709
0.8324753239 0.5034084188 0.497200789
0.8325715804 0.5008272353 1.0050688783
0.8226238358 0.5037650985 0.2472040076
0.8426044751 0.5009744884 0.7542900124
0.8426674121 0.501302372 0.2521399326
0.8428488187 -4.9095517053e-04 0.2543853018
0.8423971533 0.2542286611 0.2571628587
0.8424637925 0.2518686845 0.7517605013
0.8625851144 0.2519171144 0.2493827376
0.8527003067 0.2510872613 0.4978718082
0.8624740491 0.2528798225 0.7556283487
0.8527003067 0.2510342502 -2.9852589532e-04
0.8924764766 0.5009162416 5.3437095924e-04
0.8726032004 0.0020537095 0.50306596
0.8825805624 0.2525355775 0.2476612262
0.8725661786 0.2510774444 0.498247579
0.8925209027 0.2500846312 0.4975700809
0.8825213276 0.2528726235 0.7508229254
0.8724773264 0.2525290329 -6.0932349923e-04
0.892506094 -3.309615184e-05 0.5058240804
0.872510646 6.3281515678e-04 9.7613300911e-04
0.8924912853 0.2499125086 0.0042172022
0.8725217525 0.5027526516 0.5032214513
0.8925172005 0.5001708136 0.4980272996
0.9126348203 0.502189163 0.5020145422
0.902546393 0.4992447551 0.7524768721
0.912501542 0.4997460702 0.0032976745
0.9026389474 0.4998036625 0.255214589
0.9126866507 -0.0036726041 0.5012426387
0.9026796713 0.2482743995 0.2494049507
0.9125533724 0.0013508213 0.0046516525
0.9125089463 0.2464203192 0.5054436819
0.9023834973 0.2486461319 0.7494494184
0.9125533724 0.2488457416 0.0057960874
0.9423151584 0.2495296505 0.7549184567
0.9324303508 0.249804523 4.2247271531e-04
0.9325747356 0.4989967154 0.5075400386
0.9324821812 0.5020811774 0.0066504569
0.9226084801 0.4977080871 0.7556996156
0.9224122648 0.4965902723 0.2520177608
0.942411415 0.5014483162 0.7545787821
0.9224455844 0.2489537273 0.2543973339
0.9223419235 0.251052575 0.7516040844
0.942644652 0.2505453698 0.2497353698
0.9324229464 0.2507116022 0.4996349691
0.9725656316 -9.3238728617e-04 0.5200543162
0.96255495 0.0034124958 0.759608187
0.9623735434 0.248919041 0.2570869641
0.9525035445 -2.851494382e-05 0.0034713991
0.972510099 -3.5672577554e-04 0.0183877404
0.9524739271 0.2497240247 0.5060443599
0.9723546076 0.2508163155 0.5118308596
0.9623143086 0.2511775765 0.7556912857
0.9524257988 0.2507377805 0.0043083683
0.9525738858 7.5085803261e-05 0.5063460871
0.9722583511 0.2527666012 0.0148006103
0.9723953315 0.5012074755 0.5214361531
0.9625956739 0.001280009 0.2623209142
0.9523480531 0.4993638665 0.5056389717
0.9626141848 0.5001708136 0.7589343912
0.9824837588 0.2488418149 0.2699612782
0.9826392502 9.6338203834e-04 0.7699724264
0.9925388665 -4.4494675284e-04 0.0199525573
0.9923130339 0.25165664 0.514544554
0.9824763545 0.2479582962 0.7660545995
0.9925092491 0.2492305631 0.0144533463
0.9922463947 0.4988520802 0.0261236205
0.0224897875 0.7496103913 0.7745066654
0.0023397737 0.5003010508 0.2673058931
0.002513961 0.7490213788 0.7717318851
0.0124562264 0.5003887482 0.5255492696
0.0022613246 0.4999077214 0.7706341902
0.022551873 0.9977024393 0.2705850947
0.0225050034 0.9978725984 0.7700372144
0.0125395254 0.7513708841 0.023231944
0.0225277718 0.7480266022 0.2756274573
0.0024939323 0.7506444354 0.2759745362
0.0124392705 0.7483800097 0.5229086932
0.05242776 0.9987364834 0.5230919509
0.0526406351 1.0002940941 0.0240628972
0.0325148706 0.7485567134 0.0216722176
0.0424866793 0.7473132427 0.2737902529
0.0325629988 0.7495384009 0.5226976692
0.0424141167 0.7472870643 0.7747510089
0.0425733102 0.4988239385 0.7684045552
0.0324197247 0.501742168 0.0230722877
0.032359009 0.4991793093 0.5215314841
0.0425981148 0.9982979963 0.2709210671
0.0524869949 0.5001263104 0.523136377
0.0523500144 0.7483472868 0.0211173541
0.0525291996 0.7482294843 0.5198719841
0.0426281024 0.9997770721 0.7753748255
0.0723639732 0.4994803601 0.0191840783
0.0725709248 1.0004446195 0.5179375975
0.0723439815 0.9993189513 0.0237236855
0.0725409372 0.7522151353 0.0194768278
0.0626439124 0.7492766175 0.2745926993
0.072697169 0.7509454862 0.5213315666
0.0624939743 0.7491064584 0.7720798896
0.0924345754 0.9996919925 0.515548769
0.0925915476 0.7506837029 0.0109402598
0.1024130481 0.7494925888 0.2585863451
0.0826708289 0.7497674613 0.2648069249
0.0925697048 0.7494664104 0.5091106864
0.1025492881 0.7512596261 0.7592749913
0.0826704586 0.7500292446 0.7635861742
0.1026344381 1.0008045716 0.7593943864
0.1025233729 0.5021669114 0.7583161279
0.082344297 0.5002441129 0.7665275524
0.0924634523 0.5013527653 0.0112554074
0.0824946053 0.4965529682 0.2638480615
0.1123937421 0.7511418237 0.0067751276
0.1222970606 0.74955149 0.2563270927
0.1124529769 0.7493420634 0.5088589385
0.1224618074 0.7513316166 0.7546852196
0.1223496315 0.999495655 0.2547851367
0.1224025726 0.9981082034 0.7539299759
0.1223340823 0.4997637406 0.2471133043
0.1124700069 1.0007522149 0.5089783337
0.1424816897 0.7514625082 0.252360212
0.1524838563 0.750696792 0.5047930247
0.1323725303 0.7483734651 0.50061512
0.1424054249 0.7505462666 0.7553988139
0.152342063 0.5022284305 0.5009381348
0.1324839657 0.9980623914 0.004763088
0.1424154208 0.4991171358 0.2528646334
0.1422503038 1.0001828362 0.2547212742
0.1323540194 0.9975388247 0.5080814817
0.142403944 1.0003726291 0.755051735
0.1524383196 1.0009289187 0.0041116903
0.1524938522 0.7493289742 6.4812029075e-04
0.1322788652 0.7475488477 0.0017269341
0.172414146 0.7515344986 -0.0026011955
0.1625241553 0.7487334172 0.2541872354
0.1724759724 0.7512399924 0.4987584792
0.1623875451 0.7511352791 0.7545537924
0.1824892455 0.9978987768 0.7446837935
0.1724815256 0.5006191175 -3.9570799303e-04
0.172616655 0.5012631045 0.4970452976
0.1824144616 0.7497151046 0.2491541283
0.1823674439 0.7504873654 0.7461813233
0.1723815669 1.0020414977 -0.0017804141
0.1624297499 0.9982063722 0.7477899184
0.1825710636 0.5001335095 0.2488736886
0.2024250885 0.5011564278 0.7473836047
0.1926935509 0.4991328428 0.4957476852
0.192586558 0.7477124622 -0.0045108885
0.2024043563 0.7530462973 0.2488884973
0.1926335756 0.7517308361 0.4946499903
0.2025187535 0.7504219195 0.7511903663
0.2325304364 0.7522413136 9.1495456475e-04
0.2323449574 0.4968284951 -0.0033160393
0.2324834187 0.7534127939 0.4984039959
0.2125783038 0.7520057086 -0.0012444316
0.2225042056 0.7488577642 0.2536448668
0.2125631249 0.7537531122 0.5003022862
0.2226633991 0.7519795303 0.7560846418
0.2323586554 0.4996367756 0.5006317798
0.2224971715 0.5020890309 0.7544482804
0.2126656751 0.5006459503 -0.0043449385
0.2224186854 0.5032068456 0.2541752034
0.2124179996 0.499960078 0.5005262678
0.2523903847 0.7486810605 -0.0023137402
0.2425988719 0.7516981132 0.2487496657
0.2525258843 0.7488054076 0.4982364725
0.2425796206 0.7484323663 0.7498788707
0.2423956225 0.4990124224 0.7526129271
0.2625865453 0.5019712284 0.7435148317
0.2625336042 0.7503761075 0.2462368143
0.2425140921 0.4996256499 0.2464450617
0.262618384 0.7535567747 0.746196132
0.2626165329 0.4998102071 0.2449484574
0.2524847902 0.4981675168 0.4973359184
0.2724739445 0.9998948746 0.9953321577
0.2823813354 0.5029025225 0.2462164523
0.272559835 0.4997892644 0.4992795603
0.2823831865 1.0014132178 0.245480645
0.2824305743 0.500055629 0.750085267
0.2824609322 0.7490082896 0.2482859683
0.2823035897 0.7498001842 0.749756699
0.2723639899 0.7495449454 0.9963410004
0.2723895349 0.74986563 0.4952534448
0.3124622489 1.0022182015 0.4920853085
0.2923846127 0.7495776683 0.9941196953
0.302469708 0.7476993731 0.2468856205
0.2924031235 0.7481444047 0.4953237862
0.3023401319 0.7505855341 0.7427068319
0.3024652654 0.501075275 0.7465441365
0.2925623171 0.5010425521 0.9983864522
0.3024563802 1.0006933137 0.2436138232
0.3125511011 0.7504873654 0.9936013908
0.3123352643 0.7481509493 0.4927822429
0.3124507722 0.4995863824 0.4930636082
0.3324895356 0.5018063049 0.4908099091
0.3224066616 0.4998658361 0.738766792
0.3322751797 0.7479873347 0.993351494
0.3324973102 0.4987964512 0.9959615275
0.3225114332 0.7507818716 0.2437545059
0.3325891242 0.7507491487 0.4910375929
0.3223777847 0.7516523011 0.7402124914
0.3226176856 0.4998776163 0.2404040374
0.3525705039 0.5014299914 0.4926128684
0.352551993 1.0019236953 0.4896520538
0.3625323168 0.7524900077 0.2435055346
0.3625064015 0.7503499291 0.7454297818
0.3625101037 0.5010602224 0.7474169243
0.3623546124 0.5032218982 0.2477232376
0.3524216764 0.7513577949 0.9913245531
0.3426131336 0.7510829224 0.241875652
0.3525353332 0.7488970317 0.4945852022
0.3424765233 0.7511941803 0.7429900483
0.3626470842 1.0014393961 0.7467579371
0.3425642649 0.5007689885 0.7425744792
0.3525590271 0.5040236096 0.99305532
0.3424850383 0.4999515701 0.2380809224
0.3726170419 0.5013547287 0.9962762124
0.382701767 0.5012473975 0.2424513402
0.3727318093 0.5031499077 0.4958994744
0.3923903594 0.5004352148 0.9922686078
0.3826610431 0.5038606494 0.7491773085
0.3724430397 0.7525096415 0.9951377935
0.3824944452 0.7536549435 0.237732918
0.3726503615 0.7531510106 0.4985937324
0.3827387887 1.0033307806 0.2398033594
0.3826980648 0.7533931602 0.7452622583
0.3923866572 0.7533146252 0.9911672107
0.3924310833 0.7525161861 0.4898843653
0.3925236377 0.5024751612 0.4877509869
0.4026268737 0.5023095833 0.7435481512
0.4024972975 0.7528434152 0.2386020036
0.4024454671 0.7520646098 0.7367000527
0.4124117226 0.7527125235 0.986650557
0.4126264487 0.7521038773 0.4882091311
0.4224927455 1.0009943645 0.7320695572
0.4424252565 1.0037561785 0.2346804746
0.432584875 1.0039459714 0.4828465304
0.4425437261 1.0000781229 0.7336031832
0.4227667065 0.4998520924 0.7363557505
0.4324997249 0.7545188284 0.988575688
0.4222409976 0.7503302954 0.2350358834
0.4323294249 0.7525881765 0.4913522778
0.4225075542 0.7501994037 0.739115722
0.4424030435 0.7532949914 0.2379670806
0.4425178109 0.7526078102 0.7347332722
0.4223594672 1.003638376 0.2366398508
0.472683134 1.0035074843 0.4861794135
0.4724461948 0.5029208473 0.9840497789
0.4624392154 0.4996976403 0.2317316921
0.4724054709 0.7509193078 0.9768027711
0.462557685 0.7522151353 0.2302906204
0.4724721101 0.7515017757 0.4818460175
0.4622244892 0.7522740365 0.7350553614
0.4525544077 1.000281005 0.4821495959
0.4623947893 1.0018517048 0.2309625652
0.462472535 1.0019367844 0.7331811353
0.4524137251 0.752391839 0.9862895949
0.4524803642 0.752751791 0.4805891291
0.4526247491 0.5029745129 0.4861442429
0.4925786233 0.4977395011 0.9833833874
0.4924009189 0.5005556351 0.4845152858
0.4824198547 0.5026499016 0.7294299063
0.4825827504 1.0020545869 0.7287348229
0.4926711777 1.0016750011 0.4783308022
0.4924601537 0.9996003683 0.9830224253
0.4922935558 0.7517701036 0.4836545301
0.4922528319 0.7485501688 0.9839942463
0.4824346634 0.7538120135 0.2340946054
0.4823050873 0.7508865849 0.7315817956
0.5024301114 0.4985615007 0.2357318923
0.5124222821 1.0001043012 0.4826456874
0.5224218572 0.9987561171 0.7276176916
0.5024412179 0.9992011488 0.2305516237
0.5225218159 0.7447281324 0.7331876141
0.5022450026 0.7502452158 0.2353986966
0.5024634309 0.7482294843 0.7362270999
0.5123445364 0.7503564737 0.9838924365
0.5124593039 0.5003658422 0.9783484292
0.512440793 0.7500946904 0.4795571477
0.5222515571 0.7469532906 0.2341232972
0.5523465389 0.997519191 0.4814739489
0.5424543269 0.4978448689 0.7274140719
0.5424321139 0.7482033059 0.2285950242
0.5523613476 0.4998704173 0.4852871893
0.5523798585 0.7472150739 0.4800958142
0.542180366 0.7487399617 0.7307525084
0.5326028389 0.9977678851 0.9787556685
0.5424950509 0.4994567996 0.2269244176
0.532225217 0.7483865543 0.9813194247
0.5525205412 0.5016407269 0.9843829747
0.5424802422 0.9969105448 0.2322120493
0.53224743 0.7487334172 0.4782104815
0.5724900739 0.4974292878 0.986122997
0.562409051 0.9942796224 0.7323101986
0.5523946672 0.7454022245 0.977330331
0.5625645423 0.747856443 0.2344176201
0.5622905814 0.747732096 0.736748181
0.5725641174 0.7461221286 0.9768490483
0.5725307979 0.4979076969 0.4837387546
0.5724752652 0.7457818103 0.482711401
0.6026590992 0.4965300622 0.2342315858
0.6024480752 0.9967534748 0.2384465122
0.602399947 0.9999014191 0.7394276303
0.5925669698 0.7454742149 0.9826707187
0.5924596067 0.9973424872 0.4867745382
0.5923670523 0.9970021689 0.9841238224
0.6026516949 0.7490737355 0.2331635083
0.5925558632 0.7508734958 0.4839747682
0.6028256971 0.7485305351 0.7382336788
0.5825229686 0.9971068823 0.2358457342
0.5826414382 0.9955230932 0.7358429992
0.5825896077 0.4979469643 0.7318788952
0.5825785012 0.7470776377 0.2340844244
0.5825673947 0.7473525102 0.7356736247
0.6125661199 0.7505986233 0.9840405235
0.6124550547 0.9973228535 0.4875010901
0.612440246 0.7469860135 0.4860276244
0.6225730994 0.9987495726 0.7410001292
0.6225730994 0.7471758064 0.2394386952
0.622354671 0.7498263625 0.7386372159
0.6224102037 0.9992273271 0.2433704052
0.6424722908 0.9942403549 0.7386473969
0.6326578245 0.4983985406 0.4889199487
0.6422982886 0.996059749 0.2407862869
0.6525273985 0.9984419772 0.4940613444
0.6525236963 0.9972377739 0.9920187109
0.6324245874 0.9998948746 0.4922861515
0.6323505439 0.9995872792 0.9908247594
0.6327059528 0.7462268419 0.9889088838
0.632668931 0.7469532906 0.4927007951
0.6525496116 0.7435566521 0.9905008191
0.6423797364 0.7485239905 0.2414897002
0.6526754855 0.7485109013 0.4935254546
0.6425315256 0.7488970317 0.7441108819
0.6724747182 0.7500423337 0.9972387779
0.6623011409 0.9944955937 0.2459017675
0.6723451421 0.997205051 0.9966464299
0.6825039107 0.750461187 0.2440108815
0.6725265487 0.7499965217 0.4960512636
0.6824779955 0.7483800097 0.7439146666
0.6726524226 1.000405352 0.4964899713
0.6625195692 0.7508996741 0.2413508686
0.6626639541 0.7496627479 0.7450604898
0.7024475282 0.499325908 0.2397876252
0.6925368054 0.9996461804 0.4941316858
0.6927626381 0.9998359733 0.9943418258
0.6925738271 0.7502910279 0.9969333484
0.7027548088 0.7487792292 0.2397219116
0.6924849749 0.746743864 0.4941548244
0.7024771456 0.7482949301 0.7400958729
0.7125951903 0.4972231335 0.4862071799
0.7124471033 0.7493093404 0.4930626827
0.7225614458 1.0010532657 0.7402809817
0.7324906796 0.9978922322 0.9929349993
0.7324240404 0.7513185274 0.993795755
0.7225947654 0.748484723 0.2411602066
0.7325536166 0.74908028 0.4952303062
0.7225355306 0.7497936396 0.7459582673
0.7224614871 0.9976566272 0.2468236091
0.7325351057 0.997957678 0.491156988
0.7124174859 0.7501143241 0.9898251722
0.7126544251 0.9996134575 0.4925378994
0.712609999 1.0004707979 0.9910931671
0.7424162112 0.5003750046 0.2399616274
0.7425198721 0.7476077489 0.2454325168
0.7425531917 0.750304117 0.7472614329
0.7525305537 0.7487465063 0.9913708303
0.7625634483 1.0006278678 0.7390907323
0.7526045972 1.0016553674 0.9920372218
0.7628485158 0.7491064584 0.2429918578
0.7524861276 0.7482622072 0.493607828
0.7626485984 0.7495711238 0.7389861459
0.752430595 0.9989982667 0.4901481453
0.7425828091 0.9975519139 0.2399579252
0.7624894048 1.0008831066 0.2427280778
0.7825588963 0.9961513732 0.246980026
0.7724371495 0.9979642226 0.4922685661
0.7825811094 0.9983830759 0.7488931666
0.7724667669 0.9982652734 0.9933885157
0.7826070246 0.7481444047 0.2423819244
0.7727592387 0.749191538 0.491938147
0.7825255768 0.7475553922 0.7427864287
0.7724630647 0.74955149 0.9897048515
0.7724186386 0.4991524765 0.4907636319
0.7724630647 0.4979541634 0.9896863406
0.7927250693 0.9971592389 0.502422707
0.7926028975 0.7506640691 0.9949711956
0.7925954932 0.9987495726 0.9979699575
0.8128352847 0.7527256127 0.9958504622
0.7925843866 0.5004456861 0.9940363964
0.802569153 0.998743028 0.2513291562
0.8126279629 0.5038148374 0.9959245057
0.802609877 0.7516915686 0.2508090006
0.8126797934 0.7482098505 0.5004661075
0.8025802596 0.9979118659 0.7514374865
0.8026802183 0.7490082896 0.7454843888
0.8127094108 0.9987233942 1.0036065192
0.7925695779 0.748641793 0.4967287616
0.8225127706 1.0017404469 0.7518993328
0.8226978793 1.0011383453 0.251853014
0.8328455414 0.7484323663 1.0026532091
0.8225275793 0.4973514073 0.7483072974
0.8226608576 0.7516719349 0.2533820123
0.8327789023 0.7545711851 0.5048911323
0.8226238358 0.7514297853 0.7530081343
0.8427155404 0.7521300557 0.2511810692
0.8426489012 0.7500816012 0.7537707824
0.8624185165 0.4998239507 0.7462350048
0.8426044751 0.9997116262 0.7549638083
0.8625110709 1.0021069436 0.2525101501
0.8625110709 1.0029839177 0.7478075037
0.8526077524 1.0026239656 -0.0017611627
0.8626221361 0.7505528112 0.7515244876
0.8525744328 0.5026479382 0.500392064
0.8526336676 0.7516457565 0.0027653017
0.8523708132 0.5023416518 0.001131069
0.8625814122 0.5011583912 0.2509311724
0.8627072862 0.754211233 0.250309207
0.8528076698 0.7513512503 0.5060656474
0.8527077111 1.0024538065 0.5025735707
0.8824620928 1.0011579791 0.7522528906
0.8926912027 0.9979838564 0.0048025161
0.8826323928 0.7512988936 0.752960006
0.8726069025 0.7516981132 -3.6692358123e-04
0.8925690309 0.7499965217 0.0024532083
0.882425071 0.5010922909 0.7499519887
0.8825139232 0.4995804922 0.2521454858
0.8826620102 0.7515737661 0.2488144538
0.8727253721 0.751560677 0.5052770841
0.8925246048 0.7497216492 0.5025198891
0.8724662199 0.5036440238 -0.0028388937
0.8826694146 1.0024079944 0.2517428743
0.912501542 0.7502452158 0.5032584731
0.9025315843 1.0006147787 0.2537836983