POSCAR file written by Ovito 3.7.11
1
270.0497933549 0.0 0.0
0.0 15.2763232111 0.0
0.0 0.0 10.8019917342
Sr Ti O 
800 800 2400 
Direct
0.0225625711 0.5013858047 0.7715717722
0.0126114433 0.4988858576 0.0218817892
0.0122541388 0.2490619996 0.527274233
0.0223673108 0.2498998976 0.7751248207
0.0024099543 0.2500570034 0.7763079358
0.0125540465 0.2495673568 0.0253635545
0.0025561125 3.088181304e-04 0.2754049419
0.0223769016 0.5014650122 0.2724258617
0.0123709691 0.0026178816 0.5263290369
0.0024014373 -0.00273609 0.779283313
0.0123368273 4.6101443889e-04 0.0293493935
0.022483993 0.2468605536 0.278452528
0.0024919762 0.2501650137 0.2760631539
0.0424117994 0.5022367948 0.2723406922
0.0325454708 0.2493578823 0.5232453463
0.0423251487 0.2483039638 0.7732057302
0.0524647602 0.4992995697 0.0268317097
0.0325243635 0.2516287167 0.0236260971
0.0323399531 0.00143638 0.5227380325
0.0324754837 6.9248374935e-04 0.0206612735
0.0423325547 0.2505263572 0.2737691325
0.052557706 0.2521942978 0.519052601
0.0524388391 0.2481959535 0.0230726807
0.0624577321 0.2530511794 0.2698689258
0.0623744141 0.5017831516 0.7755164151
0.0623692299 0.5020070274 0.2696763687
0.0723814575 0.4956448945 0.5242553453
0.0724384841 0.2493644284 0.5167669115
0.0625288301 0.2527827902 0.7717976565
0.0725040275 0.2502756424 0.0219111356
0.062312944 0.002753189 0.2743236598
0.0624225534 8.834982991e-04 0.7724827154
0.1022740929 2.1592928664e-04 0.2672897718
0.0924325745 0.2497833774 0.5140785184
0.0824766328 0.0029038797 0.2696847005
0.1024714639 0.2478902517 0.7587519143
0.0825473605 0.2502422574 0.7678233894
0.0924192437 0.2499470293 0.0161639548
0.0824022021 -6.3719156307e-05 0.7697850647
0.0924359072 -0.0014853963 0.0169202042
0.1025533007 0.2511069943 0.2631812703
0.0823562846 0.2490286146 0.268884848
0.1024551706 0.4988616371 0.2682395967
0.0923822134 0.5015560027 0.5176519334
0.1123466798 6.1340712971e-04 0.0117564343
0.122532579 0.2526852537 0.2622851392
0.1125644174 0.2478188994 0.5137424692
0.1225170264 0.4976309744 0.7664810444
0.1125103533 0.4994383465 0.0116831145
0.1225996037 0.2485147475 0.7608802255
0.11248184 0.2481075815 0.0148441056
0.1125621956 0.4988537818 0.5165308439
0.1523852218 0.2507882003 0.5079851976
0.1325051843 0.2453870315 0.5118168984
0.1424485358 0.2481442395 0.7574938129
0.1525144572 0.2482398122 0.0067414332
0.132591835 0.2528076653 0.0127878182
0.1425266695 0.2478352646 0.2579896351
0.1424355752 0.496787185 0.7603386587
0.1523785563 0.4993944878 0.005986665
0.1324055731 0.4996216367 0.0118730794
0.1323526199 0.4997014989 0.5152699653
0.1526840556 8.093312378e-04 0.5026704371
0.1825696552 0.2490692003 0.7479659404
0.1827303663 0.2519121619 0.2523119785
0.1625763053 0.4947703385 0.7549535407
0.1623133908 0.4996196729 0.2548235523
0.1722941428 0.245140899 0.5009596414
0.1825396607 0.4996609132 0.754249041
0.1623937464 0.249483567 0.7536695182
0.1725159537 0.2476041881 -0.0016614616
0.1624385529 -3.7766904685e-04 0.2524267721
0.1625603823 0.2470333701 0.2516296969
0.172528544 -9.5045085298e-04 0.4970001865
0.1825641006 3.9935038616e-04 0.249957783
0.2025774468 0.251885323 0.2486339531
0.1924719031 0.4975668229 0.0048216021
0.2026478042 0.5001453229 0.2502743913
0.1927462969 0.2524541771 0.4996080389
0.2025289372 0.2497421371 0.7484788088
0.192469311 0.2512732647 -7.8773379727e-04
0.1924904182 0.0021770687 0.5001162785
0.2024130327 0.0020211412 0.7497878267
0.1925829937 9.0706417912e-04 3.0956383929e-04
0.202705201 4.5728317455e-04 0.2480414698
0.2125541254 0.2498926969 0.5017400531
0.2226119002 0.2546503862 0.7501868272
0.2123778616 0.2535421352 -0.0021317822
0.2225222871 -0.0010437325 0.2515806319
0.2125644939 0.0014157599 0.5014549205
0.2126670676 0.0025772305 -7.6727460738e-04
0.2225363586 -0.0022306673 0.745793193
0.2326704156 -4.1733827822e-04 0.4963836335
0.2226667049 0.2528790176 0.2542060736
0.2325219245 0.2494292346 0.4985739703
0.2326052424 0.248912749 0.0014250063
0.2325589547 0.002680593 0.9998889253
0.2526833915 0.2511606721 0.4972297738
0.2425874756 0.2519095434 0.7483455001
0.2625352783 0.2523546767 0.24581688
0.2526097014 0.2511279418 0.9978800365
0.2425378551 0.2574802556 0.2473008656
0.2426567221 0.0011520184 0.2484997186
0.2527156078 0.4999358484 0.9989353974
0.2526108123 0.0011580408 0.498525831
0.2426241355 -0.0013553912 0.7454275197
0.2625167632 0.2502239284 0.7474614039
0.2525708196 0.0017632912 0.9976671128
0.2626137823 0.0037445925 0.2466898672
0.2625611994 0.0030916867 0.7451951551
0.2727182152 0.2515207064 0.497368637
0.272507143 0.2506690617 0.9972875532
0.2726400814 0.0025773614 0.4950412885
0.2724453025 0.5013295084 0.993343836
0.2822864506 0.2531323508 0.7453701229
0.2825564008 8.5764129185e-04 0.7451942294
0.282700078 0.2508183123 0.2492264364
0.3024701357 0.2521982255 0.2483978855
0.3127100991 0.2546818074 0.4960985009
0.3125623486 0.2523860979 0.9926032319
0.3125893807 0.0038340119 0.9980374149
0.2925101207 0.2526976912 0.4974186278
0.3024953163 0.2549737625 0.7455191694
0.2924923462 0.505384149 0.4933388247
0.3025875215 0.5023605156 0.2455160096
0.2925578897 0.2504903538 0.9983614292
0.3027337908 0.0053673652 0.7480964719
0.2926363937 0.0056225968 0.4957828184
0.3124975457 0.5037587579 0.994667666
0.2925315982 0.0054245779 1.0007961654
0.322486074 0.2532665454 0.2424267645
0.3325586609 0.2527487506 0.4956346975
0.322596424 0.2509963656 0.7440055597
0.3325982832 0.2539951238 0.9940936977
0.3225790198 0.0025984398 0.2409390759
0.3324986719 0.0019188914 0.495137567
0.3225423599 0.0030749942 0.7408820617
0.332509781 0.003863993 0.9932882907
0.3625749771 0.2502841523 0.2383719567
0.3524242565 0.2514486996 0.4946367334
0.3423601866 0.2517740396 0.7436787681
0.3525453453 0.0016639872 0.9917793097
0.3525309035 0.2490888385 0.9930198217
0.3424834972 7.9564993523e-04 0.2400716433
0.3424105477 0.0023236354 0.7405312004
0.3424834972 0.2512202415 0.2404067666
0.3624305593 0.2520686131 0.7412319971
0.3626120073 0.0025522899 0.2401660703
0.3723583581 0.2493336618 0.4938618763
0.3823861384 0.2499018614 0.7396035937
0.3724620427 0.2519592936 0.9905295402
0.382323187 -0.0012385437 0.7447045049
0.3823379991 0.2505970548 0.2392523499
0.3924176217 6.3690754896e-04 0.4857948455
0.3927286755 4.9367936704e-04 0.9896223001
0.3725657272 8.4876809399e-05 0.4896487644
0.3724472306 0.0023261884 0.9936585928
0.3923694824 0.2505479593 0.4846191364
0.3925546335 0.2491772106 0.9889464988
0.412587976 0.0018470809 0.4773158537
0.4025676017 0.2496943507 0.7320207329
0.4025453836 0.0013311191 0.232017573
0.402615741 0.0027371511 0.7353080896
0.4024935413 0.4998036177 0.231609315
0.4024231839 0.2489624992 0.2325443277
0.4124509642 0.2514801207 0.4775065593
0.4124398551 0.2490659273 0.9782355112
0.4126064911 -6.1247685697e-04 0.9779855573
0.4126398183 0.5018387932 0.9794575081
0.4126176001 0.5039427026 0.4764437923
0.4225565079 0.250036056 0.2270879266
0.4424195115 0.2487032745 0.7230122091
0.4324620886 0.5001302669 0.9762914253
0.4324398704 0.5009707833 0.4739581396
0.4425009779 0.2492747471 0.2285709864
0.4224602294 0.5008385526 0.2277489158
0.442504681 0.5014231173 0.7219503679
0.4325250399 0.2492223785 0.4755846915
0.4226194593 0.2519232902 0.733060356
0.4324583855 0.250428166 0.9776985732
0.4425750384 0.4990095784 0.2217490964
0.4325287429 1.608113117e-04 0.9789853729
0.4524991341 0.0013025782 0.973838174
0.4724213859 0.2506173477 0.4676074589
0.4624861812 0.2502586226 0.7219929526
0.4726583793 0.2525196379 0.9704406524
0.4622269697 0.2513138504 0.2197615
0.4525139462 0.4993892509 0.9727828131
0.4627083624 0.5035597571 0.7213338149
0.4725769128 0.5004529886 0.4710670061
0.4527472365 0.2493192605 0.4707633584
0.4525583824 0.2504183469 0.9727828131
0.4725287735 -0.0023454855 0.9706906063
0.4824713844 -0.0023119696 0.2180220059
0.4825047116 0.2507973648 0.7193489957
0.4825306327 0.2508975198 0.2180701452
0.4925176798 0.250713575 0.4715502503
0.4925880372 0.2508916283 0.9726624649
0.4825528508 0.4991267532 0.2172230792
0.502341794 0.2503365209 0.2249327685
0.5122325625 4.2357087396e-04 0.9739677797
0.522475118 0.0029686859 0.2281321785
0.5021973761 0.2478895971 0.724774847
0.5024676967 0.4977926626 0.7178946343
0.5123066229 0.2449170232 0.4722649333
0.5025047269 9.2303660892e-04 0.7209190766
0.5223195911 0.2512182776 0.2258575979
0.5122844048 0.2526577601 0.9740418402
0.5222825609 0.2504543503 0.7240879366
0.5126361918 0.4986187776 0.4770751573
0.5226306449 0.4983333686 0.2254706323
0.5226047237 0.5012332811 0.7240777533
0.5522918414 0.2510461158 0.4808263174
0.5524621804 -0.0026757351 0.9813738213
0.5325880678 0.4994612578 0.9781614508
0.5325732557 0.5009825663 0.4784082448
0.5326917524 0.0026976128 0.4806069134
0.5323436684 0.2502573134 0.4783619571
0.5323436684 0.2470759196 0.9719311183
0.5424381031 5.8931756347e-04 0.7303654826
0.5421825947 0.249009631 0.2334404588
0.5423603397 0.2498449105 0.731718011
0.552214078 0.2499470293 0.9821699708
0.5623307308 0.4966248423 0.7362301418
0.5622122341 0.4989670289 0.2371842128
0.5624121973 6.7487480011e-04 0.2396124687
0.5624455244 0.2458655498 0.2365695113
0.5625640211 0.2492976584 0.7349859268
0.572347402 0.0021636493 0.485256056
0.5724658987 1.2084424436e-05 0.9836234065
0.5724473836 0.2495228435 0.4878009571
0.5723659172 0.2513079589 0.9863543843
0.5922215146 0.4966235331 0.9935752748
0.5826269878 0.2488557982 0.7394036306
0.6025048034 0.2493703199 0.2364871191
0.5925140533 0.2472611736 0.4884813871
0.6024640702 0.2492793294 0.7417791184
0.5925695986 0.2481933351 0.9889650139
0.6024122279 0.4985781919 0.7431372013
0.5826862361 0.248605738 0.2374776772
0.5923400113 0.4965142136 0.492955562
0.5823529642 0.4988511633 0.2430396144
0.6124548203 -0.003692341 0.9878726228
0.6123178085 0.4982482696 0.4913049405
0.6224048371 0.2506631702 0.7415189812
0.622390025 0.4970523012 0.2417426314
0.6122992934 0.4987555906 0.9893816038
0.6224418673 0.4967479086 0.7415523084
0.6124437112 0.2478247909 0.4905717424
0.6122622632 0.2510467704 0.985947052
0.6224048371 0.247779623 0.2383358523
0.6425381612 0.2468108035 0.2360844156
0.6526214868 0.24750927 0.485785588
0.6425863005 0.2449772471 0.7347970727
0.6525733475 0.250725358 0.9923810506
0.6323289329 0.4983444969 0.9907517215
0.6424418826 0.4986312151 0.7435824896
0.652484475 0.4977893895 0.9912701444
0.642501131 0.499565995 0.2418907522
0.6524141176 0.4970077878 0.4938665051
0.6323955872 0.2469404158 0.4927537474
0.6323104178 0.2475871683 0.9880670314
0.662449304 4.7613587857e-04 0.7447544957
0.6724770843 0.4979085281 0.4910735017
0.6824678344 0.4971773313 0.7407959664
0.672595581 0.4981762627 0.9927883829
0.6826863126 0.4984007932 0.2424452796
0.6625529886 0.2456338187 0.2389977672
0.6624307889 0.2453850677 0.7395813756
0.6826974217 -0.0020422712 0.246130711
0.6824308042 -0.0011423164 0.7433056888
0.6623863526 0.4976506127 0.745399747
0.6623271043 0.4970660479 0.2412575357
0.6825455978 0.2508785362 0.2413806611
0.6723363695 0.2481095453 0.4884850901
0.6824493193 0.2492217239 0.7476558124
0.6724511632 0.2491470986 0.9912238566
0.7025048799 0.249109786 0.2489126054
0.69255116 0.2496040148 0.495130161
0.7025456131 0.2482908716 0.7463097644
0.6925955963 0.247515816 0.9944454847
0.7025752373 0.5002323858 0.7484732543
0.7026492977 -0.0024192598 0.7456015617
0.7025826433 -3.3832711936e-04 0.24497722
0.6925844872 0.4961109752 0.9941214704
0.6926807657 0.5004981565 0.4978444752
0.7125548783 0.2474601744 0.4952107017
0.71249563 0.2465640163 0.997704143
0.7225567375 0.4975092174 0.7479946388
0.7224345378 0.2492138686 0.2498920544
0.7325511906 0.4970051694 1.0000092735
0.7326030329 0.251451318 0.4977926329
0.7224493499 0.4960749718 0.253346047
0.7325956269 0.4998415849 0.496650251
0.7226270949 0.249216487 0.7494869562
0.7326437661 0.2453189523 0.9942510761
0.7126067206 0.5010238066 0.998407717
0.7625937983 0.4991673389 0.7459431653
0.74259008 0.0034426874 0.7454136334
0.7525734241 0.4983772273 0.9937048806
0.7626419376 0.4999469768 0.2449809231
0.7625863923 0.2505427224 0.2393328906
0.7525845331 0.25074696 0.4954069618
0.762538253 0.2487183305 0.7408209618
0.7525400969 0.2488269954 0.9943343941
0.7425752679 0.4980649794 0.7473827147
0.7526808117 0.4987267879 0.4956763565
0.7426900616 0.2518290267 0.2428035468
0.7426122981 0.249738864 0.7446906185
0.782660468 0.5009498359 0.2440542421
0.7826012197 0.5008398618 0.7417661579
0.7826419529 0.2511724551 0.2402179126
0.772336446 0.2533797925 0.4928768728
0.782486426 0.2490423614 0.7404136295
0.7723993974 0.248991302 -0.0082753714
0.7926660302 0.5006094398 0.493174966
0.8126030941 0.5010290434 0.4938915005
0.802597532 0.5009950038 0.7467059876
0.8024605202 0.5006343149 0.2463454862
0.7924660671 0.2490331969 0.4859698133
0.7924401459 0.2516621017 0.9866691411
0.8123772099 0.0024570445 0.4906217331
0.8026382652 0.2513138504 0.2402114323
0.8126919666 0.2526132468 0.493844287
0.802419787 0.2528600339 0.7419059469
0.8125475488 0.2491065129 0.9959452081
0.8325549702 0.0013728176 0.4989526042
0.8225790322 0.2501597768 0.2458594648
0.8324290675 -0.0012872466 0.9915200983
0.8324253644 0.2491817928 0.4973019827
0.8226308744 0.2490593812 0.7413588256
0.8324438795 0.249064618 -0.0061368584
0.8325808913 0.5002572609 0.4956124794
0.8325660792 0.4964729733 0.9997315469
0.8225012687 0.5027539349 0.2514825018
0.8424642538 0.5020967087 0.7486556281
0.8424679568 0.4997309562 0.2461899594
0.8426975441 3.915605536e-04 0.2441588525
0.842327242 0.2476873233 0.2479590775
0.8425568293 0.2506271668 0.7453766031
0.8627049655 0.2471557818 0.2445050849
0.852466113 0.2491110952 0.4953875209
0.8625679537 0.2511331786 0.7470679579
0.8525142522 0.2489153675 -0.0035287653
0.8926475916 0.499495952 0.0105772073
0.8725550008 -4.0902475943e-04 0.4951014625
0.8826494355 0.2506821539 0.2525452688
0.8725735159 0.2489808282 0.4995747117
0.8926438886 0.2509001382 0.5034675123
0.8827049808 0.2503843073 0.7500350033
0.8725512978 0.2509446516 -2.7542087052e-04
0.8924957677 3.3709718643e-04 0.5057911578
0.8725179706 -3.6784993017e-04 -0.0035953456
0.8925920463 0.2481880982 0.0050719263
0.8725512978 0.4957843259 0.4999496425
0.8925142829 0.4990180883 0.5077954178
0.912666122 0.5020260111 0.5125139921
0.9027124021 0.4986659093 0.7583205123
0.9125550314 0.4978522319 0.013420757
0.9027642444 0.5000576055 0.2605734179
0.912480971 0.0010426989 0.5105847182
0.9027309172 0.2498593119 0.2596356279
0.9123587713 0.0023201005 0.0129764871
0.9127549945 0.2506330583 0.5145802777
0.9025272511 0.2496792947 0.7628946688
0.912480971 0.2525877171 0.0111925568
0.9425717179 0.2502023264 0.7656932267
0.9326957615 0.2517936779 0.016795505
0.9326217011 0.4996026531 0.5110346353
0.9326513252 0.5015573119 0.0136426605
0.9226939023 0.5000085099 0.7673299619
0.9226568721 0.4988766931 0.2617333891
0.9423013974 0.498906805 0.768770437
0.9226642782 0.2484879086 0.2659150254
0.9227124174 0.2522329197 0.7633334767
0.9426754025 0.2515959863 0.2670870315
0.9324624712 0.2512150046 0.5126306372
0.9724773139 -0.0022606483 0.5240387185
0.9624162064 -4.8044246806e-04 0.770865421
0.9624013943 0.2507305948 0.2714491899
0.9522847415 -2.7044429274e-04 0.01603546
0.9724662048 3.427922741e-04 0.0219290953
0.9524735955 0.248639123 0.5222186838
0.972495829 0.2467289775 0.5257800641
0.9626161695 0.2489395879 0.7732770133
0.9524106442 0.2489441702 0.0193130037
0.9526254194 -0.0011995291 0.521537328
0.9723921444 0.2494043595 0.0259059545
0.9724032534 0.4988799661 0.5244210554
0.9622569765 -1.0090087812e-04 0.27083634
0.9524698925 0.5010440994 0.5149107723
0.9626420906 0.495927685 0.7681001902
0.9825606395 0.2511704913 0.2769092941
0.9823310522 -0.0016644316 0.7732603497
0.9925032503 -0.0014466435 0.0289927
0.9925291715 0.2484813625 0.5326899009
0.982645809 0.2476434645 0.770729335
0.9923255053 0.2489985027 0.0259553898
0.9923403174 0.4992674939 0.0255065837
0.0223615711 0.7509307997 0.7774521693
0.0026121022 0.4982011378 0.2740644484
0.0022702393 0.7519192575 0.776341263
0.01250076 0.5010539185 0.5287656246
0.0025545202 0.50020031 0.7769420781
0.0224113767 0.9993413595 0.2753438421
0.0224609231 1.0000156055 0.7745267828
0.012397779 0.7517294212 0.0256671096
0.0224232634 0.7464729207 0.2741773905
0.0022540941 0.7488360548 0.278180356
0.0122969087 0.7488884234 0.5210809307
0.0524884595 1.0029286101 0.5218974468
0.0526865711 1.0026405827 0.0235596279
0.0323595791 0.7511009977 0.0228096736
0.0424047636 0.7514283016 0.2716843318
0.0324658558 0.753313572 0.5271390727
0.0423958764 0.750701687 0.7737639605
0.0424658635 0.503686751 0.7718994896
0.0323903142 0.5005826009 0.0230274113
0.03225034 0.5013943146 0.523416611
0.0422429416 0.9995115575 0.2717815361
0.0523788501 0.5013871139 0.5203542128
0.0522314699 0.7497917822 0.0239217834
0.0524817941 0.7497917822 0.5182073865
0.0424640119 1.0006833054 0.7737000834
0.0723173953 0.498387701 0.0266134166
0.0724736628 0.9996883016 0.5195904648
0.0723710891 1.0011677152 0.0229388165
0.0723629424 0.7493335567 0.0149825986
0.0623651566 0.7521221859 0.2701077707
0.0723573879 0.7498834273 0.5219752102
0.0623955214 0.7500339871 0.7715217815
0.0923688826 0.9964741774 0.5115002901
0.0923281493 0.7497983283 0.0174676958
0.1024333228 0.7494448401 0.2645384274
0.0824114597 0.7476839451 0.268124803
0.0923462941 0.7474024638 0.5113632784
0.1024448021 0.7497132292 0.7648369032
0.0824358996 0.7494710244 0.7699415173
0.1022518748 0.9999697829 0.7653266277
0.1025325637 0.5007632727 0.7684269818
0.0824036833 0.5003174848 0.7685482558
0.0925562554 0.4985271325 0.0150043538
0.0824347887 0.5010323165 0.2645125062
0.1123770445 0.7505249429 0.0147386621
0.1224363005 0.7499881645 0.2643005083
0.1124118529 0.7488426009 0.5190007587
0.1224548156 0.74792615 0.7609829843
0.1223885315 1.0034981189 0.2607761583
0.1221933823 0.9989485948 0.7622799673
0.1225559081 0.5016803782 0.2655484263
0.1122848393 1.0018877837 0.5120020494
0.1423522572 0.7517294212 0.2556696926
0.1525185305 0.7494579322 0.5061744205
0.132493705 0.7504856664 0.5085073236
0.1422385745 0.7465842041 0.7596239756
0.1524985342 0.5019186554 0.5033184657
0.1324170525 1.0009909711 0.0102847613
0.1425100059 0.4971537654 0.261128871
0.142299304 1.0015408416 0.2560585098
0.1324785226 0.9994330046 0.5125889782
0.142505192 1.0024572925 0.7559042913
0.1523692988 0.9995704722 0.0112019069
0.1525762976 0.7478148667 0.0056613546
0.132406684 0.7514348477 0.0126836707
0.1724889217 0.7477952285 2.7308908448e-04
0.1625496436 0.7482730921 0.2525452688
0.1723267294 0.7506231341 0.4999153896
0.1624826189 0.7466889413 0.7570466732
0.1825033711 0.9981172429 0.7498387432
0.172398568 0.4994998797 0.0015433178
0.1723730171 0.5008843751 0.5024214089
0.1823589533 0.7500536253 0.2474795364
0.1822297179 0.7481552627 0.7441147988
0.172610751 0.9985951066 -0.0020473071
0.1626092622 0.9962057882 0.7497313556
0.1824552318 0.4992576748 0.2535062027
0.2024430272 0.4987896302 0.753726915
0.1924637564 0.5001139018 0.500961493
0.1924844933 0.7478083206 -0.0031444381
0.2022778724 0.7529600838 0.2486904241
0.1924241341 0.7517817898 0.4961281251
0.2024067376 0.7491829969 0.7482186716
0.2326981882 0.7507147791 0.0018596483
0.2323415873 0.498135677 -7.8597486239e-04
0.2325422911 0.7491437205 0.4981684895
0.2124596984 0.7501321782 -5.2776745329e-05
0.2226944776 0.7480767098 0.2497318987
0.2124719184 0.7487902323 0.5042025619
0.2227863125 0.7489669764 0.7505728671
0.232575248 0.4996386565 0.4978824312
0.222642265 0.5003240309 0.7546758141
0.212504505 0.5009832209 0.0023591858
0.2226467086 0.5027860107 0.2502077369
0.2124863602 0.5004444787 0.5010549942
0.252708572 0.7487575019 -0.004085209
0.2425011952 0.7537194288 0.2486348788
0.252570079 0.7504398439 0.4974741731
0.2426404288 0.7500208949 0.7462199661
0.2426719045 0.5017366744 0.7498665159
0.2625519419 0.5036023066 0.7482251519
0.2625767521 0.7533724867 0.2522240317
0.2426089531 0.4987791565 0.2470805359
0.2626800664 0.7537783435 0.7465217623
0.262648961 0.5009328161 0.2493291952
0.2524430654 0.5016201543 0.4991451613
0.2725812034 0.9992497144 0.9948157868
0.2827263695 0.5037338828 0.2484284354
0.2726445251 0.5017563127 0.4950866505
0.2825315906 1.0027780503 0.2476711677
0.282577508 0.5019788793 0.7476465549
0.282688969 0.755755259 0.2462482819
0.2824160563 0.754995914 0.7466235954
0.2726700759 0.7486985872 0.9988335644
0.2725349156 0.7534117632 0.4963225337
0.3125397602 1.0032035454 0.4968483626
0.2926282471 0.7545966033 0.9974912193
0.3026489916 0.7529862681 0.2478007734
0.2927389674 0.7527637015 0.4939933336
0.3024319946 0.7576536216 0.7523706837
0.3026889843 0.5031512818 0.749397158
0.2924930868 0.5045992743 0.9949546501
0.302569747 1.0053375667 0.2409899924
0.3125142093 0.7557748973 1.0017404357
0.3125534614 0.7531368279 0.4976509924
0.3124738464 0.5042975001 0.4958818742
0.3325708809 0.5032717297 0.4924112179
0.3227012195 0.5029529357 0.7427465326
0.3325001532 0.7514675781 0.9948343019
0.3324834896 0.4996857883 0.9919459457
0.3224464517 0.7527964319 0.2466463567
0.3324894144 0.7563836825 0.4913123465
0.322581612 0.7552970336 0.7389527878
0.3226193828 0.5001721618 0.2452373573
0.3525934846 0.5035937967 0.4934758364
0.3525501592 0.9996424791 0.490512494
0.3624712926 0.7525804113 0.2420509079
0.3626083043 0.7490586215 0.7418272577
0.3625416499 0.5022492323 0.7371466394
0.3625009167 0.5048120218 0.2408335398
0.3525283114 0.7513824791 0.9882336673
0.342391292 0.7519978104 0.2436644992
0.352521646 0.7513104722 0.4883499299
0.3424590573 0.7532808416 0.7418624364
0.3624898077 0.9991842536 0.7449609391
0.3426912367 0.5041129007 0.7424549197
0.352521646 0.5027218591 0.988178122
0.3424712772 0.499228872 0.2409687
0.3724731517 0.5008909212 0.9911220236
0.3825564773 0.502304874 0.2348096507
0.3727508783 0.5027179315 0.488054614
0.3925064942 0.5001970369 0.9822995765
0.3826860831 0.5015795686 0.7335130503
0.3724768547 0.7490651675 0.9864284447
0.3824787139 0.749863789 0.2335478464
0.3725805393 0.7498310586 0.4884878674
0.3827268163 1.0001923496 0.2382590146
0.3826527559 0.7492615499 0.7417930048
0.3926064758 0.750538035 0.9850120393
0.3924546519 0.7484956588 0.4810031366
0.392469464 0.5009734018 0.4815872882
0.402612038 0.5015494566 0.7356830205
0.4025083534 0.7470096991 0.2343976896
0.4025972259 0.7486396725 0.7301831088
0.4125509458 0.7531368279 0.9771060899
0.4126287092 0.750282738 0.4760383115
0.4225231808 0.9994133663 0.7292684627
0.4424565417 1.0014426504 0.2289616551
0.4325805852 1.0004149162 0.477632462
0.4425861474 0.998123789 0.7266837542
0.4225268838 0.5005295777 0.7313801103
0.4326398336 0.7509373458 0.9752730946
0.4226787076 0.7478214128 0.220657631
0.4324954158 0.7500536253 0.4775398864
0.422745362 0.7488753313 0.7333714097
0.4427750015 0.7487444097 0.2280377514
0.4427416743 0.7479523343 0.7268161372
0.4225861321 1.0017765004 0.2286894831
0.4725435856 0.9982874409 0.4749940596
0.4725250705 0.5028180865 0.9676170991
0.4625083993 0.5012791036 0.2271249568
0.4725546947 0.7498048743 0.9684502788
0.4627379866 0.7488164166 0.2247263251
0.4724917433 0.7497459596 0.4732517884
0.4624861812 0.7499161577 0.7267892903
0.4525028371 1.0005720221 0.4763623258
0.46246026 1.0028631493 0.2225665382
0.4625417265 1.0023001866 0.7227937308
0.4525917096 0.7508522468 0.9768283633
0.4528953573 0.7514152095 0.4717585452
0.4526361458 0.5022695252 0.4761494021
0.4926546916 0.4994095438 0.9713293774
0.4924473224 0.498943463 0.4672464144
0.4825084146 0.4982600525 0.7217374442
0.4825158206 1.0007880427 0.7176724531
0.4925287889 0.9976066489 0.4713354751
0.4925732251 0.9994460967 0.9745510055
0.4926028493 0.7493662871 0.4677379904
0.4925028677 0.7483189147 0.9677189321
0.4826565354 0.7489604303 0.2133349074
0.4825491478 0.7486920411 0.7183658437
0.5026565507 0.4985906295 0.2200225629
0.5123880894 0.9993544516 0.4800060983
0.5225084452 0.9976524714 0.7269448171
0.5025676782 0.9991122468 0.2212649264
0.5226121298 0.7491502666 0.7273864024
0.5024454785 0.7508064242 0.2216296739
0.5025158359 0.748600396 0.7236370938
0.5126435978 0.7530255446 0.9729587066
0.512495477 0.5005177948 0.9716441342
0.5126658159 0.7515592232 0.4723963906
0.5224047606 0.7508522468 0.2257150316
0.5524658834 0.9975150038 0.4812012482
0.5426121451 0.4985781919 0.7320420253
0.5423751517 0.7503940213 0.2268694484
0.5522029689 0.4964068579 0.4804393517
0.5523362777 0.7508457007 0.4838350218
0.5423529336 0.7523316604 0.72959618
0.532628801 0.9965003617 0.9792353268
0.5426306602 0.499310698 0.2296726351
0.5324806802 0.7535230465 0.9775134221
0.5523770109 0.4982031016 0.9830216656
0.5422233279 0.9997930388 0.2282219767
0.5322547959 0.7527637015 0.4686942955
0.5723807292 0.4973527661 0.989150165
0.5622714825 0.9998126771 0.7328233627
0.5524325562 0.7485349352 0.9845306465
0.5623899791 0.7486724029 0.2332469759
0.5623418399 0.7477101294 0.7336472848
0.5721437359 0.7501059939 0.9840492538
0.5724399776 0.496683757 0.4867409674
0.572158548 0.7505053047 0.4919242707
0.6023863067 0.4991765034 0.2425174885
0.6024973973 0.999302083 0.2378914898
0.6023566826 1.0000090594 0.7341925546
0.5924325868 0.7471471668 0.9904554798
0.5925103503 0.9996621173 0.487203845
0.5924955382 0.9976721096 0.99003889
0.6022900282 0.7501583625 0.2411371875
0.5924140717 0.7506951409 0.4902634659
0.6023270584 0.7475923 0.7449248346
0.5824122126 1.0004934692 0.2360659005
0.5826492059 0.9994002742 0.7331640406
0.5824196186 0.5000072007 0.7407515302
0.5823640733 0.7476315765 0.2399040816
0.5823566673 0.7494448401 0.7368254024
0.6122030148 0.7501452704 0.988178122
0.6124992565 0.9935153502 0.4869150093
0.6124511172 0.748678949 0.4895173072
0.6223604009 0.9953286138 0.7351034977
0.6223122616 0.7454190022 0.2390634958
0.6222604193 0.7466693031 0.73951935
0.6224640855 0.9989551409 0.2370277602
0.6425640823 0.9980059596 0.7387417156
0.632536302 0.4985624813 0.4892053277
0.6424344766 0.997619741 0.2400790493
0.6523252451 0.9970502322 0.4871797753
0.6525474264 0.9962974333 0.9898074512
0.6324659446 0.9990009634 0.4912753163
0.6325437081 0.9981368812 0.9927883829
0.6324141023 0.748678949 0.9915200983
0.6326622047 0.7481618088 0.4961466402
0.6524215237 0.7478541432 0.9891594225
0.6425159431 0.7441556092 0.2376137632
0.6523993056 0.7504922125 0.4916956092
0.6425714884 0.7466300266 0.7412153335
0.6725067085 0.7465056511 0.9912145991
0.6623752436 0.9952304226 0.2438829774
0.6723622907 0.9971876999 0.9919552032
0.6824715374 0.7510224448 0.2449133429
0.6724437571 0.7454190022 0.4883434496
0.6824678344 0.7472977265 0.7427428296
0.6725696598 0.9984118164 0.4906569118
0.6625270674 0.7482730921 0.2405372981
0.6624085708 0.7493662871 0.74103944
0.7024974739 0.5006585354 0.2399262997
0.6923548999 0.9986802056 0.4947533786
0.6925326449 1.0000745202 0.9934364116
0.692554863 0.7487378637 0.9926587772
0.7025641282 0.7477821363 0.2467592988
0.6925104268 0.7454190022 0.4940701713
0.7024826618 0.7471798971 0.7491721995
0.7126363448 0.4975079082 0.4965113877
0.7126511569 0.7500208949 0.4982406984
0.7226085798 0.9982678027 0.7439500144
0.7323697426 0.9972924371 0.9933068058
0.7325882208 0.7495888538 0.9963803131
0.7225048952 0.7438413975 0.2480146229
0.732436397 0.7490782597 0.4976852453
0.7225123013 0.7478999657 0.7480686993
0.7224530529 0.9953678903 0.2475924785
0.732432694 0.9996162947 0.4949311236
0.7125437693 0.7491437205 0.9985002925
0.7125622844 0.9984314547 0.4999311274
0.7125696904 0.9980190518 0.9970561144
0.7427233887 0.4984551256 0.247374926
0.7425419407 0.7479654265 0.2430303569
0.7426493283 0.7502369155 0.7440638823
0.7525030667 0.7491306283 0.9941122128
0.7623419929 1.0013640975 0.7406052609
0.7523623519 1.0004738309 0.9936493353
0.7626012044 0.751120636 0.2421120077
0.7524178972 0.7519978104 0.4952292168
0.762541956 0.7491829969 0.7403006874
0.7524327093 0.9994460967 0.4925871114
0.7424419592 0.997953591 0.2433062319
0.7623160718 1.0019008759 0.2457122697
0.7824234747 0.997279345 0.2377591068
0.7723142279 1.0014950191 0.4883841828
0.7824012565 1.0012004456 0.7379298283
0.7723845853 0.9990075095 0.9926495196
0.7824049596 0.751375933 0.2395411855
0.7726067665 0.7499227037 0.4895117527
0.782475317 0.7509635301 0.7405154626
0.7724290215 0.7510486291 0.9899833447
0.7725882514 0.502560171 0.4933665973
0.7725993605 0.4996268736 0.9967413576
0.7925549396 1.0012004456 0.4871464481
0.7925401275 0.7516574143 0.9852157054
0.7924068187 0.9984052703 0.984975009
0.8126067972 0.7518145202 0.9970375993
0.7926067819 0.499851404 0.9919922334
0.8024938474 1.0019401524 0.2362806757
0.812577173 0.5039256828 0.9993056995
0.8025530957 0.7494121097 0.2435321162
0.8124216461 0.7504791203 0.4961577492
0.8025530957 1.0018419612 0.7382631002
0.8025493927 0.7489604303 0.7400340699
0.8122809313 0.9992824448 0.994936135
0.7925216124 0.7512515575 0.4858355788
0.8222976026 1.005193553 0.7442499591
0.8223975841 1.0021823572 0.2437265248
0.832347601 0.7468591393 0.9918348551
0.8225716261 0.4990698023 0.7464958412
0.8224346143 0.7488229627 0.2460770172
0.8322698376 0.7514348477 0.4938646536
0.8224309113 0.7510486291 0.7445795279
0.8424790659 0.7493008263 0.2491338609
0.8425420172 0.7492615499 0.7506895122
0.8624235359 0.5024017559 0.7468355933
0.842504987 1.0018943298 0.7467198739
0.8624975963 0.9991580693 0.2505789648
0.8624679721 1.0011480769 0.7451229462
0.852651264 0.9997275781 -0.0059780266
0.8624753782 0.7494121097 0.7463217992
0.8524327858 0.4989048412 0.4942238466
0.8524401918 0.7514086634 -0.0011137848
0.8525327673 0.4994750046 1.0848981022e-04
0.8625679537 0.5025987929 0.2509418608
0.8625012993 0.7478934196 0.243150705
0.8524179737 0.7477624981 0.4971362725
0.8524438948 0.9984707311 0.4984813948
0.8824865025 0.9999566908 0.7483316137
0.8924661436 0.9975804645 -0.0013380953
0.8825272358 0.7508980693 0.7483390198
0.8725661098 0.7485480274 -0.0059006798
0.8925883433 0.7487771401 0.0055859056
0.8825531569 0.5017772601 0.7509607585
0.8825790781 0.5004752452 0.2536598781
0.8824531754 0.7510028066 0.2504363985
0.8724772373 0.7490520754 0.4978398464
0.8924846587 0.7492157273 0.5064382607
0.8726809035 0.4988806207 -5.7962402869e-04
0.8825864841 1.0009189642 0.2509002018
0.9124957831 0.7502434615 0.5060670329
0.9024605967 0.9983659939 0.2535284208
0.9025272511 1.0004934692 0.7552164551