POSCAR file written by Ovito 3.7.11
1
270.0661170772 0.0 0.0
0.0 15.2772466203 0.0
0.0 0.0 10.8026446831
Sr Ti O 
800 800 2400 
Direct
0.0225756181 0.5010466546 0.780199537
0.0126860028 0.5030581427 0.0268525337
0.01253404 0.2549342435 0.5275734367
0.0224636085 0.2519481033 0.7795478448
0.0025234173 0.24612441 0.7807929102
0.012561811 0.2494803812 0.0285745194
0.0026704924 -8.0130210261e-04 0.2796924706
0.0224869361 0.5008332653 0.2761470425
0.0126599721 2.2388263056e-04 0.5345134039
0.0026520154 6.9451717477e-04 0.7808271611
0.0127123667 9.2387787615e-04 0.0288433425
0.0226040926 0.253071997 0.2807773901
0.002565333 0.251839445 0.2757860198
0.0426001589 0.5016828949 0.2802108622
0.0326433379 0.252914246 0.530804127
0.0425427656 0.2524783036 0.7803217293
0.0525047706 0.5005419825 0.0378528029
0.0324345001 0.2484225989 0.0286769018
0.0326063099 0.0016609871 0.5287823999
0.0325952015 2.4862530896e-04 0.0268494789
0.0426471845 0.2500852022 0.2785473806
0.0525103248 0.2514237942 0.529117503
0.0525429094 0.2519703587 0.0307806459
0.0625641591 0.2526177266 0.2858474449
0.062681908 0.500551801 0.7869960209
0.0626137766 0.5035719787 0.2872147027
0.0724324833 0.4996223141 0.5416440651
0.0723861983 0.250011236 0.5424086927
0.0628603828 0.2525431058 0.7902480023
0.0724117476 0.2522420045 0.0402160205
0.0626663563 0.0015614273 0.2833656452
0.0627100493 0.0014435396 0.7886271029
0.1025125248 -0.0011437722 0.2784409252
0.0925671824 0.2490699669 0.5355538898
0.0826251725 -9.8497394281e-04 0.2871573093
0.1024288415 0.247482639 0.7837236741
0.082456325 0.2493664863 0.7913634699
0.0924616527 0.2489541083 0.0383266684
0.0825903662 -3.8781136328e-04 0.785758361
0.0927675037 2.3769401983e-04 0.0342765491
0.1025232629 0.2475526778 0.282867619
0.0824448463 0.2519310846 0.2910313606
0.1022936895 0.5016180926 0.2886736047
0.0924605418 0.4998415945 0.5336969372
0.1125045224 0.0012315904 0.0303057622
0.1224831899 0.2494947817 0.2784594392
0.1123630755 0.2478609794 0.5300700475
0.122365441 0.499222373 0.7828331514
0.1123727028 0.5011049111 0.0312597878
0.1225168854 0.2495242372 0.7787471149
0.1124023252 0.24983843 0.0320611656
0.1124445371 0.4991137146 0.5308846629
0.152278116 0.2482609206 0.5165770554
0.1323885421 0.248768211 0.526892122
0.1424779233 0.2493691046 0.7735317254
0.1523488395 0.2488938881 0.0166259639
0.1324666711 0.2456171196 0.0270043484
0.1425616065 0.2516849669 0.2720100926
0.1424612607 0.4993683417 0.7713183785
0.1523551342 0.5000216008 0.0234130056
0.1323263351 0.5003763767 0.0266050017
0.1323418869 0.4963363817 0.5262024761
0.1525280548 0.0013343576 0.5172657756
0.1823696362 0.2503201922 0.761975296
0.1825010855 0.2528298067 0.2600213617
0.1623160283 0.5018314819 0.7632749778
0.1623797164 0.5028794456 0.2704836145
0.1723528298 0.2514401584 0.5118346981
0.1824981232 0.4987445382 0.7622474516
0.162327507 0.2478976352 0.7612986099
0.172439105 0.248883415 0.0128973399
0.1624852462 -6.4603852279e-04 0.2647637189
0.1623256556 0.2542790207 0.2624753904
0.1724302183 -0.0011694967 0.5124243686
0.1824651683 5.9586009422e-05 0.2608415312
0.2023706643 0.2490778217 0.257690451
0.1925438114 0.5012122603 0.0125868604
0.2027028052 0.4989271627 0.2648331464
0.1925582523 0.2491733887 0.5128964752
0.202451015 0.2500636015 0.7588408784
0.192461239 0.2503188831 0.011633853
0.1925245569 0.0012145716 0.5137629297
0.2024798968 -8.8619959967e-04 0.762732518
0.1922879481 9.4960240687e-04 0.0113133759
0.2025361793 0.0025203043 0.2592863565
0.2123245231 0.2483951071 0.5077338505
0.2222861578 0.248590823 0.7568524764
0.2124626374 0.2487577379 0.0092107427
0.2224646326 6.1418800415e-05 0.2630039647
0.2123411857 0.0010050443 0.5124215915
0.2125548371 -0.0015748054 0.0102751117
0.2223291102 9.5699902767e-04 0.7617151746
0.2325140236 -8.0974603254e-04 0.5079532412
0.222537948 0.2491720795 0.2600463556
0.2323485085 0.2514643774 0.5128603729
0.2324062722 0.2508098092 0.0120099646
0.2325055071 3.4314495873e-04 1.0118742865
0.2524543258 0.2530065401 0.5072895149
0.2423382845 0.2525215051 0.7607866982
0.2625607399 0.2524337929 0.2518039295
0.2526061405 0.2483957616 1.0071069354
0.2425093537 0.2521961847 0.2605860382
0.2424897289 0.0036535582 0.2597047726
0.2524358118 0.5020553442 1.0056073026
0.2525272709 0.003267363 0.5079217674
0.2422457146 0.002410075 0.7598813644
0.2626740455 0.2512444425 0.7574208558
0.2525468957 0.0030671306 1.0035800212
0.2623707864 4.4866135446e-04 0.2544884573
0.2625151955 0.0017436591 0.7554268996
0.2725979116 0.2507168605 0.5055112466
0.2725742137 0.2500557466 1.0104394526
0.2723764844 0.0010098227 0.5079699038
0.2726130931 0.5004477247 1.0056535875
0.2824299484 0.2500105814 0.75232303
0.2822792446 9.6524658713e-04 0.753089509
0.2825199264 0.2528088605 0.2522815903
0.3024842968 0.2512758618 0.2479650548
0.3125725671 0.2494862723 0.4938492876
0.3125188766 0.2491360783 0.9938879502
0.3124555588 -7.0411237422e-05 0.9951283872
0.2925696876 0.2513354275 0.4977464814
0.3024617097 0.2497971922 0.7459218198
0.2924100971 0.5016560576 0.4956692123
0.3025516877 0.499980363 0.2429764616
0.2924297219 0.2502953186 0.9971834395
0.302579829 0.0033512786 0.7488942401
0.2924286111 0.0030090049 0.5015020432
0.3125011032 0.5030915257 0.9898889294
0.2924963722 -3.3865329058e-04 1.0017656507
0.3224897683 0.2503345927 0.23876453
0.3326498729 0.2509289406 0.4850856928
0.3225501239 0.2522053486 0.7448128321
0.3325573029 0.2481306615 0.9884448386
0.3224234882 0.0011764757 0.2432689825
0.3325273103 -0.0031988545 0.493616937
0.3225601214 -0.0012305025 0.7422143943
0.3323132886 -7.916799499e-04 0.9920458087
0.3623981437 0.250669077 0.230959034
0.3524824237 0.2474505652 0.4813560506
0.3424208135 0.2505957654 0.7399890133
0.3524379902 -1.4509747038e-04 0.9890095152
0.3524502094 0.2500609832 0.9859917356
0.342258631 -9.6900247845e-04 0.2363558606
0.3423537929 0.0010128337 0.740273203
0.3423497198 0.249833848 0.240269717
0.3624573885 0.2472790683 0.7320752105
0.3624573885 -0.001205498 0.2323642454
0.3722586921 0.2485855864 0.4826103731
0.3823673278 0.2496531872 0.7316697542
0.3725401046 0.2462978705 0.9831868669
0.3825191425 -4.0496105042e-04 0.7349587637
0.3824895201 0.2490306928 0.2312182298
0.3924315299 -0.001038714 0.4806367823
0.3923982048 -0.0029564679 0.979437785
0.3726326746 -7.0149410138e-05 0.478658563
0.3726845137 2.1903882579e-04 0.9805763951
0.3925611278 0.247243067 0.483718435
0.3926055614 0.2488533048 0.9792063602
0.4125043923 -0.0024481957 0.474595669
0.4024105678 0.2475984976 0.7263867887
0.4023661342 -4.4102775889e-04 0.2242495659
0.4024661097 -8.219864581e-04 0.7280326819
0.4025253545 0.4965262065 0.2304498994
0.4024624069 0.2465596978 0.2248540475
0.4127080462 0.2448499656 0.4742966682
0.4125043923 0.2478347967 0.9742260983
0.4124969867 2.0961304354e-04 0.9719025932
0.4126080706 0.4999561439 0.9753832223
0.412600665 0.4995130013 0.4753427083
0.4224760246 0.2495955852 0.2189323494
0.4425044534 0.2474754387 0.7169233653
0.4324698736 0.4985115119 0.9752258534
0.4324402512 0.499625587 0.4698088782
0.4424118834 0.2488762147 0.2168615602
0.4224093742 0.5005282365 0.2211873528
0.4423933695 0.498714428 0.7143786181
0.4323736009 0.249727808 0.4700486343
0.4224908358 0.2490411659 0.7198726431
0.4326105799 0.243845858 0.967153756
0.4424415058 0.4992197547 0.2176206336
0.4323736009 -0.0028961168 0.9710416929
0.4523501905 -0.0011035817 0.9656263523
0.4723526997 0.2507260245 0.4645120272
0.4624588262 0.252592853 0.7213084026
0.4723897277 0.2474996578 0.9613125938
0.4624440151 0.2504975802 0.215822
0.4524279493 0.5021816758 0.9653486425
0.4624106899 0.5017935169 0.714452674
0.4723971333 0.5010021439 0.4618571217
0.452487194 0.2485201296 0.4658579939
0.4524723828 0.2498600307 0.9698290269
0.4725378396 1.6515421092e-05 0.962377148
0.4823465488 5.4213369509e-04 0.2094726289
0.4825316886 0.2484658004 0.7106674898
0.4824243075 0.2504825251 0.2132624416
0.4924181565 0.2503915401 0.4588328623
0.4924033453 0.2509917792 0.9613588788
0.4824502271 0.5025325244 0.2116906043
0.5025379006 0.2484147441 0.2096910939
0.5124576937 -0.0010122694 0.9563415889
0.5223256477 -3.1672525549e-04 0.2075703169
0.5024490335 0.250394813 0.7082356779
0.5025267923 0.5007671539 0.7071239131
0.512361421 0.2527996966 0.4557456553
0.5023564636 2.6072116983e-05 0.7067619647
0.5224885707 0.2507554801 0.203925839
0.5125465609 0.252069853 0.956211991
0.5225181931 0.2507940996 0.7101361385
0.5125095329 0.4974308198 0.4609906672
0.5223848924 0.5027151489 0.2083201333
0.5223700812 0.4997532278 0.7084115608
0.5525997157 0.2523081159 0.4623977301
0.5522812751 0.001502058 0.9617847004
0.5323750386 0.5041074155 0.964765452
0.5325490701 0.5006440951 0.4611461847
0.532404661 0.001814287 0.4553503818
0.5323194967 0.2542534926 0.4542321371
0.5324565002 0.2518492635 0.9570451203
0.5423762932 0.0020335674 0.7053030627
0.5423207513 0.2529391196 0.2055745094
0.5424281324 0.2529273374 0.709355774
0.5526922856 0.2514499769 0.9640896916
0.5623825053 0.5039954844 0.7095501708
0.5623936137 0.5008856308 0.2128375456
0.5622640158 8.1319039155e-04 0.211466585
0.5624195332 0.253585833 0.2142547912
0.5625602395 0.2543320408 0.7130437598
0.5724467074 0.0016941737 0.4653423794
0.5724207879 6.8535321981e-04 0.961053398
0.5725022494 0.2515717266 0.4626846969
0.5722652704 0.2543510232 0.961118197
0.5925195698 0.4985887509 0.9726894375
0.5824886928 0.2520495614 0.7136315788
0.6024504713 0.247655445 0.2197210452
0.5926306537 0.2509387592 0.471327025
0.6023801181 0.2485783862 0.7195745679
0.5924714335 0.2512752072 0.9667649624
0.6024541741 0.4979734568 0.7233717862
0.5824479621 0.2546285602 0.2175354693
0.5924307027 0.5008862854 0.4680926318
0.5823961229 0.5029599575 0.217915006
0.6126109462 3.9832505898e-04 0.969717943
0.6124517259 0.500197025 0.4738097504
0.6223789246 0.2499902898 0.7263201383
0.6223789246 0.4989847647 0.228345785
0.612359156 0.5040655232 0.9677184326
0.622334491 0.5019466859 0.7227062085
0.6123554532 0.2498475939 0.4736745983
0.6124109951 0.2501166215 0.9747352328
0.6224677917 0.2505774375 0.2182510348
0.6423814338 0.2483623787 0.227265494
0.6525011779 0.2490568755 0.4787428016
0.642670252 0.2496400958 0.7281354345
0.65246415 0.2510336715 0.9778826103
0.6324653435 0.5027282403 0.978234376
0.6423666226 0.500513836 0.7297517054
0.6525493143 0.5002736095 0.9788175665
0.6424480842 0.5013392466 0.2300361118
0.6523752828 0.4993912516 0.481822603
0.6324579379 0.2501107304 0.4776662134
0.6324986687 0.2520711622 0.9742816402
0.6625394605 -3.8938232698e-04 0.7339756711
0.6726221767 0.5016416571 0.4864807216
0.6826234313 0.5004667071 0.7335128214
0.6724592536 0.500762572 0.9861861325
0.682738218 0.4986784268 0.2381831909
0.6625616773 0.2481561897 0.2308007394
0.6623209955 0.2507279882 0.7335961344
0.6823753439 0.001902261 0.2348099428
0.6823531271 0.0022420473 0.7363121359
0.6624468906 0.5005374005 0.7354262418
0.6625172437 0.5013785207 0.232125415
0.6824531026 0.2520384337 0.236434545
0.6725110928 0.2495628568 0.4893013272
0.6826012145 0.2540342122 0.7360538659
0.6724629564 0.2516882398 0.9821778548
0.7025926153 0.2513701196 0.2402160264
0.6924469516 0.2512123687 0.490102057
0.7026000209 0.250381067 0.7392762249
0.6924358433 0.2519998142 0.9903147511
0.7026296433 0.5006827146 0.7337673887
0.7025741014 0.0018010647 0.7385884304
0.7025703986 0.002821602 0.239512495
0.6926394971 0.4983144869 0.9874173125
0.6927357698 0.4992210638 0.4868667382
0.7125050028 0.2505938017 0.4908629818
0.712556842 0.2469445839 0.9932307037
0.7224581211 0.4995071101 0.7417376592
0.7225210686 0.2505217992 0.2402808254
0.732344589 0.4988132678 0.9898981864
0.7324927009 0.2487165001 0.4941362543
0.7225914218 0.4998298123 0.2428163156
0.7327333827 0.500906577 0.4935058531
0.722569205 0.2505519093 0.7438047456
0.7325297288 0.2487917754 0.9902962371
0.712556842 0.5003822678 0.9907405727
0.7627371465 0.4984087447 0.7438973155
0.7424902527 -0.0045479851 0.7408193656
0.7526692416 0.4971977935 0.9924068314
0.7623964892 0.5005027084 0.2449944859
0.7624520312 0.2482223011 0.243387472
0.7525396437 0.2480069481 0.4921941373
0.7623187305 0.2468359256 0.7428420184
0.752606294 0.2495910032 0.9902684661
0.7424161968 0.499922761 0.743397438
0.7526322136 0.5003829224 0.4906065631
0.7424236023 0.2486804988 0.2397939076
0.7424569275 0.2496099857 0.7424097169
0.7825434075 0.5006218398 0.2479844945
0.7824841628 0.4990574218 0.7508039576
0.7823545649 0.2472535401 0.2478271256
0.7724866109 0.250731261 0.5022787049
0.7823989984 0.2498345026 0.7444018216
0.7723310935 0.2521824388 -0.0020043443
0.7927816411 0.5024775407 0.5001727391
0.8125990105 0.4991143692 0.5047142196
0.802723651 0.5012692078 0.7501976246
0.8024274272 0.5000183279 0.2510152338
0.7924409838 0.2536853274 0.4999579769
0.7924076586 0.2487361371 1.0031819706
0.8124508986 -0.0012032724 0.5063860324
0.8026199727 0.2487610107 0.2527462914
0.8125508742 0.2482772848 0.5068618418
0.8025014832 0.2498475939 0.7544410299
0.8124953322 0.2496675877 1.0057554145
0.8324719219 7.7430903978e-04 0.5062045953
0.8224151253 0.2468575264 0.2565074074
0.8326163309 4.3917011539e-04 1.0106523635
0.8325348694 0.2491799344 0.5071238147
0.8227817022 0.2479454187 0.7584761529
0.8327311176 0.2468719269 0.0074896827
0.8326533589 0.496948403 0.5069034983
0.8327089009 0.4961229925 1.0023488412
0.8225262092 0.4979138911 0.2531489705
0.8425805576 0.4993035394 0.7535903123
0.8427434807 0.4966643204 0.2557381513
0.8427249667 -0.0045850337 0.2582301337
0.8426435051 0.249843012 0.2530017843
0.8426916415 0.2477863586 0.7539874373
0.8624645773 0.2452989994 0.2549161304
0.8525818122 0.2483820157 0.5096657848
0.8626830423 0.2473981997 0.7590926686
0.8524818367 0.2516110007 0.0068610403
0.8926053446 0.4984342728 0.0139555067
0.8725176711 2.5634921386e-04 0.5157781769
0.8824781949 0.2478675251 0.2620458659
0.8724769403 0.2507993361 0.510523908
0.8925646139 0.2509446503 0.51479601
0.8825300341 0.248763629 0.7619901072
0.8725102655 0.2499765439 0.012780887
0.8923942852 -0.0020830121 0.5112403992
0.8725880242 3.6847674852e-04 0.0104640469
0.8925683167 0.2499811259 0.0144906535
0.8724695347 0.5005131815 0.5124123345
0.8926238586 0.4993945244 0.513195476
0.9124671476 0.4980480776 0.5119911413
0.9025732741 0.498920617 0.7661937075
0.9128041021 0.4974903855 0.0136735387
0.9025288405 0.4961668486 0.2661735589
0.9126004483 -0.0019857433 0.5129594227
0.9024881098 0.2477523211 0.2616070845
0.912715235 -0.0011632783 0.0132409595
0.9123560637 0.2491282235 0.5145858763
0.9026214105 0.2497919556 0.7634573405
0.9125967455 0.247487221 0.0115387837
0.942570887 0.2479624375 0.766265912
0.9324696568 0.2509112673 0.0146209919
0.9325103876 0.4995418023 0.5108034692
0.9327066358 0.4988139224 0.0130598001
0.9226276225 0.5014695056 0.760608964
0.9226350281 0.499184408 0.2612830898
0.9424079639 0.4996144593 0.7643219436
0.922527647 0.2511881496 0.2643656682
0.922509133 0.2468431259 0.7623011422
0.942552373 0.2495903486 0.2625985084
0.9324770624 0.2517065677 0.5152431228
0.972645004 -0.001452532 0.518384946
0.9626696689 -0.0027805855 0.7729179868
0.9624734207 0.2475376227 0.2712445393
0.9526387919 3.4170490867e-04 0.0183978448
0.9726931403 -0.0011230224 0.0231704724
0.9525314108 0.2504033224 0.5169639976
0.9725376228 0.2485220933 0.5234457437
0.9626585605 0.2504105226 0.7693919984
0.9527239563 0.2496682423 0.0181157843
0.9526906311 2.975870112e-04 0.5178471147
0.9726338956 0.2489187617 0.023958983
0.9726116788 0.4964018385 0.5244140251
0.9627400221 7.2796561039e-04 0.2767330101
0.9527202535 0.4992040451 0.5214665988
0.9625067458 0.5004451064 0.7666454487
0.9826684754 0.25046747 0.2690321181
0.9824685243 -5.1813589423e-04 0.777016983
0.9926919467 0.0013219208 0.0295794585
0.9925697544 0.2501912423 0.5246972891
0.9824351991 0.2501696415 0.7718589869
0.9923809118 0.2476724638 0.0237352415
0.992414237 0.5006787872 0.0271733811
0.0226736681 0.751524381 0.7740528941
0.0026277991 0.500901995 0.2786177338
0.0025758119 0.7509745437 0.7779324996
0.0124617244 0.5037107472 0.5276160188
0.0024187392 0.4986699174 0.777423365
0.022380962 1.0028720286 0.2803904478
0.0225171509 1.0053855706 0.7853640131
0.0124790535 0.7511643685 0.0296249104
0.0227557591 0.7501825162 0.2770644105
0.0024866856 0.750535983 0.2811948805
0.012467834 0.7513214649 0.5290091962
0.0527513768 1.0040895255 0.5334025648
0.0526573258 1.0023418284 0.0303754673
0.0325692819 0.7524473222 0.028812887
0.04280011 0.752061127 0.2817040151
0.0325359568 0.750660351 0.5297108762
0.0428208456 0.7512232797 0.7804254077
0.0425612796 0.5023983379 0.7838514205
0.0323315624 0.5023629912 0.0321345736
0.0325055938 0.5008836671 0.5284759934
0.0427049481 1.0021781863 0.2792768316
0.0526343684 0.5041342528 0.5311068307
0.0527239761 0.7502872471 0.0338983084
0.052672137 0.7532982609 0.539659366
0.0425494306 1.0028720286 0.7798866507
0.0725854088 0.5005164543 0.0442466076
0.072625399 1.001320702 0.5393548109
0.0726313235 1.0045019035 0.0373218219
0.0724839522 0.7539462834 0.0344682614
0.0625611968 0.7531018904 0.2853947779
0.0726976036 0.7508436301 0.5340412973
0.0625130605 0.7514851069 0.7902248598
0.0925927317 1.0007577733 0.5380505007
0.0922983593 0.7479897127 0.0313563382
0.1025188195 0.7517731169 0.2786936411
0.0824692848 0.7521658579 0.2885717777
0.0925105296 0.7528400631 0.5329591549
0.1025158573 0.7498748691 0.7797931551
0.082444476 0.7488144686 0.7896694403
0.1025987999 0.9985126044 0.7832543445
0.1024584639 0.4990744405 0.7811780011
0.0825603736 0.5012129149 0.7892630583
0.092650125 0.498809995 0.0347163488
0.082456325 0.5008587935 0.289260498
0.1123956601 0.751092366 0.0303443638
0.1224076529 0.7515832922 0.2798785362
0.1123993629 0.7480748066 0.5303884881
0.1225346588 0.7499534173 0.775662685
0.1224002473 0.9996450074 0.2793536647
0.1224428294 0.9978973102 0.7791627539
0.1223447053 0.5003253204 0.280008134
0.1125126685 0.9997693753 0.5264163126
0.1424479306 0.7477278854 0.2725803233
0.1525121328 0.7516094749 0.5190755176
0.1324292729 0.7493643059 0.523377242
0.1424620013 0.7488930168 0.7721885358
0.1525280548 0.5004575432 0.5183136671
0.1326099694 0.997242742 0.0274200799
0.1425182838 0.5006539136 0.2718175471
0.1425664201 1.0024858334 0.2688988174
0.1324955529 0.9963328922 0.5274456902
0.1425449439 0.9981853202 0.7690383813
0.1525317576 0.9996384617 0.0180833848
0.1526206247 0.7487817402 0.0168605361
0.1324366785 0.7511316401 0.0239639818
0.1724898333 0.7516945688 0.0141921154
0.1625281986 0.7492726664 0.2658403071
0.1723983742 0.7516945688 0.5145044148
0.1624085983 0.7486966464 0.7657280808
0.1824485057 0.999219538 0.7622613371
0.1725246396 0.5041002153 0.012569735
0.1724387347 0.5013503742 0.5135518702
0.1824114778 0.750660351 0.2583301092
0.1823740795 0.7499141432 0.7629778283
0.1724861305 1.0005614029 0.0141349998
0.162405636 0.9985126044 0.7668463255
0.1824018505 0.4986758085 0.2652978474
0.2025572852 0.4973954731 0.7617910819
0.1924023646 0.5004994355 0.5133037828
0.1924275436 0.751917122 0.0132728035
0.2023851052 0.7502937928 0.2597732743
0.1924616093 0.7506930794 0.5081744833
0.2023432636 0.7471845938 0.7627834315
0.2326047421 0.7497374098 0.0108403436
0.2323111103 0.5026765294 0.0093462651
0.2323770201 0.7540510143 0.5097870514
0.2126603668 0.7516749317 0.0132530861
0.2223709518 0.7489126539 0.2605175365
0.2124548615 0.7507978103 0.5121975722
0.2224250127 0.7514523785 0.7555296522
0.2324884743 0.5007599537 0.5063777011
0.2224672246 0.4992865206 0.7573097719
0.2126803619 0.5001885156 0.0079855797
0.2223635462 0.4980919337 0.2630289585
0.2124130199 0.5013680476 0.5125863659
0.2523047328 0.7543652071 0.0051526623
0.2423708691 0.7499730544 0.2572979545
0.2524695073 0.7519236676 0.5065924633
0.2422216464 0.7513280106 0.7590371267
0.2425748932 0.4950364093 0.7586705498
0.2626203549 0.5005753655 0.755031626
0.2623245014 0.7514981983 0.2573562736
0.2424467764 0.5019866145 0.2557742536
0.2623111713 0.751668386 0.755268605
0.2625629615 0.5007102065 0.2560167868
0.2524365524 0.5001826245 0.5038042572
0.2722539218 1.001896722 1.0081437185
0.2826106449 0.4982320113 0.2494674646
0.2726401235 0.5030934894 0.5037264985
0.2824710495 1.0004828547 0.2466662987
0.2825084477 0.500604821 0.7547752073
0.2826602624 0.7502807014 0.2511050266
0.2823788498 0.7512756451 0.7521758439
0.2722616976 0.7537630043 1.0063848899
0.2725575511 0.7485722784 0.502613808
0.3124126063 1.0025120161 0.4934984475
0.2923871397 0.7488733798 0.9987386142
0.3023317416 0.7504116151 0.2517493133
0.2922249572 0.7527418779 0.5009818002
0.3024443066 0.7489257452 0.7472492725
0.302655366 0.5008862854 0.7446656459
0.2925022967 0.4999489437 1.0005992697
0.3024146842 0.9991802639 0.2460210864
0.3125203577 0.7522640431 0.9947673645
0.3122522752 0.7529513397 0.494694451
0.3124818486 0.5010610551 0.492176549
0.3324165967 0.5025783442 0.4870787233
0.3225949277 0.502158766 0.7399584653
0.3323829012 0.7532720782 0.9926937981
0.3322881096 0.5023590638 0.9873062286
0.3224671812 0.753337535 0.2436411136
0.3324862092 0.7493315775 0.4906565509
0.3223312886 0.7527026038 0.7475760443
0.3226149228 0.4995555482 0.2436901757
0.3523328307 0.499587622 0.4829056711
0.3523494933 1.0025578359 0.4888301463
0.3624684969 0.7489061082 0.236880732
0.3624425773 0.750928724 0.7341200801
0.362320385 0.5009635244 0.732535283
0.3626092032 0.4987412653 0.2302555026
0.3522713643 0.7511512771 0.9853159752
0.3424482142 0.750804356 0.2406279626
0.3524901996 0.7492268466 0.4823817253
0.3422727016 0.7500385112 0.7428975604
0.3624240633 1.0002472101 0.731956721
0.3424700607 0.4988250501 0.7382329619
0.3523576395 0.5012266608 0.9888799173
0.34233676 0.5000268373 0.2351404175
0.372314234 0.4999607259 0.9798358357
0.3825598732 0.4975348961 0.2335954254
0.3722883144 0.4978706896 0.4842331238
0.3925796418 0.4997348999 0.9840199962
0.3822932718 0.499601368 0.7340164018
0.372588241 0.7479111645 0.9779103812
0.3824302753 0.7469816776 0.2289956259
0.3724290207 0.7525062333 0.4848200171
0.3825413592 0.9993111776 0.2368761035
0.3825228453 0.7483824536 0.7305015218
0.3925870474 0.7462223785 0.9802061154
0.3924426383 0.7480289868 0.4803350043
0.3924685579 0.4961125194 0.4771607816
0.40262533 0.4944767534 0.7257915641
0.4026142216 0.7508436301 0.2257677126
0.4024105678 0.7478849818 0.7237541
0.4123710916 0.747983167 0.9714490005
0.4124599588 0.7496523159 0.4750640728
0.4224723218 1.0006268597 0.7151034406
0.4423119079 0.9979496757 0.2164551783
0.4323106533 0.9980085868 0.4681879789
0.4422600688 1.0014908897 0.720048526
0.4224834302 0.4986188611 0.7219388038
0.4322921393 0.7465169342 0.9676258627
0.4225760001 0.7475249693 0.2181982699
0.4323365729 0.7465889367 0.4713288764
0.4224575106 0.7454958078 0.7201383188
0.4423859639 0.7485460957 0.2196405093
0.4425155618 0.7495148566 0.7148340621
0.4225352693 0.996378712 0.2173679177
0.4724156473 1.0008297758 0.4657719038
0.4725415424 0.4986561715 0.9620438962
0.4624514207 0.501314373 0.2162644842
0.4723193746 0.749959963 0.9609793421
0.4623810675 0.7479962584 0.2191045295
0.4725045144 0.7488537427 0.4641843296
0.4624699346 0.7480944436 0.7181175173
0.4523872185 0.9976223916 0.4658080061
0.4624366095 1.0006661338 0.2143020018
0.4624440151 1.0003912151 0.7139611277
0.4523353793 0.7510661833 0.9657929782
0.4523724073 0.7499534173 0.465928347
0.4524538688 0.4997735194 0.4668290524
0.4926069992 0.4981194255 0.9580633895
0.4925292404 0.4972468861 0.4593503282
0.4824243075 0.4984565282 0.7156023925
0.4822761956 0.9963132552 0.7135667799
0.4923663174 0.9995206394 0.4595937871
0.49255516 0.9984733303 0.9614977337
0.4926699467 0.7490239305 0.4587976857
0.4925958908 0.7495999505 0.9604702075
0.4825168774 0.7488668341 0.2095633474
0.4826427725 0.7488864711 0.7092715354
0.5022824077 0.4995601302 0.207250025
0.5124465853 0.9988333428 0.4613739067
0.5225181931 1.0033825918 0.708512462
0.5023823832 1.0012028797 0.2078952374
0.5225070847 0.7526633297 0.7077533886
0.5026934181 0.7484544561 0.2048441327
0.5027415545 0.7506341683 0.7065684936
0.512361421 0.750228336 0.957406143
0.5126021028 0.501046 0.9568229525
0.5124650993 0.748002804 0.458993934
0.5227218469 0.7527287865 0.2127005421
0.5522886807 1.0026952952 0.4572526937
0.5424836744 0.5013163367 0.7105971367
0.5425392163 0.7526109643 0.2113906777
0.5525108486 0.5030646884 0.4603213867
0.5524886318 0.7521396751 0.4615294242
0.5424762688 0.7505556201 0.7108165274
0.5323157939 1.0029178484 0.9576468248
0.5424873772 0.5012417159 0.2060679071
0.532460203 0.7518320281 0.958711379
0.5524516038 0.5047678749 0.9642470604
0.542379996 0.9985846069 0.211352724
0.5325120421 0.7563485487 0.4589930083
0.572491141 0.5011245482 0.9659225761
0.5624380472 0.9999068346 0.710103739
0.5524145758 0.751648749 0.9639508367
0.5623862081 0.7499468716 0.2111703613
0.562497292 0.7532655325 0.7146424424
0.5724689242 0.7530298879 0.9652653296
0.5725763053 0.5013241915 0.4666420611
0.5725170606 0.7518647565 0.463730737
0.6025060132 0.5023008073 0.2240773858
0.6024467685 0.9976878484 0.2163403915
0.6025800692 0.9992064467 0.7222757583
0.592497353 0.749940326 0.9686163609
0.5924603251 1.000351941 0.4676788443
0.5924195943 1.0002275731 0.9658300061
0.6024097405 0.7504377978 0.2202338826
0.5925973286 0.7528335175 0.469670949
0.6024689853 0.7504443435 0.718146214
0.5823442837 1.0000377483 0.2161996853
0.5823887173 1.0010588747 0.7167576652
0.5824035285 0.5020926546 0.7144230517
0.5823887173 0.7526633297 0.218749061
0.5824220425 0.7481926288 0.7211019717
0.6123887784 0.7506930794 0.9687737297
0.6123961839 1.0002341187 0.4686702682
0.6122851 0.7508305387 0.4727248308
0.6225603616 1.0021716407 0.7222692784
0.6225455504 0.7496261332 0.2163876022
0.6223493022 0.7538480982 0.720931643
0.6224566833 0.9975438434 0.2215326386
0.6427294967 1.0008559585 0.7244002381
0.632639375 0.5005419825 0.4708188161
0.6426295212 1.0021323666 0.2279810595
0.6525085835 0.9999264717 0.4871296368
0.6526529926 1.0006923165 0.9775401015
0.6326986197 0.9979693127 0.4735570345
0.632583833 0.9991278985 0.9750777416
0.6323727736 0.7511905512 0.9746519199
0.6325060743 0.7522640431 0.4760851191
0.652627073 0.7531149818 0.981900145
0.6426258184 0.750823993 0.2295325315
0.6525678283 0.752800789 0.4783151286
0.6425665737 0.7513149192 0.7287991609
0.6726258795 0.7475446063 0.9861676185
0.662639436 1.0019229047 0.2302508741
0.6726925298 1.0006072226 0.9859732216
0.6826715676 0.748991202 0.2368381499
0.6725629319 0.7487621032 0.4883534112
0.6826974872 0.7513672847 0.7378080659
0.6725481207 0.9990100762 0.4835758774
0.6625505689 0.7506341683 0.2333112358
0.6626061109 0.7528727915 0.731682714
0.7025815069 0.498052005 0.2397346628
0.6926765251 1.0006988622 0.4870435467
0.6926357943 1.0000312026 0.9856492269
0.69245806 0.7492988491 0.9864545853
0.7025666958 0.752205132 0.2394227022
0.6925247104 0.7509876351 0.4852847182
0.7026481573 0.7487817402 0.7378339855
0.7124198385 0.5021679299 0.4905001077
0.7126457091 0.7504377978 0.4923894599
0.7224581211 0.9983620537 0.7392984417
0.7325001065 0.998767886 0.994110118
0.7325556484 0.7456398128 0.9958596896
0.7224840407 0.7517207515 0.2403474757
0.7325704596 0.7504967089 0.4942186416
0.7225951246 0.7506538053 0.742507841
0.7224914463 0.9996188246 0.2468107078
0.7325667568 0.9996646444 0.4922524564
0.7126975483 0.7517665713 0.9918143839
0.7125679504 0.99880716 0.4886931428
0.712575356 0.9986958834 0.9910923385
0.7424828471 0.4974681302 0.2426404327
0.7423902772 0.7483039054 0.2415286679
0.7425346863 0.7484610018 0.7418218978
0.7525988884 0.7501170594 0.9909627406
0.7623261361 1.0005417658 0.7506576971
0.7524766961 0.9997104642 0.9909164556
0.7624335172 0.7498814148 0.2432301031
0.7525914828 0.7483169968 0.492450556
0.7625816291 0.7512101883 0.7422856732
0.7524174514 0.9996253703 0.4938937211
0.742612445 1.0002210274 0.2413463052
0.762455734 0.9975634804 0.2443798216
0.7825026767 1.0015694379 0.2475410845
0.7725791809 1.0026494754 0.4961394675
0.7823471593 1.0003126669 0.7486128275
0.7725643697 0.9985126044 0.9946562805
0.7825952467 0.7521462208 0.2477114132
0.772705076 0.7516552947 0.4948018321
0.7824508376 0.7490435675 0.7512094139
0.7724755026 0.7481468091 0.9969520147
0.7725791809 0.5003960138 0.4953924282
0.7725680725 0.4976690826 0.992869681
0.7926446376 0.9991802639 0.5022833334
0.7923002775 0.7474856952 1.0027468919
0.7924854174 1.0013468847 0.9994143746
0.8124286819 0.7498094123 1.0027654059
0.792711288 0.4980657509 1.0017101088
0.8024015077 0.9986566094 0.2504227863
0.8124286819 0.4977423942 0.9999420232
0.8025088888 0.7488668341 0.2564787107
0.8124879266 0.7494428541 0.5043180203
0.8025125916 1.0014450699 0.7523406183
0.8024237244 0.7507650819 0.7533098254
0.8124508986 0.9996253703 1.0135590591
0.7924335782 0.750516346 0.5000403641
0.8226521043 0.999363543 0.7594879422
0.8225595344 0.9988333428 0.2540996636
0.8327755512 0.7483759079 1.0070976784
0.8225706428 0.4966957397 0.7546520893
0.8226076707 0.7477082484 0.2566721818
0.8325570862 0.7466347565 0.503097023
0.8225188036 0.7484806388 0.7560036102
0.84261018 0.7462420156 0.2550901618
0.842573152 0.7520873097 0.7543280946
0.8625460388 0.4985448949 0.7600341047
0.8426879387 0.9969612777 0.7577096739
0.8624238465 1.0001752076 0.2616098616
0.862616392 1.0012486995 0.7580466285
0.8525336758 1.0002341187 0.0097714387
0.86265342 0.7511840056 0.7579670183
0.8526151374 0.4977986871 0.5071626941
0.8526188402 0.7491744811 0.008398997
0.8525744066 0.5013444831 0.0042505684
0.86256085 0.4964090388 0.2580551765
0.8624941997 0.7508567215 0.2574923514
0.8526336514 0.747551152 0.5092612542
0.8526558681 1.001196334 0.5056556557
0.8823967334 0.9989969848 0.7663723675
0.8927978901 1.0003977608 0.0110994468
0.8824189502 0.7493446689 0.7641682776
0.8724213984 0.7491941182 0.0105409725
0.892634967 0.7506210769 0.0150950425
0.8824744921 0.5008515932 0.7616661125
0.882441167 0.4988734881 0.2669067127
0.8825633593 0.7480682609 0.2661605991
0.8724769403 0.7488602884 0.509643568
0.892634967 0.7472565963 0.5167908919
0.8725546991 0.5008424293 0.008778256
0.8825707649 0.9983293253 0.2677074425
0.9126745042 0.7514261958 0.5121448074
0.9025658685 0.9979758584 0.2656033281
0.9025769769 0.9972820161 0.7630500329
0.9027065748 0.7477737052 0.7634703003