POSCAR file written by Ovito 3.7.11
1
269.9950296982 0.0 0.0
0.0 15.2732253109 0.0
0.0 0.0 10.7998011879
Sr Ti O 
800 800 2400 
Direct
0.0124756586 0.2495244179 0.5477773646
0.022411286 0.0010829183 0.2987820402
0.0024485111 1.0009812822 0.3027487799
0.0223677667 0.2504796844 0.8013857369
0.0024929563 0.2504502211 0.7974412198
0.0124606213 0.0012376335 0.5513302078
0.0124412506 0.2510132979 1.0488523294
0.0224901393 -5.1288744289e-05 0.8003551623
0.0024674003 -2.1955706664e-04 0.7958726724
0.0124366209 0.0018475243 1.0484078768
0.0224461014 0.2500121996 0.2996329818
0.0025079566 0.2507265216 0.2981412877
0.0324758416 0.2508005073 0.5476690293
0.0424526919 1.0009092608 0.2955616106
0.042444914 0.2503232014 0.793866154
0.0323688026 -0.0010394232 0.5484542289
0.0325728804 0.2495303106 1.0484726928
0.0424141727 1.000202141 0.7971764001
0.0323643581 9.312149309e-04 1.0494078952
0.0424912112 0.2502001102 0.2985616658
0.0726502849 0.2498733946 0.5294103598
0.0524350979 0.2497378633 0.5432911709
0.0623712068 1.0001366669 0.2843984421
0.0625900997 0.2511337702 0.7875428894
0.0723610203 1.0014919799 0.5332743198
0.0524380609 9.4607754148e-04 0.5411253903
0.0725365791 0.2491328831 1.0328705537
0.0525836192 0.2492206183 1.0410929273
0.0625078759 0.9996783485 0.7859873052
0.0724095397 0.0011028879 1.0350002225
0.0524795432 1.0004509424 1.038565103
0.062626767 0.2494654913 0.2876059086
0.0923562032 0.2498727399 0.5276445866
0.1024567595 0.9978188854 0.2799946573
0.0825675045 1.0011777044 0.2794529807
0.1025586132 0.2502020744 0.7757648948
0.0824849104 0.2486588509 0.782387239
0.0924747239 -0.0010000078 0.5299288879
0.092436575 0.2499748794 1.0277686079
0.1024156476 -0.0019360249 0.777629744
0.0823830566 1.0015901909 0.7786640223
0.0924795388 1.0002217832 1.0307779226
0.1025845396 0.2496488186 0.2762473661
0.0826026903 0.2518841029 0.2809520824
0.1124513879 0.2494497775 0.5270140194
0.1225241659 -4.7745937083e-04 0.2804039241
0.1226152787 0.2492991872 0.7755991511
0.1125543528 1.0001235721 0.5285196027
0.112469166 0.2521761172 1.0265926604
0.1225637963 1.000477132 0.7779436387
0.1126406507 6.1490976931e-04 1.0304723614
0.1225482405 0.2486274234 0.2779529531
0.1524999029 0.2497653624 0.5233889527
0.1325206463 0.2514009043 0.5283297844
0.1427071301 -0.002483519 0.2766964485
0.1424689775 0.2495290011 0.7779917877
0.1526424982 0.9989384917 0.5235028437
0.1327232426 -1.0196566316e-04 0.5293733221
0.1524791618 0.2468609333 1.0233611194
0.1324610155 0.2513439419 1.0275649005
0.1425678683 -3.3472593007e-04 0.7747676543
0.1525502742 0.9992527672 1.0212870071
0.1325913883 0.0025917024 1.029213079
0.1425189785 0.2487976559 0.278262218
0.1723550833 0.2504004608 0.5157332562
0.1624508269 9.0954301857e-04 0.2694639079
0.162341936 0.2465230872 0.7699101574
0.1723213789 -0.0012817427 0.5148906481
0.1723680465 0.2496311406 1.0191851166
0.1625749032 0.9969546278 0.769218478
0.1725773096 7.6635125943e-04 1.015379491
0.1624234189 0.251010679 0.2686083366
0.1923932299 0.2504803391 0.5105100119
0.2026345295 8.6861512585e-05 0.2593498329
0.1825456412 -0.0010209595 0.2655647621
0.2024419334 0.2478875665 0.7599090474
0.1823589711 0.248012622 0.7657748961
0.1925847149 -0.002450651 0.5145054558
0.1923306362 0.2500331513 1.0094164182
0.2024682302 0.9986242162 0.7603303515
0.1824926773 1.0005818905 0.7636859688
0.1925202693 1.5619853724e-04 1.0124812895
0.2024767489 0.24859796 0.2597405808
0.1822730436 0.2487027185 0.265370314
0.2124095243 0.2498635735 0.5058201107
0.2224948951 1.0007455756 0.2562821838
0.2225115621 0.2488742605 0.752089459
0.2125147114 0.9992003879 0.5124906039
0.2124639698 0.2495270369 1.003916317
0.2224223012 0.9985783844 0.7557182295
0.2126639734 0.9988271858 1.0061293207
0.2224774874 0.2480676202 0.254963641
0.2524221127 0.2487989654 0.4949319473
0.2324021146 0.2505366468 0.5013524359
0.2424993375 1.0010140193 0.2488357504
0.2424774852 0.2484061211 0.7488245841
0.252443965 0.2507101531 0.9939253923
0.2524576689 -6.5109656572e-04 0.4954551051
0.2323932255 -4.4308549175e-04 0.5029607989
0.2324602638 0.2485455808 1.0011477475
0.2424063728 1.0004509424 0.7508514733
0.2523572967 -0.0022348485 0.9952124531
0.2324902643 -0.0015050092 1.0026385157
0.2424526699 0.2499362497 0.2463199634
0.2724980379 0.2493417453 0.4852947329
0.2623659995 0.9987486169 0.2394605778
0.2625111873 0.2496337596 0.7403077607
0.2724054436 0.2499211907 0.9898049461
0.2723702577 -8.3737025331e-04 0.4895401814
0.2624989649 0.9995146634 0.7393216314
0.2723932211 -0.0013840131 0.9892401209
0.2623082206 0.2485279028 0.2434532439
0.2924124785 0.2497169116 0.4873568079
0.3023504392 -8.1563286692e-04 0.2386031546
0.2824397023 0.9997045381 0.2334067627
0.3023711804 0.2487105754 0.7347233986
0.2822996998 0.2500423177 0.7393151498
0.292444331 0.2494563249 0.9849067078
0.2923035876 -2.4378246714e-04 0.4864577173
0.3024126626 -0.0018048804 0.7373438172
0.2823752567 1.0005622483 0.7350234041
0.2923995153 -2.9013809835e-04 0.9864067354
0.3024489596 0.2485390334 0.2360457002
0.2824963701 0.2493142462 0.2382800005
0.3327328504 0.2491780602 0.4768269844
0.3124554401 0.2469853341 0.4839437821
0.3226163679 8.0845107705e-04 0.2314706159
0.3225874784 0.2487930727 0.7307927707
0.332577292 0.2493083535 0.9788510408
0.3124584031 0.2481180352 0.9831381567
0.3325850699 -2.0803363289e-04 0.4777464458
0.3124598846 -9.6334894398e-05 0.481266881
0.3225371071 -0.0021446907 0.7330224414
0.3326113667 -5.5825435518e-04 0.977499164
0.312460255 1.0001628565 0.9836659442
0.3226011824 0.2484368939 0.2300057742
0.352728774 0.2517367863 0.4695055534
0.3426126619 6.6735448768e-04 0.2243130768
0.3427485903 0.2511514482 0.724779697
0.3526772916 0.2513943569 0.9674526828
0.3525554375 -7.722235682e-04 0.4731695097
0.3426248843 1.001236631 0.7238037531
0.3525206221 -1.6233274223e-04 0.9702490306
0.3426389587 0.251979695 0.2247084544
0.3725954361 0.2491937739 0.4626785758
0.3825400636 0.2518022603 0.7119035341
0.3827104371 0.997877812 0.2090118692
0.3625656218 0.999298599 0.2157582897
0.3627322915 0.2508686003 0.7181962425
0.3726324738 0.2506178346 0.9605266294
0.3725509908 -9.7781210212e-04 0.4632832166
0.3826474729 -9.4861067342e-04 0.7103285051
0.3626471048 1.0007259334 0.7155360083
0.3726880303 -1.752966052e-04 0.9669897113
0.3825993239 0.2490883607 0.211985072
0.3625878444 0.2509792514 0.2195935454
0.3927032136 0.2498216701 0.4594979617
0.4024848752 0.2491034197 0.7081025382
0.4025663581 1.0007259334 0.2060794078
0.3925624703 0.9996063271 0.4595470367
0.3926069155 0.2485102248 0.9581469559
0.4026589524 -5.4856419498e-04 0.7071673358
0.3925883967 0.9983099408 0.9592395686
0.4025663581 0.2499067864 0.2069257197
0.4325002425 0.2503880207 0.4486440582
0.4125998762 0.2481749976 0.4532459948
0.4225148735 0.9987748066 0.2030136106
0.4226259867 0.2496239385 0.7013255616
0.432459501 1.0001497617 0.4517774492
0.4326335783 0.2488939028 0.9471745317
0.4125109857 5.6940530081e-04 0.4557793748
0.412570246 0.2490058634 0.9542672549
0.4225296886 1.0000777403 0.6994421936
0.4325372802 0.9993902627 0.9534153874
0.412522097 4.653670268e-04 0.9571191592
0.4224482056 0.2503448078 0.2022802638
0.4525746861 0.2495551907 0.4439050821
0.4425448719 0.2485429618 0.6969449254
0.4424745002 1.000058098 0.1984598231
0.4525080182 -0.0012568625 0.4460745665
0.4525709824 0.2489659242 0.9455911692
0.4426004284 -8.5328044877e-04 0.6981597625
0.4524709805 0.9995997797 0.9431466798
0.442559687 0.2497771478 0.1963551547
0.472530609 0.2513072764 0.4434041469
0.482549312 0.2507586039 0.6936161604
0.4825715346 0.0020922664 0.1920837798
0.4625415363 0.2500436272 0.6966467717
0.4625526476 1.2483646471e-04 0.1948801275
0.472530609 0.2499467256 0.9449893063
0.4725194977 1.0004705846 0.4452421437
0.4825382007 0.9996521589 0.6892883029
0.4626045004 -6.1220497682e-04 0.6946087713
0.47248246 9.7462422963e-04 0.9458596927
0.4826419063 0.2505831334 0.1940893722
0.4625230174 0.2492932945 0.1946504937
0.5124313436 2.7987902788e-04 0.4433263677
0.5124313436 2.2710693923e-04 0.9436281701
0.5123313417 0.2491413947 0.4445023153
0.4925087546 0.2500056522 0.4442449032
0.5024570859 0.2496632229 0.693589308
0.5025274575 -7.0341694408e-05 0.1925930484
0.492616164 9.7161242308e-04 0.4430022877
0.4924235678 0.2506702139 0.9442578114
0.5124498624 0.2495460244 0.9427392649
0.5025274575 6.6283677786e-04 0.6935837524
0.492453198 -2.53079783e-04 0.9410540487
0.5024015293 0.2489024144 0.1915078432
0.5224204163 1.0005491535 0.1983783401
0.5325946777 -0.0014246725 0.4463680904
0.5224278239 1.0002086884 0.6956337901
0.5325946777 1.0012300836 0.9465634094
0.5224278239 0.2504548042 0.19497087
0.5325687513 0.249832146 0.4490514731
0.5225093069 0.2503251656 0.6951726705
0.5324798608 0.249867502 0.9440170662
0.5425541203 -6.5842965993e-04 0.1984385264
0.5625693036 -0.001883973 0.2008570894
0.5526506025 7.9201708914e-04 0.4526941328
0.542543009 1.0002741624 0.698801441
0.5627396771 1.0001235721 0.7038941274
0.5526468987 -0.0013425026 0.9492949411
0.5426170844 0.2528118702 0.1994070627
0.5626581941 0.2500933875 0.2047534574
0.5527543081 0.2509746682 0.4510681769
0.5426689372 0.251772797 0.6971106692
0.5626544903 0.2513950117 0.7021524286
0.552609861 0.2491774054 0.9486375216
0.5826178208 -3.4860642982e-04 0.2054405071
0.5726583782 -1.7372522787e-04 0.4532413651
0.5825622642 0.9980349497 0.7034052295
0.5726324518 0.0010194085 0.9548968961
0.5825585604 0.2514212013 0.2023589689
0.5726398593 0.2499729152 0.4516015201
0.5825474491 0.2474691873 0.7038728307
0.5725287462 0.2506577738 0.9507394122
0.60237374 1.002107436 0.2107470863
0.5926068935 0.9990956294 0.4612266973
0.6125294825 -0.0011746926 0.4622794944
0.6025404097 2.8138493115e-04 0.7097146049
0.5925661521 2.6901033468e-04 0.9585543708
0.612407258 0.0015359333 0.9637952081
0.6025330022 0.24988518 0.2084285251
0.592599486 0.2482417812 0.4562090123
0.6125035561 0.2498255986 0.462561907
0.6026144852 0.2495034662 0.7116183436
0.5926180049 0.2481671408 0.9550635658
0.6125961504 0.2491741317 0.9634618686
0.6224000346 -3.1829194217e-04 0.2112295026
0.6323705885 -6.1999638941e-04 0.4652267709
0.6223592931 -0.0012078879 0.7162508363
0.6325557771 0.9976552002 0.9681378806
0.6224518874 0.2506964035 0.2151916126
0.6325076281 0.2486614699 0.4647952815
0.6224963327 0.2491427042 0.7131044821
0.6324557753 0.2484126685 0.9635637223
0.6424411443 0.9990956294 0.2190824249
0.6623896596 8.3811082414e-04 0.2230574981
0.6524783661 -0.0020178675 0.4737639651
0.6424041065 -2.7822182027e-04 0.7157600865
0.6624378087 1.0001039299 0.724374134
0.6524857736 0.997393304 0.9738694676
0.6424670707 0.249829527 0.2175249888
0.6623859559 0.2509851441 0.2190296462
0.6524413283 0.2498877989 0.4669536545
0.6424596631 0.2503624858 0.715103593
0.6624933652 0.2507828293 0.7234426354
0.6522672511 0.2487773589 0.9659526552
0.6825344749 1.0022842159 0.2304604121
0.6725935512 0.9994491893 0.4744047176
0.6824900296 0.0010864539 0.7273973378
0.6725713285 4.6373017541e-04 0.977499164
0.6825233636 0.2524065858 0.226209408
0.6723787324 0.2495172158 0.4710407668
0.6824937334 0.2515253051 0.7261186106
0.6724639192 0.2517014303 0.9754250518
0.7024052111 0.0014256095 0.2318474747
0.6925865118 1.0015770961 0.4799538938
0.7125646573 1.000025361 0.4876392205
0.7025015091 1.0022907633 0.7326465085
0.6924976213 1.0020419619 0.9800547666
0.7125128045 -6.4638243373e-04 0.9860363582
0.7024459526 0.2518507111 0.2317252502
0.6925124364 0.2510277022 0.4799863019
0.7124016914 0.2519672549 0.4888151681
0.7025422506 0.2467424253 0.7343965407
0.6925309552 0.2517367863 0.9811936765
0.7123720612 0.2500082712 0.9866937777
0.7223203925 -8.1144913547e-05 0.238565191
0.7424578002 1.0030829994 0.2444523364
0.7324576161 5.8394054111e-04 0.4927883894
0.7223981717 1.0011122303 0.7390142183
0.742413355 6.184453683e-04 0.7445170974
0.7324613199 1.0001170247 0.9908697805
0.7224722471 0.2513557272 0.238483708
0.7424059474 0.2538895732 0.2424541515
0.732394652 0.2520726682 0.4925578296
0.7224018755 0.2535124426 0.739051256
0.7425355794 0.2538411224 0.7461939801
0.7323650218 0.2500953517 0.9926938882
0.7624211307 0.0016881605 0.2497616934
0.7523209448 7.9849902063e-04 0.4970384676
0.7625285401 0.0035330229 0.751667229
0.7524024277 1.000509869 0.995879132
0.7624396495 0.2529893049 0.2514867251
0.7523690938 0.2510558561 0.497859779
0.7624248345 0.2496998884 0.7501283118
0.7524394655 0.2516045287 0.9957124623
0.7824066838 6.1026111138e-04 0.2602591088
0.7723287205 1.0026705129 0.5054367704
0.792306866 1.0017145916 0.5115192897
0.782436314 0.0017280342 0.7588192125
0.7723842771 1.0003199943 1.0046107742
0.7923216811 8.8597235863e-04 1.0135831616
0.7823770536 0.2494340637 0.2591387179
0.7723990921 0.2500881495 0.5063562317
0.7925068697 0.2497895878 0.5152221357
0.7822955706 0.2501568973 0.7625970599
0.772417611 0.2493522212 1.0071571174
0.7922994585 0.2475942428 1.0127775912
0.8023959406 1.0006604594 0.2630591604
0.8124664964 3.5897168679e-04 0.516970316
0.8023811256 2.1375023193e-04 0.761506299
0.8124627926 0.9995212108 1.0195832721
0.8023329765 0.2488762248 0.2649749364
0.8124368662 0.2482961246 0.519064799
0.8025218689 0.2509288364 0.7696990424
0.812570202 0.2487780137 1.0193517863
0.8223889013 1.0014265058 0.2698741007
0.8424559373 1.0018193501 0.2750714186
0.8324557533 4.1946310587e-05 0.523578771
0.8223555673 7.235312272e-04 0.7699934923
0.8424485298 0.0022142445 0.7762130512
0.8324631608 0.0015586528 1.0237592749
0.8225111257 0.2504692085 0.2721445128
0.8424263072 0.2522448649 0.2778946187
0.8324964947 0.2506486075 0.5247334219
0.8224000126 0.2513177523 0.7679267876
0.8424151959 0.2529257951 0.7770954749
0.8324076042 0.2501326719 1.0231018554
0.8624822319 0.0028725207 0.282597483
0.8525376044 0.9994229997 0.531079835
0.8624896395 1.0033383482 0.7822307546
0.8523227856 0.0020127809 1.0293334516
0.8623933414 0.2533762566 0.285504944
0.8525301969 0.2507815198 0.5336252522
0.8623600075 0.250627001 0.7849419156
0.8524931592 0.2508522318 1.030527918
0.8824937114 1.0015901909 0.285941989
0.8725342688 0.0011575587 0.5344234151
0.8924235238 -0.0014174704 0.5355428801
0.8824492662 1.0013282947 0.7863900904
0.8724379707 0.0016341444 1.0360095004
0.892501303 6.9865108616e-04 1.0334076006
0.8823603756 0.250127434 0.2845678897
0.8723898217 0.2493031156 0.5349845365
0.8925198219 0.2499401782 0.5332511713
0.8825566755 0.2513819169 0.7878956737
0.8724713047 0.2504017703 1.036518769
0.892582786 0.2512182317 1.0363428399
0.9024755607 -6.8835791134e-05 0.288540185
0.9222537026 -0.0010797552 0.294158807
0.9124794486 4.5148652706e-04 0.5443430421
0.9024274117 1.0010533037 0.787403998
0.9223944459 0.9994884738 0.7993273656
0.912423892 0.9992593146 1.0418984977
0.9025533399 0.2519764213 0.2855429076
0.9224462987 0.2508574697 0.2956273525
0.9125238939 0.2509465144 0.5436976599
0.9025607475 0.2528681779 0.7880817882
0.9225463006 0.2480329189 0.7975588146
0.9124127807 0.2490333625 1.0412132999
0.9423429613 0.9978647172 0.3019533949
0.932298332 2.5558815333e-04 0.5492959111
0.942283701 0.9987158799 0.8030191003
0.9323835187 0.9985849318 1.0498523478
0.942509631 0.2496979242 0.3038710228
0.932524262 0.2493443643 0.5485190449
0.9424244443 0.2486483751 0.8003477548
0.9323835187 0.2487289081 1.050417173
0.9623396257 -6.5562088364e-05 0.3029756359
0.9524875925 0.999023608 0.5515098407
0.9723583287 1.0004378476 0.5527672713
0.9623914785 1.000719386 0.8028579862
0.9523727756 0.9988402806 1.0524542476
0.9723768475 -9.8128222706e-04 1.0537505677
0.9625025917 0.2487701568 0.3026867417
0.9524209246 0.2477801891 0.5551756489
0.9725842587 0.2504070082 0.5501329635
0.9625988897 0.249360078 0.8037441136
0.9524283321 0.2487564072 1.0510653331
0.9725324059 0.2492206183 1.0530005539
0.982484441 -1.3575027574e-04 0.3011580099
0.9925438854 1.0004051105 0.5502829663
0.9824770334 1.0015443591 0.8008079484
0.9924401798 -2.4849659913e-04 1.0486115842
0.982436292 0.2490405646 0.2996218705
0.9925290703 0.2506328937 0.5506746402
0.9824103655 0.2495617381 0.8025570547
0.9924624024 0.2499650583 1.0498708667
0.0123146927 0.7485460617 1.0484449145
0.0224597683 0.5015438782 0.7984254972
0.0024487333 0.4986427228 0.7991051393
0.0124430284 0.5007450948 1.0492690037
0.0223373217 0.7504579041 0.3009802288
0.0025255866 0.7500716072 0.2997987256
0.0124634732 0.7512370453 0.5493320228
0.02240936 0.7505495678 0.800556092
0.0025536982 0.7503531456 0.7987264286
0.022586141 0.5006599785 0.2974514602
0.0024262144 0.500971635 0.3000487302
0.0124839551 0.5010541323 0.5507570491
0.0324751009 0.751119192 1.0474726744
0.0425438047 0.4989766405 0.7971597331
0.0323854696 0.4994041861 1.0502690221
0.0424452844 0.7494299614 0.2972060853
0.0324599154 0.7486115357 0.5464208581
0.0424263952 0.7508376536 0.7957948932
0.0425797313 0.5001152343 0.2960199523
0.0324262111 0.4972985405 0.5483792275
0.0723884282 0.7520161866 1.0308612575
0.0524517649 0.7501305338 1.0390928905
0.0625793587 0.500020297 0.7858169317
0.0724906523 0.5000582719 1.0354539346
0.0526054714 0.5018293451 1.0392040036
0.0624671345 0.7509947913 0.2881207329
0.0724602814 0.7503335034 0.5278344049
0.0524413943 0.7512566876 0.5429689427
0.0625012092 0.7523435569 0.786299348
0.062519728 0.5004982576 0.2852049384
0.0725343568 0.4995377532 0.5347234206
0.0525113956 0.4994264473 0.5405827877
0.0924025003 0.7500585123 1.0266389575
0.1023245348 0.5008629481 0.780016825
0.0823960198 0.4996425117 0.7785010563
0.0924725016 0.4993779965 1.0292223384
0.1024704635 0.7519114281 0.2773223859
0.0824352798 0.7521536821 0.2799613234
0.0922687942 0.7526905694 0.5284158971
0.1024634263 0.7496394784 0.7778427109
0.0824304649 0.7493513925 0.7826363176
0.1024737968 0.5004976028 0.2772196063
0.0824560209 0.501001753 0.2770714554
0.0924536124 0.4982858892 0.5315465103
0.1125284264 0.7509293173 1.0269259998
0.1224982395 0.4993099035 0.7747685802
0.1125254634 0.4991900859 1.0265926604
0.1225904635 0.7502221975 0.2773242378
0.1123206448 0.7497376895 0.5252936174
0.1226934283 0.7497638791 0.7753093309
0.1224737946 0.5013422181 0.2789011187
0.1125910201 0.4973456818 0.526094558
0.1526724987 0.7504251671 1.0185091782
0.1326754639 0.7499210168 1.0257685711
0.1425537939 0.4993963292 0.7721759399
0.1524661986 0.4996195957 1.0217036815
0.1324973125 0.4998395886 1.0280000937
0.1427415752 0.7488276001 0.2719065455
0.1527110179 0.7485460617 0.5164860478
0.132599907 0.7506084944 0.5245861969
0.1425804611 0.7496722154 0.774251904
0.1424515698 0.5004956386 0.272563039
0.1525110143 0.5012688872 0.5209620562
0.1327006496 0.4989622362 0.5276631054
0.1726136065 0.7492204444 1.0132127844
0.1624297154 0.4993924008 0.7682638308
0.1725687909 0.5002880858 1.0138794634
0.16264046 0.7503531456 0.2622795164
0.1725880505 0.748212144 0.5087979433
0.1625004574 0.7490174749 0.763422075
0.1625156429 0.5015078675 0.2683962957
0.1724513813 0.4996281074 0.5125239379
0.1925054542 0.7498620902 1.0103793989
0.2024886009 0.4992516315 0.7589284738
0.1825371225 0.4973718714 0.762286869
0.1925606404 0.5006017066 1.0115831248
0.2025815656 0.7511781187 0.2595729851
0.1825234186 0.751119192 0.2613841296
0.1926269379 0.7488799794 0.5093970284
0.2025571207 0.7490960437 0.7616664872
0.1825578637 0.7508900329 0.7618868616
0.2025967511 0.5015026296 0.2561136622
0.1824456394 0.4998808372 0.259931325
0.1924632312 0.4976828732 0.5108711297
0.212635084 0.7501436286 1.0052126372
0.2225689706 0.499361628 0.7539978275
0.2127069372 0.4993956745 1.0058885755
0.2224637835 0.748696652 0.2558664354
0.2124639698 0.7504251671 0.5081247828
0.222634157 0.748938906 0.7574552985
0.2224956359 0.5001951127 0.2534589837
0.2125487861 0.4994284115 0.5106581628
0.2524776693 0.7487031994 0.9955180143
0.2326680454 0.7453640226 1.0019625773
0.2426204508 0.4986931379 0.7483588348
0.2524798916 0.4980082792 0.9957124623
0.232619526 0.4967636174 1.0011570069
0.2426308214 0.7499864909 0.2507709712
0.2525995234 0.7478847737 0.4941143397
0.2324980423 0.7479109633 0.5003783439
0.2424967448 0.7471121799 0.7455226715
0.2426097099 0.4994938856 0.2446940075
0.2526273017 0.4988090269 0.4948217601
0.2325613768 0.4986937926 0.5006977942
0.2725128529 0.7481663121 0.9867400749
0.2625622994 0.4995848945 0.7371289984
0.2724639632 0.4989242613 0.9892123426
0.2624597049 0.7495805517 0.2405883764
0.2725754467 0.7484478506 0.4851336188
0.262432297 0.7501829131 0.7402614635
0.2625034094 0.4994513274 0.2385309311
0.2724680373 0.4985268338 0.487581812
0.2923843299 0.7479960796 0.9841011374
0.3023634024 0.4975728768 0.7340057928
0.282304885 0.5012584113 0.7330872574
0.2922965505 0.4991383614 0.9846937409
0.3023311796 0.7491418756 0.2345493763
0.2824108129 0.7492008022 0.2375281348
0.292388404 0.7495019829 0.4871299519
0.3023782175 0.7488865268 0.7351039612
0.2823674788 0.7488079579 0.7381030904
0.3022741415 0.4981176209 0.2324224853
0.2823656269 0.4985314169 0.2334308372
0.2923172916 0.5003777853 0.4871466188
0.3324458081 0.7507721796 0.9811844171
0.3123935871 0.7482579758 0.9864067354
0.3224404387 0.4989150949 0.7321066838
0.3325765512 0.5008642575 0.9763695136
0.312460255 0.498352018 0.9860363582
0.3225208105 0.7499930383 0.2318095111
0.3326350708 0.7498489954 0.4771029154
0.3124032169 0.7503335034 0.4858114091
0.3224737726 0.7488145053 0.73142056
0.3226052565 0.5001780894 0.2320604416
0.3325584027 0.4982105941 0.4780733037
0.3123913648 0.5001460071 0.4839511897
0.3525409928 0.7504906411 0.9716657233
0.3426367364 0.5010259784 0.7242556133
0.3526346982 0.5018011913 0.9693786442
0.3424300659 0.7493972244 0.2260908873
0.3525928456 0.7499668487 0.4723620874
0.3425930319 0.750844201 0.7259482371
0.3425122897 0.5014718568 0.223660287
0.3526291426 0.5020035061 0.4710407668
0.3725546946 0.7490829489 0.9625822228
0.3825956201 0.5008799713 0.7113016711
0.3626359935 0.5022228442 0.7149350714
0.3725880285 0.5004216529 0.9643137361
0.3825733975 0.7488210527 0.2098683664
0.3625248803 0.7504186197 0.2167018255
0.372465804 0.7488406949 0.4621007874
0.3825845088 0.7497769739 0.7105294347
0.3625915482 0.7491746126 0.7169462195
0.3826511767 0.5001800537 0.2101665201
0.3624656199 0.5015982217 0.2166999737
0.3725769172 0.5012335312 0.465842523
0.3926624721 0.7495478147 0.9586099274
0.4026515449 0.4990375314 0.7082543928
0.3926587684 0.4997590555 0.9619155438
0.4026145072 0.7502418397 0.2056627334
0.3925291363 0.7485853461 0.45851924
0.4025219129 0.7494954355 0.7060367594
0.4026737675 0.5000838068 0.2056331033
0.3926661759 0.5003862969 0.4599535257
0.4325965406 0.7468764733 0.9526005575
0.4125554309 0.7507001581 0.9519709163
0.4226296904 0.4987127801 0.7025496582
0.4326743198 0.4997453059 0.9534709439
0.4125183932 0.5010731198 0.9583043662
0.4224852433 0.7485984409 0.2046025287
0.432459501 0.750536473 0.4515089258
0.4125628385 0.7497638791 0.4516617064
0.4226074678 0.751328709 0.7045774733
0.4225333924 0.4978131665 0.2056914377
0.4325224651 0.499671975 0.4522543099
0.4126295064 0.499740068 0.4598655611
0.4525895012 0.7481597647 0.9483504793
0.4426226511 0.4976534099 0.6989301471
0.4524746843 0.4980933955 0.9457115418
0.4426004284 0.7500061331 0.1991950218
0.452511722 0.7480484588 0.4470023613
0.4423596833 0.7497900687 0.6983968039
0.4426819114 0.4995122183 0.1959949629
0.4525228333 0.4992758569 0.4482820145
0.472563943 0.7490698541 0.9424985197
0.4825270894 0.4999842862 0.6909670375
0.4626082042 0.4996850698 0.6969106655
0.4726269071 0.5004039749 0.9454059807
0.4824381988 0.7495281725 0.1930782425
0.462448942 0.7468961155 0.1963162651
0.4724787562 0.7511257395 0.4430921042
0.4825863497 0.749698405 0.692177245
0.4624452382 0.7504448093 0.6984968058
0.4825715346 0.5012629945 0.1946356786
0.4626637607 0.4985366549 0.1967051611
0.4725787581 0.4998952415 0.4455810389
0.512423936 0.7479764374 0.9469893431
0.4925606074 0.5003712379 0.9430818638
0.5023126388 0.7496132888 0.1948319785
0.4923939377 0.7509424121 0.4439124896
0.5025163462 0.7508507484 0.6948439608
0.4923272698 0.750536473 0.9429337129
0.502390418 0.4996647728 0.1915309918
0.5123572681 0.5004052844 0.9440818822
0.4924902357 0.5004740322 0.4417050416
0.5025126425 0.5009061609 0.6935189364
0.5124350473 0.7500585123 0.4477634865
0.5124424549 0.4997243542 0.444881026
0.5324909721 0.7493186555 0.947072678
0.5224241201 0.4989020001 0.6948689612
0.5326131966 0.5025541429 0.9465356311
0.5225018993 0.7504382619 0.1965579362
0.5324539344 0.7476687093 0.4498135242
0.5223722673 0.5003424293 0.1960968166
0.5224463427 0.74935794 0.6973301176
0.532653938 0.5007863434 0.4475820016
0.552706159 0.7480419114 0.9489430828
0.5425763429 0.4996307263 0.6985431029
0.562691528 0.4992221682 0.7041746881
0.5526506025 0.501418168 0.9530542696
0.5425985656 0.7511519291 0.1985505655
0.5626174526 0.7511060972 0.2044793783
0.5525728232 0.7498555428 0.4522089387
0.5425133788 0.5002147549 0.200035778
0.5625767111 0.4982426764 0.2014598783
0.5425022675 0.7498228057 0.6993644144
0.5527135666 0.5017042897 0.4516987441
0.5625804149 0.7523566517 0.7041645027
0.5726843046 0.750117439 0.953924656
0.582565968 0.4988659894 0.7045709917
0.5726620819 0.5010502038 0.9543968869
0.5826067095 0.7516691741 0.2055256939
0.5725657839 0.7488341475 0.4531978458
0.5825400416 0.4980632774 0.2041627058
0.5825363378 0.7507067055 0.7050904457
0.5727250461 0.4997950662 0.4539506374
0.5925365219 0.7500977968 0.9580173239
0.6124368882 0.7502483871 0.9630266754
0.6025478173 0.4997564365 0.7119914987
0.5925809671 0.4993164509 0.9589617858
0.6124776297 0.5007503327 0.9628414868
0.6024959645 0.7483496395 0.2108248655
0.5924624464 0.749213897 0.4613026246
0.6125294825 0.7494823407 0.4650184337
0.6025996701 0.7519834496 0.7136767149
0.6024774456 0.4993537711 0.2122332248
0.5925846709 0.5010993094 0.4590238789
0.6124776297 0.5013042432 0.4629869148
0.6325002205 0.7507328951 0.9698323562
0.622555593 0.4991593131 0.7148804407
0.632540962 0.4997112594 0.9680545457
0.6224926289 0.7498359006 0.2136776958
0.632492813 0.7509227699 0.4674138482
0.62247411 0.7494823407 0.7164610254
0.6226185571 0.4997747692 0.2164277464
0.6325261469 0.5001178533 0.4661758624
0.6524376246 0.7509162225 0.9742028071
0.6424707744 0.499719771 0.7202842439
0.6623896596 0.498458086 0.7247065475
0.6525042925 0.4989858069 0.9732861235
0.6425226272 0.7490109275 0.2220750726
0.6624452162 0.750811464 0.2261566292
0.652463551 0.7526185479 0.4738269292
0.6424596631 0.4986564724 0.2189444594
0.6424411443 0.7477210886 0.7189916275
0.6624118823 0.4988810484 0.223854735
0.6524709585 0.5004262361 0.4761778984
0.6624044747 0.7496198362 0.7261186106
0.6724305852 0.7513090668 0.9783232533
0.682597439 0.4996385832 0.7280677205
0.6723009532 0.5004543899 0.9787954842
0.682501141 0.7504120722 0.228855753
0.6725750323 0.7500192279 0.4772214361
0.6823900278 0.499548229 0.2289437176
0.6825381787 0.7507198003 0.7279640149
0.6724379927 0.5009978246 0.4763269752
0.6926754023 0.7520751133 0.982239992
0.712553546 0.7510013387 0.9843974392
0.7025385469 0.5004714132 0.731631675
0.6924716949 0.5024801572 0.9799529129
0.7125646573 0.5010842504 0.9875363858
0.7025163242 0.7511388343 0.2319743289
0.6926198457 0.7521013029 0.4795362936
0.7025718808 0.5018607727 0.2342475189
0.7125276196 0.7545107481 0.4849188001
0.69248651 0.499979703 0.4810094688
0.7125128045 0.500847889 0.486300307
0.7025866959 0.7495347199 0.73421413
0.7324428011 0.7518394067 0.9933698266
0.7225426188 0.5013461466 0.7413716691
0.7424355776 0.5003941538 0.747251407
0.7324650237 0.5000838068 0.9963976601
0.7224833585 0.7493710348 0.2379207347
0.742461504 0.7504906411 0.2458653254
0.7224981735 0.4999816673 0.2398429923
0.7324353935 0.751263235 0.4898309275
0.742380021 0.5012171627 0.2461718125
0.732476135 0.503204955 0.4943763816
0.7224685434 0.7497311421 0.7383799474
0.7424652078 0.7522715354 0.744214314
0.7524690956 0.7522911776 0.9981291734
0.7524320579 0.5008878282 0.4998977795
0.7624396495 0.4998422075 0.7531589231
0.7524653919 0.5035310158 1.0007403326
0.7625322438 0.7499799435 0.2535089846
0.7624989099 0.4996981646 0.2541608484
0.7525172447 0.7530441293 0.5001450063
0.7624137231 0.751989997 0.7540681991
0.7725361317 0.7514792993 1.0079441689
0.7924809433 0.7485329669 1.0114997899
0.7725213166 0.5011497244 0.5095627722
0.7925920565 0.5009631234 0.51346377
0.7824659441 0.4985595708 0.7619137139
0.7723990921 0.4989897353 1.0064441413
0.7923624226 0.4995050161 1.0140183548
0.7825363158 0.7518525015 0.2619248803
0.782484463 0.5010534776 0.261360981
0.7725287242 0.7506281366 0.5068284626
0.7925587225 0.7538167231 0.5138239618
0.7825215007 0.748938906 0.759136811
0.8123961247 0.7504906411 1.01701841
0.8125368681 0.5017252414 0.5178351467
0.802536684 0.5024945615 0.7643332029
0.812522053 0.5009781824 1.0173054524
0.8024477934 0.7497835213 0.2660916236
0.802421867 0.4998736351 0.2634999092
0.8125035341 0.7516626267 0.5174277318
0.8026070556 0.7513090668 0.7660999021
0.8324816797 0.750778727 1.019925871
0.8326261268 0.5010986546 0.5233222848
0.8225518672 0.4987946226 0.7685564288
0.8426114958 0.5011150232 0.7768149142
0.8325261249 0.5003398103 1.0251667082
0.8225481635 0.7491025911 0.2712213477
0.8424929751 0.7503793352 0.2768075616
0.8224777918 0.5002763005 0.2694666858
0.8323964929 0.7509751491 0.5217361445
0.8424559373 0.4975427587 0.278360368
0.8225259408 0.7510340758 0.7691906998
0.8424818637 0.7492924659 0.7769102863
0.8624933432 0.7502483871 0.7847548752
0.8524894554 0.7498817324 1.0309908895
0.8525005667 0.4987828373 0.5345150834
0.8624044527 0.4991468731 0.7873984423
0.8523894535 0.5010174668 1.0310094083
0.8625266772 0.7502156501 0.2818270985
0.8623859339 0.5008603291 0.2850567876
0.8525042705 0.7514269201 0.5278418124
0.8824937114 0.748663915 0.7870984368
0.8725046386 0.7520096392 1.0379354618
0.8925272295 0.7502549345 1.0365928445
0.8724194519 0.5007084293 0.5391642431
0.8925309332 0.5009421717 0.5388096069
0.8825381567 0.5010174668 0.7847761718
0.8725416764 0.4996529875 1.0372780423
0.8926087124 0.5009814561 1.0389077019
0.8824455624 0.7510144336 0.2876077604
0.8825307491 0.4996850698 0.2880318423
0.8724490821 0.7511584765 0.5339039611
0.8925420445 0.7496722154 0.5381234832
0.9026459342 0.7502221975 0.7883901273
0.9224500025 0.749390677 0.7992208822
0.9123794468 0.7480681011 1.0408429227