POSCAR file written by Ovito 3.7.11
1
270.0463236176 0.0 0.0
0.0 15.2761269332 0.0
0.0 0.0 10.8018529447
Sr Ti O 
800 800 2400 
Direct
0.0226804524 0.4994841624 0.7771613402
0.0127099408 0.4992347537 0.0261760193
0.0126174381 0.248774672 0.5254730406
0.0226563824 2.1481011487e-04 0.2762602423
0.0225610655 0.2499464349 0.7764642376
0.0025404263 0.2462773112 0.7771030169
0.0125933312 0.2485507932 0.0262588755
0.0226645292 0.2480631042 0.2787209312
0.0026266337 0.2500760489 0.2789708883
0.0526985985 -0.0035627181 0.524625038
0.0526330542 0.2516405816 0.0278776718
0.0525738051 -1.8666599402e-04 0.0253583818
0.0425244181 0.5021595788 0.7776158919
0.0327368381 0.2502711246 0.5269801895
0.042638843 -0.0016010297 0.2751826494
0.0424873875 0.2491739878 0.7772965022
0.0524227199 0.5011769999 0.0263633946
0.0525041874 0.5002356618 0.5225744639
0.0325509441 9.1269643427e-04 0.5274051166
0.0325465004 0.2488231136 0.0271973256
0.0325646454 -0.0011808316 0.0263841318
0.0425855188 0.2484303438 0.2782561961
0.0525371447 0.2524830727 0.5266302495
0.0625861614 0.2507882714 0.7766938278
0.07268591 0.2519403958 0.0213906366
0.0626161562 0.2484637293 0.2766536933
0.0725762992 0.4987536108 0.0202086172
0.0625146921 0.5000831363 0.2754798206
0.0727088691 0.2508072552 0.5233669205
0.0626905879 -0.001380555 0.2744105596
0.0826875274 0.4986429806 0.267361769
0.0925632404 0.5001878748 0.5150266848
0.0925717575 0.2477881654 0.5145989804
0.1025926308 0.2508236206 0.7651180361
0.0825882852 0.2510324432 0.7685572609
0.0925821261 -0.0019793324 0.5161422341
0.0925743496 0.2502848715 0.0157131848
0.0925780527 0.001989671 0.0178314325
0.1024041446 0.2515607185 0.2647761015
0.0825208893 0.2509322869 0.267703377
0.1026770608 0.5004045528 0.7596439753
0.0827182629 0.500735134 0.7673250649
0.0925954571 0.5006546162 0.0134466292
0.1225436523 0.2498534794 0.2568506094
0.1125001902 0.250749649 0.5105904088
0.1224651472 0.2503896101 0.7597948753
0.1125283336 0.2495012959 0.0095931237
0.152568501 0.2494273243 0.5007032163
0.1324738004 0.247524355 0.5071539614
0.1425983597 0.2495058782 0.752534084
0.1524766649 0.2499451257 9.5497608967e-04
0.1324645428 0.2491281647 0.0047433076
0.1425809552 0.2500249889 0.2514339461
0.142566143 0.4983484034 0.7537172144
0.1524651853 0.4993565123 0.00404315
0.1325645256 0.501318397 0.0062572145
0.1525403576 0.5015534042 0.498748922
0.1324741707 0.5006068292 0.5088481152
0.1824493003 1.6558297744e-04 0.2497277574
0.1823000666 0.2497978371 0.7512935561
0.1824122696 0.2496420384 0.2498990243
0.1624371782 0.4997466635 0.7507704977
0.172389915 0.4996006841 -0.0018104754
0.1624727276 0.5016954559 0.2510673424
0.1724773074 0.2498547887 0.5005143598
0.1726043227 0.5005505322 0.4998366983
0.1625104989 0.2492571241 0.7484486738
0.1824315255 0.5009760327 0.7472340674
0.1724432392 0.2509453792 1.4187485186e-04
0.1724984149 -8.3833641045e-04 0.0039270588
0.1625701183 0.2508386768 0.250047147
0.2023444054 0.2491857709 0.7498863901
0.192403148 0.2506658581 -2.1430463351e-05
0.2023977296 0.2492505779 0.2522004813
0.2024551271 0.4991797659 0.751126918
0.1925857093 0.5015363842 0.0010734743
0.2024110606 0.5016457051 0.2539261111
0.1925501599 0.4984158288 0.4984415673
0.192339085 0.2503156385 0.4992442074
0.2023407023 5.8735218819e-04 0.2543436321
0.2223346794 0.5014879426 0.2493287518
0.2324781243 0.5005518414 0.9974142924
0.2123871268 0.2515626823 0.4976685518
0.2223291248 0.2493454973 0.7509371358
0.2124000876 0.2488800652 0.0039603864
0.2223235702 0.2507012074 0.2496287003
0.2323614776 0.251332912 0.4984221262
0.2323677728 0.2509466885 0.9968958628
0.2224191093 0.4996982219 0.7494707207
0.2125074765 0.5007803025 0.0045782433
0.2423786479 0.5015985727 0.2523384206
0.2624566846 -0.0016437107 0.2489353007
0.2625600002 0.2490312815 0.7492911219
0.2623696625 0.5030544391 0.752383184
0.2524787669 0.2503365862 0.4985665458
0.2424364157 0.2473017855 0.7484116431
0.2525072805 0.2515901762 0.9982011944
0.2525183897 8.419324242e-04 0.4985943189
0.2524787669 0.0022523685 0.9994880107
0.2625914763 0.2498685356 0.246457948
0.2423808697 0.2504216863 0.249168594
0.272554952 0.2512262096 0.4998228118
0.2724379351 0.2520366244 1.0011729068
0.2724079402 0.0023184847 0.4974991364
0.2723349898 -7.0819871202e-04 0.9970902739
0.2726042028 0.5018820215 0.5001857125
0.2824058545 0.0011184423 0.2473948243
0.2824328869 0.2505558826 0.7492531654
0.2825173169 0.2497978371 0.2510460497
0.3124303329 0.2495647937 0.5002819923
0.3123707135 0.247724013 0.999478753
0.3123718244 1.2519315856e-04 0.4966585399
0.3123873773 -1.4195570829e-04 0.9953776048
0.2924607961 0.2515548269 0.5020964958
0.3024290858 0.0011611233 0.2481613594
0.3023983504 0.2524405226 0.747509946
0.2925167124 0.2505316618 1.0009507227
0.292280827 0.001030331 0.4990238748
0.3023694664 0.0010120017 0.7476377019
0.2923393354 9.4346339516e-04 0.9971087892
0.3024483418 0.2498744272 0.2505535416
0.3125492014 0.4998612214 0.9934149785
0.3124410718 0.5007456078 0.4944755811
0.33248467 0.2496197815 0.4935562943
0.3223864025 0.2517557941 0.7441484857
0.3324665249 0.251670694 0.9904988122
0.322458242 9.4352885678e-04 0.7454260443
0.3324172741 5.8257349001e-04 0.9938593468
0.3223234503 0.2504184132 0.2439685603
0.3325057775 0.4988125262 0.9926373342
0.3625065562 0.2499176318 0.2390314444
0.3524468006 0.5008804588 0.4870574093
0.3623547304 0.499901153 0.7382032094
0.3523134902 0.2518814804 0.489018184
0.3425166525 0.2507509582 0.7386836825
0.3523475584 0.2497939094 0.988563959
0.3523046028 -2.3170358784e-04 0.490616058
0.3424003761 4.3672500304e-04 0.7403898713
0.352320526 -0.0022950538 0.9921466776
0.342462958 0.2494070312 0.2393795328
0.3624695255 0.2481534412 0.7363979636
0.3924865977 0.2480120441 0.4812861773
0.3923866149 -8.0717667984e-04 0.4814204135
0.3925125192 0.2488041297 0.9786952818
0.3924273486 -0.0011551706 0.9792877727
0.382480907 0.4997610651 0.2345803562
0.3925273315 0.5006624716 0.9821391354
0.3723085782 0.2497415401 0.4876119438
0.3824549855 0.2506789505 0.7340705851
0.3824697978 -6.0254365907e-04 0.234529439
0.3724381855 0.2499425072 0.9889250081
0.382480907 0.2505918865 0.2343803905
0.3924347548 0.4993133076 0.48576689
0.4025404283 0.2499902942 0.7297370693
0.4125313068 0.501158016 0.9787415701
0.4025441314 0.2498744272 0.2271307084
0.412538713 0.2501690044 0.4789449123
0.412597962 -0.0027138773 0.4729922299
0.4124757608 0.2475420297 0.979898779
0.4126201805 -0.0012053142 0.974242342
0.4026033805 0.4990586619 0.7280771689
0.4026144897 0.5002566095 0.2290100156
0.4424706146 0.2503876462 0.7178168922
0.4423076796 -5.227459456e-04 0.219051539
0.4423484133 -0.0010132499 0.7209450593
0.4424076624 0.2494240512 0.220760505
0.4323871594 0.2510520817 0.4744614223
0.4225221853 2.5107585176e-04 0.2264456407
0.4224592331 0.2502541045 0.7259673457
0.4324093778 9.0038964991e-04 0.4731227631
0.4324797361 0.2502436307 0.9750199864
0.4225740282 0.0012518531 0.7283299034
0.432527876 -7.0459832298e-04 0.9708355191
0.4225481068 0.2495935968 0.2263465837
0.4424854269 0.4977448472 0.2246579845
0.4523948378 -9.7011064935e-04 0.4674931734
0.4524688992 0.2490489561 0.9677249417
0.462478293 0.4991385251 0.215394759
0.4724099224 0.4993427653 0.4666822014
0.452402244 0.5003665851 0.9689376966
0.4722617997 0.2495372998 0.4641418965
0.4624856992 0.2478883216 0.7148998001
0.4623931224 -4.7587542644e-04 0.215342916
0.472391407 0.2496197815 0.9655123584
0.4723173457 -4.5661666846e-05 0.4676959164
0.4624745899 0.2487962743 0.2167982219
0.45245779 0.2504059755 0.4660175006
0.4625375421 0.4999594138 0.7166402423
0.4724395469 0.4999306107 0.966845463
0.4924213039 0.4985225313 0.9680674755
0.4823785824 0.249090197 0.7147183498
0.482408207 6.2708739088e-04 0.7151766045
0.4823341456 0.250724119 0.2166241777
0.4923324302 0.2494148866 0.4641113462
0.4922991026 0.2506043242 0.9653179473
0.5025528989 0.5006860378 0.2195134968
0.5025417897 0.5025654408 0.7181742383
0.5126104326 0.4978862443 0.4708833325
0.5024344008 0.2482699629 0.2175860497
0.5224198608 5.7858033126e-04 0.217823046
0.522327284 0.250296 0.2199069478
0.5124326854 0.2505087502 0.4696353984
0.5225198436 0.5020430571 0.7191944337
0.5223457994 0.2485697771 0.7194499454
0.5022788719 0.2494292881 0.7154626665
0.5124067639 0.2522951978 0.9666510519
0.5022529504 7.6161101778e-04 0.7189889134
0.5324033331 4.307025341e-04 0.473389384
0.5324885037 6.4973711103e-04 0.9737702008
0.5324144423 0.2505473726 0.4648056715
0.5324662853 0.248709865 0.9692339421
0.5424793821 0.4983470941 0.7213246238
0.5524665575 0.5019703947 0.9744460108
0.5525406189 0.4981454723 0.4734004932
0.5423460717 -0.0018551517 0.7178844732
0.5525850557 -0.0010152137 0.9750940478
0.5424793821 0.2496250184 0.2227583104
0.5524073084 0.2500492097 0.4741531418
0.5424238361 0.2483177499 0.7235760893
0.5523591685 0.2507332836 0.9747329986
0.5725482973 0.2514415783 0.4816324142
0.5625018728 3.0279053071e-04 0.2225102048
0.5725001574 0.2506684766 0.9790655886
0.5625426066 0.5004556129 0.2291479549
0.5624611391 -3.0979929922e-04 0.7258784721
0.5626685109 0.2493284773 0.2276685791
0.572640874 0.4994848171 0.978436067
0.5625833403 0.25027047 0.7281891868
0.5725705157 0.5002278064 0.481255627
0.5725482973 -0.0013409507 0.4794087216
0.5725186728 -0.0025478666 0.9775843613
0.592570788 0.5000530239 0.9848701483
0.5925670849 0.5001093209 0.4813315399
0.5825799095 0.2503320039 0.735597175
0.5924671021 -0.001095666 0.481271365
0.5924559929 4.4156916284e-04 0.9832963442
0.6025505573 0.2506789505 0.2373632121
0.5826354556 0.5009819243 0.7321588761
0.5925337573 0.2484689662 0.4852160586
0.6025209327 0.2501696591 0.7386947917
0.5925744911 0.2503666985 0.9861477069
0.5824762236 0.0033212912 0.2308411829
0.5825650973 0.2508694438 0.2345488801
0.6125599511 0.5007377524 0.9880640447
0.6125451388 0.4995594433 0.4877933942
0.6125118112 -0.0012216142 0.4859483404
0.6125155143 -7.0407463003e-04 0.9914986407
0.6124932958 0.2474025964 0.4916223669
0.6125895756 0.2474405642 0.9911005608
0.6225100958 0.2509322869 0.2444249635
0.6225026897 0.2520732829 0.741281385
0.6425436957 8.9043948383e-04 0.2385065344
0.6526234478 0.0010120017 0.4901198469
0.6525419803 -0.0013144388 0.9917671131
0.6424214944 0.2511391456 0.2405348901
0.6524753251 0.2476461136 0.49308045
0.6424770404 0.2509781101 0.7422164098
0.652308687 0.2488224589 0.9913320026
0.6326268786 0.5012116946 0.9913875486
0.6326824246 0.4985552621 0.4915353448
0.6424659312 0.4990494973 0.2397674292
0.6524123729 0.5004313921 0.4938543913
0.6325676295 0.001393512 0.4924935137
0.6325824418 9.3706119853e-05 0.9920541009
0.6324269129 0.2485926887 0.4933516998
0.6325046773 0.2482280674 0.9938963774
0.6824516635 0.4994710701 0.7460657493
0.6724681912 0.4989120279 0.9982567404
0.6826108955 0.4993100345 0.2483030018
0.6625254526 0.2501487113 0.2424169746
0.6725200342 0.50066509 0.4985609912
0.6625365618 0.2482928744 0.7455639836
0.6825146157 0.2500204066 0.2455414386
0.672401536 0.2494116135 0.4945987081
0.682584974 0.2492630156 0.7503187234
0.6724681912 0.2486679695 0.9969514088
0.6623588145 0.4989094094 0.7423071349
0.7024371235 0.2503536062 0.2478540048
0.6924462451 0.2517080071 0.4961595514
0.7024260143 0.2518500588 0.7455538001
0.6926091801 0.2491386386 0.9971273046
0.7024186082 0.5011187391 0.7500521024
0.6925573371 0.4996687642 0.9966273904
0.7025852463 0.4997460089 0.2503498729
0.7024037959 8.0946346122e-04 0.2454905214
0.7224596142 0.5006133754 0.748189459
0.722504051 0.5017262229 0.2489695541
0.7125094695 0.25091003 0.4980897758
0.7124168928 0.2499254872 0.9988770044
0.7224818326 8.3335695212e-04 0.2501850863
0.7225595971 8.8638086346e-04 0.7475423478
0.7223966621 0.2529904002 0.2524513642
0.7323097761 0.2497565962 0.5011346238
0.722392959 0.2507987452 0.7495225637
0.732465305 0.2496983354 1.0007285386
0.7123428314 8.1273654216e-04 0.4997959645
0.742326576 8.0854699855e-04 0.7481274326
0.7523692975 0.5018433992 0.0010145029
0.742378419 0.248194682 0.2484659368
0.7424080435 0.2496060345 0.7512148659
0.7624305342 0.0016251152 0.2519014585
0.7524952018 8.7793631461e-04 0.5024834664
0.7623972066 0.0023583508 0.7513315126
0.762578657 0.251493293 0.2520819831
0.7524285466 0.2500570651 0.5034147881
0.7624342373 0.2503549154 0.7496503195
0.7523767036 0.2503032008 1.0006452195
0.7824530249 0.0019383491 0.2527503869
0.7826011477 -5.4781774565e-04 0.7536181573
0.7725325047 -3.9836886963e-04 0.0039502955
0.7826122569 0.2491347109 0.2519301573
0.7724473342 0.2492531964 0.5013984674
0.7825307894 0.247935454 0.7540134598
0.7724251158 0.2496034161 -4.2950859796e-04
0.7925216678 -9.6001651802e-05 0.5024038504
0.79258462 0.2483197137 0.5014086508
0.7924735279 0.2494521997 -5.6924227693e-06
0.8025088432 -0.0014655242 0.2514441296
0.8126108137 6.7258321604e-04 0.4973750836
0.8024644064 4.2481098839e-04 0.7529266093
0.8125108309 -8.2516558303e-05 9.8237879563e-04
0.8025347647 0.2517983441 0.2486575706
0.8125478616 0.2516837863 0.5014854895
0.8024681095 0.2500348081 0.750383527
0.8125441585 0.2510337524 3.5850435163e-04
0.8224387572 3.7474589193e-05 0.7480181921
0.8324851817 0.0014248027 -7.7463457025e-04
0.8224943032 0.25092705 0.2506942582
0.8325481339 0.2508196929 0.5011012961
0.8226128014 0.2511535472 0.7507427247
0.8325444308 0.2501336552 0.0042336728
0.8226350198 -8.7394753115e-04 0.2482391239
0.8325888676 -4.3553853021e-06 0.5008892955
0.862561503 0.5009747235 0.7544726403
0.852485454 0.4991156135 0.0054619806
0.8625022539 0.499467797 0.2533947208
0.8424871694 -6.4038047481e-04 0.7497521539
0.8424871694 0.2501925706 0.2522782457
0.8426167768 0.2505336257 0.7533256149
0.862450411 1.2617508284e-04 0.2492926468
0.8525002662 9.24937757e-04 0.4992006963
0.8525261877 -3.2786670605e-04 6.9665018604e-05
0.8425130908 -0.0014657206 0.2480650797
0.8625429877 0.2499228688 0.2530744054
0.8525780307 0.2497016085 0.5043192626
0.8625355815 0.2489926591 0.7536838867
0.8525224847 0.2509349054 0.003346788
0.8723561189 0.4994154277 0.505466288
0.8825173385 0.5006663993 0.7553956301
0.8923786095 0.5014597941 0.0088618603
0.8825654784 0.4994245924 0.2568357971
0.8925304353 -0.0020021785 0.5078186622
0.8725301631 -0.0011427984 1.8594136549e-04
0.8925415446 -7.7843902913e-04 0.0049776193
0.8826136182 0.2471414046 0.2538150191
0.8725523815 0.2510507724 0.5015354809
0.8924674832 0.2497055362 0.5053422352
0.8824729016 0.2508426045 0.753209894
0.8726042244 0.2492459956 0.0026522775
0.8926822611 0.2509859654 0.003683582
0.9024842831 0.4992995607 0.2568802339
0.9024435494 -8.2485131695e-04 0.2555397232
0.9125195984 -0.0024899985 0.5091165876
0.9025250169 -3.0325313733e-04 0.7574980472
0.9125233015 1.4011840767e-04 0.0097957741
0.9025546414 0.2494770751 0.2567237793
0.9126121751 0.2505100595 0.5102006609
0.9025953752 0.2496551307 0.7603994012
0.9125825506 0.250079322 0.0082749239
0.9124714585 0.4989840357 0.0124104181
0.9224845554 5.1527894575e-04 0.2584892171
0.9224586339 2.1618480887e-04 0.758965388
0.9324384032 0.4996838204 0.5154451315
0.9325865259 0.5016993836 0.0137911997
0.9227067395 0.250451144 0.2644733756
0.9225512106 0.2487288488 0.7644366715
0.94249964 0.0018366217 0.261625716
0.9324902462 0.0013393753 0.5134408457
0.9424329847 -4.8373082071e-04 0.7638701021
0.9324347001 -0.0014432018 0.0124490226
0.9425811075 0.2505035133 0.2700076113
0.9325754167 0.2528535854 0.5132195874
0.9424700154 0.2498881741 0.7719724157
0.932642072 0.2499739288 0.0119346664
0.9225845383 0.501335417 0.7620130133
0.9625665675 0.2484840224 0.272429418
0.9525386583 0.2489645107 0.5158820935
0.972505603 0.2477253222 0.5213515255
0.9625258337 0.2495968699 0.7707263332
0.952683078 0.2520961945 0.0170112028
0.9726944595 0.2508190383 0.0230584986
0.9525719859 0.4999908354 0.0186239817
0.9726759441 0.5008326718 0.0227815091
0.9626110043 0.5012895939 0.2656185495
0.9524979246 -8.8952739645e-04 0.5239862587
0.9626258166 -0.0015674479 0.7694839537
0.9927058409 0.5001649633 0.5256489364
0.9825075907 0.4982593756 0.774836739
0.9926947317 -2.0826832826e-04 0.5253850928
0.982740884 -7.0099793394e-04 0.7747062059
0.9825557305 0.2524778357 0.275041007
0.992653998 0.2507908898 0.5257720634
0.9825705428 0.2509493069 0.7717437512
0.9926947317 0.2487301581 0.0232293027
0.0027580556 0.9984967743 0.275124326
0.0127079782 1.0001333148 0.5247777895
0.0226183519 1.001638932 0.7772233666
0.0027339487 0.9981367354 0.7755273613
0.0126376939 0.9993477753 0.0248308797
0.0125380444 0.7486232287 0.0254622529
0.0025658293 0.5018951139 0.7730166809
0.0226056134 0.7497884455 0.2769314234
0.0025687548 0.7510191239 0.2731228176
0.0125812592 0.7476020274 0.5249842356
0.0226693432 0.7490552754 0.7741637064
0.002514764 0.7503841462 0.7763688836
0.0227201493 0.4985146759 0.2771165768
0.0027753119 0.5001132486 0.2748178971
0.0126324356 0.4992111875 0.5285317751
0.0325805686 0.7476216659 0.0243288362
0.0326886982 0.4986370891 0.0268204458
0.0424348039 0.7505216156 0.2744031535
0.0325983434 0.7495135067 0.5265552624
0.0424218431 0.7500830228 0.7742479512
0.0426358805 0.5007783386 0.2751067365
0.0326383365 0.5018689292 0.5258535309
0.0426392133 0.9991579367 0.77490432
0.0524486414 0.7527407645 0.0234707427
0.0524967813 0.7495855145 0.5248518509
0.0726792445 1.0006831924 0.5194481484
0.062759465 0.9993935985 0.7720242586
0.0726722087 0.9998780145 0.0217351146
0.0725914818 0.7502401307 0.0206080857
0.0626594821 0.5007501902 0.7726232299
0.0625435761 0.7519224943 0.2727663972
0.0725985176 0.7494938682 0.5225929792
0.0624365574 0.7509340238 0.7727583919
0.0727144237 0.5002480995 0.5195962711
0.1026204038 0.5022126027 0.2598149156
0.102505979 1.0001987764 0.2633763416
0.0826179097 0.9990531981 0.2711037195
0.10260374 1.0000285762 0.7615056929
0.0826160582 0.9988044439 0.768711864
0.0926365612 0.7504037847 0.0135735519
0.1025470831 0.7508947469 0.2639142123
0.0825664371 0.7506198081 0.2676043199
0.0927680201 0.7488261597 0.5143916085
0.102561525 0.7515428169 0.76160475
0.0825175566 0.7494414989 0.7681999148
0.1124998199 1.0006308231 0.0110214897
0.112723115 0.7506918158 0.0071334531
0.1224984749 0.5011337952 0.7558112995
0.1124257586 0.5012653731 0.0102809686
0.1225762393 0.7507703698 0.2558646674
0.1125979513 0.7514053475 0.507402067
0.1225777205 0.7485053978 0.7575961785
0.1225118059 0.5013674932 0.2575514151
0.1126064683 0.5018159053 0.5125474805
0.1224925499 1.0014294548 0.2566006523
0.112615726 1.0004606229 0.5098849743
0.1224632957 1.0006701 0.7605836289
0.1424824536 1.0025750332 0.2547472665
0.1524670369 0.998850267 0.5048006614
0.1325697099 1.0004213459 0.507497421
0.1424457933 0.9992626752 0.7547309293
0.1523859397 0.9986604283 0.0023538102
0.1325389744 0.9998518298 0.0047773758
0.1524329687 0.7497622609 0.0018769475
0.1326052594 0.7513137012 0.0051587919
0.1423902472 0.7507965544 0.2547602273
0.1525510965 0.7491927448 0.5003940101
0.1325530461 0.751143501 0.5055412751
0.1423932097 0.7506787235 0.7557964872
0.1424676414 0.4992687937 0.2535678393
0.1823822747 1.0001071301 0.7506686633
0.1725617374 0.7488916213 0.0013432428
0.1624593966 0.7491010985 0.2521310487
0.1726376503 0.7498931841 0.5046414295
0.1625271627 0.7487345134 0.7513129972
0.1825837216 0.7480602588 0.2488473529
0.1824459675 0.7478573277 0.7492494624
0.1825822404 0.5004575767 0.2495611193
0.1623882977 0.9988829979 0.2538816743
0.1725169303 0.9994263293 0.5019937356
0.1624512498 0.9992823137 0.7511482107
0.1924790609 0.9989811903 0.5022353608
0.2024462398 0.9995637987 0.7529636399
0.1924794313 0.9990728365 -0.0015122858
0.1924775797 0.7492189294 5.9846318215e-04
0.2024747534 0.7499455534 0.2539723995
0.1924864671 0.7506263542 0.5023399725
0.2025328916 0.7491338293 0.7507603143
0.2125322871 0.5003273081 0.5004541849
0.2324003598 0.7507114543 -0.002365769
0.2224761366 1.0011217852 0.251414505
0.2324103581 0.7496378838 0.5000857296
0.2123912002 0.9995114294 0.5012346066
0.2225209437 1.0012527085 0.7491374445
0.2124885909 1.0003558843 9.4118215999e-04
0.2324522028 0.5014316456 0.5012059078
0.2124215654 0.7497557147 0.0035699904
0.2323996192 1.001436001 0.498724852
0.2224757663 0.7509274777 0.2489760345
0.2324873819 1.0013639932 0.0011312421
0.2123863862 0.7509078392 0.4973232406
0.2225938942 0.7510125778 0.7531330553
0.2524010024 0.75344775 1.0008674036
0.2424230847 0.5004418659 0.7509038082
0.2524213693 0.5005217291 1.0007563116
0.2424341939 0.7487803366 0.2508710797
0.2524013727 0.7492516602 0.499551562
0.2424715949 0.750011015 0.7499456392
0.2524950604 0.5000680801 0.497882404
0.2624774218 1.0008992157 0.7482551885
0.2424649294 1.0001071301 0.2520088475
0.2625274132 0.7502597692 0.2483372552
0.2622637547 0.748917806 0.7501419018
0.2425245488 0.9981891047 0.7491365188
0.2624389099 0.5013079231 0.2492695027
0.2825465711 0.501906897 0.748944885
0.282417334 0.7510976779 0.247312431
0.282441404 0.7515493631 0.7486643776
0.2724720033 0.7515297246 0.9987844277
0.2724820016 0.4994612509 0.9999694096
0.2724690409 0.7507245467 0.4975685689
0.282459549 0.5001302686 0.250194344
0.2824310354 1.0003296996 0.7491346672
0.2926000314 0.7532251805 0.9956090466
0.3024109408 0.5014467018 0.7466489826
0.2924600555 0.5011207029 0.9943500033
0.3023650227 0.7491927448 0.2463811093
0.2924974565 0.7516868325 0.4968038853
0.3024072377 0.7522367101 0.7443354906
0.3025220328 0.4989905818 0.2461459645
0.2923974736 0.501650942 0.4953235837
0.3124929147 0.7507049082 0.9971550776
0.3125110598 0.7517784787 0.4962317612
0.3325194788 0.75215161 0.9894619531
0.3225019382 1.000264238 0.2463986989
0.332442455 0.9989353671 0.4906456826
0.3224093615 0.4993100345 0.7431264388
0.3224001039 0.7512155088 0.2415578628
0.3324639328 0.75158864 0.49275458
0.3224141755 0.7495855145 0.7426385595
0.3223912165 0.5015141272 0.2445721604
0.3325465112 0.499662218 0.4895514259
0.3423385349 0.5001741279 0.2420355586
0.3424037089 0.998444405 0.2406737552
0.3523753314 0.748230459 0.9899803826
0.342495545 0.5001197948 0.7426181927
0.3524667972 0.5000864093 0.9910172418
0.3423711219 0.7484006592 0.2401543999
0.3522764595 0.7494742297 0.4899189554
0.3623584334 0.750253223 0.234895117
0.3424648095 0.7503383231 0.7363322341
0.3622473414 0.7497360762 0.7346251196
0.3623954641 0.9987389823 0.2376835275
0.3623954641 0.9997078143 0.7385550009
0.3623621365 0.4994448855 0.2391638291
0.3725011377 0.7483221052 0.9844905838
0.382480907 0.500535476 0.7349593215
0.3724122641 0.4996190134 0.984370234
0.3824031425 0.7485708594 0.2350469428
0.3723344996 0.7503841462 0.4867278363
0.3825512653 0.7491731063 0.732413462
0.3726196359 1.0007290155 0.4867491289
0.3825290469 0.9997994605 0.7321348061
0.3724826224 1.0007028309 0.9860829032
0.3724492948 0.501205803 0.4874582665
0.3924162394 0.7506067157 0.9788434045
0.3924199425 0.7490618215 0.4808816171
0.4025404283 1.0000023915 0.2282694019
0.4025182099 0.9995310679 0.7294926668
0.4124831669 0.7490356369 0.9755291583
0.4125239007 0.7481060819 0.4771433695
0.4125276037 0.4982633032 0.4778228826
0.4022552921 0.7500175612 0.2294210562
0.4022626982 0.7475889351 0.731439555
0.4324945484 0.7492254756 0.9713817217
0.4225444037 0.4985847198 0.7236066396
0.4324612208 0.4994435762 0.9737146548
0.422344438 0.7490290907 0.221758482
0.4323723472 0.7499782842 0.4710101625
0.4223740625 0.7475692966 0.7243953932
0.4224444208 0.4981415446 0.2250079244
0.432364941 0.4983470941 0.4720396156
0.4424483962 0.4992655206 0.7199156062
0.4425261606 0.7489243521 0.2170509563
0.4425409729 0.7481453589 0.7194351331
0.4524874145 0.9988568132 0.9696690526
0.4624856992 0.99872589 0.7148951713
0.472391407 0.9991186597 0.9679656412
0.4524800084 0.7507180005 0.9679378681
0.4525466636 0.7490290907 0.4713258491
0.4524726023 0.50003404 0.4688873786
0.4725247175 0.749120737 0.9640681617
0.4623857163 0.7511696857 0.2204364865
0.472391407 0.7485904979 0.4674357758
0.4624153409 0.75094057 0.7186223096
0.482245272 0.9989353671 0.2164325439
0.4922916965 1.000709377 0.4658045742
0.4923102118 1.0024899331 0.9657252848
0.4824711592 0.5026007901 0.2153142172
0.4924916622 0.7499913765 0.4670052941
0.4925435051 0.7523938179 0.9680489602
0.4924361161 0.5006552708 0.4690345756
0.4823748794 0.5005812992 0.7146174412
0.4823193334 0.7548551748 0.2184784891
0.4823711763 0.7533626499 0.7163856563
0.5123808424 1.0027517795 0.4719007505
0.5123401086 1.0005391768 0.9681137639
0.5023084964 1.0003689766 0.2188682371
0.5125141529 0.7480537126 0.9712521143
0.5226383418 0.5008359449 0.2195097937
0.5225457651 0.7508685622 0.7214579342
0.5224717037 1.0006766462 0.7216958564
0.5023566363 0.7528324108 0.2197967815
0.5024158854 0.7536179502 0.7172947596
0.5124808252 0.4990822281 0.9708447768
0.512521559 0.7500241073 0.4655536913
0.5225087344 0.7499848304 0.2229841976
0.5325884865 0.7482173667 0.4691114142
0.5324144423 0.4991516174 0.471862794
0.552599868 0.7499848304 0.9726870533
0.5424497576 0.9994197831 0.2199634196
0.5525628373 0.9991775751 0.4739309577
0.5426089895 0.7511500472 0.2212604193
0.5525221036 0.7486821441 0.4736976644
0.5424645699 0.4999325745 0.2211687683
0.5425016005 0.7491141908 0.7231604199
0.5324810975 0.7512678781 0.9716687095
0.5324848006 0.5004327013 0.9703078319
0.5624685452 0.5003678943 0.7268866325
0.5625203882 0.7503448693 0.2236470468
0.5625759342 0.7509143854 0.7251785922
0.5726149525 0.7491927448 0.9782231405
0.5724594237 0.7507245467 0.4794457523
0.6025209327 0.4981330346 0.7364312912
0.6027134923 0.7476085736 0.2373576575
0.5925856003 0.7502204922 0.4834209962
0.6026505401 0.7485250363 0.7326328688
0.6025727757 0.4978535135 0.2356283245
0.6025431511 0.9990204673 0.237005866
0.6024505744 0.9993935985 0.7384327996
0.5825095512 1.0018745938 0.7329494812
0.5825873157 0.7501943075 0.2292173874
0.5825095512 0.4989421402 0.2302996092
0.5827058139 0.7485446747 0.7305980327
0.5926041156 0.7499259149 0.9840277002
0.6125710603 0.7484006592 0.4904725641
0.6224101129 0.5013380355 0.7364275881
0.6226915461 0.7468099418 0.2405284098
0.6226656247 0.747340181 0.7410082837
0.6226471093 0.5005767169 0.2391008769
0.6224323314 0.9990990212 0.241461583
0.6224175191 0.9981825585 0.7382726419
0.612608091 0.7506132619 0.9896193335
0.6424622282 1.0018680477 0.7411212273
0.6325194896 0.7474711042 0.9919244935
0.6326046602 0.7494742297 0.4933211495
0.6525419803 0.7516082785 0.9938315737
0.642454822 0.4996753104 0.7459546573
0.6525382772 0.5010572051 0.9935538436
0.6425214773 0.7489374445 0.2425974992
0.6524901373 0.7501615767 0.4934350188
0.6424474159 0.750416877 0.7424950656
0.6625069373 0.9992168521 0.2416532168
0.6625550772 0.9975999501 0.7439938826
0.6824035236 1.0001660456 0.243655651
0.6725348464 0.7507049082 0.9949887826
0.6724459728 0.9984378588 0.4973380529
0.6824035236 1.0005915461 0.7470952023
0.6725422526 0.9986538822 0.996525556
0.6825553494 0.7494676836 0.2452405643
0.6726089078 0.7507114543 0.4970399559
0.6825405372 0.7520403252 0.7493874017
0.6626032171 0.7509602085 0.2431372214
0.6624032514 0.4979320675 0.2460145056
0.6626106232 0.7492582064 0.739889957
0.692442542 1.0004540767 0.4959114458
0.7024519358 0.9995703449 0.748078367
0.6925129003 1.0021953558 0.9984881822
0.692498088 0.7501615767 0.9968032861
0.7025259972 0.7504757925 0.2478364152
0.692498088 0.7491272832 0.4982684488
0.692553634 0.5003502197 0.4985683974
0.7024556389 0.7524265487 0.7469767041
0.7325430694 0.5010395305 0.9995250414
0.7225892216 0.7502204922 0.2516866805
0.7325319602 0.9994263293 0.5015836208
0.7325875062 0.7506459927 0.4959179262
0.7325356633 0.5020273463 0.5022992388
0.7224336927 0.7504234232 0.7493874017
0.732469008 0.9983920357 1.0005526428
0.7123909713 0.997311919 0.9984974399
0.7125279848 0.7512547858 0.9984418939
0.7124576265 0.5007757202 1.000858146
0.7125835309 0.75094057 0.4983119599
0.7124576265 0.5018165599 0.5003329095
0.7326393492 0.7508227391 1.0015154406
0.7425117295 0.4992360629 0.7505779381
0.7423710129 0.7491076447 0.2511488099
0.7425339479 0.4987608116 0.2498768059
0.7424561834 0.7494742297 0.7498475079
0.7424561834 1.0017371244 0.2506368607
0.752450765 0.7502073999 0.0010304261
0.7523804067 1.0017894937 0.0011328159
0.7525026079 0.5028109219 0.5019770718
0.762419425 0.4984721258 0.7525572282
0.7624305342 0.7497753532 0.2490325063
0.7624675649 0.498867514 0.2539011154
0.7524952018 0.7491010985 0.498899822
0.7625305171 0.7490290907 0.7492605716
0.7725399109 1.0006962847 0.5057838261
0.7826270691 0.7501419382 0.2522551015
0.7824345096 0.4978502404 0.2534687822
0.7723769759 0.7489570829 0.5015891754
0.782512274 0.7495462375 0.7523165287
0.772491771 0.7503514154 9.8524867362e-04
0.772439928 0.4983935719 0.5012577508
0.782456728 0.4976211248 0.7539588396
0.7724732557 0.500315525 0.0011217067
0.7923883574 0.7519748636 0.4996367326
0.7924105758 1.000224961 -4.5348596567e-04
0.8124923156 0.7533299191 -0.0015258946
0.7925364801 0.7486166825 0.0015984768
0.7925142617 0.4985611536 0.4984471219
0.792425388 0.4966398551 0.0011871585
0.8125922984 0.4998514021 0.5017391497
0.8025088432 0.4989342848 0.7500382159
0.8125108309 0.4996301419 1.9992044859e-04
0.8025125463 0.7495593298 0.2493907781
0.8025754985 0.4989702887 0.2520366205
0.8125293462 0.7504037847 0.5006597052
0.8024495941 0.7472092577 0.7472155521
0.8324888848 0.7498342686 -0.0018864808
0.8326555228 0.4982744317 0.5010725974
0.8226276137 0.4985703182 0.7499058312
0.8326296014 0.5000661162 0.0030259171
0.8225942861 0.7506394466 0.2481743202
0.8225794738 0.5003554566 0.2501887894
0.8323814958 0.7515231784 0.4989998048
0.8224239449 0.7501877614 0.7479848645
0.8525706245 0.4991051397 0.5058227083
0.8624615202 0.9998321913 0.7466702752
0.8624318956 0.7508292852 0.2538122418
0.8523632527 0.7516148247 0.5012040563
0.8425390123 0.5003358181 0.7512768923
0.8424538418 0.7485446747 0.2517107505
0.842468654 0.5011364137 0.2557322827
0.842576043 0.7502401307 0.7535746462
0.8624096772 0.7483155591 0.749286493
0.8524113926 0.7513398859 0.0023277961
0.8823173728 0.7505543464 0.7573147453
0.872311682 0.750659085 0.0024731415
0.8924674832 0.7502728615 0.0044361381
0.8925600599 0.5002664288 0.5070743454
0.8724857262 0.4994134639 0.0027000471
0.8825913998 0.9985164128 0.2519903321
0.8724598048 0.9994852447 0.4996367326
0.8824025433 0.7484857593 0.2521764113
0.8724375864 0.7507572775 0.500350499