POSCAR file written by Ovito 3.7.11
1
270.0033182507 0.0 0.0
0.0 15.2736941822 0.0
0.0 0.0 10.80013273
Sr Ti O 
800 800 2400 
Direct
0.0223513553 0.4991626125 0.8016774072
0.0125722903 0.5003679529 0.0514439422
0.0125052911 0.2502529542 0.549974945
0.0224723909 1.4213399635e-05 0.3020270663
0.022590019 0.2497651875 0.8018329608
0.0023781934 0.2505312104 0.8035801616
0.0124851432 0.2511348627 0.0492469322
0.0224995757 0.250445442 0.3038344515
0.0023725638 0.2485382414 0.3026779842
0.0526077242 5.9520055101e-05 0.5443824211
0.0524684666 0.249166773 0.0448464307
0.0524755036 -4.0094484069e-04 0.0471437173
0.0423815536 0.5001060647 0.798753369
0.0323846394 0.2493068832 0.5502897559
0.0424874782 -0.001547033 0.2947836368
0.0423819239 0.2484138445 0.7972922759
0.0524062452 0.4995115785 0.0467327038
0.0524821702 0.4999659545 0.545857403
0.0324953788 -9.1393009708e-05 0.5482601512
0.0324076021 0.2507629815 0.0495509099
0.0325372301 -7.129846094e-04 0.0498867391
0.0425026632 0.2493428928 0.3003807902
0.0526210574 0.249061363 0.5469944261
0.0623679746 0.2499439262 0.7971756106
0.0725141462 0.2488649469 0.0433366344
0.0624305664 0.2495013351 0.2990224736
0.0723878515 0.5004078908 0.0442853265
0.0624046408 0.50195565 0.2948104883
0.0723985921 0.2485408602 0.5415769
0.0624550106 0.0011128998 0.2931623604
0.0823677288 0.5004609232 0.2929021784
0.0924535308 0.4996850795 0.5360232646
0.092395013 0.2509646354 0.5412213489
0.1024604448 0.2489729757 0.7877479487
0.082361803 0.2507885156 0.7931312159
0.0923683467 1.2302793921e-04 0.5408148724
0.0924068647 0.2499570206 0.039109279
0.0923046437 9.6401636327e-04 0.0409908299
0.1024297045 0.2506366204 0.2913892341
0.0824666165 0.2508140497 0.2919660788
0.1024985925 0.4985000354 0.7858766754
0.0823099518 0.499046727 0.7924340022
0.0924168646 0.4988686431 0.0387020618
0.1225642719 0.249483003 0.2837282171
0.1124347667 0.2492996812 0.5384926787
0.1225424203 0.2484596749 0.7853377932
0.1123788415 0.2496794191 0.0361642226
0.1525627921 0.2491157048 0.5255150604
0.1324056324 0.2483280761 0.5322270149
0.1425625446 0.2489225623 0.7790832404
0.1525724216 0.2487058498 0.0255342606
0.1324497059 0.2479902403 0.0330635199
0.1425743963 0.2492433753 0.2786773533
0.1424106946 0.4987324612 0.7769406741
0.1525483478 0.5014835966 0.0221512466
0.132557112 0.5010763604 0.0332190736
0.1525231629 0.5016695372 0.5262243109
0.1325808154 0.5001905237 0.5311612873
0.1825379792 0.0015875721 0.2664821328
0.1826013118 0.2492584339 0.7690407712
0.1825787195 0.2523284181 0.2709737442
0.162663779 0.5004013436 0.7710305616
0.1726906928 0.4987979332 0.0223201335
0.1626482237 0.5012708124 0.27149596
0.1725777313 0.2509489221 0.5207234526
0.1727377293 0.501655788 0.5186327376
0.1626082242 0.2492368281 0.7729036867
0.1826564963 0.5003692623 0.7664824693
0.1726147679 0.2527546411 0.021169592
0.1725869904 -1.2026618176e-04 0.0224821685
0.1624730406 0.2520023673 0.2763542337
0.2024499567 0.250558054 0.76350658
0.19263267 0.2498450634 0.0130157108
0.2024855119 0.2503275924 0.260086841
0.2025925476 0.5014148509 0.7606038379
0.1925878557 0.5017742924 0.0172184369
0.2024973636 0.5010455886 0.2625701438
0.1928019272 0.5003672982 0.5151688913
0.1925741522 0.2511689081 0.5113411605
0.2025477333 -1.6445981245e-04 0.2633136532
0.2225041547 0.5008681593 0.2540924702
0.2325199576 0.4980672652 0.998947205
0.2125442771 0.2495589505 0.5108365371
0.2224589701 0.2495085371 0.7554150128
0.2125590918 0.2513450279 0.0084380818
0.2224237853 0.2492990265 0.2570137306
0.2325732902 0.2511937875 0.5022894199
0.2325140317 0.2501495084 1.0028175278
0.2225019325 0.4995076502 0.7551381643
0.2125039072 0.5009761882 0.0110492535
0.2425605749 0.5022646781 0.25181935
0.2626425503 4.7716623316e-04 0.2430527911
0.262505515 0.2493579514 0.745205879
0.2625562551 0.5010056506 0.7459864249
0.2525415633 0.2489814871 0.4951663593
0.2424735389 0.2500735608 0.7470706709
0.2526545249 0.2499923755 0.9963453851
0.2524400831 6.7639766752e-04 0.49435711
0.2525934146 -0.0013444625 0.9967990832
0.262680698 0.2507145322 0.2449342494
0.2425079829 0.2507040566 0.252317492
0.2725213178 0.2483758707 0.4921886181
0.2725653913 0.249134037 0.9892991754
0.2725094661 4.4639437179e-04 0.4868562763
0.2725061328 2.8952335084e-04 0.9903176814
0.2726639086 0.4971585132 0.4899710528
0.2824756399 -0.002131371 0.238383404
0.2826223048 0.2511754554 0.7415438869
0.2825782312 0.250972492 0.2382695165
0.3126478617 0.2504788328 0.4804952433
0.3125708256 0.2494037818 0.9803548409
0.3125163818 0.0011631169 0.4820461502
0.3125304557 -1.5018690654e-04 0.9822437066
0.2924832947 0.2473617087 0.4860451751
0.3025657634 1.5524018558e-04 0.2306566471
0.3025535413 0.2489075037 0.7351550766
0.2925966266 0.2486776968 0.9847807124
0.292471443 -5.6802950073e-04 0.4871386802
0.3024968753 -0.001761323 0.7300801389
0.2926125524 -6.5556562553e-04 0.9851140416
0.3024757645 0.2501698047 0.2344621559
0.3125652701 0.4982440397 0.9836881332
0.3126011956 0.5004046172 0.4806091308
0.3325509504 0.2522963368 0.473087001
0.3225047776 0.2494096743 0.7269838807
0.3325898388 0.2495753186 0.9736419604
0.3226032949 5.5272097363e-04 0.7271848041
0.3325476171 -3.5864989932e-04 0.9752252743
0.3224784816 0.249443065 0.2310446053
0.3326542825 0.499192075 0.9749474999
0.3625216932 0.246208746 0.2194919695
0.3526799623 0.4998166783 0.4706666604
0.3625957664 0.4985583056 0.7177997343
0.3525062607 0.2499118449 0.4683435408
0.3426456412 0.2492027826 0.7208293267
0.3525170013 0.2504048494 0.9670679671
0.3525588527 5.1474718726e-04 0.4739101391
0.342701196 0.0012016144 0.7206191441
0.3524677427 3.2088446062e-04 0.9730771525
0.3426315673 0.2497959594 0.2232113683
0.3624883603 0.2513489563 0.7191173107
0.3923879928 0.2503622925 0.4623584292
0.392439844 -1.4678236018e-04 0.4611973323
0.3925361391 0.248274389 0.9626976505
0.3925213245 2.3367569605e-04 0.9629661657
0.3825066328 0.4991901108 0.213418896
0.3925324355 0.4997145419 0.9609198945
0.3725215703 0.2489448228 0.4673278125
0.382547373 0.2507079849 0.7136886737
0.382547373 7.967352871e-04 0.2117142873
0.3726030508 0.2502928922 0.9636328242
0.3825918169 0.2489782135 0.2127698299
0.3925620647 0.5003882492 0.4623704661
0.4025100906 0.249998268 0.7089646577
0.4125210787 0.4995698487 0.9580495594
0.4025286089 0.2487097781 0.2117346574
0.4124877458 0.2496512661 0.4557918432
0.4124951531 -1.3106906926e-04 0.4559316563
0.4124803385 0.250258192 0.956938462
0.4124358946 9.6118928519e-05 0.9542347915
0.4025286089 0.4985609244 0.7103905661
0.4025915711 0.4972514835 0.2073671185
0.4424799698 0.2487994748 0.7002027283
0.4425021917 -1.095287663e-04 0.1995292519
0.4425170064 -6.1569314984e-04 0.6975231316
0.442531821 0.2496833474 0.2011579356
0.4324356488 0.248663293 0.4475771294
0.4223616985 0.0030208207 0.2023227361
0.4226839168 0.249012259 0.7060072866
0.4325874988 -0.0022145205 0.4493067377
0.4324097232 0.2512520576 0.9515866759
0.4224024387 -0.0015447415 0.7035082433
0.4326986085 6.9340861921e-05 0.9521422246
0.4225505851 0.2490868971 0.2069374942
0.4423873783 0.5004759818 0.1983264889
0.4526205859 -2.2024199519e-04 0.4466938069
0.452565031 0.2506510243 0.9459941521
0.4625204642 0.4982898702 0.194608942
0.4725870072 0.4992798075 0.4461789984
0.4525428091 0.4985975888 0.9494015176
0.4724833047 0.2496506114 0.4445651293
0.4625871301 0.2489467869 0.6921630123
0.4625463898 1.0973711398e-04 0.1947367182
0.4724870084 0.2500997496 0.9440960272
0.4725203413 -0.001517767 0.4401707389
0.4626019447 0.2493225965 0.1937904335
0.4525983639 0.2490842782 0.4464854761
0.4624760203 0.4984889052 0.6941583582
0.4723981206 0.4987298423 0.9446978717
0.4925200955 0.5011156437 0.943827512
0.4826091062 0.2492106393 0.6907435853
0.4823979977 8.4236930279e-04 0.6943574298
0.4825609587 0.2469780425 0.1895951147
0.4924312077 0.2512572954 0.4439318038
0.4924904663 0.250368185 0.941725686
0.5024533068 0.5002324258 0.1939209875
0.5024236775 0.4982571341 0.6937398448
0.5124161473 0.4985393187 0.446442884
0.5023162714 0.2503485434 0.1927080394
0.5223641732 -0.0010133049 0.1985496343
0.5224975049 0.2497867933 0.1984570428
0.5123605924 0.2491962354 0.446778991
0.5225382451 0.501262301 0.6961240748
0.5224123208 0.2523349653 0.6955268599
0.5024829361 0.2484904468 0.6966731421
0.5124309619 0.2504618101 0.9476145025
0.5023051605 -0.0014335045 0.6949389041
0.5322936808 -0.0014219159 0.4477178684
0.532356643 -0.0013112027 0.9511144595
0.5324640491 0.2499098807 0.4533085404
0.5325233076 0.2502732506 0.950318173
0.5423639274 0.5007535832 0.703348986
0.5525156545 0.4983756386 0.9538922031
0.5523971374 0.5003947964 0.4558307316
0.5423194835 -0.0024682901 0.7039591637
0.5523193606 -6.4823275643e-04 0.9546699714
0.5424083713 0.250230039 0.2011375655
0.5524008411 0.2483182553 0.4558436944
0.5423861494 0.2507675645 0.7024138123
0.5523601008 0.2497396534 0.956364395
0.5722265234 0.251803987 0.4632852696
0.5622970158 9.2106670145e-04 0.210428192
0.5723598551 0.2510222508 0.9643457784
0.5623710889 0.5008157817 0.2116735471
0.5622859048 -8.3364958921e-04 0.7092452098
0.5623859036 0.2492466489 0.2108994825
0.5724857794 0.5023596125 0.9627532053
0.5625710865 0.2488315561 0.7109313002
0.5723450404 0.5001695726 0.462219542
0.5723635587 -6.306207762e-04 0.4619695451
0.5723635587 9.0463321803e-04 0.9629013517
0.5923892385 0.5017539961 0.9640494857
0.5923929422 0.5018286342 0.4659065337
0.5823115846 0.2500932024 0.7162080872
0.5923336837 0.0020850942 0.467539847
0.5922077593 3.768630595e-04 0.9659846471
0.6023113388 0.2548595673 0.2215743513
0.5823967687 0.4994716406 0.7139858923
0.5923373873 0.251698577 0.4666648577
0.6022557839 0.2533563292 0.7169654853
0.5923262763 0.2499098807 0.965975388
0.5822597334 0.0013801567 0.2152994284
0.58229677 0.2515146005 0.2158596068
0.6124112147 0.5021284962 0.9706049607
0.612418622 0.5034870411 0.4726397843
0.6123556598 0.0033564304 0.4723518249
0.612277883 0.0017777029 0.9715864301
0.6123223269 0.2518288664 0.470562958
0.6122926976 0.252689169 0.9722253112
0.6222925747 0.2529189759 0.2216049065
0.6222110942 0.2528620152 0.7225765274
0.6424478826 0.0010189474 0.2235872896
0.6523847975 -3.3108616818e-04 0.4742277278
0.6523922048 9.5144573054e-04 0.9750586097
0.6423589948 0.2513869301 0.2251252336
0.6524403524 0.2499151185 0.4759675212
0.6424330679 0.2494469934 0.7272014706
0.6525033146 0.2482874834 0.9772993229
0.6324702274 0.5004681251 0.9713179149
0.6323591177 0.5028670209 0.4720110883
0.6424812155 0.4981464864 0.221827126
0.6523922048 0.5008727424 0.4745749457
0.632344303 0.0017458181 0.4721370127
0.6322924518 0.0023427922 0.9709105125
0.6324257835 0.2488322108 0.4737175488
0.6323591177 0.24985292 0.9722993843
0.6823103556 0.499529256 0.7392670631
0.6724178846 0.5006272222 0.982780737
0.6824140581 0.5008956576 0.2378037815
0.6623994892 0.2484884826 0.2290751851
0.67240307 0.4973732615 0.4854488861
0.6625217099 0.2511806931 0.7306282803
0.6823622069 0.2490842782 0.2372648992
0.6723956627 0.2492106393 0.4819683734
0.6823399849 0.2491019557 0.7388624384
0.6723734407 0.2500447531 0.9832992491
0.6625068953 0.4993819439 0.7327865871
0.7023545537 0.2490711838 0.2355843643
0.6924583791 0.2495641883 0.4856942535
0.7023027025 0.247998097 0.7372726431
0.6924620827 0.2482815909 0.9882158554
0.7024841818 0.4992110619 0.7403161242
0.6924213425 0.4998356652 0.9879936359
0.7024286269 0.4985871133 0.2374491562
0.7024841818 -0.0015446105 0.2384630327
0.7224320848 0.5008537555 0.7447188479
0.7223580116 0.499651034 0.2428055719
0.7123099869 0.2484321766 0.4893145794
0.712439615 0.2476118119 0.9884195566
0.7223691226 0.0013379272 0.2418213247
0.7223987518 -7.2228163986e-04 0.7441827434
0.7223765299 0.250602575 0.2407185605
0.7322690009 0.2524351375 0.4940247067
0.7224172701 0.2499033335 0.7409624126
0.7323838143 0.2519827257 0.9938639341
0.7124914662 -1.7467345155e-04 0.491117335
0.7423762841 4.3788300587e-04 0.7426512807
0.7524317161 0.4979625099 -0.0031767939
0.7423503585 0.2519558821 0.2429805697
0.7423392475 0.249016842 0.7444151479
0.7624612224 0.0021977061 0.2486758701
0.752465049 4.903261143e-04 0.496156162
0.7624390005 6.2919232274e-04 0.7470132642
0.7624093712 0.2480733898 0.2475564394
0.7524576417 0.2499616036 0.496447825
0.7625352956 0.2523866882 0.7498243407
0.7522946807 0.2481860018 0.9962990894
0.7823646815 7.800399155e-04 0.2523600841
0.7824980132 0.0010255601 0.7543520629
0.7724425813 6.4824468797e-04 0.0029582418
0.7825387535 0.2496270415 0.2518684235
0.7724833215 0.2496610869 0.5005135158
0.7825535681 0.2494338989 0.7524483825
0.7725092471 0.2489487511 -1.4283121234e-04
0.7926719623 0.0012805082 0.5063560366
0.7925534452 0.250363602 0.5040079173
0.7925682598 0.2500067793 0.0060207042
0.8026051735 0.0020676786 0.2568609547
0.8125013482 0.0010967937 0.5098985857
0.8026199882 5.2162175203e-04 0.7576436891
0.8125309775 4.6485748861e-04 0.0082981762
0.8025496187 0.2510301074 0.2576479821
0.8125939397 0.2501167724 0.5086476751
0.8025311004 0.2517169092 0.7579899811
0.812612458 0.2513188391 0.0108388857
0.8225864094 -0.0011929602 0.7615417893
0.832515917 -7.1992464622e-04 0.0139027369
0.8225086326 0.2515558479 0.264680303
0.832538139 0.2487772143 0.5162373966
0.8223975229 0.2504984744 0.7657797002
0.8326751743 0.2506104316 0.0164337243
0.8225641875 -0.0023988243 0.2609062754
0.8325603609 -0.0013927154 0.5144040858
0.8626748057 0.4982427303 0.7690657709
0.8527638164 0.4998814956 0.0210646859
0.8625933252 0.49825517 0.270867264
0.8425454234 -5.8668903369e-04 0.7665204318
0.8425380161 0.2493029549 0.2670247187
0.8426194966 0.2506182882 0.7683194838
0.8624822154 -0.0014508546 0.266435837
0.8524897456 -0.0020829217 0.5168318338
0.8524304871 -6.5471448894e-04 0.0188664722
0.8425454234 3.211463488e-04 0.2667339815
0.8625859179 0.2482390341 0.2689339545
0.8525823371 0.2495458561 0.5174531224
0.8625562886 0.2490901707 0.7699935373
0.8525897444 0.2491360011 0.0165227973
0.8726191279 0.4991121991 0.5190697692
0.8825708574 0.4985393187 0.7764147547
0.8925670309 0.4996615095 0.0249418605
0.8825153026 0.5005794276 0.2738977824
0.8925262906 6.3469197456e-04 0.5234215676
0.8725376474 -3.4274019227e-04 0.0212658872
0.8924707358 6.318766766e-04 0.0229247557
0.8826227086 0.2488800054 0.2702969007
0.8725228328 0.2472242174 0.5207790075
0.8924781431 0.2492054015 0.5238817471
0.8825819684 0.2512232499 0.7700018705
0.8724932035 0.2484131898 0.0188573056
0.8925448089 0.2493147398 0.0263411026
0.9025483897 0.500953273 0.2806597363
0.9025150568 2.9410639402e-04 0.2761310882
0.9125556741 7.2032941003e-04 0.5256150592
0.9025372787 3.0936138062e-04 0.7776286286
0.9124778973 0.001414464 0.0229441073
0.9025076495 0.2491942713 0.2771357055
0.9125445631 0.2511348627 0.527361334
0.9025817226 0.2504467515 0.7777471457
0.9124927119 0.2515172194 0.0285158907
0.9125815997 0.5007882834 0.0281470063
0.9225222183 7.374176139e-04 0.2767107108
0.9225814768 -4.1842587683e-04 0.778751763
0.9327813515 0.5008085798 0.5353056808
0.9326924637 0.5009873184 0.031472058
0.9225481439 0.2513109825 0.276242198
0.9227333268 0.2510916511 0.7790202782
0.9425441944 0.002413371 0.2859448565
0.9324702442 0.0018423893 0.52829373
0.9424960469 0.0016813281 0.7859229711
0.932548021 0.001288103 0.0287145919
0.9425590091 0.2513286599 0.2895225903
0.93253691 0.2508723198 0.5337890328
0.9425627127 0.2512671162 0.7873961012
0.9326517234 0.2511401004 0.0332487954
0.9226629573 0.5003915228 0.7849859456
0.9625439487 0.2510569509 0.2906864649
0.9525625898 0.2501416518 0.5414648644
0.9724956782 0.2487595369 0.5439972407
0.9625735779 0.2506628092 0.7947617514
0.9525255533 0.2503171168 0.0405405577
0.972421605 0.2501318309 0.0423389615
0.9527440691 0.4989766719 0.0405882423
0.9724253087 0.5012203989 0.042136927
0.9626217255 0.5006684696 0.2930197696
0.9525551825 0.0010310597 0.5354130869
0.9625920962 0.0016372654 0.7898979223
0.9926028385 0.4998120952 0.5522749167
0.982499259 0.5021920041 0.7949737858
0.9925806165 2.6456672138e-05 0.5500101297
0.9826103687 2.0748687786e-04 0.7978033807
0.9824548151 0.250429074 0.2931290275
0.9923435824 0.2513640148 0.548533296
0.9823733346 0.2509993355 0.7974978289
0.9924695068 0.2525542966 0.0478538011
0.0024816365 1.0010903 0.2991215464
0.0125244761 0.9987725896 0.5499443898
0.0224580947 0.9989755529 0.7990885501
0.0025060436 1.0005010516 0.7983450407
0.0123986258 0.9997546703 0.0512842219
0.0124495511 0.7504567627 0.050302197
0.0025107843 0.5004556854 0.799663543
0.0224024658 0.7497496647 0.2973113835
0.0026126349 0.7480932219 0.2995687632
0.0126750668 0.7474450487 0.5513332616
0.0224194656 0.7492782659 0.7975228286
0.0024721552 0.7495467013 0.8000811305
0.0224396135 0.5008098892 0.302019659
0.0023990079 0.4991017235 0.3008983765
0.0124633657 0.5001486215 0.5513027064
0.0323479732 0.7520804695 0.0497016488
0.0325094527 0.4998533426 0.0523391164
0.0424071088 0.7510001807 0.2983993331
0.0323961207 0.7520477334 0.5491027335
0.0424219235 0.752224508 0.7988218867
0.0423645168 0.497849898 0.2994428388
0.0324876011 0.4992889736 0.5506490108
0.0424545156 0.999041025 0.7953154483
0.052381801 0.749376474 0.0447914314
0.0524036526 0.7500115528 0.5470231294
0.0724959983 1.0005403348 0.5445601967
0.0625598241 1.0002064274 0.791483088
0.0724552581 1.0004552212 0.0440641255
0.0723826664 0.749055661 0.0457287347
0.0625638981 0.5018332173 0.7940312048
0.0623687153 0.7481521467 0.2939938317
0.0723511853 0.7489901889 0.5437111331
0.0623816782 0.7504567627 0.7930664019
0.0723726665 0.4988437637 0.5430861408
0.1024922963 0.4987102007 0.2853180124
0.1023711867 1.0002457106 0.2901336939
0.0823329144 1.0000951249 0.2930679171
0.1022693361 1.0007760342 0.7878497993
0.082354766 0.9978428866 0.7920219703
0.0923616801 0.7504829516 0.0400294529
0.1024074825 0.7492455299 0.2885707502
0.0823666177 0.7491014914 0.2894235175
0.0922742737 0.749376474 0.5361880774
0.1025037776 0.749376474 0.7862970406
0.0822962482 0.7493306436 0.789684036
0.1124106929 0.9980262083 0.0339925826
0.1125080991 0.7494746821 0.0327338018
0.1224816803 0.4982793946 0.7846470609
0.1125784686 0.4992398696 0.0327182464
0.1225146428 0.7494157572 0.281790278
0.1125192101 0.7504371211 0.5346686516
0.1223739038 0.749055661 0.7810961786
0.1225131614 0.5002167125 0.283035633
0.1125129139 0.498831324 0.5338982907
0.1224350142 1.0006712789 0.2853346788
0.1124773588 0.9989624585 0.5343603221
0.1224079775 1.0003701075 0.782402644
0.142499212 0.9981047747 0.2780986567
0.152554644 0.9997808591 0.5280455849
0.1324382246 0.9988380616 0.532681639
0.1424736568 1.0005337876 0.7805063711
0.1526364949 0.9981898884 0.0308278067
0.1325482232 0.9999248976 0.0307918812
0.1525335332 0.7512293329 0.0261020314
0.1325656304 0.7503585547 0.0309103057
0.1425129156 0.7511180304 0.2767199699
0.1525024224 0.7493633796 0.5270854115
0.1325348901 0.7497234758 0.5287427985
0.1424469905 0.7488068672 0.7787656517
0.1425692112 0.4998068575 0.2759551645
0.1825957563 1.0005599764 0.766951908
0.172680693 0.7512882577 0.0238831698
0.1625130401 0.7503258187 0.2747931417
0.1726603228 0.7498937032 0.5219123269
0.1625145216 0.7507186509 0.7751666219
0.1826453853 0.7511442192 0.2698302398
0.182661311 0.7489705473 0.7691435477
0.1826742739 0.5009454163 0.2664071337
0.1626152611 0.999106497 0.2736542668
0.172635138 0.998785684 0.5215336279
0.162527114 1.0006189013 0.7727897992
0.1926137813 1.0013849242 0.5174679371
0.2026762503 1.0017188316 0.7626788124
0.1925752633 0.999905256 0.0192081347
0.1927374835 0.750240705 0.0135952407
0.2026384729 0.7504894988 0.2634849474
0.1926734102 0.750849595 0.5162827665
0.2025673627 0.7504829516 0.7639482412
0.2125183515 0.5017932793 0.5093559997
0.2325281056 0.749664551 0.0021242706
0.22246897 1.0009593559 0.2547832025
0.232558846 0.7488068672 0.4992996418
0.2124624263 0.9997874063 0.5065069607
0.2226385975 0.9998594256 0.757340915
0.2125905729 1.0003635603 0.0092843677
0.2324210699 0.5002520674 0.5028384872
0.2125235366 0.7486431871 0.0087553928
0.2324684767 0.9999445392 0.5024116406
0.2225082287 0.7503912907 0.2551591238
0.2325288463 1.0006647317 -4.6171618219e-04
0.2125720546 0.7502996298 0.509114336
0.2225174879 0.7493175492 0.7555464926
0.2526148958 0.7499133448 0.9950213273
0.2423913177 0.5027105427 0.7501280407
0.2525648964 0.4996706756 0.9991786836
0.2425602045 0.7506990093 0.2499036328
0.2524737864 0.7502996298 0.497651514
0.2425694637 0.7505746124 0.7495224926
0.2523808246 0.4991207104 0.4967144884
0.2624966262 0.9990934026 0.7438364513
0.242611315 1.0002064274 0.247950879
0.2625677364 0.7500115528 0.2428361271
0.2624581081 0.7505025932 0.7429809063
0.2425398344 1.0016468124 0.749778045
0.2624862559 0.5004838384 0.246282381
0.2825904533 0.5007077528 0.7386689223
0.2824386033 0.7503323659 0.2339473474
0.2825356392 0.7508757838 0.7366467249
0.2726472422 0.7496710982 0.9871973494
0.27249317 0.5008989312 0.9925583946
0.2725439101 0.7509543503 0.4866164644
0.2825034173 0.5012878351 0.2385778461
0.2825519353 0.9984386822 0.7373781974
0.292547368 0.7513537298 0.982465926
0.3025679856 0.4992176091 0.7309930907
0.2926007007 0.4998631634 0.9849566362
0.3026787249 0.750594254 0.2327066219
0.2925558864 0.7516876372 0.4814480094
0.3025631708 0.750561518 0.7314828995
0.302682799 0.4990205382 0.2343334538
0.2925840342 0.4994349762 0.4875720082
0.3125423074 0.7501032137 0.9787622679
0.3126371211 0.7508561422 0.4786341551
0.332690208 0.7475563511 0.9762715577
0.322585147 0.9993749324 0.2263252189
0.3325887277 1.0006778261 0.479155445
0.3225073701 0.4991868372 0.7282764574
0.3225792211 0.748544979 0.2297612878
0.332644653 0.7504829516 0.4773841704
0.3225362587 0.7493371908 0.7270255468
0.3225618139 0.4999725017 0.224687276
0.3325631725 0.5026018591 0.4788267453
0.3424752729 0.5012806332 0.223257664
0.3426134193 0.9992374411 0.2241039499
0.3526629255 0.7485973567 0.9684383207
0.342495643 0.5015962085 0.7220700522
0.3526070002 0.5002481391 0.9685309121
0.3426297154 0.750594254 0.222174344
0.3526344073 0.7493502852 0.4690101993
0.3625142859 0.7512555217 0.2159818275
0.3425504571 0.7505025932 0.7249718684
0.3626439139 0.7493568324 0.7154608742
0.3625735444 0.9989755529 0.2180160617
0.3625809517 0.9988315144 0.7160460521
0.362588359 0.5001348724 0.2190799375
0.372643791 0.7493240964 0.9665124184
0.3826103352 0.5012099234 0.7143090365
0.3725919398 0.50063246 0.9663920495
0.3825325584 0.7488985281 0.2133522302
0.3726067544 0.7463385711 0.466618562
0.3824695962 0.748865792 0.7132146055
0.3725326813 0.9989624585 0.4658907932
0.3826140388 0.9983142853 0.7118498074
0.3725697178 0.9998528783 0.9663272355
0.3725660142 0.4990624403 0.4656380185
0.3924361404 0.7506859149 0.961012486
0.3924102148 0.7503585547 0.4614649216
0.4025545345 1.0004748628 0.2089374696
0.4026100894 1.0000623889 0.7109303743
0.4125470043 0.7495074181 0.9557625505
0.4126099665 0.7498151367 0.4557955469
0.4125062641 0.499573777 0.4587973618
0.4023582406 0.749088397 0.213614264
0.4024212028 0.748577715 0.7105257496
0.4324023158 0.7484074877 0.9492626304
0.4223913278 0.4989557209 0.7031276924
0.4325430549 0.500004583 0.9537255385
0.4225765107 0.7496252678 0.2042819713
0.4323541683 0.7471307828 0.4476650912
0.4224987339 0.7493371908 0.7039313862
0.4224135497 0.4993570645 0.2041430841
0.4324282415 0.499362957 0.4520900369
0.4424910807 0.4996615095 0.6982971962
0.44252071 0.7506924621 0.1979329752
0.4424466369 0.7499919112 0.6981731237
0.4526613261 0.9997415759 0.9469756215
0.4625204642 1.0005206932 0.6936315128
0.4723944169 1.0001147665 0.9415127256
0.4525428091 0.7499788168 0.9447534266
0.4525465127 0.7496449094 0.4456234497
0.452424292 0.4971827379 0.4480826787
0.4724758974 0.7515894291 0.94395714
0.4626797215 0.7513013521 0.1965524366
0.472512934 0.7495597957 0.4459595566
0.4624871313 0.7502341578 0.6983573806
0.4825165148 0.9989362697 0.1951459724
0.4923793565 0.9998266895 0.4439929141
0.4923349126 1.0018235869 0.943383073
0.4825017001 0.497690801 0.1919617523
0.4924349114 0.747648012 0.4431364432
0.4923941712 0.7474515959 0.9405590337
0.4925460211 0.4999181599 0.4436873623
0.4825239221 0.4980155423 0.6911500618
0.4824498489 0.7512620689 0.1957941126
0.4823646648 0.7499460808 0.69554723
0.5123605924 0.9996957454 0.443105888
0.5123272595 0.9994731405 0.9440219541
0.5022421983 0.9986612871 0.1917237923
0.5123420741 0.7494615877 0.9428645609
0.5224345427 0.4976397328 0.1970413195
0.5222826927 0.7501752329 0.6994832927
0.5222975074 0.9966840313 0.6955703779
0.5022903458 0.7493502852 0.1950450477
0.502212569 0.7473141046 0.6973259118
0.5123642961 0.4990198835 0.9490867066
0.5123124449 0.7494223044 0.4465123276
0.5223678769 0.7502668938 0.1950793066
0.5323010881 0.749664551 0.4502345041
0.5324307161 0.5011817704 0.4498909898
0.5523601008 0.7480932219 0.9567440199
0.5423565201 0.9972732798 0.20128386
0.5523823228 0.9999903696 0.4561112837
0.5422861506 0.7500246472 0.2038477173
0.5523897301 0.7492389827 0.457429786
0.5423824457 0.4995063408 0.2034514259
0.5423417055 0.7515239571 0.701961966
0.5324566418 0.7507644814 0.9507996485
0.5324010869 0.4985615792 0.9490404109
0.5623710889 0.4990172646 0.7120618419
0.562348867 0.7504829516 0.2091763556
0.5624044219 0.7483158269 0.7070230149
0.5722931892 0.7515239571 0.9599106477
0.5723376331 0.750594254 0.4616528823
0.60236319 0.5011726043 0.7185756507
0.6023298571 0.7500704777 0.2145225861
0.592200352 0.7518513173 0.4641213705
0.6024113376 0.750816859 0.7177312166
0.6023965229 0.5030280821 0.2201206655
0.6023113388 1.0022295136 0.2214549084
0.6022594876 1.0026943651 0.7193173082
0.5822930663 1.0007105621 0.7163016046
0.5823523248 0.7491014914 0.2111457758
0.5824967675 0.5011490344 0.2129513092
0.5823634358 0.7518251285 0.7121386928
0.5922633142 0.7503912907 0.9648457722
0.6122593647 0.7526435291 0.4699916687
0.622311093 0.5029396948 0.7200700768
0.6223629442 0.7515108627 0.2228400765
0.6223407223 0.7516745428 0.7206459956
0.6224666467 0.5011496891 0.2212836142
0.6223185003 1.0017319261 0.2212447258
0.6224073881 1.0009331671 0.7224811582
0.612255661 0.7515501459 0.9717438356
0.6424701045 0.9993880268 0.722895042
0.6324183762 0.7532393247 0.9695216407
0.6324294872 0.7509674447 0.4669231879
0.6524292414 0.7515239571 0.9742715823
0.6424071423 0.5016309087 0.7187552781
0.6523922048 0.5024041335 0.9739938079
0.6423404765 0.7517989397 0.2213030584
0.6526292389 0.7501490441 0.4753536398
0.6423182545 0.749985364 0.7208598819
0.66236986 0.9992570827 0.2301686902
0.6624402295 1.0020461919 0.7273440614
0.6824622056 0.9991654219 0.2344834519
0.6724512175 0.7496710982 0.9853732977
0.6725141797 0.9985172486 0.4821970743
0.6823473922 0.999106497 0.7356680332
0.6724586249 0.9983601157 0.9842992368
0.6824029471 0.7495336069 0.2385852534
0.6724364029 0.749664551 0.4827285492
0.6824659093 0.7499133448 0.7358745122
0.6624068965 0.749055661 0.2284390818
0.6623994892 0.5005388349 0.2274455755
0.6625439319 0.751360277 0.7310838303
0.692350973 0.9991457803 0.4846544515
0.7024730708 0.9983666629 0.7382365202
0.6924213425 0.9983470213 0.9878177121
0.6925620815 0.7498544199 0.9895121357
0.7023878867 0.7489312641 0.2392019125
0.6925102303 0.7494681349 0.4885858846
0.6922768998 0.5009238106 0.4892247657
0.702395294 0.7471897077 0.7386985515
0.7324986277 0.5008786349 0.996021315
0.7224987506 0.7488723392 0.2455444271
0.7324615911 0.9994338573 0.4935867491
0.7325875155 0.7494681349 0.4937515619
0.7324541838 0.5003875945 0.4945015527
0.7225617128 0.7479426362 0.7453419884
0.7324949241 0.9997808591 0.9939750439
0.7123136906 0.999041025 0.9916602575
0.7124618369 0.7483551101 0.990484346
0.7124655406 0.4997656101 0.9892991754
0.7126025759 0.7498609671 0.4928312028
0.7124655406 0.4988778091 0.4916506618
0.7326652923 0.7496449094 0.9940028213
0.7424688756 0.4986054454 0.7450614363
0.7426281329 0.7495990789 0.24572961
0.7425022085 0.5005178839 0.2461407161
0.742572578 0.7490491138 0.7436151578
0.7423429512 1.001954531 0.2455370198
0.752453938 0.7487283007 -0.0062460988
0.7524206051 0.9984779654 -0.0045047128
0.7525317149 0.4992732603 0.4985385401
0.7625834432 0.4969640613 0.7530622639
0.7625241846 0.7502472522 0.2493749356
0.7624538151 0.4984358728 0.2513712074
0.7524835673 0.7497431174 0.4967052293
0.7624834444 0.7482438076 0.7504113705
0.7724573959 0.999296366 0.5010672127
0.7825091242 0.7499133448 0.2538896949
0.7826276413 0.4976423516 0.2521563829
0.772412952 0.7504698572 0.5035977372
0.7825720864 0.7487283007 0.7534122596
0.772424063 0.7489836417 0.0021784366
0.7726722081 0.5012845615 0.5044116161
0.7827054181 0.4975035509 0.7547215028
0.7725981349 0.498714129 4.7243900388e-04
0.7925608525 0.7494615877 0.5077402789
0.7925052977 1.0011492248 0.0058167252
0.8126643092 0.7489116225 0.0054932106
0.7925497416 0.749088397 0.0044026685
0.7926682586 0.5000641626 0.5089819303
0.7926127037 0.4992182638 0.0063284781
0.8127235677 0.4988568581 0.5088374876
0.8027051723 0.5018305984 0.759540888
0.812719864 0.4994513443 0.0107389795
0.8025125821 0.7501948746 0.2525276746
0.802686654 0.5021743266 0.2601590623
0.8125976433 0.7517007316 0.5055273431
0.8025162857 0.7505549708 0.7563103721
0.8325529536 0.7492455299 0.0173051025
0.8327751731 0.499983632 0.516233693
0.8227604814 0.4997557893 0.7627778852
0.8327011 0.4984961071 0.0165579821
0.8225752985 0.7492520771 0.2652099262
0.8228086289 0.5010770151 0.2601053593
0.832678878 0.7503651019 0.5137494643
0.8226604826 0.7506990093 0.7628964023
0.8527119651 0.5000556512 0.5199040182
0.8625562886 0.9989035337 0.7685731844
0.8626007325 0.7494812293 0.2698607949
0.8526564103 0.7522310552 0.517468863
0.8427046807 0.4996169885 0.7646704546
0.8425972746 0.7530560029 0.2678293384
0.8427269027 0.4979592363 0.2692580246
0.8426750515 0.7499133448 0.7641362019
0.8626970276 0.7529119644 0.7736647885
0.8526527066 0.7503651019 0.0170338095
0.882596783 0.7502210634 0.7714435195
0.8727339413 0.7496187206 0.0225058719
0.8925151797 0.7475825399 0.026292955
0.8925448089 0.4999142316 0.5274085556
0.8725561657 0.500543418 0.0226952214
0.8824597477 0.998497607 0.2718746591
0.8725117218 0.9993225548 0.521012338
0.882630116 0.7510067279 0.2752848024
0.8725339437 0.7476938424 0.5234956408
0.8925485126 0.7513668242 0.5249400675
0.8824597477 0.9992112523 0.7739657107
0.9026335738 0.7509019727 0.2779690286