POSCAR file written by Ovito 3.7.11
1
269.9760209598 0.0 0.0
0.0 15.2721500143 0.0
0.0 0.0 10.7990408384
Sr Ti O 
800 800 2400 
Direct
0.022473705 0.5000333941 0.8116180492
0.0124949299 0.5009402736 0.0663408416
0.0124912259 0.2487406818 0.5650387427
0.0224835577 8.1370384186e-04 0.3158490193
0.0223973279 0.2505380712 0.8168703675
0.0024905599 0.2484885889 0.8139284395
0.0124358876 0.250035195 0.0658076461
0.0225507118 0.2519727087 0.3133404632
0.0024233688 0.2476576647 0.3133700954
0.0525243368 8.1063055229e-05 0.5578381032
0.0523917324 0.2507207566 0.0594038367
0.0524887781 8.3747680509e-05 0.0581433544
0.0424838155 0.4994794446 0.8099929048
0.0325195972 0.2517337116 0.5613402661
0.042611975 9.6967402273e-04 0.3066500542
0.0424026971 0.2509761234 0.8109911416
0.0524587754 0.5014018982 0.0569012996
0.0524206239 0.5014431498 0.5604725965
0.0325273757 4.3707055875e-04 0.5629348522
0.0325047811 0.2503966372 0.0605236583
0.0325158932 0.0012371544 0.0625358741
0.0424115868 0.2524657631 0.3121486907
0.0524817404 0.2487190738 0.5583881521
0.0624529964 0.2506179551 0.8059462492
0.0723931384 0.2513179221 0.0557083233
0.0624374394 0.2518037738 0.3076908874
0.0724727751 0.5012349276 0.0502175579
0.0625744886 0.5028247496 0.3067806213
0.0725168531 0.249405945 0.5546544872
0.0624241049 0.0024878624 0.3076353269
0.0825158893 0.5010476586 0.2970955019
0.0924815892 0.5002344136 0.5445359959
0.0925093694 0.2508844533 0.5482307685
0.1025102576 0.2508274869 0.7938701767
0.0825892291 0.2512943498 0.8000003507
0.0924793667 0.0036725024 0.5479816723
0.0926212312 0.2520250917 0.0483687826
0.0925412241 0.0012433094 0.0465969585
0.1025513724 0.2516708521 0.2964676684
0.0826036749 0.25147769 0.2991679082
0.1026754575 0.5000379776 0.7934164327
0.0824947763 0.5028823708 0.7999012678
0.0926119711 0.5021287114 0.0467437308
0.1224516582 0.2493836823 0.2930127319
0.1125748551 0.2504981292 0.5460815036
0.1224798089 0.2483602508 0.7940025958
0.112600413 0.248261378 0.0430809055
0.1524409883 0.2488978306 0.5323256523
0.1323892075 0.2512216684 0.5376557553
0.1423982445 0.2499206074 0.7856546322
0.1524002439 0.2521180714 0.0294496949
0.1323984676 0.2492736781 0.0371302845
0.142296754 0.2498832845 0.2850175774
0.1423823172 0.4998284459 0.7849128997
0.1525254402 0.5014798178 0.0286011936
0.1324699554 0.5012349276 0.0377615442
0.1524220977 0.5011288522 0.5267612692
0.132383281 0.5002396519 0.5370779262
0.1826110752 2.2439585369e-04 0.2705385137
0.1824632843 0.2492134378 0.7709524006
0.1825018062 0.2497628038 0.2673280434
0.1623514981 0.5004413262 0.7752231502
0.1725216606 0.5024312228 0.0227600267
0.1623233474 0.4986851884 0.2794568984
0.1723938715 0.2514246523 0.5215765495
0.1726394488 0.499030261 0.5239860227
0.1625322549 0.2523714738 0.7751231413
0.1824318 0.498038914 0.7689253687
0.1724998068 0.2508418922 0.0235042595
0.172525735 -9.6776999868e-05 0.0237099259
0.1624389133 0.2499166786 0.2763927374
0.2023869055 0.2480531558 0.7631480037
0.1925449204 0.2486693101 0.0140223989
0.2024524669 0.247583019 0.2626479981
0.2024676535 0.4988056691 0.7632109723
0.1925412163 0.4985090508 0.0140495309
0.2025213619 0.4972237046 0.2624516844
0.1924967679 0.499066929 0.5176123085
0.1923937958 0.2509270144 0.5154334113
0.2023557917 -0.0011198811 0.2649352383
0.2226953758 0.4979302194 0.2531434503
0.2326725582 0.4986806049 0.9991550749
0.2126744859 0.2496881581 0.5048370999
0.2226612987 0.2464941088 0.7510941554
0.2126074429 0.2472543161 0.0089179641
0.2226750037 0.2476006982 0.2556520065
0.2326825591 0.2496030358 0.4972790212
0.2327107098 0.2508137363 0.9965807722
0.2227398242 0.4961177699 0.7530730349
0.2125500304 0.4984448817 0.0081683605
0.2426230716 0.5012316537 0.2455362933
0.262649665 3.1901252512e-04 0.2351687058
0.2625240983 0.2503259203 0.7314877846
0.2624755754 0.5024390803 0.735278862
0.2526321086 0.2499454892 0.486139143
0.2425497317 0.2511195217 0.7426600731
0.2526243302 0.2494052903 0.9863946824
0.2525135796 -0.0016568717 0.487044779
0.252498393 -0.0010615397 0.989413469
0.2626229959 0.2494851742 0.2320341682
0.2424904672 0.2493404664 0.2450093946
0.2725323945 0.2514442959 0.481835057
0.2726261065 0.2496017263 0.9812553371
0.2726264769 -0.0017324341 0.4814442816
0.272542025 -0.0013626106 0.9816072202
0.2725727685 0.501678873 0.4851899846
0.2826281059 1.6251851493e-04 0.2268920448
0.2826077338 0.2477873124 0.7293468537
0.2827158915 0.2486974659 0.2261327181
0.3126415122 0.2499428701 0.4655975038
0.3125737284 0.2511110095 0.9671892731
0.3125152047 5.9074898633e-04 0.4658716023
0.3125718764 2.6505810487e-04 0.9654576378
0.2926012139 0.2488650913 0.4743797653
0.302527651 -2.6833110309e-04 0.2191117242
0.3025743218 0.2481670887 0.7209674058
0.2926782578 0.249111291 0.9736157697
0.2926708497 -0.0012955604 0.4747297964
0.3025532088 0.0010205509 0.7181421549
0.2925797305 -0.0017769596 0.978755115
0.3025235766 0.2490543246 0.2222786722
0.3124744603 0.4997845752 0.9680597207
0.312431864 0.4985673268 0.4671559756
0.332549947 0.2509905287 0.454730798
0.3225364651 0.2515739437 0.7126777807
0.3326640312 0.2487793142 0.9575865684
0.3225438731 0.0016314669 0.7124083123
0.3325580958 -0.0023954055 0.9573735865
0.3224931279 0.2491335538 0.2110239689
0.3324228986 0.5006082968 0.9567994614
0.3624966807 0.2511358914 0.1953383166
0.3525554274 0.5018497723 0.4510323214
0.3625670573 0.4990499046 0.6976681143
0.3527143304 0.2490130731 0.4531945505
0.3427052933 0.2511483323 0.7026518903
0.3526228408 0.251330363 0.9532898905
0.3524924588 -3.408814643e-04 0.4550493448
0.3425486127 -9.7654834755e-04 0.7059771856
0.3523828195 6.270896456e-04 0.9546789027
0.342534167 0.2507875449 0.2065069011
0.3624374161 0.2502119874 0.6997349645
0.3925586097 0.2487760403 0.4463022717
0.3924067444 -4.1244964553e-04 0.4456716601
0.3927178832 0.2510252324 0.947335658
0.3924215605 -3.8370451144e-04 0.9438075669
0.3824540086 0.5011412931 0.1942048826
0.3923771121 0.4999633319 0.9481968456
0.3726753624 0.2499834669 0.4472079077
0.3825651296 0.2486968111 0.6963392926
0.3825280893 6.3684596674e-04 0.1947975278
0.3726383221 0.2487760403 0.947113416
0.3824428965 0.2497091113 0.1939224501
0.3923882242 0.4997708247 0.4460263212
0.4024854173 0.2489312247 0.6970736171
0.4125344579 0.5015662497 0.943372343
0.4026076504 0.2477545731 0.1948086399
0.4126455789 0.2495362476 0.4409323503
0.4124233369 -0.0012000925 0.4412471931
0.4125900184 0.2497261357 0.9421314921
0.4124937135 -7.6662374643e-04 0.9412795646
0.4024150407 0.5000988728 0.6952586411
0.4025520899 0.4981502277 0.1954086932
0.4423852571 0.2498433425 0.6794813139
0.4422889523 6.756748153e-04 0.1760199342
0.4424260015 0.0013652306 0.6757004226
0.4423778491 0.2493679674 0.1794174582
0.4325917948 0.2502401432 0.4289488787
0.4224797856 -3.7329340365e-04 0.1849855453
0.422527938 0.2499147143 0.6883719183
0.4323547367 2.9812483087e-04 0.4307666327
0.4325510504 0.2476661769 0.9294914806
0.4225057138 4.0256330211e-04 0.6854336944
0.4323028802 -0.0011463345 0.9305934303
0.4224316332 0.2505066414 0.1886377215
0.4424074813 0.4983630334 0.1752411614
0.4524565219 7.1594419449e-04 0.4282543725
0.4524417058 0.2489122359 0.9242224942
0.4624611142 0.4997190965 0.1764551581
0.4723990338 0.502022636 0.4258782356
0.4524972663 0.4991900289 0.9247966192
0.4724434822 0.2490896831 0.4260865874
0.4625759392 0.2512779801 0.6789025588
0.4625018585 0.0014125062 0.1739188217
0.4724620024 0.2509512415 0.9265930751
0.472536083 1.406486407e-04 0.4265532955
0.462553715 0.2505223563 0.1766301736
0.4524342978 0.2496475613 0.4210833653
0.4625351948 0.498713999 0.67585414
0.4724508903 0.5002186987 0.9278524462
0.4923526578 0.5010339081 0.9332140334
0.4824665946 0.2498086388 0.6778598736
0.4825628994 -0.0022444117 0.6821139552
0.4825258591 0.2510416021 0.1818176714
0.4924748908 0.2509649921 0.4342261992
0.4924674828 0.2507181375 0.9338251988
0.5025054113 0.5020848407 0.1864977166
0.5022720572 0.5008427104 0.6838492945
0.5125100035 0.5015557731 0.4361624823
0.5023498419 0.2501144242 0.1852170473
0.5224516272 2.6080199162e-04 0.185184637
0.5223812506 0.2500849588 0.1825066214
0.5124248108 0.252576422 0.4363532399
0.5224812595 0.4979649231 0.6819982041
0.522318282 0.2508837985 0.686860673
0.5023831782 0.2503350873 0.686402299
0.5124099946 0.2505334877 0.9360383584
0.5024794831 8.2385303499e-04 0.6834075886
0.5324969638 0.0028806034 0.4345540061
0.5322710178 -2.9072059894e-05 0.9362142999
0.5324414033 0.251302862 0.4358217113
0.532519188 0.2518895508 0.9352234712
0.5422941302 0.4999266639 0.6835001894
0.5523839151 0.5016867304 0.9404924576
0.5524691079 0.500675085 0.4423028424
0.542383027 0.0030528123 0.6889515995
0.5522616821 0.0021437065 0.9406591391
0.5423089463 0.2527230942 0.1885747529
0.5524283635 0.2523780217 0.4383839759
0.5423459866 0.2505151536 0.6859161447
0.5524394756 0.2514331645 0.9394275482
0.572322723 0.2486254394 0.4511249222
0.5623070187 8.0211411809e-04 0.1952068234
0.572207898 0.2482391152 0.9496969788
0.5623773953 0.5002226275 0.1939983828
0.5622440501 -0.0014206247 0.695477179
0.5622588662 0.2518502636 0.1938752237
0.5722893867 0.4998873767 0.9481505452
0.5623144267 0.2491427208 0.694795637
0.5723079068 0.4994807542 0.4510369514
0.5722449383 -3.4638167219e-04 0.4498266588
0.5723116109 -7.8351724209e-04 0.9497617994
0.5923615397 0.4998939246 0.9591237419
0.5923837639 0.5022203815 0.4562401913
0.5822050821 0.2495120205 0.7014119653
0.5923356115 -0.0014836806 0.4550595309
0.5923689477 -6.1988605737e-04 0.9572717256
0.6023550198 0.2490700395 0.2066226521
0.5822495305 0.4966592785 0.7038056964
0.592394876 0.2483216183 0.4594210294
0.602377244 0.2508602262 0.7061614612
0.5922763469 0.2475862929 0.9569105824
0.5823939878 -7.1305799046e-05 0.2076449651
0.5822087862 0.2498426877 0.2025991466
0.6124781411 0.4988010856 0.9622443894
0.6125411096 0.5000635143 0.4631333961
0.6125077733 -0.0012097179 0.4598405111
0.6124299887 -0.002616527 0.9622258693
0.6123670201 0.2493129653 0.4606183579
0.6123855403 0.2486738936 0.959808988
0.6223012357 0.2491407564 0.2093469681
0.6224160607 0.2483903709 0.7112248739
0.642406725 5.3666360875e-04 0.2148733849
0.6524816938 2.0724044336e-04 0.4690718865
0.6524076132 3.7872906792e-04 0.9654391176
0.6423326443 0.2495146396 0.2118434861
0.6523483487 0.2487557419 0.4660160595
0.642410429 0.2476805822 0.7121999605
0.6522557479 0.2488808061 0.9647723917
0.6325910384 0.5006763946 0.9685782853
0.6326280788 0.499459801 0.4643918412
0.6424993258 0.5004858517 0.2169698673
0.6524076132 0.501746316 0.4694793301
0.6324725094 -0.0015981373 0.4640862585
0.6325243659 0.0013791121 0.9632629984
0.6323354602 0.248905688 0.460064605
0.6323836126 0.2488840801 0.9629111153
0.6824769504 0.5000451803 0.7264614122
0.6724353178 0.5000425611 0.9778846674
0.68243991 0.5017901867 0.2284523686
0.6622677481 0.2500378142 0.2167809617
0.6724390218 0.5016965522 0.4758798985
0.6622788602 0.2518456801 0.7184894079
0.6823139729 0.2514167949 0.2256400818
0.6724501339 0.2499166786 0.4759762034
0.6823436052 0.2514475698 0.7246936626
0.6724686541 0.249525771 0.9727731023
0.6625270304 0.5026905184 0.720876657
0.7023490856 0.2504143165 0.2322767823
0.692411166 0.2493142749 0.4776161638
0.7025342872 0.2500142418 0.7330249581
0.692411166 0.2528730404 0.9801719075
0.7024083501 0.5003850146 0.7354992519
0.6924407982 0.5007667552 0.9805793511
0.7024416864 0.5013239786 0.2401413697
0.702508359 -9.422333192e-05 0.2343473366
0.7226842249 0.5023827686 0.7451834453
0.7224842072 0.4999947617 0.2420739487
0.7125055432 0.2513408396 0.4876818726
0.7123870141 0.2505747392 0.9887467432
0.7225582878 0.0013071511 0.2440704223
0.7225360636 2.9393419629e-04 0.7428286066
0.7224175346 0.249811258 0.2419628277
0.7325480639 0.2487288956 0.4937574122
0.7225175434 0.2498348303 0.7412775429
0.7325665841 0.2509689208 0.9934045642
0.7124647988 -1.5053498412e-04 0.4879791212
0.7425526561 3.995512835e-04 0.7434953324
0.7525757685 0.5007791961 7.0621625064e-04
0.7425896964 0.2494170764 0.2451612599
0.742534136 0.25175401 0.745255674
0.7625507285 0.0017506381 0.2591337972
0.7526239209 4.1880201112e-04 0.5032554779
0.7624433115 9.1840422776e-04 0.756718729
0.7624062712 0.2514528081 0.2567187679
0.7523794548 0.2507109348 0.5018979499
0.7624025672 0.2497235166 0.7593717424
0.7525498403 0.2499507275 0.9990902544
0.7824747202 9.2933916487e-04 0.2698717879
0.7825043524 0.0017012672 0.7687457231
0.7724145675 -8.2385209994e-04 0.0158386713
0.7823487831 0.2503494926 0.268413325
0.7724886481 0.2478521363 0.5171446744
0.7823117427 0.2515209059 0.7672770742
0.772366415 0.2504503298 0.0125726405
0.7923793035 -3.2320222466e-04 0.5206033149
0.7925237608 0.2520859868 0.5234387519
0.7924719043 0.2502722278 0.0217310465
0.8025616893 3.2274480905e-04 0.2744055238
0.8126848106 -6.415594956e-04 0.5278132145
0.8026024337 0.0020741027 0.7745314221
0.8125662815 7.7638100261e-04 0.0290854959
0.8024690885 0.2504182452 0.2747083285
0.8124996089 0.2493483238 0.5275122618
0.8025098328 0.252116107 0.7765751221
0.8124292323 0.2508726671 0.0241904315
0.8225486496 -0.0010201571 0.778259531
0.8326384345 1.5970293232e-04 0.0343750398
0.8224634568 0.2498472712 0.2790957552
0.8325236095 0.2500423977 0.5263121552
0.8225301294 0.2513218508 0.7760269253
0.8325532418 0.2490261688 0.0303295879
0.8225227213 2.9917248952e-04 0.2764575579
0.8325532418 -1.9584622055e-04 0.5301939815
0.862633691 0.501414994 0.7862074591
0.8526439149 0.4994159303 0.0374025309
0.8625373862 0.4982726728 0.2878270862
0.8425022735 -0.0017116118 0.7836701967
0.842446713 0.2511817264 0.2790911252
0.8427652598 0.248954797 0.7859074324
0.8625966507 -0.0010871418 0.2893327755
0.8524994577 -2.7330748166e-04 0.5370686661
0.8526216908 -2.9570118521e-04 0.0379637844
0.8425356098 -4.954765932e-04 0.2830349939
0.8628077806 0.2494314817 0.2897837414
0.8527179956 0.2485625798 0.5374807397
0.8625707225 0.2513827459 0.7909754751
0.8527254037 0.2496704789 0.0383779879
0.8726605075 0.4978326562 0.542837697
0.8825650908 0.4984874428 0.7918033264
0.8924918983 0.4982680893 0.0398547857
0.8825354585 0.5001597679 0.2916089035
0.8925437548 -4.5527269267e-04 0.5428182508
0.8726308752 -6.8817609763e-05 0.0420864654
0.8925252346 -0.0014174162 0.0398846957
0.8826021311 0.252008722 0.2935164804
0.872608651 0.2471613364 0.5421033725
0.8925437548 0.2504247931 0.5433423714
0.8826873239 0.2489174742 0.7934479169
0.8726271712 0.25049551 0.0395272566
0.8925363467 0.2479457708 0.0434201023
0.9025261228 0.5000019644 0.2912459083
0.9026224277 0.0012975912 0.2938813276
0.9126492441 -3.161305288e-04 0.5457166564
0.902663172 -0.0010304373 0.7916922055
0.9125418271 -0.0013664738 0.0478140111
0.9025890914 0.2513932225 0.2943600738
0.9125788675 0.2498590574 0.5452490222
0.9025964994 0.2501118051 0.7957583073
0.912519603 0.2494196956 0.0471366361
0.9124603384 0.5009769417 0.0475844536
0.9225464194 -0.0017920196 0.2977742659
0.9225723476 -0.001232308 0.8019921943
0.9324102584 0.4996536179 0.5569120951
0.9324028503 0.4978686694 0.0555019161
0.9224871549 0.2484532305 0.3033173508
0.9225834597 0.2503075863 0.8017125398
0.9425370837 -0.0012329628 0.3070324955
0.9325473076 -0.0015194974 0.5554656703
0.9426482046 -0.0013194601 0.8071343176
0.9324917471 -8.5842483525e-04 0.0545627586
0.9425111554 0.2493345733 0.310376311
0.9324769309 0.2487701472 0.5542683418
0.9424444828 0.2482744737 0.8098141853
0.9325436035 0.2499801929 0.0565855308
0.9224538186 0.4973952587 0.8002837092
0.9623647705 0.2481991732 0.3092234309
0.9525268598 0.2481559573 0.5650239266
0.9725323402 0.2506840886 0.5642433017
0.9624795955 0.2493679674 0.8146294277
0.9526565009 0.2471430024 0.0621919547
0.9725212281 0.2477277268 0.061977769
0.9523898105 0.500383705 0.0649642379
0.9724508514 0.4985476832 0.061818866
0.9626722052 0.4988200745 0.3124746455
0.9524972275 -7.5208748272e-04 0.5607679931
0.9626240528 -0.0020100636 0.8095928693
0.992356323 0.4985103604 0.5620829247
0.9825702687 0.4997407045 0.8137311998
0.9925711569 -0.001166371 0.5653424734
0.9825406364 -7.6858810639e-04 0.8168870356
0.9824146993 0.2495558912 0.3156295554
0.9925489327 0.2503265751 0.5639905015
0.9824517396 0.2516125761 0.8132330074
0.9924822601 0.2497346479 0.0608612809
0.0025923467 0.9984039571 0.3179204996
0.0125906051 0.998849212 0.5641377368
0.0225501562 1.0009707207 0.8131617048
0.0026466849 1.0000998545 0.8122894051
0.0125847897 1.0009445293 0.061938321
0.0124473331 0.7522238189 0.0653748299
0.0024021446 0.4999122586 0.8145331229
0.0226386085 0.7516868939 0.3148276323
0.0025973101 0.7501939803 0.3155091743
0.0125095979 0.7515101015 0.5651702359
0.0225515638 0.7515166494 0.8162795743
0.0025190069 0.7498076562 0.8143886656
0.0223792892 0.4994447409 0.3173473005
0.0023921808 0.4991736592 0.3127385579
0.0125220064 0.5000550021 0.56608791
0.0325733057 0.7499909964 0.0602631722
0.0324677407 0.5010934937 0.0636399536
0.0425349311 0.7507570968 0.3103550128
0.0326677585 0.7505344694 0.5601688658
0.0425567849 0.7476468602 0.8083547964
0.0425534513 0.4992908661 0.3101633292
0.0323992161 0.5007654456 0.565634166
0.0424775186 1.0013177577 0.8072130283
0.0524284024 0.750305294 0.0578890725
0.0525028534 0.7499320657 0.555767549
0.072465367 1.0021165974 0.5526941279
0.0624748501 1.0015207415 0.8096382437
0.0723386891 1.0001129502 0.0521413398
0.0724664783 0.7511106816 0.0552456896
0.0624492923 0.5005074597 0.8047720708
0.0624204009 0.751385692 0.3047730356
0.0724668487 0.7500302836 0.5534664187
0.062528929 0.7517327289 0.8016634614
0.0724383276 0.5015302364 0.5494549513
0.1024943303 0.5023107421 0.2958064986
0.1025202585 1.0021755282 0.2944786028
0.0824569952 1.0007677369 0.2980872567
0.102581375 1.0006498753 0.7948304471
0.0824640328 1.0020838581 0.8015828987
0.092600859 0.7511761603 0.0460999699
0.1024639572 0.7522107232 0.2947480712
0.0824821826 0.7515493887 0.2975168356
0.0925238151 0.7529244407 0.5457731429
0.1025261849 0.7515952238 0.7909847352
0.0824977395 0.7532256425 0.7959675852
0.1124692902 1.0005974924 0.042859497
0.1126048578 0.7500171879 0.0419441379
0.1225998196 0.5004544219 0.7895012701
0.1124374355 0.4993569995 0.042637718
0.1223649839 0.7488778591 0.2889753363
0.1126074506 0.7513136655 0.5417440813
0.1224283228 0.7509535328 0.788914181
0.1224901802 0.5004943639 0.2905208439
0.1123652069 0.5007713387 0.5408680776
0.122448695 1.0015141937 0.2901985931
0.1124066921 1.0009838165 0.5431275375
0.1224568439 1.0011998961 0.7887262013
0.1424567683 1.0021035017 0.2859426596
0.1525195138 1.0022213633 0.5298402463
0.132419951 1.0017106297 0.5383150731
0.1423386096 1.0013701406 0.7796615074
0.1525698886 1.0023981557 0.0279366902
0.1324662514 1.0018153955 0.0376121791
0.1525428492 0.7511630646 0.0281614324
0.1324532872 0.7505475651 0.034202617
0.142591595 0.7499451614 0.2834146573
0.1524932152 0.749571933 0.528781819
0.1324932908 0.7515101015 0.537055702
0.1424504714 0.749768369 0.7828654956
0.1424378777 0.5006364526 0.2832229736
0.1824025381 0.9994188764 0.7712913196
0.1725346247 0.750357677 0.0249846687
0.1625792961 0.749964805 0.2770150148
0.1725879628 0.7490546515 0.5233239269
0.1626726377 0.751045203 0.7773233367
0.182663302 0.7506916182 0.2695930594
0.1824929165 0.7474045892 0.7733600218
0.1824440233 0.4994611106 0.2696921423
0.1625059563 1.0006367796 0.2746092456
0.1724886947 0.9989146907 0.5244184685
0.1624826209 1.0028434106 0.7746425431
0.1923808317 0.9967080596 0.5178215864
0.2023913504 0.9992486318 0.7637813933
0.1925204737 0.9980241808 0.0179238565
0.1925489948 0.7484522478 0.0204933439
0.2025476606 0.7469658821 0.2656297444
0.1925086208 0.7478956792 0.5178188083
0.2025106202 0.7483802213 0.7662529091
0.2126170734 0.4972466221 0.5078308843
0.2327177474 0.7484980829 -0.0020997737
0.2225164711 0.9999034185 0.252768417
0.2326407035 0.7488647634 0.500085752
0.2124637264 0.9982926433 0.5092198965
0.2225298056 0.9983515741 0.756368698
0.2123818673 0.9962759004 0.0110927868
0.2325673637 0.498155466 0.4997440549
0.2125670689 0.7483409341 0.0102501194
0.2325321754 1.0005320137 0.5027387654
0.2226850045 0.7493427577 0.255602002
0.2324906902 0.9986986111 -0.0025208296
0.212602998 0.7484129606 0.5099940393
0.2226650028 0.7508684106 0.7545157556
0.252602106 0.7512350911 0.9903672574
0.242674928 0.4999522006 0.7443176277
0.2524728352 0.4978876583 0.9923303948
0.2425526949 0.7498076562 0.2487217613
0.2526350719 0.7486814231 0.4877105788
0.2426456662 0.7516279631 0.7450037997
0.2524120891 0.4983944631 0.488412493
0.2625474337 1.0018677785 0.7326175145
0.2425723263 1.0007088061 0.2424786143
0.2625022445 0.7504886343 0.2345371683
0.2624866875 0.7506719746 0.7347649275
0.2426315908 1.0017237254 0.7433943975
0.2626263296 0.5008787237 0.2363049178
0.2825803239 0.4985987566 0.7314813025
0.2825440244 0.751241639 0.2290764981
0.2824917975 0.7499320657 0.7287949528
0.2725709165 0.7482689076 0.9819035428
0.2725094295 0.4989601988 0.9835425773
0.2725675828 0.7490546515 0.4820860052
0.2825981033 0.4990224035 0.2300210264
0.2825751383 1.0007677369 0.72802544
0.2925056498 0.7473587541 0.9770605201
0.3026087693 0.4964988558 0.7198321198
0.2925200956 0.4992522336 0.9766438164
0.3024491255 0.7508684106 0.220670196
0.2924660167 0.7494671671 0.4762141875
0.3024154188 0.7475224508 0.7202756777
0.3024724609 0.4999188065 0.222488876
0.2925123171 0.4969742309 0.4759687953
0.3124481617 0.7505213736 0.9661336237
0.312414455 0.7492052525 0.4679384525
0.3325614295 0.7511303252 0.9599015888
0.3224546059 1.0017106297 0.2114054843
0.3325292044 0.9987902812 0.4601590579
0.3225127593 0.4992653294 0.7130379979
0.3224842382 0.7498338477 0.2128213508
0.3323517812 0.7502921983 0.4589515432
0.3224101576 0.7499124221 0.7105155516
0.322527205 0.4982491005 0.2107989489
0.3324180834 0.5014555907 0.4575773471
0.3425263885 0.4992967591 0.2052956824
0.3425067572 1.0002046204 0.2090404594
0.3525213503 0.7502267196 0.9521786807
0.3424926818 0.4993628926 0.7044742743
0.3525528346 0.4993065809 0.9510304306
0.3424519375 0.7508029319 0.206494863
0.3524794947 0.7494999065 0.45382794
0.3625522411 0.748982625 0.1975051757
0.342459716 0.7485439179 0.7054178767
0.3624300081 0.7488778591 0.6999525765
0.3624966807 1.0020445709 0.2000470681
0.3626707702 1.0022213633 0.7014277075
0.3627115145 0.499558019 0.1960133765
0.3724827527 0.7502529111 0.9453077001
0.3825280893 0.5002907253 0.6964041132
0.3723901519 0.5008381269 0.9463448292
0.3823984482 0.7489367899 0.194593806
0.3726049858 0.7504493471 0.4472004996
0.3824466006 0.7493885927 0.6967458102
0.3725790576 0.9994319721 0.4453244071
0.3826651385 1.0010689387 0.6944270857
0.3724346003 0.9984039571 0.9477523617
0.3724975688 0.4985961374 0.4450178984
0.392477121 0.7489629814 0.9460207264
0.3924400807 0.7495850287 0.4431529179
0.4024631931 0.9987640897 0.1911666498
0.4023705923 1.0010820345 0.6922417065
0.4124714893 0.7477319825 0.942122232
0.4125233458 0.7492903747 0.4417398294
0.4124603772 0.5015800002 0.4426843578
0.4025780181 0.749571933 0.1955087021
0.4025150495 0.7494344278 0.6935973824
0.4324436335 0.7513136655 0.9306119505
0.4224575614 0.4994512888 0.6872403364
0.4325399383 0.5008885455 0.9333251544
0.4224279291 0.7498076562 0.1864440082
0.4324695617 0.7503707727 0.4321389768
0.4224983058 0.7490022686 0.6866838055
0.422527938 0.5001519105 0.1898128259
0.4323510327 0.50161143 0.4326343912
0.4424667459 0.4991199667 0.6764893816
0.4423148805 0.7487796411 0.1805119998
0.4424556338 0.7491397738 0.6761347204
0.4523787373 0.9997659133 0.9283617507
0.4623833295 0.9999885408 0.6737122831
0.4726138677 1.0008332155 0.9271394199
0.4524565219 0.7506392352 0.92487996
0.4524824502 0.7521845317 0.4231557716
0.4524898582 0.4986452464 0.426604226
0.4724138499 0.7498862306 0.9293525794
0.4623944416 0.7523023933 0.1786544275
0.4724879306 0.7512612826 0.4277959985
0.4624907464 0.7511106816 0.6762504714
0.4824480744 1.0005713009 0.1814685663
0.4924489626 1.0028892456 0.4328686712
0.4924489626 1.0006891625 0.9355290539
0.4824517785 0.4984691088 0.1802323454
0.4923119134 0.7506916182 0.4340196994
0.4925008191 0.749473715 0.9337788984
0.4923008013 0.5014045174 0.4337289328
0.4824777067 0.5010247411 0.6849771724
0.4823443615 0.7504362514 0.1764607141
0.4824591865 0.7506195916 0.6778163513
0.5124988914 1.0015731245 0.4350466424
0.5124174027 1.0010951302 0.9341030013
0.5025757879 0.9997921048 0.1876144825
0.5122914656 0.7520011915 0.9357049954
0.5223701385 0.5010561709 0.1855828206
0.5224516272 0.7535006529 0.6904739569
0.5223738425 1.0026928096 0.6836492767
0.502472075 0.7492969226 0.1851892671
0.5023424339 0.7504820864 0.6848262331
0.5124877793 0.5002468546 0.9357512958
0.5123877704 0.7493034705 0.434429921
0.5225071877 0.7518440427 0.1864171539
0.5324932597 0.7510713944 0.4374996381
0.5323858428 0.5005474016 0.43545779
0.5524357716 0.7520142872 0.9414555061
0.542279314 1.0020707623 0.1875255857
0.5522024175 1.0010034601 0.4414509149
0.542390435 0.7520994095 0.1923167519
0.5523135385 0.7504297035 0.4444039549
0.5423756189 0.4991389556 0.187337606
0.5424385874 0.7522565583 0.6911990213
0.5325006678 0.7506719746 0.9391127055
0.5324821476 0.5008335434 0.9368902859
0.5622255299 0.500147327 0.6923296772
0.5624662921 0.7500499272 0.1971421805
0.5624181396 0.7497356297 0.6987126515
0.5723042028 0.7495260979 0.9505859466
0.5722967947 0.7500499272 0.4526213514
0.6025031811 0.4995959966 0.7115387906
0.6024328045 0.7488909549 0.2092719615
0.5924652526 0.7485570137 0.458586696
0.6025142932 0.7473260148 0.7088746651
0.6022957553 0.4985522667 0.2110795294
0.6022883472 0.9997397218 0.2084830025
0.6025217013 1.0000409237 0.7113647011
0.582301387 1.000073663 0.7058679166
0.5823199071 0.7488713113 0.2046465507
0.5824050999 0.4961007455 0.2049900997
0.5823495394 0.7489629814 0.706255914
0.5923393155 0.7482885512 0.9567809413
0.6126225984 0.7489760771 0.4639297631
0.6224975494 0.4989529961 0.7106174125
0.6225457019 0.7491135823 0.214321484
0.6225753341 0.7499844486 0.7136769435
0.6224345809 0.5002049482 0.2128648731
0.6224716212 0.9983515741 0.2121296227
0.6225827422 1.0008332155 0.7133852509
0.6125003653 0.747509355 0.9601886513
0.6424771016 0.9997135304 0.7146261019
0.6325725183 0.750108858 0.9656891398
0.6324502852 0.7496243159 0.4638232722
0.6524928059 0.7492052525 0.9689116482
0.6424363573 0.4986164358 0.7148511218
0.6525298463 0.5008204477 0.9680597207
0.642636375 0.7514053356 0.2183033191
0.6525817027 0.7497028903 0.4681736586
0.6425771105 0.7479087749 0.7176402584
0.6624418377 1.0016189595 0.2179143957
0.6624159094 1.0017499169 0.7176328504
0.6824843584 1.0008659549 0.22497706
0.6725538468 0.7510255594 0.9787643751
0.6723834613 1.0011278695 0.4740806646
0.6825658471 0.9972449847 0.7285097423
0.672346421 1.0021427889 0.9761808123
0.6824473181 0.7512743783 0.2309525906
0.6724316138 0.7503314855 0.4764586536
0.682547327 0.7503904163 0.7323100798
0.6624973982 0.7474569721 0.2238667762
0.6624233175 0.4998402321 0.2234148842
0.6625011022 0.7492379918 0.7244667906
0.6924926547 1.0005713009 0.4801043478
0.702512063 0.9993141105 0.7367965894
0.6924222781 1.0006105881 0.9805793511
0.692529695 0.751438075 0.984190783
0.7025639195 0.7509076978 0.2366993973
0.6926148878 0.7522500104 0.4854881592
0.6924778385 0.5002645338 0.4834129749
0.702512063 0.7506392352 0.7359881842
0.7326369607 0.5020665067 0.9896171908
0.7226027362 0.7524071592 0.2417276217
0.7327147454 1.0012588269 0.4943611695
0.7325332478 0.7488582155 0.4946861983
0.7325480639 0.501169449 0.4913034905
0.7226138483 0.7502398154 0.739818154
0.7325814002 0.9996284081 0.9931175017
0.7125573996 1.0007873805 0.9909043422
0.7125314714 0.7521452445 0.9941916712
0.7125351754 0.498833825 0.991561808
0.712601848 0.7503838684 0.4915507347
0.7125611036 0.5018956074 0.4897459448
0.7327258575 0.7500564751 0.9984142684
0.7426156247 0.5005349607 0.7464104061
0.7426748892 0.7510517508 0.2485013714
0.7426267368 0.5007661004 0.2471401394
0.7426748892 0.7507309054 0.7457251601
0.7425452481 1.0012457311 0.2456603783
0.7525461362 0.7500237358 0.0017584393
0.7526091048 1.0000867588 0.0010677298
0.7526535532 0.5003241194 0.500766368
0.7625692486 0.5008990221 0.7576123269
0.7626729616 0.7498469434 0.2592819585
0.7626581454 0.500620083 0.2579725829
0.7524646475 0.7500761187 0.5034730898
0.7625099841 0.7492183482 0.758862438
0.7724479038 1.0007873805 0.5151130125
0.7824895363 0.7484456999 0.2686661252
0.7825821371 0.4990354993 0.2675567674
0.7725368005 0.7522238189 0.5128831848
0.7825376887 0.7516083195 0.7688401759
0.7725516167 0.7509011499 0.0146850503
0.7725034642 0.501264393 0.5145851878
0.7825191686 0.5004616246 0.7678382351
0.7725034642 0.5006515127 0.0134837399
0.7926941463 0.7524922815 0.5236841441
0.7924830164 0.9999165142 0.0245908375
0.8125773936 0.7502398154 0.0293733918
0.7925941374 0.7516214152 0.0220580199
0.7926052495 0.500862354 0.5240313971
0.7925719132 0.4994113468 0.0244459172
0.8125848017 0.4993858101 0.5269140605
0.8026728103 0.4994715872 0.7783512058
0.8125662815 0.4979197428 0.02576659
0.8026468821 0.7512809262 0.2765612708
0.802528353 0.4999423788 0.273966596
0.8126996267 0.7497421775 0.5256528374
0.8025468732 0.7492314439 0.7746369871
0.8325421297 0.7490677473 0.0331182615
0.8326680668 0.4998441608 0.5318043097
0.822485681 0.5010666475 0.7777020741
0.83257917 0.5008833072 0.0288180648
0.8226931068 0.7492510875 0.2812792824
0.8225153133 0.500178102 0.2803949446
0.8325273136 0.7486093966 0.5331294274
0.8227449633 0.749866587 0.7805143609
0.8526142827 0.5002160796 0.5375770446
0.8628003725 1.0020576666 0.7896336893
0.8625410902 0.7487599975 0.2933849872
0.8527513319 0.7510190115 0.5361713642
0.8426393227 0.5000242271 0.7830905156
0.8426208026 0.7499255178 0.2863510292
0.842672659 0.4991487774 0.2832007494
0.8426800671 0.7507112618 0.7854990628
0.8626448031 0.7496112202 0.7907736054
0.8525994666 0.7498993263 0.0370177745
0.8824169295 0.7495064543 0.7914505173
0.8726160591 0.7512809262 0.0381115753
0.8924956024 0.747856392 0.0401206426
0.8925104185 0.4991978863 0.5443859826
0.8726493954 0.4996706423 0.0414136278
0.8826947319 0.9997528176 0.2911560855
0.8726642115 0.9966818682 0.5444489512
0.8824539698 0.7499451614 0.2899800552
0.872612355 0.7475551901 0.5418385342
0.8925215306 0.7488713113 0.5397503857