POSCAR file written by Ovito 3.7.11
1
269.9720525896 0.0 0.0
0.0 15.2719255294 0.0
0.0 0.0 10.7988821036
Sr Ti O 
800 800 2400 
Direct
0.0223927151 0.5009121312 0.8192771257
0.0123763821 0.4994702698 0.0679342624
0.0124151639 0.2515971386 0.5670741686
0.0226550756 0.0010572187 0.3132182626
0.0225100606 0.2510608605 0.8141182584
0.0025362154 0.251046455 0.8193400952
0.0125221749 0.2504283273 0.064837553
0.0224068277 0.2498010324 0.3178104046
0.0025081754 0.2511211017 0.3199254384
0.0525277603 0.002060694 0.5623125646
0.0525770247 0.2509894877 0.0607389806
0.0525385022 0.0014270476 0.0615883278
0.0423989341 0.5021909483 0.8158582533
0.0324627204 0.2508303722 0.5641386796
0.042421529 0.0016367134 0.3146887852
0.0425341333 0.2518754271 0.8149359356
0.0526014716 0.5025792425 0.0653830724
0.0526381421 0.5020292137 0.5615791554
0.0324875378 0.0025130927 0.5624079449
0.0324241979 0.252595703 0.0673967994
0.0325649532 0.0021254533 0.0631921975
0.0426282171 0.2500099125 0.3117495921
0.0524959052 0.253251154 0.563561768
0.0625106455 0.2521674662 0.8106549369
0.0725965043 0.2510981839 0.0542470123
0.0626206569 0.2512409295 0.3099132909
0.072534646 0.502503941 0.0600618735
0.0625539833 0.5006089605 0.308813177
0.0725168664 0.2532603212 0.5539700344
0.0625639843 3.9273139898e-04 0.3070435494
0.0825016036 0.5018687886 0.303795065
0.0924622643 0.5034245845 0.5511669665
0.0923878121 0.2509154957 0.547149884
0.1023373605 0.250650958 0.7971285368
0.08238048 0.2518544736 0.8039783199
0.0924374469 1.2308629156e-04 0.5473665731
0.0922692813 0.2497001938 0.0464430564
0.092390405 5.2650627865e-04 0.0482033312
0.1023055053 0.2498547257 0.2957525659
0.0823367717 0.2513496256 0.3033561307
0.1023180992 0.5020606439 0.7956080091
0.0824941954 0.5005094315 0.8018697683
0.0923274355 0.500768076 0.0481468439
0.1223453574 0.2514282012 0.2899510394
0.1122532017 0.2507210212 0.5407131067
0.1223160951 0.2516927389 0.7900537305
0.112209123 0.2514079025 0.0446323134
0.152362909 0.252164847 0.5333947566
0.1324097325 0.248584421 0.5393731532
0.142364837 0.2512880748 0.786889514
0.1525425572 0.2495639962 0.0335796879
0.1323782478 0.2501520033 0.0416132972
0.1425222607 0.2500793209 0.2874267041
0.1424792933 0.501587881 0.7868348788
0.1524299529 0.5000052384 0.0353436668
0.1324449213 0.4985902236 0.0400464684
0.1524069876 0.5002547158 0.5364922994
0.1325286337 0.5009618957 0.5394435308
0.1825775179 -5.6353308593e-04 0.267269988
0.182554923 0.251258609 0.7700155452
0.1825656648 0.2499496712 0.272028814
0.1625687802 0.5005061575 0.7803286498
0.172494252 0.4984992069 0.0249390713
0.1626306384 0.5015453192 0.278109073
0.1726435267 0.2509109121 0.5262930955
0.172459804 0.5006580703 0.524314187
0.1624691402 0.2504191601 0.7813037507
0.1826412282 0.5016173468 0.7694182612
0.1725775939 0.2502240308 0.0241505638
0.1725824093 9.3856957662e-04 0.0194134994
0.1625421107 0.2504119574 0.2798379556
0.2026807099 0.2493826176 0.7630963105
0.1925555878 0.2505966099 0.0181238288
0.2026640415 0.2493230312 0.2636612812
0.2026829323 0.4990361399 0.7649853949
0.1926141123 0.4997479034 0.0195080462
0.2025662536 0.4996058126 0.2639400137
0.1926026297 0.4986020099 0.5158697944
0.1926811563 0.2481843404 0.5173495772
0.2027692376 -0.0021958092 0.2600451661
0.2224627575 0.4986956458 0.256253107
0.2324111947 0.4992273404 1.0036813984
0.2124969111 0.2482203542 0.5110637414
0.2225201709 0.2499077642 0.7554362584
0.2125617327 0.2499424684 0.0083245738
0.2224723881 0.2483572067 0.2532018652
0.2325097234 0.2478281313 0.5002339167
0.2324700896 0.2473003655 1.0022645851
0.2224190493 0.5013776914 0.7571734752
0.2125198765 0.498415393 0.0112318191
0.2424637167 0.4972629516 0.2454390246
0.2625483882 -5.0106552098e-04 0.2334581549
0.2625809842 0.2483912561 0.7368917462
0.2625565372 0.4967594132 0.7364880007
0.2524999407 0.2501448005 0.4913459597
0.242586322 0.2477764024 0.7462056733
0.2525932837 0.2492896366 0.9896058674
0.2526558828 -1.2567081459e-04 0.4906162545
0.2526647726 6.3402382756e-04 0.9856424942
0.2625198667 0.2496975746 0.2358815539
0.242673368 0.2481221348 0.2426239184
0.2725890571 0.2481516006 0.4810847124
0.2724182987 0.2493374367 0.9831422354
0.2724934917 8.4585042361e-04 0.479156735
0.2725746112 5.771875106e-04 0.9806327163
0.2724716376 0.4969421014 0.4794373196
0.2824537819 -1.4256455857e-04 0.2286854386
0.2824897116 0.2513404585 0.7285927391
0.2823393256 0.2493891656 0.2312838558
0.3123816945 0.2498979423 0.466356336
0.3125150417 0.2492595159 0.965140372
0.3125387478 -0.001458836 0.4652043649
0.3124594804 -0.0014989096 0.9651496322
0.2925192682 0.2495044097 0.474093248
0.3025380831 6.3814904411e-04 0.2201595561
0.3024602972 0.2504250533 0.7195056874
0.292390366 0.2499208602 0.9755951579
0.2923607333 -3.3219356079e-04 0.4728042256
0.3024984493 -0.0013494196 0.7210901106
0.2923962925 7.5660169087e-04 0.9702149714
0.3024984493 0.2507609638 0.2183815943
0.3125546754 0.5005264562 0.9632142467
0.3126161633 0.5013056638 0.4650719438
0.3326123071 0.2498318079 0.4606187051
0.3225245963 0.2482426173 0.7127040574
0.3324882202 0.251856438 0.959482379
0.3225171881 -0.0015953611 0.7117122881
0.3326193449 0.0010656655 0.9591767918
0.3226216434 0.2506686375 0.2132384694
0.3326945378 0.4996483744 0.9602880179
0.3626205984 0.2492064774 0.2017965443
0.3524569538 0.4989333369 0.453814297
0.3624205777 0.4994872945 0.7014862296
0.3524747334 0.2513535544 0.4509528898
0.3423825777 0.2487173446 0.7082804514
0.3524928834 0.249674002 0.9506203505
0.352492513 4.3490027931e-04 0.452707701
0.3425385198 7.7565626257e-04 0.7046393338
0.3525665948 -7.215354279e-04 0.9518149186
0.3426281587 0.2495384591 0.2036615522
0.3625946698 0.2491423074 0.7006917029
0.3924718364 0.2510484194 0.4408055431
0.3924718364 -7.4386398099e-04 0.4441892267
0.392327377 0.2491193895 0.9397673753
0.3924903569 -0.0015011359 0.9439992948
0.3825152503 0.4993098447 0.194725442
0.3926385204 0.5007281335 0.9379986737
0.3724216129 0.2500007453 0.4460671989
0.3824708012 0.2517942323 0.6949383296
0.3823559745 -0.0013170072 0.1975701809
0.3723734598 0.2510359782 0.9463513901
0.3825671075 0.2512029513 0.1957431399
0.3927014898 0.5007687308 0.4397711768
0.4024950962 0.2512671213 0.6851891723
0.4124739068 0.4975936237 0.9328777733
0.4024358308 0.2511761046 0.1888340915
0.4123998251 0.2493472586 0.4332853203
0.4124590905 9.5446168891e-06 0.4355438874
0.4124405701 0.2491429622 0.9335815498
0.4123590801 8.1768646392e-05 0.9377764285
0.4026469637 0.4991749567 0.6866856235
0.4025099125 0.5004603218 0.1865921927
0.4424844206 0.2492935653 0.6737092804
0.4425325737 -5.4906208818e-04 0.1780088969
0.4424621961 -0.0025088673 0.6774513344
0.4424992369 0.2501153347 0.174527055
0.4323537424 0.247973496 0.4296349424
0.4224638298 -2.2094367309e-04 0.1838724668
0.4224638298 0.2504715438 0.6807664923
0.4325574671 -0.0013537412 0.430851735
0.4324278241 0.2518361393 0.928997742
0.422389748 -0.0012022869 0.6836612364
0.4325574671 -7.7412328877e-05 0.9317572869
0.4225193911 0.2493839272 0.1801869001
0.4425325737 0.5008702243 0.1759151616
0.4524447108 -6.8211669194e-04 0.4220554542
0.4524669354 0.2504597575 0.9231082435
0.462401297 0.500629914 0.1705923885
0.472394924 0.4982582419 0.4232509483
0.4524632313 0.4996234921 0.9229508198
0.4724245567 0.2522473513 0.4222091738
0.4623679602 0.2496104867 0.6697866521
0.4622716539 -0.0011783868 0.1745233509
0.4724134444 0.2494683959 0.9223581659
0.4722800973 4.7425353564e-04 0.4254243214
0.4623049907 0.2502646282 0.1723453477
0.4524039659 0.2503445134 0.4270439335
0.4623494398 0.501726043 0.6719026119
0.4724282608 0.4994820561 0.9225804111
0.4924377394 0.4999305916 0.924617659
0.4823959592 0.2505239275 0.6770790736
0.4823218775 0.002234215 0.674119508
0.4823737347 0.2495659606 0.1723694242
0.4924155148 0.2499948521 0.4253872805
0.4924673721 0.2508336462 0.9271734791
0.5024054378 0.4999253532 0.1778060981
0.5025387849 0.5013803106 0.6777226587
0.5123583198 0.5018209885 0.429149707
0.5025128563 0.2528713722 0.1788988038
0.5223371305 7.8357929754e-04 0.1841937963
0.5223889877 0.2515231467 0.1858569314
0.5123472076 0.2492136802 0.4302424127
0.5223223142 0.5039183009 0.6835686342
0.5224667736 0.2498907395 0.6822759078
0.502372101 0.2518688791 0.6764743814
0.5123731362 0.2514858233 0.9293588905
0.5024017337 0.0012041549 0.6783653179
0.5322566758 4.508773085e-04 0.4363171156
0.5324678088 0.0018878932 0.9354058127
0.5323196453 0.2506620896 0.4333260652
0.5321937063 0.2500609866 0.9353132106
0.5424910685 0.5012323266 0.6889386345
0.5523624606 0.4998703503 0.9397673753
0.5523068993 0.5017273526 0.4381034116
0.5423762418 -5.5056811962e-04 0.6859364719
0.5524513587 -9.2615926489e-04 0.9406007949
0.54238365 0.2497041226 0.1861912253
0.5522846748 0.2503824915 0.4407027547
0.542387354 0.2514936808 0.6882135595
0.5522328176 0.2492719571 0.9379153318
0.5723571228 0.2506535772 0.443226164
0.5624338735 -2.4202811326e-04 0.1929511843
0.5724793577 0.2500943812 0.9450549597
0.562411649 0.4986589772 0.1932502893
0.5624709143 0.0018656301 0.6931909265
0.5624227612 0.2484148287 0.1935447642
0.5724682455 0.4999371396 0.947407055
0.5623857203 0.2512402747 0.6921973052
0.5723904596 0.500668547 0.4445494492
0.5725608476 -4.0559622359e-04 0.4474895683
0.5724349087 -2.2912862657e-04 0.9465828956
0.5923777137 0.4987493391 0.9498054514
0.5924295709 0.4969493041 0.4536087202
0.582484097 0.2487094871 0.6991332083
0.5924703158 -3.6617748763e-04 0.4557978357
0.592477724 -0.0010110209 0.9540929322
0.6023639325 0.2493518422 0.2060405021
0.582443352 0.5018308104 0.6973395041
0.5923554891 0.2496294758 0.4487674784
0.6023528203 0.2478759314 0.7066302806
0.5924629077 0.2500662249 0.9509629786
0.5824248316 -0.0013467349 0.1962700463
0.5825581787 0.2488365175 0.2001278531
0.6123908963 0.4999122573 0.9576210752
0.612250141 0.5004845492 0.4551616587
0.6123797841 2.8816043333e-04 0.4589490878
0.6124649781 0.0012645272 0.9572414062
0.6124279372 0.2492857078 0.4574331902
0.6124353454 0.2488725313 0.9560097973
0.6224437887 0.2499280629 0.2082527681
0.6224252683 0.2504126122 0.7098111654
0.6424569714 -8.8935971404e-04 0.2101048117
0.6524246698 -2.9133427302e-04 0.462614282
0.6523802208 -4.2366860087e-04 0.9669183338
0.6424273387 0.2494847658 0.213858904
0.6524431902 0.2505933359 0.4658738787
0.6423606651 0.251178069 0.7131920709
0.6524543025 0.2515709468 0.9660571336
0.6323151809 0.4993609188 0.9561209199
0.6322262828 0.5007536705 0.4595741525
0.6424680837 0.4986753471 0.2107595091
0.6525394965 0.498984411 0.4663655962
0.6323522218 -1.2665300901e-04 0.4579230557
0.6324151912 -9.31594074e-04 0.9599916909
0.6324003749 0.2504250533 0.4597389844
0.6324596403 0.2498043064 0.9591397509
0.682453704 0.4995305111 0.7293455948
0.6724526688 0.5005330042 0.9725115054
0.6824833367 0.498347949 0.2292280874
0.662551644 0.2496006648 0.2237969697
0.6724526688 0.4989019066 0.4733894714
0.6624997867 0.2492293953 0.7230866136
0.6825277857 0.2486171608 0.2299531625
0.672419332 0.2508781723 0.4739524926
0.6825277857 0.2486728185 0.7304290403
0.6723971075 0.2515323138 0.9765397001
0.6624220009 0.4990145316 0.7226754599
0.7025817134 0.2504217793 0.2356926454
0.6925103005 0.2500727729 0.4844498755
0.7024742948 0.2509554383 0.736968606
0.692488076 0.2472368502 0.9810772068
0.7026224583 0.4999744629 0.7349906235
0.6924732596 0.4989241697 0.9812438907
0.702522448 0.498656358 0.229592014
0.7024891112 0.0015160999 0.2335322366
0.7224356203 0.5002697761 0.7387900909
0.7226504573 0.5019165887 0.2407700228
0.7124975546 0.249850797 0.488935525
0.7125975649 0.2509331752 0.9900503578
0.7224689571 0.0016803228 0.2400319835
0.7224985898 0.0017014072 0.7394596046
0.7226726818 0.2525407001 0.2423794487
0.7325922271 0.2531673401 0.4979586812
0.7226097124 0.2516580347 0.7435368785
0.7325514822 0.2509207341 0.9979771042
0.7125938608 0.0010212703 0.4887697671
0.7426117828 0.0015988661 0.7545880224
0.752527624 0.4987611254 0.0075015256
0.7426117828 0.2502633186 0.2536120929
0.7425599255 0.2476041909 0.7529424817
0.7625323632 -3.7180873563e-04 0.2578893874
0.7524646545 0.0015963779 0.504241739
0.7626101491 7.376125988e-04 0.7602089746
0.7626694145 0.2495941168 0.2586468733
0.752742461 0.2491730828 0.5064827117
0.7627546085 0.2504761274 0.7574688762
0.7526017057 0.2499660411 1.0082003847
0.7825159132 0.0012985766 0.267906165
0.7825233214 -6.2711380456e-04 0.7683866729
0.772685266 0.0036897616 0.0123844384
0.7826566685 0.2511053866 0.2663708209
0.7726037761 0.253225617 0.5097256399
0.7827048216 0.2494408945 0.7678829171
0.7726630415 0.2515945195 0.0120292165
0.7926614078 0.0013421205 0.5256948855
0.792542877 0.2496628704 0.5196479633
0.7925651015 0.2526120729 0.0208572599
0.8025179836 6.9177685931e-04 0.2792740083
0.8124041921 0.0017420701 0.5313612127
0.80245131 -6.0715023779e-05 0.7778533935
0.812615325 -7.9218794633e-04 0.0308771859
0.8025624326 0.2505632153 0.2755689952
0.812611621 0.2518223886 0.5281636595
0.8025327999 0.2497584707 0.7746706567
0.8126523659 0.2495908428 0.0303327777
0.8226385848 4.0085087284e-04 0.7850291363
0.8325359055 -3.014181357e-04 0.0340214929
0.8226941461 0.2484881659 0.2803870865
0.8326692527 0.2495757825 0.5386221495
0.8226126562 0.2485608483 0.7844864875
0.832598875 0.250194565 0.0341666931
0.8226385848 -0.0019178482 0.2863043657
0.8326766608 1.9432812664e-04 0.5378933704
0.8624686335 0.4971064552 0.7925771398
0.8524379656 0.5003896038 0.038395279
0.8624871539 0.500102803 0.2914697152
0.842718441 6.7579983012e-04 0.7921030167
0.8426554715 0.2479374822 0.2931291462
0.8425369407 0.2494127383 0.7877590485
0.8625278988 -5.921476833e-04 0.2943264923
0.852712068 -9.6060154913e-04 0.5417622893
0.8526046495 1.0285308656e-04 0.0432051287
0.8426480633 -6.7576516804e-04 0.2901529122
0.8624093681 0.2487533584 0.2955812518
0.8524305574 0.2505291659 0.541409475
0.8626390215 0.2477574133 0.7944967829
0.8524935269 0.2496163799 0.0406021741
0.8725030054 0.4992790693 0.540300101
0.8825484897 0.4987794597 0.792756788
0.8926310148 0.4998998162 0.0442749616
0.8825892346 0.4978313147 0.2927087323
0.8926939843 -7.8452682988e-04 0.5454710066
0.8726215362 -0.0013482409 0.0451688504
0.8927050965 -0.0011757676 0.0471077548
0.8826077551 0.246607591 0.2948626589
0.8725659749 0.2507190568 0.5458701219
0.8926754638 0.2480108194 0.5456219481
0.882518857 0.2485130482 0.7941523028
0.8725844954 0.2490427784 0.0480603534
0.8926273107 0.2495895332 0.0447778841
0.9025394478 0.4986367141 0.2981120694
0.9025542642 -0.0032253454 0.2980176151
0.9125367789 -7.4910235122e-04 0.5524559888
0.9025579682 -0.0010995493 0.7998399286
0.9126441974 -6.6005005736e-04 0.051067887
0.9025987132 0.2474385275 0.2970971495
0.9125145544 0.2490146221 0.5518114777
0.9026024173 0.2479649837 0.7950570261
0.9125738198 0.2483382176 0.0483215842
0.9125441871 0.4978293503 0.0467710533
0.9225489264 3.6555735343e-04 0.3066601764
0.9224933651 -7.977537147e-04 0.8048978596
0.9325129207 0.4976453526 0.5539311415
0.9324684717 0.5006148537 0.0536335229
0.922619304 0.248359171 0.3017059599
0.9225415182 0.2469913016 0.8037403323
0.9425065477 -8.4529192451e-04 0.3107994937
0.9325944106 1.6990422546e-04 0.5570666513
0.9424843232 -0.0011874885 0.8129070219
0.9325203289 -9.6001223248e-04 0.060067337
0.9425658131 0.2481476718 0.3104679779
0.9325944106 0.2479623645 0.5590307434
0.9425806295 0.2487566324 0.8117957958
0.9324536553 0.2470161839 0.0547169684
0.9224637324 0.5000196439 0.8009659711
0.9627123429 0.2498907395 0.322842407
0.9524816543 0.2488149093 0.5621208781
0.9726504086 0.2472185159 0.5691938325
0.962630853 0.2484514973 0.8161879171
0.9525038788 0.2500911072 0.0646994832
0.9726207759 0.2509835945 0.0706274116
0.952596481 0.497261642 0.0609751162
0.9724652043 0.499865112 0.0683612511
0.9623048933 0.499466341 0.3173010926
0.9526224096 -0.0018591785 0.565561049
0.9625345467 -7.0752278754e-04 0.8195475241
0.9924672747 0.5011576798 0.5700559587
0.9824069741 0.5002612637 0.8201031371
0.9926006218 -3.0934117067e-04 0.5684178262
0.9826847806 1.7619026973e-04 0.8164703537
0.9826329234 0.2504761274 0.3182345226
0.992482091 0.248545788 0.5692142049
0.9826218111 0.2490873045 0.8202818593
0.9925006114 0.2497532323 0.070314231
0.0025709597 1.0001268494 0.3154258985
0.0125663276 1.0013447705 0.5695957259
0.0225792159 1.0019340872 0.8145877514
0.0024581703 0.9997274237 0.8180455168
0.0125818848 1.0000613698 0.0687799055
0.0126316677 0.750020863 0.0649625659
0.002467023 0.499900471 0.818609464
0.0224458317 0.7505447 0.3152666228
0.0024335381 0.7495690535 0.3206931104
0.0125786623 0.7494053545 0.5659712767
0.0224616852 0.7506167276 0.8147331369
0.0025517725 0.7505250561 0.819587343
0.0225311739 0.5017424129 0.3125848637
0.0024002754 0.4997629637 0.3181298821
0.0123303773 0.5003385297 0.5690780797
0.0324875378 0.7526204042 0.065204628
0.0324697582 0.5006960484 0.0675327394
0.0425256139 0.7508720981 0.3142572591
0.0323727111 0.7517167853 0.564029409
0.0424648669 0.7537597497 0.8161397639
0.0424644964 0.5021195756 0.3150008545
0.0325297644 0.5016880648 0.5631256117
0.0424759791 1.0014102502 0.8128079376
0.052606287 0.7513108116 0.0633813838
0.0525084991 0.7521882386 0.5647322595
0.0724776031 0.9994393134 0.5568879291
0.0625391669 0.9999696983 0.8069239952
0.0726046533 1.0020977862 0.0593186484
0.0726135431 0.7510227013 0.0547824381
0.0625750966 0.5016049057 0.8106466027
0.062628065 0.7513828392 0.3116097628
0.0725646491 0.7523191979 0.5545534282
0.0625202761 0.7493726147 0.8142247509
0.0725598338 0.5013567379 0.5602753167
0.1024014412 0.5002979323 0.29482284
0.1023492136 0.9992887102 0.2948070976
0.0825064189 1.0013578665 0.3022254581
0.1023195809 1.0010894 0.7944254793
0.082510123 1.0013054827 0.7988111184
0.0923648468 0.7515792781 0.0470871046
0.1024207025 0.7501452743 0.2957044127
0.0824630811 0.7509834135 0.3045247702
0.0924400397 0.7500536028 0.5490130399
0.1024188504 0.7507738787 0.7978749104
0.0824849352 0.749143436 0.8066397065
0.1124298866 1.0002316169 0.0419876878
0.1123439518 0.7507673307 0.0437247195
0.1223072053 0.500421034 0.7925336168
0.1124795214 0.5023369679 0.0431277132
0.1225494526 0.7511994963 0.2910205946
0.1122898721 0.7497589445 0.5421262159
0.1225394516 0.7493726147 0.7901389245
0.1223331339 0.5009468354 0.2916206567
0.1124906337 0.5016330619 0.5454858229
0.1224157351 0.9998911228 0.2911678321
0.1124617418 1.0000482739 0.5427707271
0.1223823983 0.9995702726 0.7913816457
0.1425122597 0.9985225986 0.2815233152
0.1524466213 0.9994196695 0.5307870792
0.1324738132 0.999851835 0.5368617821
0.1425463373 1.00038222 0.7870784225
0.1524829214 0.9993083541 0.030844127
0.1323904713 0.9983458036 0.0391488755
0.1524673642 0.7505316041 0.0312352786
0.1324860367 0.7496345332 0.0409800835
0.1424244728 0.750197658 0.2851773972
0.1524425468 0.7522602662 0.5316501315
0.1324615897 0.7495166698 0.5368432617
0.1424366963 0.7514090311 0.7854588104
0.142577822 0.499890649 0.2859330309
0.1826901222 1.0012727429 0.7669930101
0.172561296 0.7502369457 0.0202683101
0.1624506198 0.7509768655 0.2759958913
0.1725535174 0.7507738787 0.521039774
0.1623620921 0.750714947 0.7761745161
0.1824693586 0.7476897882 0.2672301691
0.182621967 0.7514548668 0.7648900147
0.1826816028 0.4986498101 0.2695693001
0.1625143301 1.0000024382 0.2776034651
0.1725990776 1.0023924446 0.5210758889
0.1625665577 1.0003560281 0.7770847955
0.1927056033 1.0003167404 0.5152956609
0.2027173803 0.9980576932 0.7621443601
0.1926504124 0.9990529836 0.014643376
0.1926304103 0.7491172441 0.0119599501
0.202607369 0.7490255726 0.2617749748
0.192617446 0.7499684793 0.5136214135
0.2026214445 0.7481023099 0.7591588659
0.2125283959 0.4994571739 0.512025878
0.2324471243 0.7500863426 0.0023621048
0.2225857332 0.9962766473 0.2552039243
0.2326164011 0.7484755437 0.4979290485
0.2126384073 0.9966564292 0.5090320496
0.222635368 0.9997863554 0.7510802519
0.2126976727 0.9993934776 0.0055490087
0.2325723225 0.4991998389 0.5006756291
0.2125961807 0.74842316 0.0071417662
0.2325712112 0.9975338562 0.4944657271
0.2224975759 0.7468712929 0.252894426
0.2326649246 0.9987714212 6.0923812876e-04
0.2125906245 0.7481546936 0.5064641912
0.2225568413 0.7463605518 0.7531628749
0.252642548 0.7484820917 0.984744253
0.2424833483 0.4992482939 0.7457834073
0.2526625501 0.5013979901 0.9858647394
0.2425922485 0.7483511325 0.2410135666
0.2524766049 0.7512191402 0.4902458458
0.2425296494 0.7485737632 0.744108234
0.2525840235 0.5007032512 0.4922275324
0.2626443241 0.998450571 0.7336682644
0.2426329935 0.9985749823 0.2447713629
0.2625839474 0.7494119024 0.2337804105
0.2625924668 0.7489273532 0.7326514925
0.2425696536 0.9977892267 0.7437396773
0.2624891228 0.4976610677 0.2339887654
0.2825204555 0.4992967488 0.7250081088
0.2824171115 0.7477814597 0.227211212
0.2825382351 0.7481088578 0.7260035822
0.2724808978 0.7506822072 0.9805864153
0.2724894172 0.4993812175 0.9824847599
0.2725520163 0.7504399326 0.4786640914
0.2824967493 0.4988174379 0.2274103067
0.2825686086 0.9985291465 0.727485217
0.2925118601 0.7515203464 0.970752064
0.302491782 0.5017699143 0.7195918074
0.2925048223 0.4991880526 0.9719836729
0.3024728911 0.7493398748 0.2192650191
0.2925422336 0.7489862848 0.4727986695
0.3024851146 0.7507607828 0.7199955529
0.302534379 0.4991395977 0.2174268659
0.2924733376 0.5010051123 0.4739311941
0.3125157825 0.7494315463 0.9653903979
0.3125631948 0.7500994385 0.4637097658
0.3325308172 0.7486195989 0.9572136256
0.3226227546 0.9983327076 0.2131579055
0.3325330396 0.9995440808 0.4571989066
0.3225120024 0.5000648248 0.7104158576
0.3224975564 0.7495101219 0.2109789762
0.3326486072 0.7506822072 0.4585851612
0.3226016413 0.7498571639 0.7133939436
0.3225457096 0.5011832169 0.2141117079
0.3326245306 0.5003994257 0.4589398276
0.3425714861 0.5009717177 0.2044671911
0.3425407422 1.0005393711 0.203654144
0.3525054773 0.7492547513 0.9526668587
0.3426007484 0.5001925101 0.7048402805
0.3525273315 0.5013030446 0.9538151257
0.342590377 0.7495166698 0.205187636
0.3525206641 0.7507280429 0.4520622638
0.3624650268 0.7513108116 0.2030939008
0.3425688933 0.7503940968 0.7048023136
0.3624872513 0.7510096053 0.7007694887
0.362516884 0.99967504 0.2002584221
0.3622168529 0.9983458036 0.701162122
0.3623872409 0.4998985066 0.2031846509
0.3725364396 0.7496803689 0.9484164187
0.3825115462 0.5002933487 0.6919269068
0.3725734805 0.4999456519 0.9485645822
0.3825856279 0.7495952454 0.1949671337
0.3723771639 0.7491237921 0.4465116893
0.3825930361 0.7503089733 0.6915639063
0.3723993884 1.0002381648 0.4495703392
0.3823041173 0.9995178889 0.6966172071
0.3724882865 1.0020126627 0.9480645304
0.3724475415 0.5021418386 0.4495444106
0.3924903569 0.7498637119 0.9399711001
0.3925755509 0.7490452165 0.4434280368
0.4024543512 0.9999762463 0.1928308014
0.4025247289 0.9978350625 0.6923112058
0.4125702131 0.7512977157 0.9330259368
0.4125331722 0.7504726724 0.4335936855
0.4125813254 0.4978424463 0.4316249632
0.4024913921 0.7483773243 0.18647644
0.4025173207 0.7492809432 0.689340528
0.4324982018 0.7495559576 0.9287477162
0.4225638401 0.5000104767 0.6792607809
0.4324796813 0.4989058354 0.9252658743
0.4225934728 0.7497065608 0.1803211733
0.4324574568 0.7496017933 0.429403437
0.4225082788 0.7489011613 0.6822296067
0.4224971666 0.5001604251 0.1773727199
0.4325982121 0.4987231473 0.4284385223
0.4425066451 0.5007562897 0.674245447
0.442588135 0.7517167853 0.1738353167
0.4424770124 0.750197658 0.6771337089
0.4524669354 0.9999238626 0.9212562
0.4624753787 1.0008995091 0.672971241
0.4723134341 0.9988565447 0.9239324029
0.4523817414 0.7501125344 0.9249325064
0.4523706291 0.7485868591 0.4262642231
0.4524558231 0.5013456064 0.4226156973
0.4724023322 0.7499226435 0.9205802041
0.4622975825 0.7485737632 0.1713044992
0.4722800973 0.7492220115 0.4199413465
0.4623568479 0.7491761758 0.6708654675
0.4823811429 0.9993607378 0.1728944786
0.4924155148 0.9977041032 0.4281671979
0.4924599639 1.0005917548 0.9274975868
0.4823292856 0.5009455258 0.1720897657
0.4925451579 0.7499291915 0.4252317089
0.4923932903 0.7505839878 0.9265252639
0.492463668 0.4996673635 0.425746577
0.4822922448 0.4986504649 0.6698977747
0.4824330001 0.7508459063 0.1791303092
0.482388551 0.7494119024 0.6781291823
0.5123916566 1.0008274815 0.4326093244
0.5124694425 1.0008078376 0.932525885
0.5024091419 1.0016394289 0.1782144737
0.5125805651 0.7500274109 0.9313498374
0.5224297327 0.5011092249 0.1813879503
0.5224186204 0.7485082836 0.6781782615
0.5224704776 0.9993018061 0.6851900984
0.5024906318 0.7527775553 0.1809212354
0.5025054481 0.7506887552 0.6786662749
0.5123360953 0.5032589211 0.9284699096
0.5124694425 0.7521751427 0.4312999296
0.5223037937 0.7498768078 0.1821750689
0.5323233494 0.7519394161 0.4321852064
0.5323974311 0.5014601957 0.4347539908
0.5523513484 0.7495428617 0.9379153318
0.5424243949 0.9998911228 0.1852902061
0.5525513691 1.0009322489 0.4405138463
0.542387354 0.7507673307 0.1829695955
0.5524550628 0.7516971414 0.4368597643
0.5423540173 0.5030578986 0.1852263106
0.5424243949 0.750714947 0.6845409571
0.5323677984 0.7515007026 0.9320906548
0.5322826044 0.5021156468 0.9338593564
0.5625116593 0.4994172313 0.6950596385
0.5623931285 0.7508328104 0.1929085873
0.5623746081 0.7515858261 0.6911629388
0.5724608373 0.7505905357 0.9472866721
0.5725497354 0.7495101219 0.44441425
0.6023676366 0.4981770472 0.7043448588
0.6023565243 0.7495625056 0.2068266946
0.5923443769 0.7501452743 0.4509982648
0.6024157897 0.751061989 0.7070442123
0.6025306164 0.4994486615 0.2042208693
0.6025639532 0.9983065158 0.2067081638
0.6024306061 0.9990202437 0.7055246106
0.5824729847 0.9985422425 0.6985877814
0.5824915052 0.7504988642 0.200336208
0.582354454 0.5017339005 0.19855269
0.5824359439 0.7508066185 0.6961773468
0.5924629077 0.7494380943 0.9533335943
0.6123686718 0.7489862848 0.4566849646
0.6224363806 0.5005611604 0.7118141505
0.6224474928 0.7501452743 0.2082073931
0.622414156 0.7494708341 0.7086406739
0.622410452 0.4986347498 0.208927838
0.6224252683 1.0006572344 0.2087342994
0.6223919315 0.9992101347 0.7088888477
0.6124760903 0.7505316041 0.9595194198
0.6424014101 0.9992821622 0.7102565819
0.6324522321 0.7484886397 0.9580100043
0.6324818648 0.7487440102 0.4593630195
0.6524209657 0.7500601507 0.9643995546
0.6423902978 0.5017240786 0.7103288116
0.6523542922 0.5004328203 0.9651125914
0.6423421447 0.748613051 0.2105946772
0.6524172616 0.750184562 0.4649886018
0.6423458488 0.7517953609 0.7087027173
0.6623775519 0.9988630926 0.2220115997
0.6624516336 0.9999958902 0.723231999
0.6824722244 1.0002905485 0.2315116571
0.6725341587 0.7493791626 0.9744561511
0.6724823015 1.0007096181 0.4756063675
0.6823759182 1.0034335707 0.7276574571
0.6725489751 1.0000679178 0.9734838282
0.6826796533 0.7494119024 0.2288400843
0.6725489751 0.7497458485 0.4749099992
0.6825240817 0.75019111 0.7267999609
0.6624145927 0.752306102 0.2187834878
0.6624108887 0.5014772204 0.2180926755
0.6625442358 0.7511471126 0.7210317713
0.6925214128 0.9987386813 0.4818273818
0.7025298561 1.0022942251 0.7330154191
0.6925436373 1.0002512607 0.9813920542
0.6924806678 0.7499619313 0.9803178689
0.7025076316 0.7497196567 0.23435547
0.692488076 0.7481088578 0.4803596373
0.6925547496 0.4995632509 0.4799169989
0.7025854174 0.7501583702 0.7355156779
0.7325403699 0.4996097414 1.0003106791
0.7225467429 0.7491761758 0.2424674208
0.7323699819 1.00073581 0.4961696071
0.7325700026 0.7517036894 0.4940619816
0.7325737067 0.4996058126 0.4992291831
0.7224948857 0.7520310875 0.7417181717
0.7324662882 1.0024513762 0.9967454953
0.7125049627 1.0016263329 0.98504058
0.7125753404 0.750197658 0.9843645841
0.71247533 0.5018006898 0.9859943824
0.712516075 0.7509506737 0.4857537142
0.7124456973 0.4984566452 0.487829855
0.7324107269 0.7526269522 0.9928099027
0.742452507 0.5002180472 0.7508894914
0.7424747315 0.7496083413 0.2524536396
0.7424784356 0.5009082024 0.2525369816
0.7424784356 0.7506101796 0.753463832
0.7425747419 1.0010566602 0.2515591026
0.7525831853 0.752659692 0.0062094474
0.752486879 1.0015281135 0.005348525
0.7524942872 0.5005251466 0.5063160277
0.7625064346 0.5019781396 0.7571179139
0.7624619856 0.7512977157 0.2583459162
0.7623841997 0.5009330847 0.2583912912
0.752657267 0.7510554411 0.5037027943
0.7626027409 0.7521031151 0.7582226579
0.7726778578 1.0011221398 0.5132426706
0.7825714745 0.7529281584 0.2683043544
0.7824899846 0.502140529 0.2658559528
0.7724778371 0.748789846 0.5131111755
0.7825270255 0.7499684793 0.768176466
0.7724778371 0.7500536028 0.0124397219
0.7725926638 0.4986196894 0.5109109478
0.7825270255 0.501658599 0.7663586852
0.7725445107 0.5011046413 0.0109699402
0.7924058258 0.7493726147 0.5227853251
0.792498428 1.0024317323 0.0206749262
0.8125856923 0.7500536028 0.0308028264
0.7924947239 0.7503810009 0.0244019787
0.7924243462 0.5013482255 0.5193414501
0.7925243566 0.503339461 0.0204519402
0.8124930902 0.5018890873 0.5280664273
0.8024105651 0.5021346359 0.7729593684
0.8124708656 0.5015210918 0.0285484264
0.8024179732 0.7500797946 0.2786915406
0.8025476163 0.502008915 0.2768237547
0.8124597534 0.7508786461 0.5335966293
0.8025920653 0.7529674462 0.7792202017
0.8326210995 0.7499488354 0.0329949051
0.8324136706 0.4996149798 0.5302879535
0.8226274725 0.4985456975 0.7799619451
0.8324951606 0.4986602868 0.0326746868
0.8225015335 0.7506167276 0.282364143
0.8225496867 0.4990603673 0.278665612
0.8327099976 0.7515858261 0.5349097282
0.8223978191 0.7498637119 0.7823557114
0.8524787105 0.4983256859 0.5362802404
0.862535307 0.9967022649 0.7962793749
0.8626353174 0.7500470548 0.2889296374
0.8524935269 0.7475195412 0.5421641828
0.8424554508 0.4995141412 0.7851698916
0.8426221347 0.7500732467 0.288017506
0.8423850731 0.4999855945 0.2840578368
0.8425850939 0.7499226435 0.7880961204
0.8626279092 0.74948393 0.7918353964
0.8526379863 0.750367905 0.0430090899
0.8827448063 0.7496017933 0.7920974605
0.8725141177 0.7466552101 0.0455580574
0.8926199025 0.750538152 0.0466753027
0.8926087903 0.4983525326 0.5415641207
0.8724215155 0.4978188736 0.0418559149
0.8825892346 0.998273776 0.2973536575
0.872654873 1.0007227141 0.5447718601
0.8827040613 0.7485213795 0.2952645524
0.8726511689 0.7495821495 0.5439041777
0.8926050862 0.7489011613 0.5445885078
0.8827373981 0.9990660795 0.7956709786