POSCAR file written by Ovito 3.7.11
1
269.9780978323 0.0 0.0
0.0 15.2722674999 0.0
0.0 0.0 10.7991239133
Sr Ti O 
800 800 2400 
Direct
0.0225879801 0.5013573623 0.8164475254
0.0125925026 0.4988141905 0.0673984299
0.0124867532 0.2504646903 0.5652364066
0.0226118709 -1.6135456225e-04 0.314140112
0.0225886838 0.250753449 0.817876345
0.0024454943 0.2539854511 0.8152566881
0.012447639 0.2509839321 0.0670266404
0.0226716165 0.2495198405 0.316819033
0.0024573471 0.2520610479 0.3148040547
0.0524585142 8.1505578416e-04 0.5639622292
0.0527200169 0.2490621481 0.0625719272
0.0525722272 -0.0014048503 0.0635779348
0.0425936399 0.4987938923 0.8136213702
0.0326228311 0.2502427194 0.5661846317
0.0425543775 0.0027886985 0.3124344181
0.0426903144 0.2485808836 0.817827267
0.0526226016 0.4989307416 0.062913992
0.0525848208 0.4986609716 0.5627963939
0.0325950511 -0.0023813262 0.5666115182
0.032550603 0.2506657083 0.0663676981
0.0325891247 -7.3893742609e-04 0.0693922953
0.0425232639 0.2495119831 0.3157689478
0.0526203792 0.2488277363 0.5591479498
0.0626934186 0.2470336347 0.8083839083
0.0726131121 0.2491747705 0.0566738562
0.062589336 0.2491695323 0.3104138838
0.0726401514 0.4992758115 0.0547451812
0.0626363769 0.4986871629 0.3072645543
0.0725290312 0.2514717445 0.5577404282
0.0625737792 -0.0015536822 0.30706176
0.082485024 0.499559332 0.3044448811
0.0924965769 0.5011648565 0.5511630428
0.0924606481 0.2494825179 0.5478470331
0.102529613 0.2506840422 0.7989229557
0.0825183601 0.2497804435 0.806302258
0.0923936056 0.0015829837 0.5481359454
0.0924921321 0.249143341 0.04940197
0.0925710274 -0.0017410152 0.0484243907
0.1026236947 0.2496115099 0.2970794688
0.082494284 0.2489861934 0.3054958923
0.1024740529 0.5020272039 0.7988683216
0.0826068858 0.4996712996 0.8052030948
0.0926073266 0.5003909046 0.0517564202
0.1226005004 0.2513879324 0.2935236248
0.1124174521 0.2507246386 0.5438105945
0.1226079084 0.2506932091 0.7933743574
0.1125667235 0.2503808783 0.0473628231
0.1525032965 0.2501844438 0.5343820519
0.132531306 0.2528978588 0.5418150623
0.1424776684 0.2518613395 0.7898870375
0.1524092147 0.2506571961 0.0341001732
0.1324127778 0.2520990252 0.0417043085
0.14253471 0.2520747983 0.2876916702
0.1424691492 0.5025071588 0.7902287319
0.152447366 0.5015616542 0.0359881041
0.132387961 0.5006770442 0.0406759844
0.152476998 0.4993628975 0.5357025294
0.1324687083 0.5029668155 0.5423697369
0.1826338888 -0.0012713404 0.2773852786
0.182517583 0.2504044504 0.7742515099
0.1824820246 0.248801545 0.2746424635
0.1624570669 0.5011818808 0.7806103591
0.1724775093 0.5011216409 0.0259894226
0.1624578077 0.4991762847 0.2837857978
0.172575295 0.250462726 0.5261628667
0.1724241717 0.4991651534 0.5292353381
0.1625555934 0.2519516994 0.7803890448
0.1824316501 0.5010227689 0.7739366696
0.1725323286 0.2480570583 0.0253399255
0.1724541741 -2.1360613524e-04 0.0294283127
0.162545963 0.249847886 0.2807762944
0.2024406807 0.2491616749 0.7691186861
0.1924250534 0.250810415 0.0202888676
0.2025103159 0.2511168528 0.2724959931
0.2024254942 0.4999076758 0.76541283
0.1924554262 0.4988862165 0.025957846
0.2024258646 0.4989523494 0.2651268768
0.1923613445 0.5010928305 0.5252229756
0.1924194974 0.2494903753 0.522943161
0.2024588303 0.0012047818 0.2689762632
0.2224000775 0.498938599 0.2610932163
0.2325205281 0.4999842852 1.0084760656
0.2124040815 0.2497156202 0.5119691227
0.2225549049 0.2499801519 0.7607309687
0.2124048223 0.2493397755 0.0159507379
0.2224678608 0.2489632761 0.2571299318
0.2326109058 0.2495761517 0.5043342441
0.2326379451 0.2504384991 1.0024014987
0.2225237913 0.500749725 0.7614569535
0.2125077936 0.4985693022 0.0133043196
0.2424746689 0.4995678441 0.2518887659
0.2625692619 -0.0018831028 0.2433084403
0.2626277852 0.2475345426 0.7429221166
0.2624844403 0.4979662483 0.7457454938
0.2525554867 0.2508955366 0.498006879
0.2425713434 0.2502630176 0.7509329517
0.2524617754 0.2495080544 0.9973733131
0.2525365963 -6.5283364353e-04 0.4975272104
0.2524206609 7.4682753973e-04 0.9947064301
0.2626351932 0.2471167919 0.2414795882
0.2425798626 0.2481212269 0.2483486639
0.2725719252 0.2484852855 0.4887774266
0.2725793332 0.2484106404 0.9933174285
0.2725548868 3.1101884603e-07 0.490063642
0.2726608213 0.0013866147 0.9888726235
0.2724556195 0.500263877 0.489193201
0.2826042205 2.5083046529e-04 0.2326557243
0.2825927381 0.2484728447 0.7345131012
0.2826320005 0.2489763717 0.2356411516
0.3125470198 0.2470329799 0.4699999774
0.3125570206 0.2482148607 0.9711582236
0.3125281294 -0.0021569325 0.4735021134
0.3123962668 -0.0017536525 0.9765382896
0.2926361454 0.2485520732 0.4817138906
0.302600287 -0.001357837 0.2270182299
0.302596583 0.2496363916 0.7264902282
0.2925535461 0.2480217001 0.9819461357
0.2925113204 3.1801105913e-04 0.4816277725
0.3026302894 -8.126658361e-04 0.7280857279
0.2925205805 7.5252413979e-04 0.9801496937
0.3025232437 0.250804522 0.2284451975
0.312524055 0.4991297952 0.9713712038
0.3126555471 0.498069049 0.4724483242
0.3325256775 0.2473957289 0.4647828876
0.3225430159 0.2478527665 0.7214796365
0.3325730887 0.2486542192 0.9620093333
0.3225519055 -0.0020681441 0.7167699952
0.3324656726 -7.8496857373e-04 0.9649169765
0.3225800559 0.2501857534 0.2178230396
0.3325404935 0.5000091669 0.9646021362
0.3626866426 0.2506473744 0.2043515764
0.3525369304 0.499067591 0.4562257119
0.3624569944 0.5006226973 0.7040717429
0.3526124921 0.249929079 0.4581814261
0.342562788 0.2497771696 0.7133224933
0.3525921201 0.2485212985 0.9575923083
0.3525324856 -8.0867166824e-04 0.4576804596
0.3426253857 -0.0010844657 0.7095360751
0.3526050841 9.3114856475e-04 0.9561477467
0.3425409344 0.2491826279 0.2125040896
0.3625718185 0.2478599691 0.7044301053
0.3925742523 0.2512248918 0.4472703559
0.3925483243 0.0010058591 0.4464360289
0.3924520201 0.2534393632 0.946674756
0.3924705402 0.0019304763 0.9442486333
0.3825993691 0.5007300815 0.196017567
0.3925520283 0.4994316496 0.9463136156
0.3726430058 0.2516321659 0.4506632237
0.382554921 0.2489920865 0.6990157772
0.382528993 -7.8045058057e-04 0.1993437628
0.3726318938 0.2502008133 0.9549069053
0.382588257 0.2493908485 0.1979343892
0.3924927642 0.4981220863 0.4464508449
0.4026491436 0.2512360231 0.6982379363
0.4126314349 0.4999901783 0.9427207315
0.4025195035 0.2516485355 0.1943850272
0.4124943867 0.2514697801 0.4434441195
0.4125388348 9.8529900443e-04 0.4429051869
0.4125462428 0.2530975672 0.9408502094
0.4125573548 0.0014161453 0.9446190337
0.4025861756 0.5022334601 0.6909493821
0.4026269196 0.5026708542 0.1937377525
0.4426190526 0.2489521448 0.688173231
0.4425227485 -8.7691630401e-05 0.1858565576
0.4425153405 9.8641213317e-04 0.6851526156
0.4426412766 0.2488021998 0.1857213614
0.4325478653 0.2517853848 0.4402271919
0.4226359501 -0.0021821416 0.1904911928
0.4225877981 0.249179354 0.6913086705
0.4326478734 -2.2513029169e-04 0.4386196541
0.4324886012 0.2515915695 0.935146043
0.422547054 1.5267870099e-04 0.6870916618
0.4325108252 -6.2415420873e-04 0.9373406655
0.4226952142 0.2509583957 0.1913588558
0.4424375564 0.5005297183 0.1867658906
0.4526680159 -9.5483531636e-05 0.4346674817
0.4525680078 0.2502531959 0.9346367424
0.462546595 0.5020782769 0.1824886918
0.4724918462 0.5000648234 0.4301134085
0.4525087437 0.5002520909 0.9325902801
0.4725659263 0.2502885541 0.4306430811
0.462487331 0.2497928844 0.6857739623
0.4625947471 4.4150287199e-04 0.1821321814
0.4724548062 0.2506323144 0.9304975178
0.4724473982 1.1496327988e-04 0.4315477842
0.462535483 0.249152508 0.1824933218
0.4526791279 0.2505419546 0.4346572957
0.4626614192 0.5010090185 0.6842895826
0.4725807423 0.5013069441 0.9311457185
0.4924156847 0.500206911 0.9341922619
0.4823852414 0.2516341303 0.6785946762
0.4824445054 6.4677690874e-04 0.6795160473
0.4824556175 0.2519602115 0.1821423674
0.4925638448 0.2493973963 0.4335970245
0.4924675407 0.2497588357 0.9330255006
0.502479464 0.4973487892 0.181795117
0.5025461361 0.4991579508 0.6841404965
0.5124617552 0.5003273908 0.4362666855
0.5025868801 0.2492356652 0.1842897638
0.5223551504 -0.0026667455 0.1867677426
0.5224551585 0.2509518478 0.1880595141
0.5124210112 0.2507148169 0.4373130666
0.5225107185 0.4998520194 0.6916198069
0.5224366385 0.2500181293 0.6894863005
0.5024239039 0.2505517763 0.6830626313
0.5124580512 0.2484191526 0.9371647253
0.5023905679 4.5525328593e-04 0.6835274838
0.5323670736 0.0028471051 0.4418356557
0.5323115136 0.0021960557 0.9384518667
0.5323263296 0.2495047805 0.4419421459
0.5323744816 0.2508830958 0.9434985724
0.5423938129 0.5002939969 0.6912068104
0.5524020322 0.4990276493 0.9403131288
0.5524798163 0.4986622812 0.4387937423
0.5423752929 -8.4010118583e-04 0.6907706639
0.5524353682 -5.8447444278e-04 0.9409520696
0.5424049249 0.251038279 0.1939757347
0.5523205441 0.2502080159 0.4437395139
0.5423715889 0.2506807683 0.690856782
0.5523242481 0.2491623297 0.9437578527
0.5724518068 0.250168729 0.4464656609
0.5623546914 -2.502084276e-04 0.1945433734
0.5724295827 0.2495656752 0.9454894747
0.5624361795 0.5012074173 0.1913949698
0.5623954354 2.6589044247e-04 0.6960775759
0.5623843234 0.2497529427 0.1956795767
0.5723258706 0.4981443489 0.9437300727
0.5624139555 0.2494196589 0.6928282383
0.5724184707 0.5004851932 0.443822854
0.5724110627 8.4334234999e-04 0.445603554
0.5724777348 -0.001912437 0.9454709546
0.5923571252 0.499031578 0.9505269203
0.5924867653 0.5008355013 0.4515558887
0.5824970661 0.2507783307 0.6972924893
0.5925163973 -0.0013942429 0.4519837012
0.5924312052 9.6629394621e-05 0.9505547004
0.6022949684 0.2484551655 0.2019523077
0.582430394 0.5004773358 0.6973841634
0.5924349093 0.2501445021 0.451849431
0.6024727606 0.2485389776 0.705914485
0.5924386133 0.2497706218 0.9526104227
0.582400762 -4.9647179353e-04 0.1973176725
0.582448914 0.2485684428 0.1978343811
0.6124550518 0.4987199019 0.9580460488
0.6124365318 0.4980860733 0.452725428
0.6123772677 1.0525612062e-05 0.4599713861
0.6123772677 0.0015298809 0.9589257498
0.6124513478 0.2502996854 0.4615261419
0.6124439398 0.2491832827 0.9587868496
0.6225003111 0.249308346 0.2149478063
0.6225114231 0.2482541476 0.7151383814
0.6425093416 -7.2178214774e-04 0.2142681216
0.6524471848 0.0015649117 0.4631855358
0.6523916247 0.002191996 0.9634075948
0.6425945337 0.2483490909 0.2183971602
0.6525360809 0.2494144206 0.4697481052
0.6424204455 0.2512831673 0.7158560322
0.6524101448 0.2509950634 0.9702322225
0.6322974021 0.4997400517 0.9635001949
0.6323381462 0.4983381643 0.4615391059
0.6423722935 0.502401739 0.2108919218
0.6524138488 0.4994984373 0.464279143
0.6322751781 -1.5534696271e-05 0.4630957137
0.6324714903 -1.6844259504e-05 0.9634353749
0.6324455623 0.2494923396 0.463391108
0.6324307463 0.2489495257 0.9640094955
0.6826755628 0.5025398979 0.7251040046
0.6725117754 0.5012525972 0.9732232059
0.6824607306 0.500041906 0.2238253783
0.66239614 0.2519733072 0.2210251512
0.6724413993 0.5035364755 0.4684637417
0.662392436 0.2499153286 0.7225213877
0.6824681386 0.2502243855 0.226157975
0.6726080795 0.2518953882 0.4716991894
0.6825607387 0.2509583957 0.7233705306
0.6725673355 0.2508981558 0.9710748835
0.6625035561 0.5006285904 0.7178543424
0.702406793 0.2512956082 0.2319436295
0.6924948779 0.2487124947 0.4796340923
0.7024216091 0.2509760748 0.7305692627
0.6924800619 0.2516197251 0.9770383302
0.7024216091 0.500005893 0.7272921451
0.6923726457 0.5020592882 0.9753807883
0.702395681 0.5022923904 0.228824858
0.7024660571 -1.6371177607e-04 0.226221869
0.7224639756 0.5010725323 0.7357789446
0.7225269437 0.5021902445 0.2362476823
0.7124668684 0.249898959 0.4843641056
0.7123779723 0.2529705396 0.9856223598
0.7224380476 -2.162252617e-04 0.2358661699
0.7224084156 7.0307173641e-05 0.73520112
0.7224010075 0.2494176945 0.2346410705
0.7324684909 0.2520702149 0.4890413369
0.7224195276 0.2491917949 0.7372642503
0.7324388588 0.2506054684 0.9932526084
0.7123853803 -0.0012650545 0.47935444
0.7424285581 5.5798852155e-04 0.7457149358
0.7524997454 0.5000635138 -0.0048300681
0.7425433822 0.2513820394 0.2461957115
0.7425693102 0.251437041 0.7427452504
0.7622412764 -0.0014549411 0.2496987735
0.7524997454 0.0010537237 0.4979068709
0.7624116606 -5.5186631828e-04 0.7507949775
0.7623820286 0.2515653782 0.2518637639
0.7523256572 0.2501097987 0.4978985368
0.7624746287 0.2477447275 0.7481456885
0.7523960333 0.2508961914 0.997271453
0.7824577311 -0.0014918053 0.259993127
0.7823873551 4.3706648678e-06 0.7599447938
0.772579152 -0.0015418961 0.006203651
0.7824206911 0.2497784792 0.2621775635
0.7723235757 0.2485808836 0.5053482152
0.7824503231 0.2507049952 0.7607624527
0.7723457998 0.2480151523 0.0055060018
0.7924844704 -0.0012584412 0.51311829
0.7924066863 0.2482220633 0.5130451359
0.7925955906 0.2484780829 0.0133627502
0.8025149137 -0.0023130324 0.2651194688
0.8124712769 -0.0011472592 0.518440944
0.8025297297 -0.0017290327 0.7643395948
0.8123416368 -5.6273569311e-04 0.0196027009
0.8023815696 0.2481611686 0.2614145386
0.8124675729 0.2481637877 0.5154156986
0.8023926816 0.2496134742 0.7635756439
0.8125861011 0.247119411 0.0144487643
0.8225017202 -0.0023826357 0.7704882417
0.8324803075 -0.001710175 0.0248160867
0.8223943041 0.2476085329 0.2693679616
0.8325025315 0.2492841191 0.5223727444
0.8224609762 0.2487098756 0.7693020343
0.8324173394 0.2479765202 0.0237397957
0.8225165362 -3.1385320071e-04 0.2711384756
0.8324062274 6.881591069e-04 0.523758968
0.8624123651 0.501946011 0.779701026
0.8524004419 0.5011871191 0.0263325986
0.8624419972 0.5021542315 0.2761999973
0.8424774147 -0.0017423248 0.7790593073
0.8426070549 0.250063964 0.2797067632
0.8425329748 0.2500351536 0.7758960878
0.8625012612 -6.9879931301e-04 0.2829422109
0.8526671302 0.0015337441 0.5330050884
0.852530082 7.6404829624e-04 0.0287460351
0.8425218628 -7.2073449716e-04 0.2820310259
0.862256797 0.2501183109 0.2822440061
0.8525745301 0.2496612733 0.5276222443
0.8624345892 0.2507023761 0.7809418674
0.8524004419 0.2492559635 0.0268581968
0.8723131683 0.5025628152 0.530868804
0.8823473156 0.4997695169 0.7837439466
0.892488879 0.500932409 0.0378364948
0.8822621235 0.4987487123 0.2873101578
0.892485175 0.0016243004 0.5392546694
0.8725242965 0.0014181751 0.0329335045
0.892496287 8.3934818213e-04 0.0392591102
0.8823473156 0.2513434073 0.2884685851
0.8723835444 0.2487124947 0.5350987767
0.8923666469 0.2505524311 0.5422752848
0.8822991635 0.2480144975 0.785846895
0.8724465124 0.2483621866 0.0360087539
0.8923592389 0.2490497073 0.0403257708
0.9024489462 0.5009795533 0.2908937818
0.9025267303 0.0012492415 0.2922753754
0.9125386536 3.5199422503e-04 0.5455894425
0.9024674662 -5.7244285237e-05 0.7913630832
0.9125201336 -9.5324744915e-04 0.045294785
0.9026489624 0.252456536 0.2929559862
0.9125312456 0.2504142721 0.5464728475
0.9026304424 0.2512360231 0.7909871268
0.9125719896 0.2503415914 0.0433066607
0.9125942136 0.501982024 0.0431684088
0.9225653929 0.0014245265 0.2988694288
0.9225653929 0.0020503668 0.7990850059
0.9325921321 0.5010725323 0.544211553
0.932484716 0.4988377626 0.0466234113
0.922665401 0.2509655983 0.2988472048
0.9225690969 0.2515614495 0.797413574
0.9425855354 -6.0518193319e-05 0.3040365146
0.9326180602 -0.0017883559 0.5502453758
0.9425559034 5.7612597233e-04 0.8032899766
0.932484716 -5.9986181076e-04 0.0498571921
0.9426114634 0.2492592374 0.3021613625
0.9326847322 0.2509701817 0.5498934954
0.9426410955 0.249733954 0.8042391277
0.9325402761 0.2498013965 0.0509457063
0.9226135449 0.4988763947 0.7955847219
0.9625390059 0.2513787655 0.3049782577
0.9525604186 0.2507665447 0.5550420612
0.9723805449 0.251892769 0.5570746335
0.9624834458 0.2510559581 0.801888937
0.9526085707 0.248573681 0.056671819
0.9723916569 0.2505216563 0.0567768275
0.9523715144 0.5009631838 0.0520507034
0.9725583371 0.5005834104 0.0528558613
0.9624389977 0.4992587872 0.3019520863
0.9524937465 6.1777008313e-04 0.5555698818
0.9624871498 0.0013671676 0.8047650963
0.9926044077 0.498761808 0.5590822037
0.9825369244 0.4999522009 0.8100646002
0.9925636636 0.001703398 0.5602767451
0.9826184125 2.7662886098e-04 0.8076125495
0.9823813562 0.2510042304 0.3078349709
0.9925747757 0.2505884441 0.5615907405
0.9825035883 0.250861488 0.8066948824
0.9923710554 0.2511240554 0.060950592
0.0026791799 0.9985965575 0.3127437024
0.0125737233 1.0005150676 0.5644076357
0.0225193078 1.0008751975 0.8149279577
0.0026083964 0.9987013225 0.8130703996
0.0126305427 1.001641292 0.0626803619
0.0126706941 0.750250986 0.0647885885
0.0026102113 0.4983283425 0.8176253987
0.0227256579 0.7476776942 0.3179469023
0.0026482515 0.7507355244 0.3112158007
0.0125861687 0.7520254442 0.5623130213
0.0226652456 0.7505587333 0.8154567043
0.0027266282 0.7497271607 0.8103785146
0.0225808684 0.4996477275 0.3170329393
0.0027127382 0.5007379389 0.3124696061
0.0128169282 0.4968635961 0.564692844
0.0325309718 0.7497926388 0.0651082441
0.0325920879 0.4996608231 0.0671989692
0.0425843799 0.7495045349 0.3146586726
0.0325902359 0.74846998 0.5634770047
0.042474371 0.748221163 0.8127601893
0.0425980847 0.5024691815 0.3150772251
0.0326209791 0.4991337239 0.5660975876
0.042628828 1.001104371 0.8124221989
0.052464811 0.7481753283 0.0629847385
0.0525166671 0.7496420391 0.5586562432
0.0724671744 0.9991138349 0.5565273668
0.062570816 0.9969988903 0.807221777
0.0725868137 1.0000436248 0.057787928
0.0725160672 0.7494848915 0.0547341618
0.062576372 0.4977462417 0.8059050035
0.0625119224 0.7504081336 0.3104407378
0.0723845751 0.7507813591 0.5569320293
0.0624737711 0.7483652149 0.8114971238
0.0725731089 0.4993759931 0.5557171159
0.1024899802 0.5013946848 0.3006529068
0.1024529401 1.0010519885 0.2967488864
0.0824998401 0.9979548715 0.3023965668
0.102529613 0.9998471903 0.7986108933
0.0825409545 1.0001418421 0.8050938266
0.0925017625 0.7475139988 0.050265466
0.1025247978 0.7506569506 0.2960210496
0.0825535481 0.7492622657 0.3029169794
0.0924547217 0.748862849 0.5508491284
0.1024570145 0.7485681972 0.8007832918
0.0825339169 0.7507093331 0.8034020227
0.1125300539 1.0012156839 0.0472325348
0.1123730041 0.7510170805 0.0476019166
0.1223286265 0.5025110875 0.7945114867
0.112438565 0.5009651481 0.049905159
0.1225204939 0.7517504359 0.2952163547
0.1124826426 0.7508861241 0.5462617193
0.1225271611 0.7523659306 0.7961514346
0.122406781 0.5009428855 0.2949524444
0.1124581962 0.5006652581 0.5463496894
0.1224793795 1.0004823285 0.2959117815
0.1123870793 1.0010192494 0.5473155085
0.1223715929 1.0006394761 0.7969079774
0.1425024852 0.9994805126 0.2878194584
0.1525729317 1.0000305292 0.5365405603
0.1325598268 1.0012091361 0.5409196193
0.1425210052 0.9991531218 0.785876527
0.152430698 1.0030359768 0.0314881094
0.1324813019 1.0007769802 0.0446526033
0.152443662 0.7493539352 0.0352440623
0.1324205562 0.7507289766 0.0405261574
0.1424784092 0.7501134818 0.2878444604
0.1525258909 0.7493408395 0.5364090682
0.1324657451 0.7513641147 0.5425438251
0.142490262 0.7518682966 0.7884674779
0.1423643258 0.5021922089 0.2895696003
0.1825172126 1.0008162671 0.7732893948
0.1723915764 0.7497729954 0.0300662348
0.1624122484 0.7501331253 0.2849886732
0.172374538 0.7505325421 0.5302057872
0.1625270725 0.7488759446 0.7809844635
0.1824112781 0.7484503365 0.2792780248
0.1824531334 0.7500414559 0.7785259307
0.1825127678 0.4991867612 0.2770824763
0.1625259613 1.0017787961 0.2817263715
0.1724697309 1.0009472235 0.5291788521
0.1626104126 0.9995656342 0.7800806865
0.1924557966 0.9982298798 0.5218940019
0.2023788238 0.9990876437 0.767185196
0.1923961622 0.9992382434 0.0249723957
0.1924372766 0.7507748113 0.0230311271
0.2025099455 0.7497926388 0.268830881
0.1923561589 0.7486991535 0.5200234797
0.2024354951 0.7505325421 0.7688695919
0.2124033407 0.4988711565 0.5146693417
0.2325779402 0.749465248 0.0056200851
0.2225152721 0.9976471241 0.26087931
0.2325227505 0.7503950379 0.5097198661
0.2125511304 1.0002727984 0.5153916225
0.2225508305 0.9999454076 0.7605013204
0.2123918583 0.9997948078 0.0141601297
0.2325505306 0.4991258665 0.5061640221
0.2126085425 0.7496616825 0.0167411724
0.2325197873 0.9995197995 0.5074067155
0.2225560161 0.7484830756 0.2609061641
0.2325320105 0.9985572706 0.0055548946
0.2125577977 0.7480247285 0.5157481329
0.2225334217 0.7497140651 0.7619505121
0.2525514123 0.7488693968 0.9994475554
0.2425872707 0.5000798834 0.7525451195
0.2524880738 0.4987683558 0.9975399933
0.2424846697 0.7492360745 0.2523508404
0.2525799331 0.7508861241 0.4965845414
0.2425087458 0.7490723791 0.7501643708
0.252625122 0.4993092054 0.4985337736
0.262578522 0.9981774972 0.7447954168
0.2425731954 0.9995590864 0.2487320284
0.2625318515 0.7498515692 0.2429639679
0.2625411115 0.7495634653 0.7437981136
0.2426446827 0.9992251478 0.7482429186
0.2626855677 0.5000746451 0.2441048012
0.2826134805 0.4986819246 0.7310535613
0.2825456972 0.7507617156 0.2345327284
0.2825086572 0.7499825255 0.732586093
0.2725141427 0.750250986 0.9889189235
0.2726945277 0.4986400186 0.9894560042
0.2725956308 0.7498974039 0.4888561367
0.282702747 0.4993144436 0.2320214136
0.2825897749 0.9998275469 0.7328657453
0.2925398413 0.7479854416 0.9753344883
0.3025999166 0.49740641 0.7265781983
0.2927039287 0.4989516946 0.9787514321
0.3023806396 0.7511480368 0.2268117317
0.292624663 0.7493539352 0.4780839665
0.3026421423 0.7484568844 0.7253975469
0.3025954718 0.4994637339 0.2240420626
0.2925653989 0.4996739188 0.4813323782
0.312518499 0.7505652812 0.9695840218
0.3125218326 0.7502837251 0.4693591847
0.3325504943 0.7505521855 0.9610370322
0.3225952423 0.9997751644 0.2169498206
0.332406779 0.9994477736 0.4618946903
0.3225693143 0.5005925774 0.7157449121
0.3225378302 0.7501003862 0.2187425586
0.3325204919 0.7496027522 0.4634475941
0.3225415343 0.7491771441 0.7209351479
0.322529311 0.4991939638 0.219045361
0.3326471688 0.4979741057 0.4630123736
0.3424561127 0.4994977825 0.2090075097
0.342562788 1.0005478067 0.2063850747
0.3525376712 0.7492819092 0.9551754456
0.3425416752 0.4994971277 0.7099018455
0.3525558208 0.4995167712 0.9571293078
0.3425661216 0.7495831087 0.211085456
0.3526628666 0.748895588 0.4555802892
0.3626384906 0.7479788938 0.2062285805
0.3426042728 0.7496747782 0.7086943401
0.3624495864 0.750997437 0.7063487795
0.3625977465 0.9990680002 0.2037024497
0.3625347785 0.9981316625 0.7052403562
0.3624977384 0.5003489986 0.2026505125
0.3725207737 0.7490330922 0.9521659422
0.3826364091 0.4997957081 0.6942209438
0.3725504057 0.4981836358 0.9501287399
0.3824289849 0.7523659306 0.1993335768
0.3725800378 0.7504801595 0.4504669115
0.3824252809 0.7516849577 0.7014215279
0.3724615096 1.0011894927 0.4520688933
0.382521585 1.0005674501 0.6993630276
0.3724318776 0.9999388598 0.9534623436
0.3726504139 0.4990171728 0.4478092885
0.3926187003 0.7485223625 0.9477118772
0.3926298123 0.7490461878 0.446519369
0.4025046875 1.0008293628 0.1966916958
0.4024231994 1.000999606 0.6943005799
0.4125647628 0.7490723791 0.9416836104
0.4124795707 0.7492557179 0.4411207829
0.4126240269 0.5006515077 0.4410152188
0.4025417275 0.7491771441 0.1924941331
0.4025528395 0.7525885564 0.6976369617
0.4325812013 0.7517046012 0.9366276447
0.4225915021 0.5001230989 0.6889214399
0.4325552733 0.5013599814 0.9385537269
0.4225877981 0.7501331253 0.1922552248
0.4326626894 0.7505194464 0.4359268431
0.4226396541 0.7520058007 0.6889260699
0.4226952142 0.5013599814 0.1875409535
0.4326108334 0.5013259328 0.4394845391
0.4423560683 0.4998192803 0.6879222847
0.4426857247 0.7485681972 0.1884947346
0.4426560927 0.7506962375 0.6869472056
0.4525346718 1.0000108857 0.9323402599
0.4625762271 1.0001025552 0.6858369304
0.4724511022 1.0009603191 0.9302197175
0.4525828238 0.7506831418 0.9354145833
0.4526680159 0.7510760108 0.4339442749
0.4525939358 0.5015465942 0.4348202718
0.4724325822 0.7488563011 0.9334422011
0.462483627 0.7488497533 0.1823720157
0.4725474063 0.751069463 0.4292772296
0.4626651232 0.7492033354 0.6812634112
0.4824630255 1.0032455069 0.1805755737
0.4925045808 1.0003186331 0.4342368912
0.4924193887 0.9991072871 0.9328032604
0.4825037695 0.4988809782 0.1834637709
0.4923971646 0.7509057676 0.432327477
0.4924305007 0.7502182469 0.93248842
0.4925564368 0.4992797402 0.4378251452
0.4824556175 0.4985693022 0.6796762455
0.4825259935 0.748967614 0.1855630153
0.4825482176 0.750499803 0.6816430717
0.5124136032 0.9998733816 0.4337711127
0.5123135951 1.0007115021 0.9374888257
0.5023868639 1.0001549377 0.185368555
0.5124913873 0.7490461878 0.9372851054
0.5225551666 0.5020671456 0.1890429272
0.5224070064 0.7507879069 0.6857471083
0.5224403425 0.9998340947 0.6907512179
0.502483168 0.7507748113 0.1860454618
0.502520208 0.7513051844 0.6864666111
0.5124210112 0.4991553317 0.9358868439
0.5124802753 0.7483062846 0.4356860828
0.5224884945 0.7497140651 0.189777246
0.5325930179 0.7506700462 0.4384427879
0.5323522576 0.4996706448 0.4392891529
0.5524687043 0.7515081667 0.9426559115
0.5423049168 1.000213868 0.1931830778
0.5524242562 0.9986751312 0.4408383526
0.542467893 0.7507879069 0.1909504893
0.5524168482 0.7505063508 0.442991305
0.5423864049 0.5000085122 0.1928876835
0.5423086208 0.7508730285 0.689975229
0.5325263458 0.7481949717 0.9375443857
0.5323855937 0.5003064378 0.9405261091
0.5624732195 0.5007084737 0.6923893138
0.5624546995 0.7492557179 0.1926172912
0.5624769235 0.7508730285 0.6941403817
0.5724851428 0.7495831087 0.9469062563
0.5724443988 0.7503884901 0.4452137075
0.6024431285 0.501382244 0.7048514358
0.6025172086 0.7506962375 0.2045432586
0.5924719493 0.7478413896 0.4510882582
0.6025838807 0.7489741618 0.7036809705
0.6024505365 0.4983499503 0.2043052764
0.6024320165 1.0004561372 0.2062443225
0.6024727606 0.9990025221 0.7076386989
0.5823600179 1.0007769802 0.6953636291
0.5823896499 0.7497075172 0.199498405
0.5823526099 0.5010201498 0.197771413
0.582448914 0.7484175975 0.6963776003
0.5923719412 0.7481425892 0.9506010004
0.6125883959 0.7481753283 0.4581406821
0.6225262391 0.4978058268 0.7093953229
0.6224780871 0.7504670639 0.2108882178
0.6224817911 0.7490461878 0.7120196099
0.6222965909 0.4997747551 0.2085583992
0.6225299431 0.9983019057 0.2160071515
0.622407711 1.0000960074 0.7149448472
0.6124846838 0.747756268 0.9580367888
0.6424019255 0.9993691998 0.715711576
0.6325529784 0.7482931889 0.960870352
0.6325122344 0.7488824924 0.4610001733
0.6524916329 0.7509516023 0.964472496
0.6423278454 0.4981744689 0.7131187731
0.6523545847 0.4986714481 0.966250418
0.6424426695 0.7493015526 0.2096371904
0.6523768087 0.750892672 0.4631957218
0.6424871176 0.7510105327 0.7135049155
0.6624776281 1.0041752968 0.2170118627
0.6624665161 1.0020996391 0.718350679
0.6824940666 1.0009079366 0.2254523622
0.6724784394 0.7530338078 0.9703618627
0.6723599112 1.0029246639 0.4687721001
0.6825903707 1.0030556203 0.7205443755
0.6724413993 1.0032978895 0.9680839001
0.6825051786 0.751213515 0.2234596079
0.6725265914 0.7526802258 0.4699314534
0.6825422187 0.7508337416 0.7230306883
0.6624442921 0.7521433049 0.2168562945
0.6625146681 0.5009494333 0.2200380341
0.662370212 0.7524510522 0.7181951108
0.692576366 1.0009668669 0.4775015119
0.702373457 0.999611469 0.7259411095
0.6925059899 1.0015365269 0.9725194451
0.6925059899 0.7508402894 0.9773346505
0.7024290171 0.75017896 0.2262440931
0.6925319179 0.7519534182 0.4761097323
0.6924911739 0.4984219763 0.4725575923
0.7024808731 0.7509057676 0.7260568597
0.7324758989 0.4999810113 0.9926692278
0.7223639675 0.7525427216 0.2325844222
0.7324129308 1.0019555871 0.4864420519
0.7323573708 0.7530599991 0.4885274063
0.7325129389 0.5013639101 0.4908600029
0.7224602716 0.7501920556 0.7362336111
0.7324277468 1.0011240145 0.9886411232
0.7124742764 1.0006984064 0.9765660696
0.7125557645 0.7495700131 0.9789366323
0.7122298121 0.5000700616 0.9794737129
0.7123668603 0.7489545184 0.4775191059
0.7123261162 0.4989451468 0.4822259692
0.7324018188 0.7495045349 0.9888633635
0.7425026382 0.502200721 0.7398959452
0.7424507821 0.750571829 0.2437473648
0.7425100462 0.5011367009 0.2433584443
0.7424470781 0.7504081336 0.7442963022
0.7424767101 0.9991793131 0.243978865
0.7523812173 0.7511480368 -0.0047287266
0.7523775133 1.0001221986 -0.0042025821
0.7524664094 0.50029989 0.4965771334
0.7623894366 0.4991442004 0.748594799
0.7623968446 0.749144405 0.2499117537
0.7624375886 0.4990060415 0.2497700755
0.7525664175 0.7515867405 0.4970253179
0.7625709328 0.7510498196 0.7479484503
0.7724569199 0.9998079034 0.508687375
0.7824725472 0.7490789269 0.257245682
0.7824243951 0.4992915263 0.2627618702
0.7724346959 0.7487253448 0.5031332207
0.7824280991 0.7495503696 0.7603300102
0.7724272879 0.7494063177 0.0028960679
0.7723717278 0.4980972046 0.5055973095
0.7824206911 0.4985201935 0.7630117093
0.772560632 0.4993511114 0.0079100857
0.7924400224 0.7496616825 0.5146860097
0.7925511425 0.9973459246 0.0151472468
0.8125898051 0.7490069009 0.0190648795
0.7924770624 0.7517962706 0.0161447352
0.7924955824 0.4982484592 0.5115774242
0.7924992865 0.5006364477 0.0101060972
0.8123971968 0.4994218278 0.5180362815
0.8024852817 0.4979119014 0.7660712167
0.8123453408 0.4996326675 0.0164700393
0.8025038017 0.7491247616 0.268808657
0.8024408336 0.4968524648 0.2612913805
0.8125823971 0.7501331253 0.5162389135
0.8024926897 0.7509319589 0.7666694134
0.8326914357 0.7509188632 0.0246333867
0.8324284514 0.5012846815 0.5220782761
0.8224054161 0.5003293552 0.7694029685
0.8324654914 0.5010961044 0.023999076
0.8225313523 0.7507617156 0.2696476139
0.8224202321 0.4972263451 0.271542212
0.8324617874 0.748574745 0.5258730283
0.8225091282 0.749786091 0.7737116513
0.8525782341 0.5013861727 0.5271527618
0.8625271893 0.9991138349 0.7802381067
0.8624864452 0.7529879731 0.2821023279
0.852552306 0.7491705963 0.5311623463
0.8424551907 0.5006704964 0.7775675196
0.8426070549 0.7490069009 0.2757286628
0.8424811187 0.5023755477 0.2745961635
0.8426403909 0.7519861573 0.7786537189
0.8625716373 0.750034908 0.7786435329
0.85248193 0.7514099494 0.0290342993
0.8823769476 0.7525754607 0.7866812219
0.8724242884 0.7495700131 0.0331396323
0.8925333271 0.7521825917 0.0399625932
0.892448135 0.5023539399 0.5384536785
0.8724242884 0.5004459063 0.0301960602
0.8824065797 0.999611469 0.2884834011
0.8724835525 1.0018377265 0.5325994999
0.8825028838 0.7508599329 0.2870453215
0.8724724405 0.7527129649 0.5333560428
0.8923184948 0.7488563011 0.5438068905
0.8825251078 0.9986292965 0.7874701748