POSCAR file written by Ovito 3.7.11
1
270.0023650159 0.0 0.0
0.0 15.2736402591 0.0
0.0 0.0 10.8000946006
Sr Ti O 
800 800 2400 
Direct
0.0225385932 0.4989557172 0.7731861292
0.012454089 0.4977222195 0.0260710068
0.0124483853 0.2500510726 0.5237559066
0.0226306665 -0.0013827005 0.2744673495
0.0225505931 0.2485308064 0.7737935313
0.002688619 0.2504622385 0.7727805772
0.0126189764 0.2496667504 0.0255718445
0.02239815 0.250132913 0.2721507031
0.0025645089 0.24890007 0.2696275771
0.0525150344 0.0028303095 0.5145495058
0.0526020707 0.2494873563 0.0151480469
0.0526265149 -8.2618617552e-04 0.0142768508
0.0425243811 0.4986224633 0.7710546664
0.0324103957 0.2491560666 0.5222374014
0.0426610466 0.0023150427 0.2672914864
0.042588825 0.2506449062 0.7702093034
0.0526550332 0.4981379685 0.0150173999
0.0526668849 0.4994873521 0.5190170593
0.0327411335 4.7625382323e-04 0.5200309393
0.0325411353 0.249764304 0.0219893758
0.0326966895 0.0022531059 0.0188027371
0.0426166026 0.250000659 0.2666729733
0.0525576266 0.2491469005 0.5164670816
0.06265939 0.2500916654 0.7651676809
0.0726159694 0.2491259493 0.0146198108
0.0625871684 0.2515006288 0.2643637343
0.0725593032 0.4993989645 0.0175348778
0.0627016118 0.4992896258 0.2674692626
0.072604488 0.2488431091 0.5144513585
0.0626586492 8.9632395001e-04 0.2627035636
0.0825618082 0.5006815664 0.2633544839
0.0925517207 0.4989603002 0.5143995071
0.0925532022 0.251826026 0.5141800646
0.1025508924 0.2501866002 0.7568770128
0.082515142 0.2492955225 0.7656806394
0.0925683872 0.0030533081 0.5124495242
0.0926235719 0.2489603045 0.013039269
0.0925357949 -0.0010351082 0.0095352257
0.1026545952 0.2493099264 0.2580508266
0.0825481046 0.250607587 0.2677377788
0.102571633 0.5005178857 0.7607260532
0.0826066226 0.4991973099 0.7653195314
0.0924806102 0.4999188144 0.0128900111
0.1225547912 0.2503817076 0.2544703024
0.112537842 0.2493230209 0.5058931001
0.1225536801 0.2510901176 0.7526298278
0.1126396929 0.2508498344 0.0067276577
0.152381567 0.2486519301 0.5028042383
0.1324124827 0.2531466019 0.5023097982
0.1424427652 0.2512485606 0.7532631556
0.1523889744 0.2498114441 0.0026339898
0.1325269261 0.2503961115 0.0024564914
0.1424998017 0.2492680242 0.2526369852
0.142415358 0.5031603468 0.7517400208
0.1524648996 0.5014148559 0.0030696342
0.1323943347 0.5017323964 0.0010590036
0.1524256407 0.5001211237 0.5051551436
0.1324917412 0.501353312 0.5014588797
0.1824479703 8.6803992651e-04 0.2491962745
0.1825042661 0.2512505247 0.7539159276
0.1825331548 0.2497250207 0.2530342039
0.1625785147 0.5011745726 0.7499076294
0.1725269461 0.5026987672 0.0031232448
0.1624129606 0.4995999644 0.2511860719
0.1724354654 0.2508053132 0.4974626184
0.172438058 0.5003280161 0.5008116632
0.162431479 0.2514233715 0.7524002002
0.1824453778 0.5010554131 0.7510965079
0.1723899103 0.2483154026 9.1409747952e-04
0.1724550949 2.4153571156e-04 -1.146898053e-04
0.1624196272 0.248798588 0.2514916248
0.202485943 0.2506147889 0.7516826139
0.1923882536 0.2491822555 9.4011577014e-04
0.2024585358 0.250546043 0.2508684821
0.2024596469 0.5004236056 0.7478557955
0.1923738093 0.4992307007 9.212270467e-04
0.20244261 0.4984987207 0.2460601909
0.1923689945 0.5026581744 0.5032505307
0.1924889935 0.2498088252 0.5023246129
0.2024663135 9.1753696763e-04 0.2465833345
0.2224891011 0.4989164338 0.2456953793
0.2324523471 0.5005578238 0.9976804591
0.2123617824 0.2490028615 0.4998755603
0.2225205823 0.2512197528 0.7505826235
0.2123677083 0.2507699582 -3.7626158819e-04
0.2224539162 0.2492313597 0.2496629371
0.2324530879 0.248479738 0.5041023751
0.2325404945 0.2503843265 1.0033841128
0.2224242868 0.5010593414 0.7484539384
0.2124628926 0.5000746384 -0.0029102949
0.2425396662 0.4996176419 0.2480962842
0.2624098625 0.0025428208 0.2498064544
0.2623620852 0.2505558639 0.7497085571
0.2624987506 0.4996156777 0.7458632204
0.2524166167 0.2510292284 0.5026125733
0.2423370754 0.2522293353 0.7497511493
0.2524166167 0.2486296695 1.0024026399
0.25237958 -9.4639327539e-04 0.4998014868
0.2523240249 -0.0021738675 0.9997359966
0.2623424557 0.2492202294 0.2511231095
0.2424255931 0.2482852853 0.2526184668
0.2722990351 0.2493112359 0.4994459344
0.2724590337 0.2487167476 1.0009119123
0.272469404 -0.001909425 0.5006959234
0.2724957001 0.0013845507 1.0023100482
0.2723382941 0.4996235344 0.4951783792
0.2824752423 -7.6070302315e-05 0.2487610932
0.2823726506 0.2490742263 0.7477474631
0.2823737617 0.2490768451 0.2464601874
0.3122860923 0.2505951472 0.4931052492
0.3123346104 0.2527995988 0.9955601073
0.3123520176 3.4851741155e-04 0.4949848624
0.312330166 4.7946196478e-04 0.9988008196
0.2922473789 0.2484712266 0.4982996481
0.3024195121 5.2634011484e-04 0.2435852126
0.3023706236 0.250623955 0.7500224432
0.2923421929 0.2494303954 0.9955415889
0.2924755251 3.1080538022e-04 0.4970876217
0.302543585 4.3075059098e-04 0.7461159959
0.2924573771 6.8628888662e-04 0.9980508262
0.302411364 0.2527269246 0.2471555517
0.3123638694 0.5026195458 0.9994026662
0.3123849803 0.500762752 0.4973570638
0.3323929532 0.250055001 0.4933515433
0.3224130406 0.2499423886 0.7485215304
0.3323485092 0.2490369071 0.99778231
0.3223441523 -2.120453451e-05 0.7438882377
0.3323673979 -0.0016195138 0.9944304875
0.3224215591 0.2510004206 0.2467324072
0.3322711024 0.5008413188 0.9930323516
0.3624100977 0.2510816063 0.2416694886
0.3523764819 0.4988201896 0.4922385901
0.3624582454 0.4999803583 0.7400947524
0.3524564812 0.24728225 0.4928617328
0.3424239765 0.2496713334 0.7435447222
0.3524994438 0.2499378056 0.9917823626
0.3525664802 2.2203584888e-05 0.4898312038
0.342481013 -3.8778381129e-04 0.7419123291
0.3525335175 5.7164693026e-04 0.9881620239
0.3423780509 0.2500327404 0.2451231621
0.3624508381 0.2492752261 0.7413465933
0.3924098349 0.2513637918 0.4877747403
0.392487612 4.4508901956e-04 0.48633679
0.392443168 0.2506599648 0.9857916743
0.3924468716 -5.8884917278e-04 0.9844027976
0.3823765895 0.5003463483 0.2381584083
0.3923839092 0.4990840429 0.9845416853
0.3725063055 0.2496955582 0.486662713
0.3824247372 0.249008754 0.7372031111
0.3825247363 -0.001426436 0.2335408561
0.3723803807 0.2498337047 0.989152756
0.3824173298 0.2504308118 0.2357260222
0.3923876129 0.5003057555 0.4834932963
0.4023541922 0.2495947308 0.733158702
0.4125911396 0.4983671214 0.9825231844
0.4024504877 0.2500805351 0.2343056642
0.4124948442 0.2502979031 0.4798155508
0.4124541038 0.0013744025 0.4818738661
0.4125096588 0.2513055214 0.9805972754
0.4123652157 -3.1844867035e-04 0.9842546508
0.4024541914 0.5014502109 0.7327337058
0.4023838216 0.4997040653 0.2332704881
0.4425686548 0.2487599593 0.7277235645
0.4425686548 4.2767339398e-04 0.2258075905
0.4425834695 -1.6485070941e-04 0.7269596823
0.4426945796 0.2496975223 0.2246863041
0.4325131873 0.2492346333 0.4766961337
0.4223836464 -0.0012975211 0.2285381222
0.4223873501 0.2492634411 0.7266383888
0.4325317057 -0.001741685 0.4759303996
0.4325020763 0.2489400081 0.9763287943
0.4224169795 -5.714335472e-04 0.7260439495
0.4324539286 -3.1111577537e-04 0.9755047274
0.4225058676 0.2504674763 0.2271742452
0.4425242108 0.5014233673 0.221182631
0.4526426406 2.0435833419e-05 0.4757785491
0.4525278268 0.2506206814 0.9714399482
0.4625573686 0.5019536927 0.2196196818
0.472512837 0.5021488001 0.470372115
0.4526204186 0.4999443486 0.9756528742
0.47254617 0.249915545 0.4698295271
0.4625314429 0.2531164846 0.7256319161
0.4624314438 -9.5988056437e-04 0.2228076168
0.472512837 0.2508472155 0.9684770112
0.472512837 0.001492449 0.4710341462
0.4624869989 0.2509984565 0.2217020709
0.4524870865 0.2496261575 0.4738850472
0.4624203328 0.5017258492 0.7191069733
0.4725609847 0.5019870836 0.9700695898
0.4925719205 0.5005840127 0.9702918101
0.4824090466 0.2514633096 0.7202754816
0.4824127502 -0.0011274896 0.7208245508
0.4824053429 0.2510135151 0.2161854526
0.4924830324 0.2512642739 0.4732841265
0.4924496994 0.252537055 0.9712547646
0.5024347971 0.4998919707 0.221025225
0.5024718338 0.4990886259 0.7234402686
0.51229397 0.5027059692 0.4757878083
0.5023125759 0.2524486674 0.2225326192
0.5223198081 -0.002296628 0.2240835316
0.5224827696 0.2496268123 0.2259353672
0.5123902654 0.2505611017 0.4712258112
0.5224049925 0.4977117439 0.7269226455
0.5225161027 0.2508393588 0.7304985402
0.5025199815 0.251219098 0.7248745153
0.5123643397 0.2480312529 0.9740602956
0.5024792411 -0.0028073118 0.7203199256
0.5324345343 -2.8538517066e-04 0.4758878074
0.532427127 -9.4672063677e-04 0.9765047186
0.5324197196 0.2491200568 0.4800812892
0.5323641646 0.2499757795 0.9781713707
0.5424048174 0.5005263971 0.7302911346
0.5524565812 0.4992313555 0.980680608
0.5525528766 0.5015372891 0.4807423945
0.5425566679 -2.5893437091e-04 0.7310883498
0.5524010261 -0.0010941642 0.9824213335
0.5425344458 0.2491501741 0.2318455006
0.5525639876 0.2490067898 0.4827886729
0.5425344458 0.2496759165 0.7313244588
0.5525343583 0.2481346991 0.9801250573
0.572445295 0.24725868 0.4825646008
0.5623898275 -4.5482742255e-04 0.2338815939
0.57250085 0.2492510014 0.983226882
0.5624194569 0.498634903 0.2297260747
0.5624120495 -6.1320485968e-04 0.731559642
0.5624527899 0.2496680598 0.2334223386
0.5725267757 0.500011785 0.9829028107
0.5624972339 0.2473372468 0.7332864787
0.5726156638 0.4995200882 0.4813701668
0.5724638133 -0.001426436 0.484612731
0.5724712207 -6.1339040076e-05 0.9829768842
0.5926191923 0.4994768765 0.9854861215
0.5925340079 0.4991855249 0.4861006809
0.5825340955 0.2476515137 0.7325114855
0.5925747483 9.4228548819e-04 0.4849562465
0.5926636364 -0.0012196091 0.984217614
0.6026154011 0.2491318419 0.2389574753
0.5823563193 0.4993891437 0.7334938843
0.5926303033 0.2511123782 0.4867432679
0.6025228093 0.251207313 0.736663301
0.5925266005 0.2496143725 0.9864027801
0.582404467 -0.0027510711 0.2332353032
0.5826044652 0.2470491687 0.2323417926
0.612507907 0.499723707 0.9925138377
0.6125523511 0.499284388 0.4914098937
0.6126264245 0.0017940798 0.4934756163
0.6125930914 0.0015389998 0.9904583001
0.6126004988 0.2506553817 0.488803435
0.6124486483 0.2495436625 0.9902083023
0.6225152268 0.2509591731 0.2399889478
0.6226078185 0.2491488646 0.7431437998
0.6424780149 -0.0023008837 0.2426917019
0.6524445942 -0.0014758676 0.4986014973
0.6525445933 0.0012217212 0.9979767528
0.6426669021 0.249211718 0.2456611203
0.6525964447 0.2516263356 0.4948339377
0.6426965315 0.249802278 0.7481789408
0.6527557026 0.2521108304 0.9977637917
0.6325262502 0.5005499671 0.9931434618
0.6324706951 0.5004164037 0.4922885897
0.6424224598 0.5018810185 0.2430426247
0.6525816301 0.5003175405 0.4932265444
0.6324558804 -0.0015454646 0.4932163593
0.6324706951 2.2745917208e-04 0.9922082848
0.6326669897 0.2515903258 0.4907950842
0.6326151383 0.2506219909 0.9873009204
0.6825221085 0.499813404 0.7442752713
0.6725999732 0.5000517231 0.9949027056
0.6824147021 0.4990630917 0.2424639261
0.6627889481 0.2486755001 0.2501471921
0.6725999732 0.4995299091 0.4950459729
0.6625519131 0.2502920106 0.7433345388
0.6825147012 0.2479638164 0.2500953407
0.6725592328 0.2498788805 0.4983042777
0.6826369223 0.2503522451 0.7465141406
0.6725814549 0.2513245084 0.9934490147
0.6626445049 0.5011496932 0.7447243415
0.702492304 0.2502415969 0.2506166325
0.6924960952 0.2484221224 0.4999653743
0.7025589701 0.2492739167 0.752188165
0.6924183182 0.2513984921 0.9982637873
0.7024886003 0.4983167078 0.7472891338
0.6923738741 0.5002199868 0.9995230355
0.702492304 0.4992280819 0.250678669
0.7025663774 5.2922089501e-04 0.250914778
0.7225106472 0.4998310815 0.7522983492
0.722355093 0.5000150586 0.253156425
0.7124366613 0.250132913 0.5027227575
0.712418143 0.2503162353 1.0012267243
0.7225402765 5.5357658191e-04 0.2495240495
0.7224995361 5.650997026e-04 0.7523029788
0.7225662022 0.2479428653 0.253866604
0.732606855 0.2499017958 0.5018885056
0.7225699059 0.2493256398 0.7556223942
0.7325142632 0.2498906655 1.001884126
0.7125959192 -0.0019868132 0.5008274038
0.7426104711 8.7694415613e-04 0.7529937135
0.7525622358 0.4999109577 -7.049624127e-04
0.7426586188 0.2501728511 0.2569582436
0.7426289895 0.2512668928 0.7548418454
0.7624584454 -1.8527805971e-04 0.2503129314
0.7525437174 -6.8326019566e-04 0.5020496153
0.7624362234 -7.7740932944e-04 0.7487798615
0.7625065931 0.2500176818 0.2522323591
0.7524844587 0.2496595484 0.5006903679
0.7625954812 0.2494264671 0.7508678062
0.7525400137 0.2509290558 1.0016433873
0.7824582702 -0.0010511489 0.2454926033
0.7823582711 7.8587221935e-04 0.7468132121
0.7725176165 0.0012226378 -0.0035129471
0.7824434555 0.25120273 0.2484546144
0.7724398394 0.250028812 0.4987533479
0.7825212326 0.2524499768 0.7491085623
0.7725139129 0.2515903258 6.1215567988e-04
0.7923322578 -0.0015276561 0.4977524307
0.7923915165 0.2505899095 0.4983440922
0.792510034 0.2507450787 2.3706637281e-04
0.8023655032 -0.0025455536 0.2526110595
0.8123357863 -0.0025697784 0.5030560879
0.8024506877 -0.0010722965 0.7491215252
0.8124209707 -0.0012254361 0.00109067
0.8025136501 0.2485569953 0.2530517963
0.8125209698 0.2478944158 0.5012051782
0.8024914281 0.2496484181 0.7501104054
0.8125135625 0.249164578 9.0557903562e-04
0.8225838447 -0.0015573151 0.7531742675
0.8324282029 -0.0029145554 0.0052043377
0.8225505116 0.2488169202 0.2546369676
0.8326133864 0.2505270561 0.5030088661
0.8224986602 0.2488424544 0.7539733345
0.8325911644 0.2497073432 0.0015520549
0.8225208822 6.8930061134e-04 0.2542082677
0.8324207955 -5.308407357e-04 0.5045921856
0.8624946062 0.4985897272 0.7503242924
0.8524946938 0.5014292598 -0.0031985332
0.8625760869 0.4999711922 0.2510008884
0.8425910768 -0.0010787782 0.7509048429
0.8425725585 0.2501407696 0.2513268114
0.8425688548 0.2478466211 0.7509141021
0.8624612731 -2.7693924698e-04 0.2524351351
0.8525132121 -0.0012181687 0.5031866424
0.8524724717 -5.2023422689e-04 0.0025553794
0.8425836695 -8.6435651279e-04 0.2535916064
0.862620531 0.2503234373 0.2510490361
0.8525650635 0.2512295736 0.5024431304
0.8625909016 0.2512099319 0.7494900405
0.8525058048 0.2505316391 0.0024489914
0.8727574792 0.5004065828 0.5026301658
0.8826796146 0.4989779778 0.7534251912
0.8926869343 0.4984339031 0.0028457472
0.8825648007 0.4986781147 0.251128665
0.8925721205 -4.5142286416e-04 0.5040533014
0.872557481 -0.0015182281 0.0057686846
0.8926276756 -9.7114179595e-04 0.0072320051
0.882472209 0.2521821952 0.2539443811
0.8725056296 0.2506036586 0.5030792359
0.8927091563 0.2507470429 0.5043597802
0.8826573925 0.2481268424 0.754722402
0.8725648883 0.2511843977 0.0034685195
0.8925128618 0.2492221936 0.0068886748
0.9025831439 0.4994860426 0.2556832548
0.9025572182 -0.0011297156 0.2583211946
0.9126534261 0.0012541299 0.5056477319
0.9025683292 -0.0011259183 0.7557010972
0.9126163894 -4.16591613e-04 0.0044628627
0.9025312925 0.2505290202 0.2547249298
0.9125237976 0.250732639 0.5056403246
0.9025238852 0.2500530368 0.7534353763
0.91258676 0.2500183365 0.0091155997
0.912608982 0.5021743343 0.0032326883
0.9226533385 3.2403078009e-04 0.2593804446
0.9225866724 8.6759249632e-05 0.7589492169
0.9326828803 0.5013166475 0.5067930923
0.9325421408 0.500769954 0.0142940729
0.9225274137 0.2509486975 0.2559841781
0.9226088944 0.2522254069 0.7545983291
0.9426050156 9.677542038e-04 0.2626044904
0.9327458427 -0.0016916642 0.5100226936
0.942656867 0.0021414757 0.7595418043
0.932742139 0.0025032755 0.0136832449
0.9426272376 0.2498467991 0.2586591546
0.932505104 0.2490460732 0.508418078
0.942656867 0.2508969744 0.7590640307
0.93246066 0.2522083841 0.0114316905
0.922568154 0.5011176118 0.7544001826
0.9625344706 0.2519320911 0.2630443014
0.9526012243 0.2518620358 0.5107467613
0.9725936418 0.2534949144 0.5148115405
0.9625233596 0.2522273711 0.7631065879
0.9525493729 0.2501054146 0.0090096747
0.9725566051 0.2501440433 0.011839187
0.9525308546 0.5011333251 0.0148633271
0.972467717 0.4996300816 0.014943882
0.9624715082 0.5004720551 0.2647683604
0.9526419647 0.0016588796 0.5122504519
0.9626122477 0.0034426063 0.7652787911
0.9924897638 0.4973902751 0.5215512963
0.9824639257 0.5020656503 0.7629417745
0.9925453189 -0.0011398639 0.5225411025
0.9824935551 -3.2977537421e-04 0.7647537957
0.9825861468 0.2478020999 0.2682711075
0.9925416152 0.2473110578 0.5183735464
0.9825454065 0.248954412 0.7690157954
0.9924230977 0.2488228127 0.0206692022
0.0025755459 0.997982136 0.2726071806
0.0125715324 0.9984666308 0.5263873651
0.0227376656 0.9984928197 0.7723972472
0.0025390647 1.0000903433 0.772917613
0.0126844573 0.9997040568 0.0258167497
0.0125663843 0.748991068 0.0246981484
0.0025434721 0.4979716689 0.7753805544
0.0225603338 0.7496392435 0.2738719843
0.0025668052 0.7463656297 0.275114566
0.0125124588 0.7504380053 0.5236355373
0.0224805938 0.7497636408 0.7747000048
0.0025728422 0.7465227631 0.7738611233
0.0224545569 0.4982970661 0.2740664271
0.0024835097 0.4980561281 0.2727590311
0.0124847554 0.4981392779 0.5215124078
0.0324337288 0.751753998 0.023111866
0.0324033587 0.5009441102 0.0202058729
0.042683639 0.7510272558 0.2684942537
0.032421877 0.7502743246 0.5217614797
0.0425617882 0.7508373862 0.7686528356
0.0425747511 0.5010213675 0.2710460832
0.0325626166 0.4989799419 0.5229022104
0.0425217886 1.0017402446 0.7707287433
0.0526891069 0.7496981686 0.0196403223
0.0525268861 0.7515052034 0.5180226235
0.072523748 0.9990231451 0.5162383799
0.0625201319 1.0009414829 0.7653250869
0.072487452 1.0006992354 0.0158542444
0.0726030066 0.7514724673 0.0156350796
0.0625564279 0.4987547173 0.768501911
0.0625838351 0.7515248451 0.2668544532
0.0726300434 0.7510010669 0.5138059938
0.0625697611 0.7512891449 0.7680815443
0.0724078231 0.498094102 0.5182179922
0.102546448 0.499350515 0.2626730084
0.1026264473 0.9999463043 0.2560128815
0.0825988449 0.999592754 0.2590971138
0.1025397814 1.0006141215 0.7590056979
0.0826066226 1.0007712549 0.7625408521
0.0925698687 0.7486898955 0.0127433457
0.1024968188 0.7497767353 0.2588961896
0.0824803275 0.7510927281 0.2662951988
0.0925454245 0.7529979713 0.5121198974
0.10248793 0.7495148462 0.7592723622
0.0824955125 0.7504183636 0.7658963782
0.1126104339 1.0004504408 0.0079020918
0.112498583 0.7511712948 0.0055235015
0.1225147916 0.4998035832 0.7545418481
0.1125856193 0.4995037201 0.0072171904
0.1224703475 0.7514790145 0.2557193656
0.1125122866 0.7496981686 0.5062986521
0.1225070139 0.752644421 0.7542788874
0.1225236804 0.4991698115 0.2549564093
0.11250562 0.5006383547 0.5062968003
0.1224866437 1.0001885517 0.2534286449
0.1125548788 1.0004177046 0.5084430778
0.122526273 0.9998153597 0.7509446574
0.1424123951 0.9994618094 0.2523582839
0.1524004557 1.0009152939 0.499765376
0.132485445 1.000745066 0.5019412829
0.1424457281 1.0017402446 0.7515465039
0.1524856402 1.0008956523 9.1141231785e-04
0.1324610008 1.0007319716 0.0027840811
0.1525241584 0.7496654324 0.001990014
0.1324221122 0.7497701881 3.4262100378e-04
0.1426116526 0.7490761819 0.2522823586
0.1524426776 0.7521140956 0.5015107311
0.1324306307 0.7506671583 0.5029903478
0.1425198016 0.7503856275 0.7525316805
0.1424386912 0.500944765 0.2527610581
0.1825090809 1.0015438278 0.7499511475
0.1724195397 0.7517343564 -0.0021930883
0.162446664 0.7499011326 0.2526332815
0.1723499106 0.7506540638 0.4954154141
0.1624670342 0.749508299 0.7513566908
0.1824513036 0.74936426 0.2529693896
0.1824761182 0.7512040309 0.7538770391
0.1823531563 0.5000785667 0.2496990479
0.1624703675 1.0006403104 0.2485666504
0.1725206499 1.0005813853 0.5013718434
0.1624459233 1.0008432744 0.7517752056
0.1924086238 0.9993177704 0.4994403789
0.2023833513 1.0009611245 0.7476150569
0.1923967721 1.0008629161 0.0038778678
0.1924626974 0.7508373862 -8.2468358625e-04
0.2024996465 0.7485851399 0.2470185158
0.1924001054 0.7494624684 0.4964061462
0.2025096465 0.7495999601 0.750362255
0.212393634 0.5002199868 0.4989366796
0.2324719766 0.7488339345 -0.0039297305
0.2224442867 0.9997695291 0.2477888795
0.2324282733 0.7505100248 0.4989227908
0.2125284476 1.0008760106 0.4989468647
0.2224246572 0.9996385845 0.7508187325
0.2124588186 1.0001492683 3.033620884e-04
0.2324949394 0.4990139875 0.4978792814
0.2124788184 0.7516754313 -0.0051326273
0.2325116059 0.9975893023 0.5000829658
0.2224905825 0.748991068 0.2492397927
0.2323686442 0.9978053608 -0.0031132098
0.212485485 0.7493969961 0.4980033544
0.2224683605 0.7497832825 0.7463382162
0.2524618015 0.7477143586 0.9960508437
0.2424833704 0.5001446937 0.7473150595
0.2524295796 0.4989275641 0.9969767615
0.2424989258 0.7504903831 0.2458250078
0.2525210602 0.7504380053 0.4980459466
0.2423837416 0.7501892106 0.7438308308
0.2524984678 0.5009428008 0.4984755725
0.2624543066 1.0011771831 0.7515307633
0.2424604076 1.0011575414 0.2509703331
0.2623754184 0.7498225659 0.2461870416
0.2625046765 0.7504772887 0.7473983921
0.242413371 1.0021134366 0.748830787
0.26243764 0.500517231 0.2475694369
0.2823330213 0.5006344264 0.7472483934
0.2825389455 0.7503856275 0.246025006
0.2824604276 0.7499076798 0.7447761929
0.2724482931 0.7508504806 0.997467498
0.2724675522 0.4996549611 0.9974582388
0.272483478 0.7501237384 0.4979061331
0.2823807987 0.5003195047 0.2463000036
0.2824259835 1.0011051635 0.7489761561
0.2924229329 0.749135107 0.9955786256
0.3024858078 0.4998814952 0.7484307905
0.2924829324 0.5006507944 0.9993008153
0.3023954382 0.7523105124 0.2455833432
0.2923681186 0.7503267024 0.4989940865
0.302370994 0.749338071 0.7474595027
0.3021991436 0.5025429432 0.2482833196
0.2924584882 0.5001211237 0.4988320509
0.3124860905 0.7519504149 0.9943286366
0.3124264614 0.7507653667 0.4929959909
0.3323518425 0.7496457907 0.9960415845
0.3224548921 1.0011051635 0.2430592913
0.3324488786 1.0006795937 0.4966839215
0.3223134119 0.5009480386 0.7488770829
0.3224215591 0.7487684622 0.2440639121
0.3324729525 0.7502546829 0.4935645044
0.3223797076 0.7497767353 0.7457409992
0.3223808187 0.4994179515 0.2480722103
0.3323459166 0.4995482413 0.4947246794
0.3424673094 0.498564193 0.2440092829
0.3424487911 1.0011575414 0.2425379995
0.3524872216 0.7507981028 0.9910601467
0.3423169404 0.4990964826 0.7417521453
0.3523257416 0.4995750849 0.9896897883
0.3425424939 0.7509683307 0.2437815072
0.3525468507 0.7495737712 0.4919645184
0.3624841711 0.7506409693 0.2413204176
0.3424480503 0.7494559211 0.743603055
0.3625767629 0.7511909365 0.7410003
0.3624360234 0.9996189429 0.2396315435
0.3625249115 0.9987219727 0.7359336777
0.3624471344 0.4994009287 0.2393426572
0.3724359358 0.7509225001 0.9888009072
0.3824321445 0.5002723647 0.7370836677
0.3723840844 0.5015935952 0.9904675593
0.3823877005 0.7508439334 0.2360297232
0.3725544533 0.7502088523 0.4878645543
0.3823284417 0.7516034118 0.737271629
0.3723692697 0.9983225918 0.4859525341
0.3823691821 0.9996320373 0.7385364327
0.3723692697 0.9998415486 0.9881990607
0.3723951954 0.4985930008 0.4844849543
0.3925950185 0.7491547487 0.9865416678
0.392498723 0.7515903174 0.4874543728
0.402435673 0.9988267283 0.2326908636
0.4024319693 1.0002736656 0.7329577779
0.4124911405 0.7498422076 0.9846713138
0.4124800295 0.7513546172 0.4805979513
0.4125578066 0.5008734002 0.479914624
0.4026319676 0.7484149119 0.2368713825
0.4024986354 0.7512695032 0.7345577639
0.4324872616 0.7505493082 0.9794213598
0.4224725345 0.4995659188 0.7293920684
0.4325317057 0.4992293913 0.9766528655
0.4226058667 0.7504445525 0.2329797499
0.432539113 0.7499666049 0.4799877715
0.4226169777 0.7501957579 0.7293818833
0.4225058676 0.5009081005 0.227503872
0.4326687415 0.4986676392 0.4779970482
0.4425390254 0.5004733646 0.7271022736
0.4425871732 0.7503921747 0.2275409087
0.4426612466 0.7502481357 0.7244911854
0.4525759746 1.0009480301 0.9723843844
0.4624351475 0.9999790404 0.7203588142
0.4725165406 1.0023622313 0.9715510583
0.4525685672 0.7498291131 0.9723380885
0.4524796791 0.7505362137 0.4692174955
0.4526167149 0.5000857687 0.4772831656
0.4724720966 0.7512695032 0.969245523
0.4625944053 0.7496588852 0.2211539276
0.4726387618 0.7522057568 0.4669554782
0.4626351457 0.7499862466 0.7211032521
0.4824460833 1.0007908966 0.2190946864
0.4924459957 1.0013408637 0.471813769
0.4924608104 0.9985190086 0.9718751296
0.482516453 0.4983900367 0.219233574
0.4924756251 0.7507129889 0.4713230326
0.4924496994 0.7483232508 0.9706436589
0.4925348838 0.5007071006 0.4708609996
0.4826794146 0.5016256766 0.7196662276
0.4825831191 0.7484149119 0.2191483896
0.4825312677 0.7508242917 0.719966225
0.5123643397 0.9972488465 0.4723952454
0.5124124875 1.0000903433 0.9745047362
0.502379242 0.9995534706 0.2205196739
0.5123310067 0.7516623369 0.970338106
0.5222457347 0.5007594784 0.2254446307
0.5225049917 0.748473837 0.7263245026
0.5222605494 0.9985059142 0.7228060149
0.5024977595 0.7488273873 0.2225344711
0.5024903522 0.7492987877 0.7270346816
0.5124643389 0.501291768 0.9743288118
0.5124235985 0.7490761819 0.4754702185
0.5223827705 0.7497898298 0.2255372225
0.5323234242 0.75080465 0.4786451907
0.5325345334 0.4990650559 0.4786488943
0.552356582 0.7492529571 0.9832454003
0.5425122238 0.9986957838 0.2307177327
0.5524084334 0.9974190744 0.4828747832
0.5424381504 0.7482577785 0.2318001306
0.5524491738 0.7499796994 0.4824405278
0.5425566679 0.4999135766 0.2314992073
0.5424862981 0.7492202209 0.7290041088
0.5323678682 0.7461692129 0.9781250748
0.532482682 0.4986453786 0.9812361587
0.5625157523 0.4984064048 0.7315420495
0.5625564927 0.749049993 0.2338390017
0.5624861229 0.7486637066 0.7345096161
0.5723415922 0.7496392435 0.9842083549
0.5725415904 0.747897681 0.4847618037
0.602526513 0.5005741919 0.7382188429
0.6025042909 0.751924226 0.2361232409
0.5924932675 0.7478387559 0.4886617696
0.6025005873 0.7503332496 0.7386716167
0.6025005873 0.5008393546 0.2397963569
0.6025228093 1.0003849685 0.2387621067
0.6025191056 1.0003064018 0.7386475428
0.5824822441 0.9996123956 0.7341466563
0.5825340955 0.7483756286 0.2312612465
0.5824526147 0.499140349 0.2342538128
0.5824526147 0.7493315238 0.733947584
0.5925191932 0.748676801 0.9878101752
0.6124301299 0.7493904489 0.4871710419
0.6225226341 0.4975218743 0.7413401119
0.6225300414 0.7517736397 0.2413093066
0.6225411525 0.7525462126 0.7417688118
0.622433746 0.4993321828 0.2425120738
0.6225967075 0.9998939264 0.2415241195
0.6225522635 1.0013408637 0.7411456691
0.6125671657 0.7483821758 0.9895046048
0.6424743112 0.9972881298 0.7437095355
0.6324818061 0.7513022393 0.9902916349
0.6325077318 0.750372533 0.4915432258
0.6524816309 0.7475113945 0.9945508569
0.6424743112 0.5006665078 0.7414262222
0.6524853346 0.4984352126 0.9962267681
0.6425817176 0.7501892106 0.2440352086
0.652537186 0.7497309047 0.494334868
0.642622458 0.7494886573 0.744988228
0.662496358 0.9999135681 0.2472611063
0.6625037654 1.0006206687 0.7438123124
0.6824406278 1.0003064018 0.2428194786
0.6724481227 0.7483690813 0.9942545632
0.6725296035 0.9997171513 0.4956468936
0.6825998856 1.0008760106 0.7440206439
0.6725036778 0.9997040568 0.9947267812
0.6823850727 0.749338071 0.248255542
0.6722259024 0.7479631532 0.4937135772
0.6824221094 0.7491874848 0.7455919265
0.6624778397 0.7493315238 0.2464694466
0.6625963571 0.5008550679 0.2442065034
0.6624074699 0.7497178102 0.7458511835
0.692544243 0.9988070866 0.5005838874
0.7024367489 1.0014587138 0.745315077
0.6924516512 0.9971702797 0.9960415845
0.6924849842 0.7494821101 0.9976897183
0.7024145269 0.7493708072 0.2460259319
0.6924775769 0.7510927281 0.494729309
0.6924701695 0.500132254 0.4971681766
0.702492304 0.7482970618 0.7467845086
0.7324994485 0.499957443 1.0036804065
0.7223921297 0.7501826634 0.2496721963
0.7324809302 1.0015831112 0.5038847844
0.7323550054 0.7501368328 0.503472751
0.7324550045 0.4998873877 0.5009533286
0.7225032398 0.7511058225 0.7507113261
0.7325364853 1.0003456851 1.0065600109
0.7126144375 1.0020021337 1.0006433961
0.7123848099 0.7508963112 0.997986012
0.712429254 0.4991704663 1.0019952361
0.7124255503 0.7500058883 0.50134314
0.712407032 0.5003109933 0.4997014877
0.732358709 0.7503528913 0.9982267506
0.742262326 0.501910481 0.7519974259
0.7425178793 0.7515706757 0.2504508932
0.7423289921 0.5015078265 0.2515286615
0.7424326949 0.7515772229 0.753178897
0.7425141756 1.0000707016 0.2479435077
0.7524289036 0.7510730864 -0.0026801396
0.7525881615 1.0013605054 0.0016201098
0.7525363101 0.4991842154 0.4995366743
0.7624473344 0.502656865 0.7469308036
0.7624732601 0.750745725 0.2509203335
0.7623251132 0.5006357358 0.2463305589
0.7523214971 0.7508111973 0.4997403763
0.7624658527 0.7513087866 0.7500455912
0.7724731725 1.0012426553 0.496791328
0.7824101225 0.7499666049 0.2443472429
0.7823767894 0.5018417351 0.2441870592
0.7724842835 0.7522777763 0.4986440896
0.7824545665 0.751033803 0.7479252394
0.772365766 0.7504380053 -0.0021132464
0.7724768762 0.501863341 0.4961052229
0.7824619739 0.502614308 0.7454308168
0.7724694688 0.4996327005 -0.0031220986
0.7924285532 0.7482905146 0.5003690744
0.7924137386 1.0004373463 3.3178776534e-04
0.8125209698 0.7480482672 0.0034111126
0.7922952211 0.7510665391 -0.0010062561
0.7924248496 0.5004164037 0.5007625895
0.792476701 0.5043198608 -0.0024915394
0.8124357854 0.4975925844 0.5024838707
0.8024432803 0.4982204635 0.7488715274
0.8123283789 0.4982964114 8.2150569797e-04
0.8023766143 0.7502874191 0.2510536657
0.8023655032 0.498816916 0.2458583408
0.812383934 0.7472298637 0.5020227637
0.80240254 0.7515837701 0.7526668645
0.8325837571 0.750974878 0.0039783299
0.8323578331 0.5002357002 0.50201906
0.8223579207 0.4992339744 0.7506178084
0.8323985735 0.4991004109 0.0016432578
0.8223875501 0.7492725988 0.2540786392
0.8224356978 0.498977323 0.2517545855
0.8326244974 0.74804172 0.5025903513
0.8225282896 0.7479631532 0.7553973961
0.8525095085 0.4996903161 0.4969681783
0.8625131245 1.0001885517 0.7532076005
0.8625538649 0.7503856275 0.2518703252
0.8525983966 0.74804172 0.5006061094
0.8425318181 0.5004419379 0.7529113068
0.8425021887 0.7515968646 0.2518592142
0.8425207071 0.4998035832 0.2466500006
0.8423577455 0.7509945196 0.751850205
0.8625834943 0.7503397969 0.754385368
0.852446546 0.7489125012 -0.001590788
0.882742577 0.7494100905 0.7525427915
0.8726167397 0.7484411009 0.0022964928
0.8925721205 0.7494886573 0.0057349812
0.8925165654 0.4989504794 0.5060106917
0.8726759985 0.4994133684 0.0031412076
0.8824981347 1.0010658802 0.2557406617
0.8726537764 0.9991409952 0.5074625308
0.8826388742 0.7517932814 0.2544249325
0.8724574819 0.7491154653 0.5022570209
0.8926128609 0.7491482014 0.5029783109