POSCAR file written by Ovito 3.7.11
1
269.9872702279 0.0 0.0
0.0 15.272786369 0.0
0.0 0.0 10.7994908091
Sr Ti O 
800 800 2400 
Direct
0.022448118 0.4997839294 0.796149707
0.0125524662 0.4993943476 0.0475057994
0.0125507254 0.2476760359 0.5448156351
0.0226003474 3.3989766915e-04 0.2943538265
0.0226545351 0.2511600105 0.796148781
0.002597145 0.2505753104 0.7982386944
0.0125577257 0.2493142438 0.0444173204
0.022731835 0.248538354 0.2965798573
0.0026931495 0.2482306171 0.2964780007
0.0525137206 -0.0019131948 0.5372782427
0.0525615007 0.2499343009 0.0383731466
0.0525537225 -0.0016017912 0.0394972736
0.0425088045 0.5001466661 0.7936912578
0.0324420336 0.2497548969 0.5440674516
0.0425328797 -3.898316501e-04 0.2908795886
0.0426017718 0.2505314415 0.7892938282
0.0524763115 0.5006881521 0.0399080337
0.0524900158 0.5016133271 0.5413126921
0.0326094489 -8.6662742423e-04 0.5451045376
0.0326479692 0.2486247822 0.0404679675
0.0325042587 -5.5253935385e-04 0.044282777
0.0426147354 0.2518527459 0.2918592644
0.0524974236 0.247526096 0.5365837655
0.0624264102 0.24869877 0.7871659501
0.0725191083 0.2488775193 0.0365316708
0.0625338227 0.2499401938 0.2851237617
0.0726217057 0.5018189215 0.0334018011
0.0625549348 0.50111571 0.2899712124
0.0724913292 0.2481723435 0.5344410719
0.0625656761 6.0088475452e-04 0.2877961099
0.082543655 0.4996405371 0.2853663657
0.0924648635 0.499199884 0.532274303
0.0924526407 0.2515076877 0.5326632103
0.1023816273 0.2486483535 0.7817925486
0.0823743878 0.2508575117 0.7816740245
0.0924674562 -0.0034620281 0.5321344816
0.0925437561 0.249275613 0.0326245422
0.0924704193 -7.2041965663e-04 0.0304872192
0.102404221 0.2493194819 0.2816541536
0.0823073476 0.2501503715 0.2806050301
0.1023842201 0.4996641084 0.7830814983
0.082609584 0.4994401807 0.7859844129
0.0924941241 0.4989248851 0.0300174748
0.1223173821 0.2489822808 0.2740686108
0.1123924697 0.248995376 0.5261351247
0.1224803527 0.2468536581 0.7745375769
0.1124898817 0.2482653193 0.0263163744
0.1526139957 0.2511436415 0.514954042
0.1324471189 0.2493155533 0.5228442288
0.1425005559 0.2488906145 0.7690734304
0.1525413996 0.2505065606 0.0163143288
0.1324637864 0.2483196643 0.0221816424
0.1426005606 0.2489351381 0.2683137099
0.1424890739 0.5005198789 0.7717170736
0.1524376911 0.5004760101 0.0197799551
0.1324108209 0.4987179812 0.0229035283
0.1524858415 0.5006704736 0.520281145
0.1324656383 0.4991324438 0.5236674158
0.182515035 7.7629479008e-04 0.2619272976
0.1825431845 0.2521833994 0.7628722121
0.1825176278 0.2519686383 0.2648246565
0.1625163144 0.5030845714 0.7689447207
0.1724364117 0.5028619532 0.0122481185
0.1625285372 0.5003751771 0.2655422829
0.1725316014 0.2510899512 0.5166143054
0.1724190035 0.5019688614 0.5161170598
0.162557057 0.252679707 0.7654491855
0.1825154054 0.5018562428 0.7606054386
0.1726134571 0.2520144715 0.0134731763
0.1725893819 0.0027812989 0.0133523373
0.1625992813 0.2511632843 0.2650867059
0.2025511649 0.2507979285 0.7619119817
0.1925881026 0.250862095 0.0123365486
0.2026059823 0.2505798937 0.2594947755
0.2023874535 0.5003594629 0.7580812455
0.1923914266 0.5015452321 0.008542666
0.2024489378 0.4999384526 0.2575474615
0.1923543878 0.5021613607 0.5084102149
0.192500691 0.2526240524 0.5136900935
0.2025148669 -7.4235409557e-04 0.2602985171
0.2224535847 0.4999188098 0.2485424073
0.2326977714 0.500364701 1.0000046886
0.2125201534 0.2506342387 0.5060897352
0.2226139626 0.2487491865 0.7480020666
0.2124442239 0.2498727536 0.0077574438
0.2226380378 0.2487360913 0.2530509532
0.232527393 0.2501575739 0.499244968
0.232595174 0.2493718626 0.9980879316
0.2225328477 0.501156305 0.7478159467
0.2124631137 0.5008970203 0.0063557111
0.2426297211 0.5005120218 0.2448440848
0.2625351041 0.0011609004 0.2409735319
0.2625269555 0.2525061957 0.742814785
0.2625051027 0.4993779786 0.7419415957
0.2526690834 0.248451271 0.4921650046
0.2425952751 0.2514507236 0.7470094272
0.2524864822 0.2492985296 0.9951063095
0.2525650044 -6.3444975119e-04 0.4941845442
0.2525587078 -7.3364579593e-04 0.9962915506
0.2625295483 0.2506276911 0.2414772594
0.2425600882 0.2508221546 0.2474405035
0.2726174313 0.2482862716 0.4903834391
0.2725955784 0.2488054958 0.9888374954
0.2723866797 -1.0795774078e-04 0.4913029269
0.2724903883 -6.8493169871e-04 0.987541138
0.2724592757 0.4997590486 0.4901408351
0.282592346 9.1457996928e-04 0.2353019683
0.2825071568 0.2497968015 0.7375552778
0.2825249354 0.2508889401 0.2361371928
0.3124559762 0.2488912693 0.4813061593
0.3124670879 0.2490870423 0.9791888924
0.3123522676 -0.0021850509 0.4796283024
0.3124882 1.8144590131e-04 0.9815871536
0.2925850394 0.249327339 0.4823284297
0.3025710657 -2.2273705856e-04 0.2303415492
0.3026125492 0.2484303187 0.7270390412
0.292620967 0.2499945388 0.9817445684
0.2924850346 -0.0014140063 0.4809607726
0.302543657 -4.3317672047e-04 0.7329411713
0.2925268885 -4.6787896715e-04 0.9812445448
0.3024821727 0.2499703127 0.2316360547
0.3124733845 0.4991894079 0.9835779882
0.3123441191 0.4992398244 0.4805996445
0.3323754339 0.2504541799 0.4732594836
0.3224049638 0.2480453202 0.7272927569
0.3325084031 0.2492363274 0.9731330513
0.3224027415 -0.0014049051 0.730303084
0.3324150654 7.7131861886e-04 0.9716700194
0.3224582997 0.2492703749 0.2281988556
0.332439511 0.5000955949 0.9726700665
0.3625801913 0.2495761476 0.2122212504
0.352621944 0.5022772531 0.4668360326
0.3627246426 0.4986819694 0.7127902213
0.3525404587 0.2511482248 0.462807139
0.3425336906 0.2506440601 0.7167589269
0.3523963778 0.2509622731 0.9623825444
0.3524348982 -6.6365201915e-04 0.4648729771
0.342495911 0.0011035435 0.7174756274
0.3524093414 2.2629691824e-04 0.9662160585
0.3424247966 0.2513453074 0.2180706003
0.3624283323 0.250236145 0.7144884495
0.3925223437 0.2499866817 0.4594782783
0.3924001157 -4.8680151298e-04 0.4615200412
0.3924593778 0.2499618008 0.9586879258
0.392363077 -9.6660918022e-04 0.9640863285
0.3826292847 0.4992719076 0.2075701052
0.3926704989 0.5021927891 0.9575582429
0.3724065805 0.247651155 0.464358138
0.3824589063 0.2495650167 0.709083565
0.3825477994 -2.3210011756e-04 0.2131731472
0.3725102891 0.2470094908 0.960326892
0.3825329839 0.2490628162 0.2136435397
0.3927630958 0.5011543408 0.4543539626
0.4023857717 0.2507435835 0.7053630193
0.4126195876 0.5009101155 0.9511134946
0.4025191113 0.249068709 0.2075673273
0.4124492092 0.2506748338 0.4564559136
0.4125121751 5.2526004715e-04 0.4584337846
0.4124788402 0.2521290543 0.9540765973
0.4124973596 -7.0516376328e-04 0.9556507456
0.4025450385 0.5006816045 0.7062991745
0.4026931936 0.5000608926 0.2038115947
0.4425950749 0.249308351 0.6970237372
0.4425580361 -6.933780946e-04 0.1948630246
0.442683968 -8.4724654684e-04 0.6959468346
0.4424765508 0.2494530528 0.1960195606
0.4325057103 0.2507737025 0.4489175952
0.4225719086 -2.7553289989e-05 0.2016198247
0.4224459768 0.248505616 0.7015415428
0.4325686763 -6.4414018988e-04 0.4532622445
0.4324575599 0.2499310271 0.9481411323
0.4226793211 -0.001165656 0.7010285556
0.4324279289 9.3592512479e-04 0.951983906
0.4223830108 0.251335486 0.2040282716
0.4426098904 0.5013697566 0.196160308
0.4525585076 0.0012196978 0.4432886261
0.4525288766 0.2501745976 0.9486226364
0.4625367558 0.5026144542 0.1945722702
0.4724927808 0.5008315444 0.4517140233
0.4525622115 0.5001794041 0.9466225421
0.4725705622 0.25152864 0.4491240864
0.4625441636 0.2518841743 0.6964709333
0.4626108334 0.0022101523 0.1987039465
0.4726001933 0.2512241769 0.9487707916
0.472426111 8.9677051439e-04 0.4499000489
0.462470086 0.2521997684 0.195034329
0.4525844348 0.250217157 0.4450785253
0.4626663916 0.5015458869 0.6952005031
0.4724224071 0.4995462518 0.9497523193
0.492578913 0.502288384 0.9570211806
0.482441398 0.2499742413 0.7032045842
0.4824969562 -0.0010320196 0.7011359681
0.4824191747 0.2491518635 0.2046875619
0.4925566897 0.2503952515 0.4566336997
0.4924640928 0.2499847174 0.9550951638
0.5025682728 0.4996091087 0.2053348146
0.5025090108 0.4988698853 0.7040657359
0.5122983612 0.5001165472 0.4587217612
0.5025497534 0.2499473961 0.2056450145
0.5226284779 -0.0013067567 0.2082868057
0.522472915 0.2499801341 0.2096081643
0.5125428172 0.2495047788 0.4543891495
0.5225358809 0.5006266047 0.706923278
0.5223766142 0.250989773 0.7110855113
0.5025090108 0.2506951313 0.706101943
0.5124835551 0.2495800761 0.9542247524
0.5025719767 -0.0012259594 0.7075057129
0.5325622796 -0.0017034754 0.4596282854
0.532458571 -0.0023689728 0.9603083726
0.5324400516 0.2503664421 0.4612015077
0.5324363477 0.2485108541 0.9582804992
0.5424590425 0.5021240394 0.7074983051
0.5523706209 0.5009487463 0.9633825916
0.5524372907 0.4996804774 0.463658105
0.5426516441 0.0010770258 0.7120716689
0.5525113683 5.828566358e-05 0.9632066574
0.5425108968 0.2508915591 0.2130333258
0.552581742 0.2488735908 0.4633321637
0.5425479356 0.2485226397 0.7088946672
0.5524484023 0.2482810335 0.9636789019
0.5724863841 0.2518259008 0.4700945196
0.5626155484 -7.8412774345e-04 0.2183909858
0.5724678647 0.2512503673 0.967021652
0.5624081312 0.5008531515 0.2182696837
0.5626599949 -9.6405561867e-04 0.717821014
0.5624414661 0.2491832919 0.2125851565
0.5723530445 0.4998277983 0.9701421695
0.5625414708 0.2482928192 0.7177339729
0.5724826802 0.5006370809 0.4705889873
0.5725049035 6.8181301281e-04 0.4720631309
0.5725271268 -3.4635562784e-04 0.973447881
0.5924243612 0.4979735197 0.9739664239
0.592368803 0.4990348847 0.4734669008
0.5823757393 0.2485625801 0.7256056403
0.5925725163 0.00194432 0.4725603766
0.5925280698 -9.5862111589e-04 0.9763554254
0.6025618762 0.2495427548 0.227149732
0.5824238897 0.5011419003 0.7219499124
0.5924762155 0.2512451292 0.4740743368
0.6025026141 0.2498799559 0.7285641131
0.5925169581 0.2504666203 0.9742256954
0.5825090789 4.7569476274e-04 0.2217124387
0.5823646276 0.2489501976 0.2209272164
0.612491974 0.5009991628 0.9746794205
0.6125030856 0.5011785669 0.4759818342
0.6125845709 4.151295209e-04 0.4765540834
0.6125067895 0.0014005424 0.9779017946
0.6124253042 0.2504607275 0.4749243769
0.6124660468 0.2519090552 0.9745775638
0.6224479989 0.2517604248 0.2276895723
0.6225331881 0.2517466749 0.7251528412
0.6423933837 0.0027752752 0.2310249147
0.6524642289 -3.9749233474e-04 0.4826793722
0.6525160832 3.3433221449e-04 0.9803185753
0.6425007962 0.2500213839 0.2284988697
0.6524753406 0.251879591 0.4797792354
0.6425563544 0.2510840584 0.72975491
0.6524975638 0.2504666203 0.9810130524
0.632552179 0.5010875553 0.9763924642
0.6325558829 0.5022838007 0.4777078415
0.6424415342 0.4994683354 0.2290877864
0.6524864522 0.5010266627 0.4809246598
0.632552179 -6.1461054224e-04 0.4798125703
0.6325336596 2.1051721739e-04 0.9776517829
0.6324484704 0.2524400651 0.4790708687
0.6325855139 0.2527929804 0.9763924642
0.682569352 0.4996942274 0.7423629118
0.6725318417 0.5011628526 0.9871522308
0.6825730559 0.4983578635 0.2421152524
0.6624832198 0.2519064362 0.2369687135
0.6724985068 0.5001761303 0.4879583248
0.6625758168 0.25042668 0.737334897
0.6826175024 0.2496206712 0.2430217767
0.6724725797 0.2501523358 0.489289869
0.682539721 0.2475457388 0.7443602282
0.6723762788 0.2493181724 0.9869114787
0.6625943362 0.4983794706 0.7344255006
0.7025036252 0.2486594844 0.2516499612
0.6924846343 0.2496651948 0.4931233831
0.7025925183 0.2473957989 0.75045496
0.6924883382 0.2499709675 0.99631007
0.7025480717 0.4991383367 0.7466482991
0.6925068576 0.4999725001 0.9950229722
0.7024258437 0.5003208321 0.2479858996
0.7023369507 -4.3998621793e-04 0.2439042257
0.722478641 0.4996058349 0.7455399135
0.7225304953 0.4988882186 0.2457496831
0.7124003881 0.2475365721 0.5000829705
0.7125522471 0.2492507322 1.0000695065
0.722571238 -8.6525242955e-04 0.2471062285
0.7225119759 -0.0011178586 0.7463575446
0.7224638255 0.2474691319 0.2473608701
0.7326124521 0.2485010327 0.4995560938
0.7224860488 0.2488310314 0.74655848
0.7325791172 0.2483275214 0.997069365
0.7124485385 3.5567737e-04 0.4963883518
0.7425425499 0.0010419961 0.7479159514
0.7524393128 0.5020356469 -0.0038780677
0.742509215 0.2489207334 0.2435014289
0.7426203314 0.2477290714 0.7452945315
0.7624064494 0.0011584778 0.2479284895
0.7525133904 -0.0010024245 0.4952086666
0.7624620076 -2.7380828951e-04 0.7453352742
0.7624657115 0.2491027565 0.2471654905
0.7524985749 0.2491132327 0.4979782416
0.762510158 0.2483262119 0.7504299589
0.7525282059 0.2490909709 0.998532397
0.7823999847 -0.0036532178 0.2508508495
0.7823259071 -1.3447549531e-04 0.7527967371
0.7725180373 -0.0017197134 2.2819997122e-04
0.7825777708 0.2467443133 0.2516388496
0.772466183 0.2507933452 0.5023460401
0.7824703584 0.2497391826 0.7535189934
0.7724254403 0.2501759071 4.4987708937e-04
0.7924263833 7.8565784909e-04 0.5036044328
0.7924893492 0.2498452537 0.5042340921
0.792467126 0.2485710919 0.0050577795
0.8023120346 -0.0022692529 0.2548890028
0.8125828892 -3.2867712482e-04 0.5070490397
0.8023675928 -0.0023935918 0.7562459738
0.8124273263 -6.2606883124e-04 0.0061868142
0.8025083401 0.2486385321 0.2547436256
0.8125754814 0.2475719291 0.5084509576
0.8025601944 0.2496586472 0.7559079949
0.8125125155 0.2500763837 0.0078034645
0.8224870599 -0.0010954003 0.7603832059
0.8326060555 -0.0022990445 0.0139450504
0.8224722443 0.2495001955 0.2603096288
0.8323949344 0.2508732259 0.5106418016
0.8224870599 0.2465308617 0.7578553089
0.8324653081 0.2495813856 0.0106892487
0.8225203948 -2.8232016134e-04 0.2574289374
0.8324838275 -0.0016819338 0.5120279781
0.8624704264 0.5004485102 0.771036486
0.8524440278 0.4991907174 0.0183701664
0.8624296838 0.4986701837 0.2726083568
0.8426250463 -8.8902019473e-04 0.7683835831
0.8424398524 0.2472032996 0.2673997779
0.8425028184 0.2502079904 0.7696197525
0.8624407954 -3.9657567162e-04 0.2751705146
0.8525255131 -0.002420044 0.521925667
0.8525106976 -0.0010179423 0.0201227491
0.8424620757 0.001785279 0.2650348516
0.8624519071 0.2499428128 0.2695832141
0.8524143968 0.2500993003 0.5200274293
0.8623963489 0.2497837063 0.7717318891
0.8523847657 0.2519575074 0.0182874773
0.8723894126 0.4983231613 0.5235775967
0.8824787772 0.5020402302 0.772373586
0.8924977681 0.4996254776 0.0285066629
0.8824009957 0.5020670753 0.2753538566
0.8924310983 0.0017585648 0.5313038869
0.8724894173 0.0020183078 0.0260276571
0.8924533215 7.2980687472e-04 0.0277612573
0.8823713647 0.2515063782 0.2767946653
0.8724486747 0.2498727536 0.5261703115
0.8926422193 0.2512503673 0.5238072372
0.8824121074 0.251582985 0.7781479323
0.872378301 0.251321736 0.0242475732
0.892590365 0.2514212595 0.0290947461
0.9024834241 0.5032089757 0.2777734151
0.9024278659 0.0020714743 0.2800577821
0.9126172352 9.4895483627e-04 0.534103093
0.9025834288 -1.2517791224e-04 0.7775960545
0.9125357498 -1.2655290692e-04 0.0341521142
0.9025093512 0.2513557835 0.2800540782
0.9125987158 0.2515973897 0.5311816589
0.9024167542 0.249343708 0.7786127691
0.9126357546 0.2523634582 0.031291609
0.9124913033 0.5010004723 0.0298111688
0.9225880756 -2.8251658915e-04 0.2810902382
0.9225843718 -6.3172199785e-05 0.7835444831
0.9325663239 0.5024507643 0.534254952
0.9323774261 0.4999692263 0.0338092277
0.922425105 0.2505615604 0.2852802505
0.9225621485 0.2491872205 0.7851278911
0.9425742031 -2.6647498455e-04 0.2904128999
0.9324070571 0.0013371617 0.536264306
0.9426482807 -1.9761653472e-05 0.7889817765
0.9324477998 8.4737942178e-05 0.0359584031
0.9424112325 0.2517623891 0.2897832406
0.9326181782 0.2523575654 0.5354216736
0.9425223488 0.2511305463 0.7906633372
0.9325033579 0.2519764954 0.0359828487
0.922484367 0.5004982719 0.7797943063
0.9626121849 0.2502518592 0.2938880638
0.9526598638 0.251076856 0.5431359262
0.9725830254 0.2496900757 0.5444480251
0.9626158888 0.2485946633 0.7967617729
0.9526561599 0.2507730477 0.0422607372
0.9727015495 0.2485075803 0.0466914091
0.9526006018 0.5012283286 0.0419508152
0.9727015495 0.5005735692 0.0450135522
0.9626677431 0.5007366043 0.2943779017
0.9525117087 -1.5571193496e-05 0.540983047
0.9628158982 0.0018918738 0.7976192207
0.9925395218 0.4997642866 0.5456314143
0.9824946038 0.5003712486 0.796088593
0.9925876722 -8.6931193765e-04 0.5490982444
0.9825760891 3.533857122e-04 0.7954089313
0.982579793 0.2507160836 0.2958029689
0.9927839778 0.2499650746 0.5464286741
0.9828575839 0.2521938755 0.7973025391
0.9927802739 0.2516353658 0.0476021928
0.0026321096 0.9997385425 0.2974576765
0.0125020194 1.0004194922 0.5482787613
0.0224314505 0.9992671158 0.7937079252
0.0027569673 0.9989462837 0.7921569262
0.0126079503 1.0015456784 0.0426744605
0.0123993479 0.7513752178 0.045676639
0.0024864361 0.4986551243 0.7934440239
0.0225273809 0.748697252 0.2981623394
0.0024372856 0.7512900991 0.2945918006
0.0123418267 0.7514472413 0.5458916117
0.0225472708 0.7499609376 0.7969395591
0.0024163587 0.7514668841 0.7954441182
0.0226221262 0.4992398244 0.2958520452
0.0024882139 0.4982707805 0.2932037722
0.0125241315 0.4984639345 0.5496158614
0.0325187039 0.7489133226 0.0430134579
0.032642043 0.4984449465 0.0432657846
0.0424865812 0.7490573696 0.2943853094
0.0324987029 0.7507073632 0.545397144
0.0424736177 0.7471913054 0.7931264163
0.0425336205 0.5002304753 0.2911258965
0.0326161159 0.4984783392 0.5436803964
0.0425151011 0.9976695029 0.7909272386
0.0524222349 0.7495942723 0.040058226
0.0524733484 0.7499085568 0.5396848376
0.0724913292 0.9992343778 0.5338253021
0.0624912281 1.0007665147 0.7858788524
0.0724016953 0.9983962858 0.0349590041
0.0725613325 0.7475448755 0.0353882836
0.0625049324 0.5016604698 0.7880613627
0.0626119745 0.7489591557 0.289404519
0.0726150387 0.7491948691 0.5364476479
0.0624575228 0.7505305782 0.7866742603
0.072498737 0.5018045168 0.5338141904
0.1024268147 0.4989825039 0.2817439727
0.1025897853 0.9983897382 0.2810893122
0.0824599473 0.999876042 0.2823171479
0.1025497834 0.9964385553 0.7806702735
0.0825032827 0.9992802109 0.7840398768
0.0925785726 0.7498234381 0.0360205356
0.1025557096 0.7481276113 0.2805198409
0.0826155102 0.7496139151 0.2814550702
0.0925193105 0.749502606 0.5328650716
0.1025564504 0.7484353482 0.7795776294
0.0825351361 0.7495222488 0.7808267624
0.1124046925 0.9964451029 0.0289897412
0.1125324763 0.7474924947 0.0275041156
0.1223966451 0.4995593469 0.7755792927
0.1123687649 0.4973940577 0.0301267392
0.1224629445 0.748906775 0.2762724184
0.1124869186 0.7499936755 0.5277518676
0.1225648011 0.7500264135 0.7755904044
0.1223396053 0.4987808381 0.2757622092
0.112485437 0.4979224485 0.5289074776
0.1224896124 0.9963992697 0.2723407516
0.1124283973 0.9985010473 0.5295084319
0.1225136876 0.9983046195 0.7746922139
0.1425475951 0.9987498559 0.2686915054
0.1525473259 1.0010022281 0.5136354613
0.1324160063 0.9987433083 0.520830245
0.1425479655 1.0012968698 0.7649361983
0.1524310241 0.9999808035 0.0160761694
0.1323911904 1.0003343735 0.017706061
0.1524717667 0.7521805718 0.0183347018
0.1325160111 0.7486776092 0.0206986095
0.1425127787 0.7504716499 0.2678433173
0.1525725122 0.7507662916 0.5157938964
0.1324852689 0.7510347429 0.5218386258
0.1424587021 0.7478133268 0.7715374355
0.1425109267 0.4992057769 0.2696322905
0.182449106 1.001761749 0.759558167
0.1725367868 0.7517353355 0.009328166
0.1625337226 0.7494371301 0.2618985926
0.1725393795 0.7508776007 0.5112631272
0.1624074204 0.7513948606 0.7627175752
0.182401326 0.7516829547 0.2588864135
0.1823409528 0.7528287836 0.7573376919
0.1825113312 0.5026655254 0.2623865786
0.1626503948 1.0021546046 0.2654209809
0.1724367821 1.0015915115 0.5143327164
0.1625533532 1.0020105575 0.7650362031
0.1923754999 1.0026587693 0.5098130589
0.202468198 1.0006093725 0.7588173913
0.1924110572 1.0006159201 0.0091121373
0.1923977232 0.7501049846 0.0068299001
0.2024026394 0.7511067665 0.254366756
0.1924077237 0.7492210595 0.5076046214
0.2024285665 0.7524424756 0.7561293016
0.2125042267 0.5010888648 0.5031266325
0.2326888821 0.7506942681 -0.0025053085
0.2225872947 1.0004522302 0.2478275588
0.2325259114 0.7513228371 0.4982995531
0.2125045971 1.0007861575 0.5021876993
0.2225232176 1.0009629425 0.7501021656
0.2125257092 0.998762951 0.0036949375
0.2325429493 0.5007686875 0.5006385522
0.2124171856 0.7497776049 0.002297279
0.2324714644 0.9973683136 0.501740456
0.222523588 0.7499412948 0.2492452182
0.2325448012 1.0001379457 -0.0012660371
0.2124823738 0.7499412948 0.50143859
0.2224802526 0.7505305782 0.7516883515
0.252526484 0.7493389162 0.9965323027
0.2426063867 0.5017730884 0.7456084352
0.2525335214 0.5016486841 0.997282338
0.2425000854 0.7512377183 0.248705378
0.2526064878 0.7498692713 0.492092779
0.2424582316 0.752016882 0.7487632136
0.2525094462 0.5000157142 0.4938919379
0.2626017739 1.0007010388 0.7413869399
0.2425874969 1.0011790131 0.2457015326
0.2625606608 0.7508055772 0.2413865144
0.2625780691 0.7517680734 0.7404350432
0.2425841634 1.0024688891 0.7471112839
0.2624973245 0.4986302434 0.2429884418
0.2824708588 0.49876185 0.7373293412
0.2824864151 0.7500329611 0.2353075241
0.2826030873 0.7490573696 0.7363237382
0.2725948376 0.7487430851 0.9889393521
0.2724896475 0.4997256558 0.9872818665
0.2725603916 0.749325821 0.490600116
0.2824749331 0.5003227964 0.2342639563
0.2826538304 0.9988742601 0.7356570401
0.2925435559 0.7487627279 0.9839946745
0.3023158685 0.4991848246 0.732099465
0.2924354027 0.5000792259 0.9859206912
0.3024392077 0.7492014167 0.2332592794
0.2925987437 0.7502031985 0.4830414263
0.3025047663 0.7494567728 0.7319531618
0.3024521712 0.5006671998 0.2323009008
0.292455774 0.4991612532 0.4850739295
0.3125500547 0.7496859386 0.9786425703
0.3124541243 0.7490704648 0.481648768
0.332693597 0.7494633204 0.9716329806
0.322404223 0.9997516377 0.2295461413
0.3322906151 1.000439135 0.474098412
0.3223649619 0.499912917 0.7302243766
0.3224953384 0.7503276028 0.2307406421
0.3324921061 0.7497514146 0.4714668065
0.3223671843 0.7492668926 0.7277242587
0.3224394099 0.5000903568 0.2262617272
0.3324398814 0.4999790477 0.4750891995
0.3424944295 0.5002684513 0.2186067367
0.3425410984 1.0013165126 0.2187382244
0.3525415699 0.7507073632 0.9656326977
0.3425307275 0.5015098751 0.7186830917
0.352574164 0.4987690524 0.9644011581
0.3424492422 0.7503014124 0.2176446543
0.3526193513 0.7515585504 0.4650785423
0.3624653711 0.7505371258 0.2132805596
0.3425448022 0.7507139108 0.7186516087
0.3624838905 0.7483895151 0.7141495446
0.362528337 1.0013361554 0.2134713094
0.362528337 1.000295088 0.7126652154
0.3625801913 0.5002370229 0.2137731754
0.3725251046 0.7506680777 0.9621788311
0.382621877 0.4987631595 0.7098271186
0.3726139977 0.4993275621 0.9617991836
0.3824922412 0.7508841483 0.2108971139
0.3725880706 0.7494633204 0.4639988618
0.3824626102 0.7494567728 0.7125976196
0.3724769542 0.9990903307 0.4655906035
0.3824774257 0.9995355671 0.7131680169
0.3726214055 0.9991165211 0.9667994193
0.3725806628 0.4981588166 0.4617580154
0.392544567 0.7522787857 0.9602435547
0.3926038291 0.7507401012 0.4573605859
0.4024931842 1.0012117511 0.2097646531
0.402407995 1.0006159201 0.7102863995
0.4126714419 0.7527633077 0.9528265383
0.4125862527 0.7513948606 0.4577633826
0.4125418061 0.4993799429 0.4558623671
0.4026043005 0.7506680777 0.2083905143
0.4025228152 0.7520954531 0.7031897686
0.432668681 0.750163913 0.9475670311
0.4224756078 0.5024219549 0.7010822619
0.4324501521 0.5006108905 0.9520116851
0.4225015349 0.7513490274 0.203923637
0.4326575693 0.751984144 0.4486046175
0.4224830156 0.754112112 0.7058473013
0.4224793117 0.5014155898 0.2019383582
0.4324390405 0.5008511872 0.4507565708
0.442591371 0.5000242261 0.6967820591
0.4425654439 0.750582959 0.1976909357
0.4426654486 0.7505567686 0.6964533399
0.4526029541 1.0024950795 0.9468540345
0.4626775032 0.9999742559 0.6969218805
0.4723409218 1.0023641276 0.9493634121
0.4526474007 0.7508055772 0.9464651273
0.4525325805 0.7507466488 0.4404134906
0.452547396 0.5006252952 0.4438979141
0.4725853777 0.7500460563 0.947539252
0.4625441636 0.7512311707 0.1975344469
0.4724705575 0.7510281953 0.4485407256
0.4625404597 0.7511722424 0.6958949803
0.4825302911 1.0003736591 0.2026559846
0.4924011268 1.0001183029 0.4550076972
0.4924789083 0.9989266409 0.9567711688
0.4824858445 0.4992705981 0.1998030724
0.4925122432 0.7500198659 0.4565151756
0.4926455828 0.7491228456 0.9553173965
0.4924677966 0.4993557168 0.4563003507
0.4824562135 0.4992922051 0.7023712115
0.4824895484 0.7485532049 0.2048403469
0.4824636213 0.7493127258 0.7051778253
0.5124650357 0.9980950965 0.4592291925
0.5125539288 0.9986319992 0.9584471737
0.5025830884 0.9990183072 0.2056237172
0.5125020745 0.7502621269 0.9550118266
0.5223988374 0.500282856 0.2075339924
0.5223951335 0.7495615343 0.708507612
0.5225469926 0.9977218836 0.7082001901
0.5024201177 0.7489133226 0.2073071299
0.5024645642 0.7494960584 0.7067769748
0.5125205939 0.500821723 0.9576138011
0.5124650357 0.7504781975 0.454403039
0.5223432793 0.7482847536 0.2050931366
0.532488202 0.7492734402 0.4555503153
0.5323030081 0.5009336869 0.4588393593
0.5525076644 0.7483895151 0.9607343186
0.5425923821 0.9991885446 0.2133425996
0.5526447079 1.0012968698 0.4652016963
0.5425183045 0.7490115365 0.2092266648
0.552611373 0.7490115365 0.4621913692
0.5425183045 0.5005486884 0.2130064726
0.542473858 0.7489787985 0.7104049236
0.5325141292 0.7499281996 0.958743484
0.5323585663 0.4999495835 0.9597620505
0.5624451699 0.4997439891 0.7162792747
0.5625711018 0.7485924905 0.2181131949
0.5624525777 0.7475514231 0.7183552985
0.5724826802 0.7485008242 0.9707347901
0.5723493406 0.7497841525 0.4719557184
0.6023618667 0.501784874 0.7234944297
0.602476687 0.7509037911 0.2250070384
0.5924243612 0.7504716499 0.4742252699
0.6023618667 0.7514079558 0.7266251328
0.6024618714 0.500538867 0.2229402743
0.6025174296 0.9997778281 0.2250774121
0.6023914978 0.9995224719 0.725523229
0.5824868556 0.9990444976 0.7218369441
0.5824350013 0.7498692713 0.2212059333
0.5825201905 0.5019701709 0.2203679308
0.5823609237 0.7504847451 0.7256547167
0.5924613999 0.7492668926 0.9746609011
0.6124956778 0.7515912884 0.4775624643
0.6225442998 0.5011058886 0.725979732
0.6223516981 0.7515258125 0.2282507099
0.6224183679 0.7519383109 0.7273529449
0.6224850377 0.5011589241 0.2263533982
0.6225220765 1.0018796056 0.2265617414
0.6225257804 1.0017879393 0.7275909191
0.6123327072 0.7497972477 0.9772999144
0.6424970923 0.9999677083 0.7331411808
0.6323521696 0.7514930745 0.9807908197
0.6323262424 0.750163913 0.4796607113
0.6523679281 0.7498692713 0.9834298331
0.6424896846 0.5005067838 0.7331078459
0.6525086755 0.5012669594 0.9803833931
0.6423489372 0.7482978488 0.2300869076
0.6522975544 0.7474532092 0.4832590291
0.6423452333 0.749260345 0.731063305
0.6624572927 1.0004784206 0.238019689
0.6624276616 1.0020171051 0.7352940601
0.6824249007 1.0008974666 0.241915243
0.6724429486 0.7503537932 0.9863281179
0.6725651766 0.9989397361 0.4882666726
0.6824063814 1.0009171094 0.7428731211
0.6724688758 0.9995486623 0.9910783418
0.6823767503 0.7493192734 0.2400836752
0.6724873952 0.7501246274 0.4867425267
0.6825434249 0.7499674852 0.7402729985
0.6625017392 0.7495942723 0.2366270307
0.6625721129 0.4969481666 0.2380854328
0.6624535888 0.7500787943 0.7326291196
0.6924438916 0.9997843757 0.4943215877
0.7024665864 0.9990706879 0.748050217
0.6923994451 1.001519488 0.9950229722
0.6924957459 0.7508055772 0.9903005274
0.7025184407 0.7486121333 0.2462265574
0.6925216731 0.7491359408 0.493795637
0.6924883382 0.4990866107 0.4995996144
0.702388805 0.7485204669 0.7458001109
0.7325309668 0.4986439933 0.9949859335
0.7224378984 0.7488543942 0.2457672765
0.7325235591 0.9972242665 0.4939650894
0.7324717048 0.7494371301 0.492913188
0.7324680009 0.497989234 0.4922483418
0.7223082626 0.7470145204 0.7443259674
0.7324272582 0.99903795 0.9929580601
0.7123781648 0.9991623543 0.9962822909
0.7123744609 0.7482585632 0.9950507513
0.7124374269 0.4999469645 0.9976342065
0.7124003881 0.7480621354 0.4935771082
0.7124114997 0.4993819072 0.4966522532
0.7325531901 0.7491097504 0.993902549
0.7424388414 0.4981182216 0.7433259202
0.7423610599 0.7497579622 0.2459774716
0.7424351375 0.4975217358 0.2433717932
0.7425055112 0.7504127215 0.7466029266
0.7424610646 0.9996403286 0.2485257399
0.7523504198 0.7473942808 -0.0028715202
0.7524911671 0.9993194965 -0.0034271853
0.7523837547 0.4978582821 0.4944836324
0.7621953284 0.4982079236 0.7477140901
0.7623434835 0.7503537932 0.2493192958
0.7623138525 0.5004864862 0.2463126726
0.7524467206 0.7489329654 0.4968226316
0.7623175564 0.7493847493 0.746680708
0.7723958093 0.9994111628 0.5011052409
0.7823814653 0.7490442744 0.2532565185
0.7823777614 0.501240769 0.2494850444
0.7723328434 0.7490311793 0.4995551678
0.7824481351 0.7501377226 0.7529560039
0.7723254356 0.7493978445 1.090276859e-04
0.7722735813 0.4991566699 0.4993625661
0.7822407179 0.499507621 0.7479252111
0.7723032123 0.4991553604 -0.0023002063
0.7923300825 0.7490115365 0.5046730017
0.7923337864 0.9993522345 0.0053986289
0.8122939867 0.7481079685 0.006273948
0.7922745243 0.7495222488 0.0041873681
0.7924893492 0.4989261946 0.5010394971
0.7922930437 0.4981699476 0.0024891399
0.8124939961 0.4984534584 0.5072333076
0.8025453789 0.5026223113 0.7560413345
0.8124606612 0.5016526127 0.0057698501
0.8023675928 0.75030796 0.2561149866
0.8023416656 0.5006122 0.2523740695
0.8124088069 0.7496859386 0.5048544917
0.8024305587 0.7508121247 0.7561737482
0.832469012 0.7491424883 0.0107481404
0.8325208663 0.5009048775 0.5149484862
0.8225574335 0.5020068375 0.7558941054
0.8324319732 0.4974372718 0.0124108114
0.8224240939 0.7493454638 0.2582734217
0.8225055792 0.501575351 0.2572668927
0.8324245654 0.7500591515 0.5100445513
0.8224870599 0.7488282039 0.7593720471
0.8524884743 0.4997852389 0.5202098453
0.8625222807 0.9992278302 0.7721550572
0.8626037661 0.7491490359 0.2698748946
0.8524921782 0.7499936755 0.51824216
0.8424805951 0.5011399361 0.7669964807
0.8424805951 0.7503014124 0.2676238625
0.84233244 0.4986708385 0.2644061182
0.8424583718 0.749116298 0.7660538436
0.8626296932 0.7532871152 0.7703975669
0.8526107023 0.7485073718 0.0210948319
0.8825602625 0.7506091493 0.7750496381
0.8724820096 0.7506484349 0.0234343867
0.892531103 0.7483960627 0.0234819815
0.8925088797 0.5014286849 0.5248619165
0.8724005242 0.5001898802 0.0244801767
0.8825343354 1.0017813917 0.2776715585
0.8726116453 0.9997188997 0.5225988469
0.8825676703 0.7527502125 0.2756307215
0.8724227475 0.7492276071 0.5235424099
0.8925459185 0.7511067665 0.5268360837