POSCAR file written by Ovito 3.7.11
1
269.9677065537 0.0 0.0
0.0 15.2716796804 0.0
0.0 0.0 10.7987082621
Sr Ti O 
800 800 2400 
Direct
0.0223826187 0.4986635393 0.8172838784
0.0123480482 0.4997112302 0.064132779
0.0125172536 0.2501800666 0.5640082149
0.022458739 6.308959081e-04 0.3104362197
0.0224238459 0.2509350589 0.8133695213
0.0024108967 0.2495160925 0.8149882334
0.0124468007 0.2521340102 0.0663634161
0.0224979659 0.2481632616 0.3116493277
0.0024792382 0.2491022546 0.316983299
0.0525246313 -0.0011327608 0.5581186216
0.0523727613 0.2481089127 0.0569762749
0.0525120372 -0.002801405 0.0563816667
0.0422604407 0.4982516658 0.8151225088
0.0324037062 0.2505277691 0.5634813
0.0424656504 1.4984613681e-05 0.3100009824
0.0424286089 0.250060237 0.811189631
0.0522308925 0.4993530509 0.0627788207
0.0523312748 0.4985011472 0.5612949274
0.0325470567 -0.0010200685 0.5608402434
0.0324637134 0.2480787916 0.065139566
0.0325226093 -3.7606601893e-04 0.0600296956
0.0424934315 0.2501892339 0.3143607631
0.0524246193 0.2490079624 0.5563860069
0.062362845 0.2504701461 0.8028951204
0.0723547809 0.2478594313 0.0547346179
0.062443225 0.2494316224 0.3065385312
0.0722340257 0.5000058933 0.0543432747
0.0623454356 0.4992816769 0.3086350783
0.0723947857 0.2510097069 0.5529244818
0.0624847115 -6.8899819797e-04 0.3057847374
0.0822911545 0.4978037779 0.3017685163
0.092284572 0.4998971953 0.5508649762
0.0922786454 0.2499083218 0.547957221
0.1024139317 0.250866959 0.7957563036
0.0822437414 0.250429548 0.799100222
0.0923871769 -3.5609441093e-04 0.5453235727
0.0923182797 0.247239984 0.0464034362
0.0924397757 0.00124242 0.0465841986
0.1023231801 0.2499738025 0.296762362
0.0823759795 0.2528006035 0.2982625414
0.1024050417 0.4993176913 0.7992669086
0.0823204173 0.4983308974 0.8029553128
0.0923708786 0.4990295763 0.0485522117
0.1223344624 0.2483322018 0.2935869822
0.1124032746 0.2471476563 0.5450809511
0.1223066813 0.2490610018 0.7954951612
0.1123599361 0.2492967322 0.0460237612
0.1525232583 0.250307754 0.5315302563
0.1323656622 0.2486412706 0.5384245994
0.1423920466 0.250826361 0.7834576104
0.1523513859 0.2465733907 0.0303875391
0.1324082599 0.250114586 0.0368729445
0.1423609318 0.2490544537 0.2818846566
0.1425391012 0.5008211278 0.78481055
0.1524221351 0.4987198527 0.0311425369
0.1324104824 0.4995953294 0.0395874358
0.1523854641 0.5008564873 0.5325803819
0.1324064078 0.5000006548 0.5421407846
0.1825957441 -0.0013278932 0.2698980377
0.1825124008 0.2490387384 0.7662666653
0.1826631595 0.2490132009 0.2674245937
0.1622985016 0.4994545459 0.776633646
0.1725578768 0.4968831195 0.0210766107
0.1626148357 0.4986216316 0.2763543655
0.172472311 0.2492109526 0.5201085198
0.1725130566 0.4991448223 0.5230375738
0.1624303692 0.2472674859 0.777768967
0.1825361073 0.4986445499 0.7673723531
0.1724800897 0.2480041436 0.0191314706
0.1725515798 0.0011273704 0.0185219533
0.1624262946 0.2499816602 0.2780619771
0.2024833079 0.25172803 0.760957697
0.1925321177 0.2502488214 0.0150534829
0.2025581317 0.2481829058 0.2628342299
0.2026614774 0.4988946861 0.7589454193
0.1926421308 0.4988612909 0.0144322049
0.2026407341 0.4966506631 0.2631796416
0.1925795308 0.4982392245 0.5112602393
0.1924954466 0.2487846733 0.51491438
0.2025640583 4.0391118278e-05 0.2653178603
0.2225642282 0.4966081007 0.2545999117
0.2324772657 0.4991801819 1.0038284123
0.2125682178 0.2480774819 0.5096896811
0.2224916269 0.2517751761 0.7576869355
0.212602296 0.2493150668 0.013829818
0.2225068139 0.2492777428 0.2577734394
0.2326295061 0.249673901 0.5016757596
0.2325580161 0.2479851542 1.0018837353
0.2226512757 0.4980506401 0.7565080908
0.2125767374 0.4993216201 0.010861963
0.2424384571 0.4991552992 0.2441838511
0.2625419727 0.0017453771 0.2316740215
0.2626153148 0.2511151308 0.735209247
0.2624908555 0.5016966045 0.7342637635
0.2525333682 0.2493176861 0.4893826226
0.2425162442 0.249680449 0.746164261
0.2525837446 0.2511053087 0.9894933645
0.2524378012 -0.0027000409 0.490098449
0.2525007717 -0.002565871 0.9910491061
0.2625086354 0.2501041091 0.2330565943
0.2424966122 0.2509547031 0.2453552875
0.2726005832 0.2505231854 0.4794823644
0.2725505772 0.2510273867 0.984029748
0.2725005712 -0.0011933304 0.4826920076
0.2725716908 -0.0020775161 0.980242258
0.2726635537 0.5017974447 0.4805519368
0.2824565768 0.0021892707 0.2291051957
0.2825806658 0.250944881 0.7276935333
0.2826321534 0.2501119667 0.229590439
0.3125335075 0.2476747758 0.4720055442
0.3125409158 0.2491310661 0.970574435
0.3126153692 -8.7790996539e-04 0.4691663157
0.3125416567 3.780749951e-04 0.9720560937
0.2925644525 0.2496123491 0.4782831469
0.3025593516 0.0013475165 0.2235600881
0.3025067527 0.2490190942 0.7233976491
0.2925744537 0.2492980419 0.9767233186
0.2924777754 1.7865763687e-05 0.4790202721
0.3025330522 5.2265634084e-04 0.7235050693
0.2925385234 5.2907344767e-04 0.9766121942
0.3025156427 0.2502226291 0.225804801
0.3125246176 0.4999685693 0.9744915702
0.3125227655 0.5021516952 0.470812809
0.332481449 0.249941717 0.4620673185
0.3225221096 0.2489169443 0.715520781
0.3326110941 0.2507504034 0.9621011993
0.3225928588 1.2823751177e-05 0.7179997813
0.3326481356 -4.4626130998e-04 0.959999096
0.3224850682 0.2506050363 0.218055726
0.3325736822 0.5016023123 0.961008476
0.3626702449 0.2494342417 0.1952159572
0.352515697 0.50169464 0.450089034
0.3625257832 0.4986759806 0.7012496297
0.352606819 0.2506266449 0.4480128597
0.3424596795 0.2489994499 0.7048491343
0.3526301552 0.2488115204 0.9500719828
0.3526709008 -2.9676891308e-04 0.4500742174
0.3425193162 7.557020879e-04 0.7025423769
0.3525945954 -9.9590615427e-04 0.9491737272
0.3426734087 0.2524718905 0.2031743165
0.3625887537 0.2490983258 0.698303907
0.3927071708 0.2508152293 0.4450643589
0.3927145791 -6.9289023989e-05 0.4473275926
0.3925775257 0.2497662287 0.9453214146
0.3926664252 1.7659093673e-04 0.9472197898
0.3826355958 0.4986727066 0.1959845677
0.3925923423 0.4994584748 0.9452380713
0.3726232872 0.2492135718 0.449812149
0.3826763414 0.2515669475 0.6935514867
0.3827615368 9.9614715202e-04 0.1965596364
0.3726899618 0.2494885906 0.9475068612
0.3826170751 0.2489673644 0.194984448
0.3925664132 0.5000720288 0.4459533542
0.4026120592 0.2505375912 0.6924180178
0.4124502729 0.5043479173 0.9401726506
0.4025639053 0.2512356152 0.1951659512
0.4125799181 0.248674011 0.4421667901
0.41252806 4.2947733043e-04 0.4427112997
0.4125391725 0.2510005396 0.942960021
0.4125725098 0.0018783684 0.9438027144
0.4026898463 0.4986766354 0.693758919
0.4025935385 0.4990616618 0.1934129638
0.4424612698 0.2481652261 0.6824899785
0.442364962 0.0012538791 0.1871409173
0.4425020154 -6.9980251049e-04 0.6864876789
0.4423612579 0.2485188217 0.187588193
0.4324526653 0.2521444871 0.4384506049
0.4226107474 3.3544707115e-04 0.1930536615
0.4223699779 0.2521261525 0.6872396207
0.4323896948 6.3836070585e-04 0.4374634498
0.4323822865 0.2507733216 0.9374593631
0.4223662738 0.0014443624 0.6918948071
0.4324897068 1.6644143103e-04 0.9392558743
0.4224033152 0.2519526287 0.1853518144
0.4423834827 0.5005310483 0.1853758914
0.4524587619 -0.0020648128 0.4308367313
0.4524217204 0.2485882313 0.9303566618
0.4625044078 0.4979962911 0.1765665044
0.472631545 0.4984356665 0.4263510096
0.4524402411 0.4988396823 0.9298936434
0.4724352252 0.2476911459 0.426488063
0.4626488695 0.247948485 0.6792720011
0.4624821829 -0.0025563108 0.1762664685
0.4724907874 0.2464699312 0.9279767475
0.4725945035 -5.1802813739e-04 0.4281762279
0.4625525617 0.2481121867 0.1772360289
0.4524846909 0.2478607409 0.4301162748
0.4624488456 0.498674671 0.6787006364
0.4726241367 0.5008669642 0.9250319508
0.4925042923 0.4995881265 0.9288935238
0.4825068002 0.2486104947 0.6805008517
0.4826290371 -0.0037586016 0.6731508986
0.4826253329 0.2480820656 0.1774573517
0.4926302333 0.2489228376 0.424291504
0.4925376296 0.2503012059 0.9232910018
0.5025054885 0.4997308744 0.1731503551
0.5024832636 0.4997073014 0.6754733986
0.5125733593 0.5003902649 0.4287670393
0.502594388 0.2506430151 0.1768239426
0.5225301057 0.0011819158 0.1751635588
0.5224189813 0.2496928904 0.1766331791
0.5124733473 0.2499967207 0.4269742323
0.5225671472 0.5001637017 0.6737463402
0.5225152891 0.2503306722 0.6794710989
0.5024202931 0.2498808199 0.6795924097
0.5125363178 0.2499882082 0.924985649
0.5024536304 6.8675092981e-04 0.6754233926
0.5325238936 -2.9467353126e-04 0.4252629165
0.5325942724 0.0027281767 0.9304677862
0.5324386983 0.2489870086 0.4295023124
0.5325905683 0.2484114334 0.9312363966
0.5424250779 0.500745825 0.6798915196
0.5523633036 0.4994008518 0.9324865461
0.5523966409 0.5011688302 0.4293967443
0.5423732198 0.0019571416 0.6790877198
0.5525707358 -0.0015881789 0.9299399452
0.5423806281 0.2502389993 0.1825255505
0.5525188777 0.2517123146 0.4296764073
0.5424880484 0.2495665127 0.6800452417
0.5524781321 0.249711225 0.9316901546
0.5725249743 0.249979041 0.4348029464
0.5624608076 3.8102162578e-04 0.1819273308
0.5724323706 0.2511858499 0.9358480593
0.5623793164 0.500823747 0.1832293384
0.5624645117 0.001779689 0.6808073699
0.562546003 0.2486877619 0.1835886406
0.5725323826 0.499464368 0.9381075888
0.5625904527 0.2509291656 0.6811074058
0.5725805365 0.5007536826 0.4353826454
0.5724323706 4.8664196577e-04 0.4298634668
0.5725323826 8.3002266192e-04 0.9342923177
0.5925977455 0.4983178013 0.9427377722
0.592560704 0.5014955788 0.4423584797
0.5825706202 0.2485345371 0.6894491442
0.592460692 0.0011615514 0.4405249271
0.592434763 -1.6593851055e-04 0.9391447499
0.6024470716 0.2514444986 0.1892698757
0.5825632119 0.5012493714 0.688987978
0.5924125381 0.2498022431 0.4404739951
0.6024359592 0.249927966 0.6919605557
0.5924236506 0.249351736 0.9393114365
0.5825039456 -1.6194418895e-04 0.1850249235
0.5824965373 0.2512971671 0.1856963001
0.6124853093 0.5008139249 0.9450436036
0.612426043 0.5011138264 0.4459181648
0.6123964098 -2.2860352317e-04 0.4459681707
0.6124186347 3.2991801218e-05 0.9462844927
0.6123334393 0.2501564936 0.4435567712
0.6125223508 0.2503974625 0.9405893671
0.6224420557 0.250612894 0.2000193095
0.6223568604 0.250100835 0.6981807441
0.6424555606 -0.0014909401 0.208564776
0.6524604609 -0.0010249796 0.4609875597
0.6525049107 -3.2619842096e-05 0.9648422679
0.6424888979 0.2493458428 0.2082212164
0.6525604729 0.2488383675 0.4568361373
0.6424555606 0.250426274 0.7045685452
0.6524826858 0.2486039466 0.9606102802
0.6323654649 0.5003987774 0.9509887591
0.6324284353 0.4997046821 0.4522022497
0.6424111108 0.4970173549 0.2005388161
0.6524234194 0.4990053484 0.4588632316
0.6324839975 -4.2334307129e-04 0.4553202152
0.6325543763 -0.0014392759 0.9557115462
0.6324839975 0.2491638065 0.4545654953
0.6324173229 0.2494368609 0.9497478699
0.6824307122 0.4997740916 0.7234050574
0.6724258118 0.4995121689 0.9678611475
0.6823269961 0.4987126498 0.2204513829
0.6625024027 0.2496038366 0.2139330107
0.6724961906 0.49945782 0.4688560934
0.6625431483 0.2502651915 0.7162227169
0.6826085112 0.2507451649 0.2268956722
0.6724443326 0.2484382805 0.471142478
0.682501091 0.2500831552 0.7245644553
0.6724887823 0.2502606079 0.9712504418
0.6624023908 0.4983145272 0.7127500793
0.7025108917 0.2505074701 0.2322620548
0.692524512 0.2490740979 0.4778525398
0.7025997912 0.2471542043 0.7308448361
0.6924652457 0.2485371563 0.979056931
0.7023997673 0.4973179113 0.728040797
0.6926393406 0.5007196327 0.9788069011
0.7023108677 0.4979065826 0.2276939158
0.7025368207 7.8762797901e-05 0.2314952964
0.7225688463 0.4992142318 0.7356833778
0.7225392131 0.4988770063 0.2360375064
0.7125194961 0.2489575423 0.4839986453
0.7125232003 0.2491677353 0.9832240961
0.7224799467 -7.7582558223e-04 0.2356902426
0.7226466333 0.0016368756 0.7363806834
0.7225947753 0.2489097414 0.2407315863
0.7327478415 0.2521444871 0.4927348754
0.7224910592 0.2513128824 0.7383735144
0.7327330249 0.2513181209 0.9943272759
0.7125861708 -7.7163481859e-04 0.4852330522
0.7425193806 -9.1732933593e-04 0.7490136759
0.7526205888 0.5005723012 0.008512608
0.742730517 0.2509239272 0.2498965714
0.7427268128 0.2488678338 0.7509629831
0.7624476901 -3.7429804051e-04 0.2615062933
0.7526983758 -9.5458784396e-04 0.5072866159
0.7625588145 6.6710672522e-04 0.7617513105
0.7627255011 0.2497361076 0.2619544951
0.7526724468 0.2494905551 0.5065180054
0.7628218089 0.2487074061 0.7604455987
0.7527465297 0.2509003541 1.0055415802
0.7825056446 -3.6624391663e-04 0.2688534684
0.7825723193 0.0018716239 0.7702356586
0.7725711231 0.0013397898 0.0152843438
0.7826538105 0.2498114104 0.2698248808
0.7726748392 0.2522276476 0.5142670804
0.7826056566 0.2501316109 0.7690457014
0.7726415019 0.2503470424 0.018004484
0.7925920362 0.0033128537 0.523772847
0.792536474 0.25196507 0.5191185866
0.792536474 0.2514890255 0.0185375107
0.8026043449 0.0032928821 0.2741726231
0.8126870323 0.0014593575 0.5290558863
0.8026154573 0.0025442414 0.7743018857
0.8124796001 0.0015348567 0.0248935487
0.8025932324 0.2511419779 0.2738781434
0.8124462627 0.2537605503 0.5229264494
0.8025710075 0.2507333784 0.7777235912
0.8126018369 0.2526539268 0.0255804827
0.8224104175 0.00234924 0.7822333899
0.8324486551 0.0020845016 0.0327306898
0.8225659916 0.2532825414 0.2821291303
0.8325671878 0.2522335408 0.5361567356
0.8225400626 0.2531456867 0.7812619774
0.8324264303 0.2530271667 0.0353698943
0.8223807843 0.0017259948 0.2773915266
0.8324931049 0.00155437 0.5343954138
0.8625930013 0.4992031001 0.7965906626
0.8524992014 0.5005428349 0.0439501798
0.8625152142 0.5024299881 0.2951927298
0.8424016974 0.0013028587 0.7895277808
0.8425350467 0.2515531965 0.2897893057
0.8425461591 0.2533886201 0.787335852
0.8623892732 9.8865367259e-05 0.2980273281
0.8525918051 -0.0012146116 0.5454791469
0.8525584678 -5.390106373e-05 0.0444936708
0.8424720762 7.5930352541e-04 0.2907996117
0.8626226345 0.250097561 0.3010693586
0.8525547636 0.2524653424 0.5453587621
0.8626263386 0.2485260246 0.7981612208
0.8525955093 0.2506672429 0.0449024233
0.8725497477 0.4999482703 0.5503213927
0.882450932 0.5005454541 0.8000058859
0.8925002821 0.5004171119 0.0579104607
0.8824472278 0.5002226343 0.30327703
0.8924669448 -0.0019244222 0.5638933863
0.8724608482 -7.2029796394e-04 0.0538875721
0.8925113945 5.6954050912e-04 0.0602701873
0.8824435237 0.2475831028 0.3047707272
0.8724571441 0.24927054 0.5529967127
0.8925039862 0.2491605324 0.557952861
0.8825916895 0.2487434205 0.807177114
0.8724793689 0.2491081479 0.0505294853
0.8924373116 0.2508381475 0.0587523206
0.9025681529 0.5007425509 0.3122077278
0.9023977622 -0.0015474499 0.3117761947
0.9125767574 8.3211804374e-04 0.5667335409
0.9024385078 5.634508057e-04 0.8136464063
0.9124767454 -5.0113412145e-04 0.0646843264
0.9025496322 0.2511694797 0.3117021118
0.9125026745 0.2513128824 0.5637387382
0.9024533244 0.2509357137 0.8124064432
0.912491562 0.2508119552 0.0620071544
0.9125026745 0.4988377179 0.0626178755
0.9225038707 -6.5088844107e-04 0.3139625673
0.9225186873 8.9039585067e-04 0.8146030022
0.9325050669 0.5000209538 0.5673706541
0.9324124632 0.5003319871 0.0680602857
0.9223779297 0.25130437 0.3149858379
0.9224260836 0.249653602 0.8133537787
0.9425766418 -0.0015476464 0.3178463652
0.9323680134 3.7205077236e-04 0.5637183654
0.9424136594 -8.2067984937e-04 0.8185229155
0.9324606171 1.5020222191e-04 0.0688082456
0.9424692216 0.2498651046 0.3198456784
0.932508771 0.2509874435 0.5644934581
0.9423618013 0.2495370463 0.8198786332
0.9325569249 0.2499358237 0.067556244
0.9225520246 0.4995979486 0.8152845652
0.9624123476 0.2493589389 0.3246490307
0.9523926307 0.2512264479 0.5745307697
0.9724987392 0.2516579656 0.5705886316
0.9625123596 0.2502462021 0.826741491
0.9523148436 0.2521235333 0.0679297146
0.9725135558 0.2518255962 0.0772305492
0.9524704178 0.4996405111 0.071106576
0.972469106 0.5005277743 0.0737286489
0.9623827145 0.5003195457 0.3222820809
0.9525111634 -0.0010597498 0.5728231581
0.9623567854 0.0016203745 0.8220474111
0.9923381491 0.5004007418 0.5707599484
0.9824703022 0.5020063281 0.8175542811
0.9924752026 3.8468854397e-04 0.5695709173
0.9824777105 0.002301701 0.8165837947
0.9824628939 0.2512185903 0.3222542998
0.9923825989 0.25011786 0.5677892227
0.9823925151 0.2496935452 0.8215825407
0.9924492735 0.2505284239 0.0648808314
0.0025401714 1.0018112061 0.3158313094
0.012391646 0.9996765359 0.5654695008
0.0226036822 0.9998074973 0.8108432932
0.0024541611 1.0016867928 0.8108294027
0.012353197 1.0011433032 0.0631571067
0.0124432818 0.7499266669 0.0633391655
0.002466533 0.4993176913 0.814193694
0.0223257601 0.7505814737 0.3132791523
0.0023697807 0.7505356372 0.3155247912
0.0125620367 0.750417772 0.5641063748
0.0223233524 0.7517928663 0.8132991425
0.0023262569 0.7515636839 0.8151012099
0.0225169682 0.4974665524 0.3147404382
0.0024408632 0.5010837053 0.3123966393
0.0124713963 0.5012127022 0.5647082986
0.0323592565 0.7500707244 0.0632488769
0.0322433167 0.4994028162 0.0670532209
0.0424700954 0.7488724279 0.3137792121
0.0323162884 0.7482045249 0.5630997729
0.0424193486 0.7508106561 0.8137621609
0.0423356349 0.4999574376 0.3140079431
0.0323040647 0.4986641941 0.5649601806
0.0424326835 0.9987598063 0.8094468299
0.0522671931 0.7485712168 0.060873315
0.0524068394 0.7493897253 0.5616366349
0.0722484719 0.9992574595 0.5500213568
0.0624643387 0.9980067785 0.804400856
0.0724488662 1.0004623041 0.0535572548
0.0724177514 0.7494224656 0.0583031928
0.0623728462 0.4990642811 0.8065742641
0.0623435835 0.7497695132 0.3095444463
0.0724299751 0.7487087262 0.5566823387
0.0623654379 0.7492456678 0.8084911601
0.0722606955 0.4992862606 0.551515054
0.1024217104 0.4979439066 0.2973142798
0.1023420712 0.9992836518 0.2960094941
0.0823837582 0.9999581028 0.302873278
0.1024409719 1.0008224478 0.7975963385
0.0823511617 1.0017260812 0.8020644655
0.0924156988 0.7479098619 0.0492975787
0.1022172415 0.7503850316 0.2996543745
0.0822796716 0.7506273102 0.300625787
0.0923849544 0.7499201188 0.5527661295
0.1023331813 0.7493373407 0.8003170342
0.0823011557 0.7493176965 0.8016875685
0.1123717893 0.9982621532 0.0459411587
0.1124743942 0.7492456678 0.0453959083
0.1224792946 0.4969675896 0.7950478855
0.1123595657 0.4992423885 0.0491530243
0.1224592922 0.7482241691 0.2948769513
0.1123495645 0.7492522158 0.5440345296
0.1224807762 0.7476544872 0.7956544395
0.1224952224 0.4983328618 0.2964475095
0.1123862355 0.4991625021 0.5521808743
0.1224111383 0.9968674146 0.2891262635
0.1124314261 1.0003902753 0.5446771991
0.1224444756 0.999303296 0.7877720153
0.1423416702 0.9976924712 0.2810595579
0.1525032559 0.9996437956 0.5310385308
0.1323441781 0.9981049995 0.5362558215
0.1424190869 0.9998926221 0.7827991983
0.1524388038 0.9991395943 0.0257314267
0.1324849357 0.9999515548 0.0367695062
0.1523058249 0.7519696641 0.0277943586
0.1324304848 0.7496320038 0.0394257498
0.1424346443 0.7472288628 0.2811160461
0.1524465825 0.7505683776 0.53010879
0.1323956658 0.7504439643 0.5376763618
0.142437978 0.748977197 0.783851176
0.1423994549 0.4987368776 0.2844118107
0.1824368362 1.0016606006 0.7655350964
0.1724474932 0.7479753425 0.0149490259
0.1624074035 0.748787303 0.2755357491
0.1723722991 0.7483878708 0.5155505672
0.1624066627 0.7480604674 0.7724294395
0.1825757417 0.7465478637 0.2661318465
0.1824520232 0.7498742823 0.763758032
0.1826768649 0.498464478 0.268339518
0.1624199976 1.0001479968 0.2718436408
0.1725867692 0.9993556806 0.5169053589
0.1624562982 0.9969525395 0.7736499558
0.1926499096 1.0002134775 0.5129400698
0.202504792 1.0024398207 0.7601511191
0.1925239686 0.9997878531 0.0131711281
0.1925250798 0.7498218978 0.0117898518
0.2024603422 0.7498349939 0.2628777536
0.1924346986 0.751183896 0.5135836653
0.2024236711 0.7495075905 0.7606947026
0.2125337693 0.5008355335 0.5099128559
0.2324450396 0.7483878708 0.0015119558
0.222580156 1.0010581783 0.2558519133
0.2324461509 0.7485122841 0.4977947398
0.21246302 0.9984716913 0.5099860128
0.2225734886 1.0011891396 0.7545976771
0.2125222864 0.9987336141 0.0107674147
0.2324624491 0.5000242279 0.5026351336
0.2125315468 0.7501100128 0.0102288318
0.2324446692 0.9980657111 0.5023036125
0.2224116174 0.7487152743 0.2548666103
0.2325083805 0.9991657866 0.0052643491
0.2125559941 0.7504767046 0.5077394478
0.2225916389 0.7489968412 0.7548134436
0.2524359492 0.7497760613 0.9904101408
0.2424992051 0.5006128992 0.7451734017
0.2524966972 0.5009285161 0.9900767676
0.2424703128 0.750319551 0.2454543734
0.2524118722 0.7490492257 0.4894789304
0.2423825245 0.7480735636 0.7414544384
0.2525178108 0.5010738832 0.4885038138
0.2625934604 1.0020665808 0.7338840885
0.2426077366 1.0008224478 0.2460655576
0.2625471585 0.7505421853 0.2331964258
0.2624715939 0.7512559247 0.7353518567
0.2426262574 1.0004754002 0.7452956386
0.2624530732 0.5016330882 0.2356106034
0.2825699237 0.5019297157 0.7258599806
0.2825365864 0.7508499445 0.2281421176
0.2826321534 0.7496320038 0.7274999916
0.2726194743 0.7505421853 0.9802515183
0.2726365134 0.5019821002 0.9795755116
0.2724516765 0.7505552814 0.4830670524
0.2825639971 0.49884754 0.2278865315
0.282562145 1.0024267245 0.7290798102
0.292503334 0.7504439643 0.9761676966
0.3025430534 0.4996457495 0.7257516343
0.2925544513 0.5002704352 0.9743063628
0.3025015669 0.7490688699 0.2258140614
0.292629275 0.7499463111 0.4783544517
0.302523051 0.7493766291 0.7255692051
0.3026382499 0.4988259314 0.2216681951
0.2927274349 0.5006436751 0.4751392524
0.3125579549 0.7526572113 0.9757231989
0.3125394342 0.7523232598 0.4726852551
0.3325955367 0.7491605429 0.9652312033
0.3226110092 1.0010843706 0.2173611985
0.3324692253 0.9981180957 0.4620228687
0.3225621144 0.5014942692 0.7192388183
0.3224443226 0.7481586885 0.220806981
0.3324955247 0.7499135707 0.4628951953
0.3225480387 0.749749869 0.7184442789
0.322581376 0.5022008057 0.221540402
0.3324451483 0.4997472446 0.4649389583
0.3426063637 0.5003784783 0.2096167537
0.3426385897 1.000357535 0.2024983097
0.3526623812 0.749167091 0.9555263388
0.3425993258 0.4999980356 0.7074485193
0.3525190308 0.5011485312 0.9524426367
0.3426100678 0.7481259481 0.2088388829
0.3526027445 0.7500117918 0.4538691157
0.3625554163 0.7504832527 0.1996896404
0.34252265 0.7514065303 0.7084958668
0.3625702329 0.7493504369 0.7028711199
0.3627443278 1.0019159752 0.1975912413
0.3626294993 1.001418322 0.6994744174
0.3624850376 0.4977821693 0.2013324295
0.3726899618 0.7493438888 0.9492848516
0.3826504124 0.4999482703 0.6965944433
0.3725973582 0.4987296748 0.9498404736
0.3826170751 0.7496189077 0.1950668653
0.3726084706 0.7489444566 0.4496436103
0.382691158 0.7496123596 0.6970611658
0.372593654 0.9994866419 0.4448069207
0.3826244834 1.0019356194 0.7000902318
0.3727344116 1.0001021603 0.9470253221
0.3726529204 0.5005506925 0.4501103328
0.3927330998 0.7509285213 0.946543783
0.3926256796 0.7497695132 0.4472553617
0.4025453845 1.0030160507 0.1977940433
0.4027009587 1.0004623041 0.695779531
0.4125836222 0.7530697396 0.9403671183
0.4126058471 0.7492194755 0.4417750766
0.4125317642 0.5025720812 0.4414713366
0.4025342721 0.7509350694 0.195716017
0.402556497 0.7508630406 0.6931329182
0.4324378487 0.7480604674 0.9392466139
0.4225181438 0.5010889437 0.6906085422
0.4323526534 0.5028798404 0.937607529
0.4224885106 0.7504505123 0.1845980206
0.4325119317 0.7531155761 0.4346205172
0.4223884986 0.7519827603 0.6900186568
0.4226403806 0.5001106624 0.187789143
0.4324119197 0.5038293103 0.4350853876
0.4424464532 0.4993576345 0.6858524177
0.4425057196 0.750129657 0.186072271
0.442390891 0.7513541457 0.6836716013
0.4524995075 0.9993687767 0.9308011594
0.4625747866 0.9963108288 0.6785700652
0.4725722787 0.9991003059 0.929328761
0.4524920992 0.7489510047 0.9308011594
0.4524402411 0.7467443057 0.4288763116
0.4524809867 0.5007674336 0.4348955501
0.4725500538 0.7472943435 0.9264210058
0.4626155322 0.747733064 0.1788834482
0.4725130123 0.7482438133 0.4256101803
0.4626933193 0.7502082338 0.6812120479
0.48255125 0.9967495494 0.1765100162
0.4925302213 0.9988711235 0.4280845503
0.4924635466 0.9987990948 0.9272451785
0.4824882795 0.499023683 0.1738208056
0.4925894876 0.7490492257 0.4244350397
0.4925117006 0.7496320038 0.9229391079
0.4924339135 0.498332207 0.426865886
0.4825030961 0.4960960417 0.672479522
0.4825142085 0.7487021781 0.177238807
0.4825882914 0.7491016103 0.6777903424
0.5125177971 1.0012939087 0.4284966366
0.5125177971 1.000835544 0.9270321901
0.5025980921 1.0003247946 0.1721548656
0.512414081 0.7483289382 0.9230224512
0.5224967684 0.499233876 0.1757182548
0.5224263896 0.7503064548 0.6779199875
0.5225301057 0.9995193823 0.6750103802
0.5024832636 0.7490033893 0.1750820676
0.5024832636 0.7489641008 0.6771865664
0.5123511105 0.499976427 0.9244392873
0.512665963 0.7525000577 0.4237423643
0.5224782477 0.7507975599 0.1735142875
0.5323683195 0.7487021781 0.4235654913
0.5324201775 0.4989025438 0.4254860913
0.5524781321 0.7507844638 0.9284027243
0.5425250898 1.0020272924 0.1807910838
0.5525744399 1.0005212367 0.430828397
0.5425139774 0.7514130783 0.1794057329
0.5523781202 0.7531614126 0.4304079763
0.5425102732 0.5011950224 0.1817643483
0.5423584032 0.7513017612 0.6788562106
0.5324757397 0.7503719355 0.9265876924
0.5325498227 0.5002782929 0.9303937032
0.5623978371 0.500786423 0.6840355338
0.5624422869 0.7501885896 0.180393814
0.5625497071 0.7506927908 0.6816389508
0.5724768204 0.749939763 0.9357461953
0.5723990333 0.750031436 0.4324498872
0.6023470597 0.5012762185 0.6904464857
0.6025693085 0.7472681512 0.1946019949
0.5925162542 0.7499986956 0.44034435
0.6025544919 0.7507124351 0.6915614339
0.6023618763 0.4997014081 0.1900070009
0.6023952136 1.0031142717 0.1932527594
0.6024026219 1.0010581783 0.6892305996
0.5824113419 0.9980984515 0.6828094612
0.5824594958 0.7501820415 0.1880206522
0.5825039456 0.5018157793 0.1888096354
0.5825520995 0.7497302248 0.6878054291
0.5924792128 0.748787303 0.940737533
0.6124482678 0.7503653874 0.4440438665
0.6223790852 0.4995442545 0.6968694762
0.6225309553 0.7496712922 0.1993155216
0.6225309553 0.7483354863 0.7032480169
0.6223790852 0.5001571536 0.195209475
0.6224939138 1.0019028791 0.1983681861
0.6223827894 1.0008486401 0.7018246985
0.6124890134 0.7507648196 0.9438397559
0.6424629689 0.9998205934 0.7044740894
0.6325766012 0.7501427531 0.953915035
0.6325099266 0.7497564171 0.4530634638
0.6524345319 0.7487414665 0.9592490063
0.6424185191 0.4973611285 0.7043537047
0.6525271356 0.4991061887 0.9568505713
0.6425074186 0.7492194755 0.2074581622
0.6524160112 0.7501165608 0.4601383841
0.6425852057 0.748590861 0.7077994872
0.6623949825 0.9985830085 0.2156591431
0.662509811 1.0009010246 0.715065171
0.6825455407 1.0001349007 0.2274401818
0.6723109833 0.750326099 0.9666295187
0.6725999067 1.0003706311 0.4724667105
0.6825084993 1.0008551882 0.7227966513
0.6725184155 1.0009141208 0.9723524254
0.6824899785 0.7491081583 0.223936985
0.6724998948 0.7493700811 0.4698423225
0.6825677656 0.7488593318 0.7230392729
0.6625431483 0.7485319283 0.2161906881
0.6625320359 0.4989313553 0.2154656014
0.6623653493 0.749553427 0.7136872284
0.6925615535 1.0011498512 0.4774200807
0.7024886668 0.9996241513 0.7301114151
0.6923874586 1.0006325539 0.9761676966
0.6923689379 0.7515440397 0.9749453281
0.7024590336 0.7504570604 0.2276068684
0.692346713 0.7480997558 0.4724833791
0.6925282162 0.4990361244 0.4766162809
0.7024886668 0.7474253048 0.7275842609
0.7326367171 0.4996608101 0.9917343732
0.7224577219 0.7493700811 0.2353457569
0.7325404093 0.9977383077 0.4926135646
0.7325367051 0.7487152743 0.4899613955
0.7327145042 0.4996902764 0.4916328917
0.7225095799 0.749841542 0.7344665656
0.7326107881 1.000547429 0.9938827783
0.7124972713 0.9979282017 0.9835945108
0.7125343127 0.7481063039 0.9787976407
0.7124972713 0.5004485427 0.9812608983
0.7124861588 0.752624471 0.4801639274
0.7125639459 0.498884864 0.4835059938
0.7326219005 0.7504046758 0.9914102604
0.7425638304 0.4999947615 0.7481682044
0.7426786589 0.7501231089 0.2482435959
0.7426119843 0.5014025962 0.2507818624
0.7425601262 0.7516422607 0.7456901302
0.7425934635 0.9989955368 0.2463572592
0.7523687068 0.7524869615 0.0011919176
0.752602068 1.0007111307 0.0059075742
0.7526687427 0.4980421276 0.5072958762
0.7625884476 0.501288005 0.759542713
0.7625143647 0.7506600505 0.261321086
0.7626032642 0.5019860291 0.2624906703
0.7525242809 0.7499921475 0.5046344468
0.7625995601 0.7526768555 0.762749578
0.772593348 1.0018701387 0.5176526705
0.7824686032 0.7542091035 0.2689571845
0.7825982483 0.5049378982 0.267481082
0.7723710992 0.749553427 0.513273443
0.7825278695 0.7519762122 0.7684687806
0.7724303655 0.752624471 0.0127226485
0.7726340936 0.5004871763 0.5153190581
0.7824611949 0.5018334591 0.766763947
0.7726081646 0.5002822217 0.0186473387
0.7926031487 0.7526506632 0.5220893123
0.7926401901 1.0024463687 0.0231880669
0.812453671 0.7533447585 0.0268664699
0.7925475865 0.7494683021 0.0189879349
0.7925957404 0.5020063281 0.5226569728
0.7925549947 0.5022787277 0.0235460727
0.8124203337 0.5005205714 0.5249720645
0.8025006287 0.5034802982 0.7752066235
0.8124684876 0.5039583072 0.0263017727
0.8024450665 0.7511707998 0.2735373619
0.8025561909 0.5008722027 0.2719927327
0.8124833042 0.7510267423 0.5254952752
0.8025228536 0.753298922 0.7718552967
0.8323745722 0.7522381349 0.0315438812
0.8324116137 0.5013207454 0.529983775
0.8224548672 0.5013207454 0.7790468976
0.8324486551 0.4999214232 0.0343351409
0.8223844884 0.7511773479 0.2753727666
0.8224104175 0.504104984 0.2785240695
0.8323893888 0.7505487333 0.5328785657
0.8224807963 0.752722692 0.7794719485
0.8524658641 0.5003378803 0.5423083973
0.8625041018 1.0011563993 0.7974435424
0.8624189064 0.7496974845 0.2958215087
0.8524214144 0.7491278025 0.5407137621
0.8424980052 0.5015335576 0.7871413843
0.8423979933 0.7519041835 0.2875390366
0.842442443 0.5001453671 0.2867991333
0.8424720762 0.7503850316 0.7877877579
0.8625744806 0.7511969921 0.7989687248
0.8524065978 0.749075418 0.043500589
0.8825250149 0.7507975599 0.8051509457
0.872531227 0.7485646687 0.0481948542
0.892574365 0.7475235258 0.0604207609
0.8925262111 0.4997917714 0.5580269439
0.8725830851 0.4998827896 0.0481062325
0.8825435356 1.0005146886 0.3055939738
0.8726275348 1.0000759681 0.5550728869
0.8825064942 0.7527488843 0.3063764748
0.872505298 0.7498284458 0.5468811664
0.892574365 0.7478771215 0.5599318014
0.8825139025 1.0017391774 0.8062214441
0.9025570405 0.7507124351 0.3114437476