POSCAR file written by Ovito 3.7.11
1
269.9720234903 0.0 0.0
0.0 15.2719238833 0.0
0.0 0.0 10.7988809396
Sr Ti O 
800 800 2400 
Direct
0.022468227 0.4992489486 0.8175103104
0.0124145557 0.5000746468 0.0685602992
0.0124082587 0.2506168817 0.5643748221
0.0226465789 0.0020804151 0.316625077
0.0225217881 0.2491946641 0.8153239727
0.002572647 0.2502063244 0.8193077188
0.0124567823 0.2500458993 0.0636621991
0.0224060725 0.2504374675 0.3164732094
0.0024128527 0.2494493798 0.3194892626
0.0526077204 0.0015159807 0.5616402795
0.0525395652 0.2502776972 0.0605478024
0.0525562335 2.4619960502e-04 0.0598435627
0.0423536949 0.4998847558 0.8127718564
0.0325286028 0.2508172494 0.5644970569
0.0424718553 0.0019089895 0.3120690493
0.042507785 0.2506745038 0.8117615666
0.0525591968 0.5018602764 0.0633993015
0.0526299449 0.5020337975 0.5601040092
0.0324863762 0.0032019503 0.5610328091
0.0324230363 0.2527174684 0.066620839
0.0326330581 0.0020024289 0.0614878998
0.0426059433 0.2491206721 0.3100271711
0.0525195631 0.2529211101 0.5621366272
0.0624761503 0.253895447 0.809452994
0.072597199 0.2518053371 0.0552617917
0.0626376485 0.2534338156 0.30947341
0.0725234877 0.5009514191 0.0561713304
0.0626098679 0.4998978518 0.3070648271
0.0725297846 0.2530618913 0.5555776142
0.0625694933 6.719481911e-04 0.3054165082
0.0825126709 0.5016513964 0.3028319811
0.0924466632 0.5023880423 0.5464979697
0.0924725918 0.2507576629 0.5484315034
0.1023599126 0.2502600177 0.7963266339
0.0824537759 0.2528019371 0.8012502922
0.0923929539 0.0021601693 0.5457701165
0.0923788784 0.250252815 0.0481376276
0.0924333284 -6.2402474271e-04 0.0455498594
0.1023658391 0.249680523 0.2945709399
0.0824452565 0.2519192717 0.3019337399
0.1024125106 0.5011347621 0.7952200378
0.0824848902 0.5008708791 0.8012141774
0.0924055478 0.5004714534 0.0474031996
0.1223705045 0.2506070598 0.2910965059
0.112453551 0.2510497021 0.5426623871
0.1223271667 0.2519808225 0.7910603475
0.112323908 0.2500557213 0.0443063046
0.1524465839 0.2508362385 0.532202044
0.1323767265 0.2490100115 0.5393833436
0.1423918383 0.2513358481 0.787227543
0.1524917737 0.2504793745 0.0331045884
0.1323530203 0.2493046698 0.0413121055
0.1424140628 0.2497263587 0.2840013262
0.1423840597 0.5010018384 0.788963834
0.1523543521 0.5001538771 0.0349520947
0.1324708103 0.497852268 0.0399526128
0.1523462031 0.5000680988 0.533178071
0.1323704296 0.4994270532 0.538677715
0.1826467501 -6.442579499e-04 0.2688099373
0.1825159958 0.2514465087 0.7683302145
0.1825371091 0.2505396158 0.2696239106
0.1624328038 0.4994296724 0.7773302211
0.1724686585 0.4994964616 0.0243303459
0.1626720878 0.5006790238 0.2800712894
0.1725475555 0.2513306097 0.5253198494
0.1725653352 0.500938978 0.5242734447
0.1624702151 0.2519821321 0.7780099212
0.1826100797 0.5004171053 0.7684589315
0.1725690393 0.2498900578 0.0233452438
0.1724660656 2.2950229813e-04 0.0189614563
0.1624213211 0.2499712525 0.2790221066
0.2025402929 0.2485431417 0.7606275645
0.1925829649 0.2487638081 0.0165325009
0.2026666023 0.2481391323 0.2627565323
0.2026143747 0.499459793 0.7651382171
0.1925848169 0.5003162666 0.0180284892
0.2025625174 0.4990439973 0.2655049653
0.1926381558 0.500392223 0.514383531
0.1925877802 0.2474326071 0.5172291962
0.2026736401 -0.0021368007 0.2635862479
0.2224279092 0.4987794596 0.2555530081
0.2325474762 0.498961493 1.0021442564
0.2125220679 0.2489746525 0.5061326761
0.2225738502 0.2495652788 0.7546695398
0.2126483773 0.2481810393 0.0095948376
0.2225160664 0.247201464 0.2543269552
0.2325848875 0.2473429 0.4995977397
0.2325178435 0.2480271622 1.0006811418
0.2225434767 0.4994008613 0.7564465758
0.2124942873 0.4988868462 0.0114504928
0.2425288809 0.4966618482 0.2440610767
0.2626098505 6.8715394875e-06 0.2336683331
0.262546881 0.249461821 0.734741549
0.2626035535 0.4980775179 0.7358638875
0.2525480672 0.248480936 0.4886540132
0.2425966657 0.2484737333 0.7450240959
0.2526065917 0.2476912516 0.9883835713
0.252609555 -2.344209151e-04 0.4865778721
0.2526251122 3.1050060649e-04 0.9870500998
0.2624661319 0.2504191332 0.2325682191
0.2426788964 0.2475589828 0.2420062341
0.27257755 0.2492418094 0.4821598217
0.272526804 0.2490401321 0.9812995039
0.2725053202 4.6994351746e-04 0.4807393042
0.2725656969 0.0013029754 0.9802808798
0.2725319897 0.4993144282 0.4809569193
0.2825159871 -8.8574684338e-04 0.2294586377
0.2824730197 0.2518380769 0.7290335501
0.2824063462 0.249451999 0.2300309192
0.3124639051 0.2491259104 0.4639431194
0.3125998451 0.250095009 0.9642792218
0.3125728052 -3.8148817507e-04 0.4652256597
0.3124968714 -9.4330344246e-04 0.964881136
0.2926096256 0.2491429351 0.4740636125
0.3026528885 7.1058117569e-04 0.2201678602
0.302521023 0.2488436932 0.7190139934
0.2924710927 0.2497885643 0.9745025033
0.2923903436 -0.0010779296 0.4728940468
0.3025269495 -0.0016988075 0.7199585357
0.2924110865 -1.7123306742e-04 0.9717707388
0.3025113923 0.2502351355 0.2181778392
0.312527245 0.5017869392 0.9656312137
0.3125465062 0.5005153247 0.4680379881
0.3325307991 0.2501709654 0.4583323528
0.3225831017 0.248780178 0.7116400812
0.3325630247 0.2510123787 0.9589082949
0.3225123537 -7.8353313331e-04 0.7105705259
0.3327122994 1.4247986335e-04 0.9593157445
0.322685705 0.2487873807 0.2120059033
0.3326241422 0.4997465938 0.9587693916
0.3625613182 0.2507838548 0.1985054304
0.3524106368 0.500038633 0.4516807377
0.3624761242 0.4996575415 0.6999657234
0.3526532545 0.2508296905 0.4505148761
0.3424721996 0.249484084 0.7067080887
0.3526547362 0.2500144691 0.9527409892
0.3524699022 4.1972063749e-04 0.4539494913
0.3425466518 -4.162578612e-04 0.7029604781
0.3524876818 -9.0126551685e-04 0.9553060698
0.3426666642 0.2493446124 0.2048690527
0.3626354 0.2487035668 0.7001370374
0.3924718249 0.2510595241 0.4418260128
0.3924088554 -7.9459919161e-04 0.4450846838
0.3923644063 0.2506581339 0.9434529898
0.3924125595 -0.0014612474 0.9451661303
0.3823892987 0.5009114765 0.1945642813
0.3925903557 0.5015178179 0.9400267088
0.3723956706 0.2504754457 0.4472145342
0.3825707989 0.2508964798 0.695421734
0.382359666 -0.0011826315 0.1968571115
0.3724475278 0.2513574564 0.9447494204
0.3825041254 0.2514026373 0.1939512548
0.3926940701 0.5007386103 0.4385358571
0.4025728715 0.2506777778 0.6886006569
0.4125072342 0.4992299595 0.9349428487
0.4025210143 0.2496634982 0.1900017715
0.4124109279 0.248738271 0.4354494262
0.4124368565 -0.0020741367 0.438065438
0.4124887138 0.2483414644 0.936054075
0.412370183 -2.6054728942e-04 0.9385913749
0.4026099124 0.499347168 0.6905138181
0.402469157 0.4998140378 0.1901814197
0.4423510672 0.2491167433 0.6742028687
0.4424362613 9.0590692658e-04 0.1779005176
0.4425251594 -0.0017834072 0.6749186837
0.442384404 0.2489726881 0.1744131192
0.4324241127 0.2491730558 0.4289737552
0.4225341991 8.0143250934e-05 0.1848299393
0.4224193724 0.2509685074 0.6832501025
0.432435225 -4.9149396169e-04 0.4295682613
0.432435225 0.2531234422 0.931738813
0.4223415865 9.0554512882e-05 0.6835769882
0.4323981841 -6.919271241e-04 0.9300071521
0.4225860563 0.2488109534 0.1809730582
0.4425140471 0.5000019644 0.1747631555
0.4523891444 -0.0011472725 0.4243899469
0.4525261956 0.2493000863 0.9225156351
0.4624346297 0.4999181505 0.1705432738
0.4723764006 0.499282998 0.4238491501
0.4524261853 0.4991494195 0.9243121176
0.4724097374 0.2512225684 0.4231981568
0.4624309256 0.2501545955 0.672307302
0.4622864662 -9.6504268124e-04 0.1723045674
0.4724912273 0.2500170883 0.9257474515
0.4723023188 6.5610211946e-04 0.4284079558
0.4623235071 0.2499417867 0.1743473717
0.4524039607 0.2500125047 0.4259391815
0.4624716706 0.5007595638 0.673113867
0.472480115 0.5002756693 0.9257567117
0.4924377385 0.4987447554 0.9293404164
0.48242559 0.2508270714 0.6788746491
0.4823478042 0.0014734189 0.6773967182
0.482466335 0.2508460605 0.1766337197
0.4924266263 0.250860466 0.4265336876
0.4925192285 0.2519971924 0.9272383467
0.5024535912 0.5001709018 0.176605013
0.502486928 0.500218702 0.6755187458
0.5124472193 0.5016585992 0.4333084636
0.5024609993 0.2524287032 0.1831306892
0.5223075002 -4.5489084578e-04 0.1850438504
0.5222926839 0.2509927348 0.1858013363
0.5123138721 0.2522322643 0.4328741594
0.5223926942 0.5015839524 0.683654774
0.5223630615 0.2505055663 0.685429032
0.5023646931 0.2516298517 0.6816610489
0.5123175762 0.253583764 0.9290070485
0.5024795198 0.0022749551 0.6803322076
0.5322640874 0.0013578474 0.4368412371
0.5323863223 -6.0706551728e-04 0.9359614728
0.5323863223 0.2503870482 0.4345641493
0.532330761 0.2515139527 0.9366837699
0.5424429199 0.5001217921 0.6890229229
0.5523439458 0.4999266628 0.9397674227
0.5523661704 0.5036688239 0.4373329547
0.5423762463 8.2386094406e-04 0.6856799839
0.5523439458 -5.729506275e-04 0.9421195183
0.5423132769 0.2504171688 0.1856059456
0.5523995071 0.2509757101 0.4396674559
0.5422243788 0.2507242683 0.6859892752
0.5523883949 0.24899888 0.9386932373
0.5723274979 0.2506764682 0.4446170428
0.5624598088 0.0011064056 0.1924974005
0.5723571306 0.249571172 0.9439808223
0.5624301761 0.4991206085 0.1927863193
0.562382023 9.7007696877e-04 0.6912981586
0.5623079412 0.24856475 0.1937706805
0.5724682533 0.4995547385 0.9487220543
0.5623116453 0.2496628434 0.6922380708
0.5723349061 0.5010411262 0.4475534582
0.5724793655 -7.7894955887e-04 0.4487276539
0.5724904778 -8.514355147e-04 0.9487035338
0.5923554991 0.4997269499 0.9538614757
0.5924332849 0.4989320272 0.4569266516
0.5823655751 0.2485392129 0.7002426039
0.5923369787 -0.0012737137 0.4592889334
0.5924518054 -8.9380083848e-04 0.956500638
0.6023898722 0.2495063471 0.2076202637
0.5823952078 0.5012781625 0.6992610207
0.5923369787 0.2503595468 0.451397375
0.6023231986 0.2486367776 0.706934038
0.5923036419 0.2505939639 0.9501759086
0.582361871 5.9124288133e-05 0.1984582033
0.5824507691 0.249169127 0.2008880847
0.6123427553 0.5000189891 0.9621956726
0.6122686736 0.5014392424 0.460033455
0.612413133 -0.0012335092 0.4607057469
0.6125650006 -0.0015391026 0.9618160036
0.612331643 0.2507006957 0.4559237699
0.6123501635 0.2496615339 0.9536484906
0.6224400979 0.2509416607 0.2088500208
0.6225104755 0.2505369966 0.7131050478
0.6425162522 -3.5968345665e-04 0.2118188469
0.652498768 -8.2026720849e-04 0.4651275013
0.6523691249 -9.3852342911e-04 0.9675758597
0.642382905 0.2495836131 0.2126883815
0.6523135636 0.2501781682 0.464395018
0.642508844 0.2506581339 0.7130893054
0.652372829 0.2520030856 0.965770117
0.632433726 0.5009651698 0.9607510784
0.6323781646 0.5013023899 0.4608409461
0.6425199562 0.4977887527 0.2143033636
0.6525469211 0.4993733599 0.4662266893
0.6325263281 -0.0025548227 0.4608594665
0.6326004099 -9.2902888205e-04 0.9614363346
0.6323188992 0.2501487023 0.4568312713
0.6324411341 0.2505225911 0.9584638044
0.6824314991 0.4979072709 0.7254498455
0.6724489833 0.4988410105 0.9748729121
0.6824870605 0.4994191956 0.2285150214
0.6624627634 0.2484324811 0.2212318593
0.6725564018 0.4980860303 0.4753415227
0.6623738653 0.2512094724 0.722296741
0.6824648359 0.2498802358 0.2310245407
0.6724156465 0.2505946187 0.4743886461
0.6824648359 0.2499116661 0.728901129
0.6723749016 0.2511885189 0.9738450278
0.6623775694 0.4992849624 0.7228671704
0.7025446943 0.2509416607 0.2364760315
0.6924399436 0.2489045893 0.4827756263
0.702489133 0.251722178 0.7362074416
0.6923695659 0.2481391323 0.9798734302
0.7024743167 0.4996647443 0.7342637217
0.6925251376 0.4974161736 0.9820588418
0.7024520921 0.4984998616 0.2308439664
0.7024706126 9.8539920334e-04 0.2320931699
0.7224726851 0.5013181051 0.7390707013
0.7225726955 0.5007412295 0.2394235591
0.7124716488 0.2509148141 0.486659362
0.7125086897 0.2500517925 0.9893836749
0.7224578688 0.001752886 0.2411320695
0.7225023178 7.6551858937e-04 0.7395994597
0.7226949304 0.2528792031 0.2423433061
0.732540395 0.2527561014 0.4956112155
0.7225615832 0.2510352966 0.7449500141
0.732584844 0.2505252102 0.9964214412
0.7125494347 5.2121407158e-04 0.4899856326
0.7426895947 4.552105996e-04 0.7529832539
0.752560988 0.4970717507 0.0053568985
0.7426821866 0.2499430963 0.2493903326
0.7425969926 0.2487533313 0.7520405637
0.7625546161 -3.3398435972e-05 0.2583653366
0.7524906103 0.0010777255 0.5038926292
0.7625657283 2.5988484872e-04 0.7585199387
0.7626916673 0.2499326195 0.2601645971
0.7527795291 0.2496634982 0.5062743574
0.7627694531 0.2498756523 0.7582588006
0.7526684065 0.2495541473 1.0053205114
0.7823640761 0.0024956215 0.2691896063
0.7824714946 -5.7635556851e-04 0.7690080625
0.7726297341 0.0030996057 0.0150518845
0.7825270559 0.2510562501 0.2690895959
0.7725778769 0.251580742 0.512138854
0.7825826172 0.2495390869 0.7664003849
0.7725112033 0.2522983988 0.0127302551
0.7926318066 4.2165062695e-05 0.5256615515
0.7925058677 0.2499653594 0.5211008937
0.7925836535 0.2527554466 0.0203894746
0.8024846794 2.9432713667e-04 0.2776552983
0.8125042361 0.0014679186 0.5307944907
0.8024920876 0.0017378257 0.7774117111
0.8125597974 -6.8924245907e-04 0.0316762923
0.8025439448 0.2497276683 0.2767376106
0.8125783179 0.2524699554 0.5291637662
0.8025698734 0.250966543 0.7766551512
0.8125672056 0.2506607531 0.0276978245
0.8225423133 5.3902453227e-04 0.7821223843
0.83256187 -1.2978445854e-04 0.0347531852
0.8226682522 0.2482386614 0.2789267264
0.8326248395 0.249423188 0.5331401041
0.8226349155 0.2490362033 0.780245338
0.8325989109 0.2500026828 0.0316636058
0.8225126806 -0.0021910834 0.2836707364
0.8326989212 1.6932651366e-04 0.5328687797
0.8624797848 0.4997734405 0.7896157534
0.8524639322 0.5005703276 0.0379273103
0.8624834889 0.4995560481 0.2907742502
0.8426518044 1.1877623552e-04 0.788585091
0.842592539 0.249278478 0.2857876224
0.8427147738 0.2484246236 0.786551547
0.8625909074 -7.7894955887e-04 0.2935430557
0.8527269224 2.2040062888e-04 0.5406955166
0.8526750652 1.5603414778e-04 0.0421768247
0.8426073553 -5.54747289e-04 0.288691627
0.862490897 0.2472211079 0.2932032056
0.8524750444 0.2488770878 0.5422123405
0.8626427646 0.2488450028 0.7942097479
0.8525602384 0.2488600631 0.0411229192
0.8725734232 0.4983034227 0.5399324746
0.8826300208 0.4987833884 0.7931087079
0.8926347612 0.4988076158 0.0420915381
0.8826744699 0.4996326592 0.2910733553
0.8926940266 -0.0023678784 0.5444875762
0.8726104641 -6.6193745132e-04 0.0432414721
0.8926829143 -0.0019970017 0.0428432827
0.882596684 0.2486204077 0.2948348562
0.8726363927 0.2498854742 0.5468313376
0.8926088326 0.2498016603 0.5447931634
0.8825448268 0.2472256914 0.7925836535
0.8726771377 0.2496294488 0.0469457448
0.8926495775 0.2488738138 0.0440185896
0.9025468994 0.4985476617 0.2921382805
0.9025876443 -0.0019934658 0.2947283637
0.9125886806 -4.429080726e-04 0.5529736407
0.9025765321 -0.0018122837 0.7952339281
0.9126294256 -0.0012215264 0.0522246251
0.9026432056 0.2497008216 0.2973703041
0.9125034866 0.250275078 0.5478740382
0.9026654302 0.2495672432 0.7965896241
0.9125849765 0.248056628 0.0464911607
0.9125516397 0.4988390461 0.0482876431
0.9225452678 -3.746128134e-04 0.3055285568
0.9225452678 -0.0016443284 0.805090505
0.9323610997 0.4981665702 0.555777635
0.9323796202 0.5005035384 0.0531233293
0.9225193392 0.2479034057 0.3010734656
0.9225489719 0.2490466801 0.8027282232
0.9426066058 -6.6172653006e-06 0.3110754279
0.9325500082 -5.0766743151e-04 0.557894521
0.9425547486 -7.8870602447e-04 0.8130302165
0.9323796202 -5.9652329606e-04 0.0591091348
0.9425362281 0.2485176046 0.3099780919
0.9326092736 0.2480369841 0.5582741899
0.9423843605 0.2485942158 0.8117124874
0.9325500082 0.2472872423 0.0561595699
0.9224822983 0.4994270532 0.7993612076
0.9625568211 0.2500203623 0.3182835822
0.9525039276 0.2490545376 0.5625237043
0.9726171228 0.2482150887 0.5680918739
0.9625864538 0.2490637048 0.8137923325
0.9526002339 0.2492994315 0.0638729617
0.9726615718 0.2502888288 0.0690805383
0.9526076421 0.4988351173 0.0654237705
0.9725171124 0.4999404135 0.0659381757
0.9624419944 0.4988292241 0.3179335459
0.9525706012 -2.4339162508e-04 0.5643183347
0.9625605252 -0.0013561525 0.8167824572
0.9923858378 0.5011236305 0.5675844139
0.9824848119 0.5015289495 0.8204633942
0.9925932667 -3.8482763645e-04 0.570088377
0.9826366795 -4.073215508e-05 0.8167361561
0.9826774245 0.2509901156 0.3178863188
0.9924488073 0.2482858067 0.5663435446
0.9826366795 0.2505540213 0.8186011642
0.9924043583 0.2493832454 0.0653567266
0.0025094182 0.9995113948 0.3148285945
0.0126500986 1.0017900861 0.5682993028
0.0226627657 1.0025103621 0.8152823017
0.0023640698 1.000375726 0.8146016757
0.0125664603 1.0024186906 0.066365257
0.0125187517 0.7512453591 0.0647669432
0.0022937663 0.501263757 0.8156675269
0.022496267 0.7521882658 0.3132126864
0.0024370033 0.7495756284 0.3199606078
0.0125733499 0.7495036008 0.5666398716
0.02245367 0.7513632224 0.8140312462
0.0025367914 0.7512519071 0.8177631144
0.0224673381 0.4999882137 0.3150989929
0.0023006929 0.4991238825 0.3134386357
0.0122732447 0.5001597703 0.570383778
0.0325415671 0.7525549518 0.0640479798
0.0325374926 0.4995357494 0.0657287095
0.0425992759 0.7513894143 0.3124413101
0.0324560027 0.7512977428 0.5640562705
0.0424674104 0.7531704604 0.8137330671
0.0425007472 0.5001394716 0.314596163
0.03256231 0.5009173697 0.5637914283
0.0423974031 1.0027329928 0.8090964756
0.0526406867 0.751625141 0.0627469191
0.0525054876 0.7531311726 0.5631348788
0.072493855 0.9983785971 0.5542071018
0.0625372678 0.9995572305 0.8088807125
0.0724812611 1.0004215617 0.0594190743
0.0726779481 0.7518412238 0.056055485
0.06253023 0.4995678344 0.8085140078
0.0625850505 0.7536419137 0.3097345482
0.0725334887 0.7526073355 0.5531375466
0.0625517137 0.7500470818 0.8129922496
0.0725427489 0.4999816657 0.5582427052
0.1023402809 0.5005893167 0.2948607848
0.1024165851 1.0006507404 0.2930291135
0.0825052627 1.0008406314 0.3042274961
0.1024036208 1.002693705 0.7954367269
0.082577122 1.0021895119 0.8021624238
0.0924244386 0.752345417 0.0465568156
0.1023773218 0.7513632224 0.2953043493
0.082465629 0.7507673578 0.3007049089
0.0924125856 0.7517495523 0.5480092374
0.1024543668 0.751075112 0.7971609796
0.0824811861 0.75072807 0.8026717358
0.1123998418 1.001082906 0.0416559374
0.1123546519 0.7511274957 0.0425704766
0.1224293995 0.5005729468 0.7915928101
0.1124250295 0.5011930389 0.044261763
0.1225138527 0.7508524813 0.2898723049
0.1124324377 0.7494315732 0.5409816574
0.1224305107 0.7499488623 0.7896685366
0.1223897658 0.5007314075 0.2922966302
0.1125013338 0.5014078122 0.5465655693
0.1224019893 1.000552521 0.2905779336
0.1123909519 1.0000614237 0.5441569864
0.122451624 0.9998846287 0.7870627111
0.1424918487 0.9999893961 0.2814130951
0.1524932554 1.0001269034 0.530891723
0.1324474746 1.0000286839 0.536349696
0.1424914783 1.0005721649 0.7860079721
0.1523806511 1.0009650427 0.029183071
0.1325034063 0.9979922673 0.0373288224
0.1524606594 0.7512060713 0.0297560007
0.1325530411 0.7510096324 0.0385527455
0.1423747995 0.7495952723 0.283989288
0.1525247401 0.7538972843 0.5301351631
0.1325011838 0.7504203157 0.5365784234
0.1423470189 0.752338869 0.7846624624
0.1425966744 0.4992037676 0.2844930439
0.1826204511 0.9996227102 0.7666717093
0.1726442322 0.7502566166 0.0213175337
0.1624190987 0.750367932 0.2775460277
0.1725938566 0.7495494365 0.5220843289
0.1624109497 0.7506625903 0.7776571069
0.182454508 0.7479451855 0.2685969523
0.1825148846 0.7503351922 0.766998595
0.1827026819 0.4978247665 0.2701721155
0.1625754112 1.0007555078 0.2739076878
0.1725164412 1.0019668811 0.5224973347
0.1624735487 1.0026806091 0.7772468792
0.1926285252 1.0002120269 0.5181709605
0.2026154859 0.9980250071 0.7634685997
0.1926429711 0.9994982989 0.0168304947
0.1926696405 0.7476112394 0.0155761981
0.2026462298 0.7483511592 0.2642576138
0.192570371 0.7485279542 0.516498565
0.2025369592 0.7477814864 0.7613044865
0.2125202159 0.4997439746 0.5101775397
0.2326393376 0.7504137677 -8.9411961415e-04
0.2225097695 0.9967612501 0.25571784
0.2327219388 0.7482594877 0.4983985414
0.2126076324 0.9968136338 0.5096784139
0.2226894177 0.9999959441 0.7539046457
0.2126446732 0.9980119111 0.008589826
0.2325845171 0.4982503842 0.5026508338
0.2126620824 0.7485803379 0.0100130291
0.2324845068 0.9974618822 0.4964974185
0.2225538481 0.7466552367 0.254953872
0.2326456346 0.9974880741 -5.6843771992e-04
0.2126661569 0.7482267479 0.5074263287
0.2225660716 0.7474540882 0.7549353081
0.2526443734 0.7502173288 0.9858833122
0.2425107308 0.4988331529 0.7461223578
0.2526028877 0.5005572317 0.9878742592
0.242678526 0.7487702289 0.2439795867
0.2525884417 0.7517822921 0.4871381153
0.2425370298 0.7505905627 0.7463714577
0.2525106559 0.5011812526 0.4899022906
0.26272727 0.9993215038 0.7326431834
0.2426396331 0.9990137496 0.2449093127
0.2625368799 0.7504203157 0.2328552859
0.2626542995 0.7496214641 0.7322607364
0.2425855534 0.9995965183 0.7450157617
0.2625287309 0.498456645 0.2345174952
0.2826122934 0.4991566223 0.7322311037
0.2824326452 0.7484690226 0.2269148556
0.2824670932 0.7485803379 0.7269333325
0.272510506 0.750367932 0.9808179725
0.272561252 0.499993452 0.9816143513
0.2725908847 0.7500536297 0.4799494075
0.2825678444 0.4988416653 0.2304207744
0.2825837719 0.9990661333 0.7308189203
0.2924870203 0.7498571908 0.971992984
0.3025517669 0.4999692246 0.7208845576
0.2924355335 0.4994499711 0.9730208683
0.3024343473 0.7513173867 0.2191575703
0.2925233204 0.7476636231 0.4749896343
0.3024243463 0.7491762026 0.7192816137
0.3024680545 0.5001689375 0.2183435971
0.2924407192 0.499742665 0.4750535298
0.3125016868 0.7508459333 0.9658997601
0.312376859 0.7492416823 0.4650867564
0.332559691 0.7493006139 0.958148957
0.3225738415 0.9991643527 0.2119938651
0.3324922766 0.9992167364 0.4602769988
0.3225282812 0.5010542221 0.7110177945
0.3224553107 0.7492351343 0.2112317491
0.3324952399 0.7514221541 0.4593426427
0.3225556915 0.7503417401 0.7122799623
0.3225182802 0.5014025738 0.2136468141
0.3325270951 0.501964389 0.4588444429
0.3425714692 0.5001388168 0.2063090168
0.342624808 1.0002578626 0.2034133463
0.3525825065 0.7492351343 0.9536392304
0.3425310946 0.499713854 0.7046865829
0.3525584299 0.5016965773 0.9547319362
0.3425462814 0.749110723 0.2067988823
0.3526169545 0.7501256573 0.4518029726
0.362424267 0.750544727 0.2025808527
0.3424540496 0.7489601198 0.7041170795
0.362424267 0.7511078519 0.7017538716
0.3625761346 1.0013513725 0.1978090619
0.3623650016 0.9996685459 0.7015621851
0.3625390937 0.499668673 0.2015214837
0.3724919768 0.7505971107 0.9472589397
0.3824152273 0.5008610572 0.6927575691
0.3725253136 0.500472763 0.9449809259
0.3825189417 0.7492613261 0.195143045
0.3723956706 0.7496149162 0.4478053361
0.3824744927 0.7511733315 0.6921473207
0.3723586297 0.9986667075 0.4491814046
0.3823818905 1.0008209875 0.6954504407
0.37245864 1.0005852608 0.9454439368
0.372373446 0.5016664567 0.4467904161
0.392394039 0.7496280121 0.9442586288
0.3926014679 0.7497720673 0.4430465097
0.4024284121 0.9979595274 0.1908231529
0.4024913816 0.9982738297 0.6919750806
0.4125553873 0.7491958465 0.9358225695
0.4125257546 0.7500470818 0.4370940411
0.4125739078 0.500324779 0.4334714435
0.4025432388 0.7482332959 0.1923825737
0.4025580551 0.7490910791 0.6933492971
0.4324685618 0.7512846469 0.9305257244
0.4224712296 0.5006240209 0.6846169108
0.4324685618 0.4999332108 0.9255066858
0.4226045767 0.7506167546 0.1815675642
0.4324463373 0.7490125035 0.4293191614
0.4224934541 0.7484886665 0.6845354209
0.4224749337 0.501225124 0.1827741707
0.432561164 0.500099529 0.4258873243
0.4425918329 0.5008204598 0.6723545291
0.4424288531 0.7517626482 0.1756863993
0.4424955267 0.7498768347 0.6752677939
0.4523817362 0.9986012279 0.9225897169
0.4624494461 1.0011156458 0.672860137
0.4724097374 0.9983524052 0.9268216369
0.4525039711 0.7502566166 0.9226452782
0.4524484098 0.7500405338 0.4240862117
0.4524224812 0.5003869846 0.4253094866
0.4724171456 0.7481023366 0.9217099961
0.4622123845 0.7507739057 0.1734093115
0.472435666 0.7493529976 0.4185337846
0.462360548 0.7489863117 0.67281754
0.4823737328 0.9988435025 0.1748585357
0.492371065 0.9987452831 0.4312610292
0.4924377385 1.0008340834 0.9315536087
0.4824367023 0.5002972775 0.1740028915
0.4924821876 0.7486327217 0.4272939515
0.4924414426 0.7508262894 0.9292292937
0.4923932895 0.5008106379 0.4305989236
0.4823441001 0.4991749566 0.6724036082
0.4824515186 0.7508066455 0.1797868242
0.4824181818 0.7486523655 0.6795756477
0.5124324029 1.0011942214 0.4346058203
0.5124657397 1.0009453988 0.931229501
0.5025424893 1.0010763581 0.1814203268
0.5125101888 0.7498833827 0.9318591959
0.522426031 0.5011131538 0.1803044704
0.5223963983 0.7489732158 0.6828667294
0.5224778882 1.0006965762 0.6852290112
0.5023906217 0.752332321 0.1820277971
0.5024721116 0.7501583971 0.682764867
0.5124175866 0.5029040218 0.9310720773
0.5124472193 0.7502893564 0.4318147903
0.5222926839 0.7496149162 0.1836196287
0.5323900264 0.7518805115 0.4326759907
0.5324011387 0.501540081 0.4373987023
0.552392099 0.7518346758 0.9388414008
0.5424725526 1.0003036984 0.1817509166
0.5524106194 1.0008602753 0.4399387803
0.5424392158 0.7506298505 0.1850929295
0.5524328439 0.752332321 0.4372246101
0.5424206954 0.5034750042 0.1854587082
0.5424503281 0.7518870595 0.6851197407
0.5324344755 0.7509114129 0.9334612137
0.5323159447 0.50323142 0.9342112914
0.5624486966 0.4999377943 0.6955708236
0.5624561047 0.7502893564 0.1965968993
0.5624524006 0.7513108387 0.6939669537
0.5724275083 0.7511864274 0.9485183294
0.5725386309 0.7509703446 0.4471950877
0.6023750558 0.4983486036 0.7047689989
0.602341719 0.7494774089 0.2104742632
0.5924258768 0.7488488045 0.4532290462
0.6024713621 0.7484952144 0.7089166509
0.602423209 0.5008892134 0.2048005271
0.6024639539 0.9984178849 0.2070229796
0.602467658 1.0001334513 0.7074757608
0.5823877996 0.9987714749 0.7033975605
0.582447065 0.7499292184 0.2058497099
0.5823803914 0.5003241242 0.2018576296
0.5824804018 0.7495821764 0.6991637885
0.5924295809 0.747846966 0.9549356611
0.6124612861 0.7489797637 0.4583777279
0.622403057 0.5004400231 0.7111983688
0.6225993736 0.7493464497 0.2095612056
0.6224808428 0.7495166967 0.7091129675
0.6223215671 0.4990092931 0.2105233423
0.6223993529 0.9992691201 0.2114521423
0.6224512101 0.9998584369 0.7096898791
0.6124649902 0.7499226705 0.9585101055
0.6424755072 0.9988565984 0.7113215297
0.6324818791 0.7503875759 0.9613437325
0.6324152055 0.750178041 0.4643301965
0.6523506045 0.7505774668 0.9668998637
0.6423717927 0.5004380588 0.7130439304
0.6524691353 0.5002206664 0.9644088649
0.6424755072 0.7499095745 0.210594646
0.6524876557 0.7522144577 0.4669480604
0.6424977317 0.7516382369 0.7075905875
0.6624146102 1.0000352319 0.219865977
0.6623886816 1.0006507404 0.7208651111
0.6824426114 1.0004281097 0.2291373081
0.6726119632 0.7498113551 0.9761971234
0.6724415751 1.0019144974 0.4775787915
0.6824648359 1.0014168522 0.7283344036
0.6724971364 1.0015609074 0.9751692391
0.6827167139 0.750898317 0.2298753475
0.6724749119 0.7493922854 0.4757082273
0.682553734 0.7501453012 0.7304855524
0.6623849775 0.7512846469 0.2201511918
0.6623294162 0.5008302818 0.2193788895
0.6625035083 0.7514745378 0.7226236267
0.6925251376 0.998581584 0.4811106389
0.702529878 1.0014103042 0.7343109488
0.6925621785 0.9999239165 0.9810772587
0.692458464 0.7507739057 0.9791511331
0.7025261739 0.7503548361 0.23768449
0.692625148 0.7497589714 0.4815153105
0.6925992194 0.4987801144 0.4823265057
0.7026113679 0.75108166 0.7372788489
0.7326070685 0.5024175081 0.9967362886
0.7225838077 0.7506036587 0.2425887019
0.7324700173 1.0014561399 0.4966650284
0.732540395 0.7498506429 0.4937091666
0.7325255786 0.4996274209 0.4954278632
0.7225467669 0.7531508165 0.7407829157
0.7324811296 1.0015805512 0.9953379956
0.7125160979 1.001443044 0.9868648954
0.7125790674 0.7521424301 0.9878464786
0.7125272102 0.5005637797 0.9891614296
0.7125568429 0.7507935496 0.487333506
0.7124901693 0.4994119929 0.4908246084
0.7324959459 0.7518215799 0.9945323565
0.7425525435 0.5005749112 0.7511710291
0.7425155026 0.7498899306 0.248560617
0.7424747577 0.5022675598 0.2497033279
0.7426192171 0.7503155483 0.751631262
0.7426821866 1.000552521 0.2485856195
0.7525313553 0.7535371463 0.0057305483
0.7525424675 1.0006441925 0.0035193933
0.7526091411 0.500903619 0.5039250399
0.7625360956 0.5024279849 0.7540629954
0.7625805447 0.7509310568 0.2595173078
0.7623768199 0.4998349913 0.2578134276
0.752605437 0.7502893564 0.5015738704
0.7625990651 0.7515465654 0.7587792249
0.7727334485 1.0010108784 0.5150150779
0.7826307704 0.7522275536 0.2691988665
0.7824344537 0.4985849851 0.2656234961
0.7723963766 0.7491500108 0.5108035304
0.7825826172 0.7513370306 0.7685885746
0.7724297134 0.7502042329 0.0109883153
0.7726556627 0.4983682475 0.5121777469
0.7825492804 0.5012342911 0.7677273743
0.7725482442 0.5008708791 0.0117505239
0.7923725205 0.7492089424 0.5218074484
0.7925392044 1.0012269612 0.0225490502
0.8126375833 0.7510358243 0.031401912
0.792479939 0.7505316311 0.0228635273
0.7924206736 0.5017679501 0.5213527717
0.7925132758 0.502913189 0.020378918
0.8126153587 0.5017509254 0.5290146767
0.8024587508 0.5007916488 0.7745484514
0.8124783075 0.4994990808 0.0271683252
0.802466159 0.7518150319 0.2770376417
0.8025550571 0.5016062154 0.2763570156
0.8125264606 0.7508000976 0.5330669484
0.8026624756 0.7528365142 0.7782756895
0.8325507577 0.7489994076 0.0328277079
0.8325729822 0.4996470648 0.529495282
0.8225645378 0.4995743824 0.7785757206
0.8325544618 0.5000667892 0.0318389017
0.8225608337 0.7506494944 0.2820057491
0.8225460174 0.500794268 0.2795323447
0.8326396558 0.7519918269 0.5338040618
0.8224385988 0.7483380633 0.7818380956
0.8525565344 0.4995940263 0.5368534519
0.8626464687 0.9997602174 0.7953672753
0.8626205401 0.7497393275 0.2910492787
0.8525898711 0.7479189936 0.5401723143
0.8425369776 0.4993844914 0.7833901083
0.8426073553 0.7482267479 0.2902223412
0.8423925182 0.5008276626 0.2832994017
0.8427518147 0.7490648872 0.7885943512
0.8626205401 0.748744037 0.7891240358
0.8526898815 0.751075112 0.0415959312
0.8826707658 0.7501453012 0.7918243156
0.8725660151 0.748390447 0.0433566692
0.8925273427 0.7512388111 0.0437294856
0.8925458631 0.4979334627 0.5437800955
0.8724919333 0.4984677765 0.0402086578
0.8826670617 0.9994328192 0.297028602
0.8725808314 0.9991709007 0.5441004991
0.882596684 0.7495690804 0.2913928329
0.8726734336 0.7486720094 0.5432837478
0.8926162408 0.7486916533 0.5423984709