POSCAR file written by Ovito 3.7.11
1
269.9577644267 0.0 0.0
0.0 15.2711172688 0.0
0.0 0.0 10.798310577
Sr Ti O 
800 800 2400 
Direct
0.0224504496 0.4994918512 0.819330141
0.0124283263 0.5013358551 0.0742268267
0.0124560343 0.2487374412 0.5732777626
0.0223055381 -0.0018934676 0.3228737776
0.0224666373 0.248176906 0.818230895
0.0024458388 0.2501204442 0.8265923881
0.012533565 0.2486837451 0.0740070701
0.0224340026 0.251213357 0.3238517083
0.0025054037 0.2500628191 0.3253917641
0.0523907257 -8.4534519437e-04 0.5606757913
0.0523962821 0.2494132268 0.0643533377
0.0522732999 5.9836056808e-04 0.0663633744
0.0424232406 0.4981271835 0.8161805742
0.0323750021 0.2503424319 0.569397526
0.0422939611 3.0401406278e-04 0.3158291571
0.0424965854 0.2491539137 0.814711826
0.0523518307 0.4971501758 0.0633719805
0.0523792424 0.498319049 0.5610628889
0.0323879671 -5.6946492145e-04 0.5691604519
0.0324653866 0.2500340065 0.0659669235
0.0323857445 -0.001519952 0.0706093163
0.0424321309 0.249129685 0.3142409457
0.0522407022 0.2490975983 0.5654450559
0.0624167385 0.2488310821 0.8124336918
0.0723560711 0.2494682326 0.0587644079
0.0624252583 0.2488297724 0.3085011589
0.0724023746 0.4974245499 0.0578205566
0.0623148707 0.4989954893 0.3097893234
0.0723519964 0.2470748255 0.5577318123
0.062274494 -0.0011728261 0.3080168239
0.0824083843 0.4973348381 0.3049876464
0.0923332701 0.4978279258 0.5507473864
0.0924173574 0.2493673886 0.5525134034
0.102310016 0.2499829297 0.7983638983
0.0824476497 0.2474376018 0.8054251881
0.0923714242 -0.0024549196 0.5485396336
0.0924614383 0.2494813292 0.0547627634
0.0924043924 -0.0024540029 0.0480032801
0.1022548221 0.2485102149 0.2970577022
0.0823661554 0.2472843714 0.3024150217
0.102446704 0.49953507 0.7947661133
0.0825739657 0.4992430154 0.8030590772
0.0923032654 0.4995534053 0.0506566581
0.1223035139 0.2509776179 0.2929941036
0.1123738124 0.2494911517 0.5444769611
0.1222583216 0.2475142171 0.7909173631
0.1124104848 0.2483602586 0.0429633251
0.1524741593 0.2476608992 0.5328297687
0.1324410256 0.2486149879 0.5417061572
0.1423510943 0.2498729181 0.7863490559
0.1525063866 0.2491231367 0.0337179899
0.132456954 0.2481638093 0.0405963807
0.1423781356 0.2469209402 0.2872996943
0.1424336998 0.4976674922 0.7882502792
0.15253528 0.5007275172 0.0309636702
0.1322902613 0.4999947614 0.0401795563
0.1525371321 0.4993949362 0.5358561681
0.1323599018 0.4981789152 0.5361219504
0.1824977448 -5.7778127432e-04 0.2705452216
0.1824977448 0.249265235 0.7731266172
0.1822847485 0.2492665446 0.2724325538
0.1625120258 0.5000648283 0.7805212924
0.1724128339 0.5017529824 0.0253097302
0.1623823759 0.50100713 0.278426084
0.1725032184 0.2495959246 0.5260250006
0.172427651 0.5002357391 0.5274391107
0.1625183231 0.2492829154 0.7786182169
0.1824847798 0.4987289732 0.7714143123
0.1724950689 0.2503784476 0.0254630875
0.1724687685 -5.6959588763e-04 0.0271042702
0.1625257317 0.2502291461 0.2799328011
0.2023538138 0.2486483842 0.7579010873
0.1922792749 0.2478383584 0.0146325044
0.2022815802 0.2501728307 0.2614363893
0.2024112302 0.4977218432 0.7600245676
0.1922488997 0.4985973521 0.0170846473
0.2023430713 0.5007144206 0.2619410978
0.192338173 0.4998094442 0.5160632571
0.1924181855 0.2517195413 0.5166698335
0.2022775055 -5.6383337541e-04 0.2625736042
0.2226029072 0.5001263824 0.2502596409
0.2326096577 0.5023364368 0.9959012802
0.2124050157 0.2504242857 0.5024351994
0.2223595358 0.2506279382 0.7513732143
0.2122953689 0.248994135 0.0049637698
0.2223773164 0.2505467391 0.2488705347
0.2324085152 0.2488494173 0.4949590299
0.2325918772 0.2510961423 0.9935027568
0.2225114114 0.5000661379 0.7491098973
0.2124579869 0.4996274012 0.0058571502
0.2426423382 0.5006718565 0.2449764071
0.2624409909 4.1422210915e-04 0.2357212556
0.26238839 0.2488251886 0.7384767525
0.2625276711 0.4996640717 0.7383609937
0.2525372194 0.2510241109 0.4903610884
0.2423563676 0.2512382406 0.7431691532
0.2523923819 0.2513908162 0.9936694496
0.2524794326 0.0016255284 0.4886006278
0.2523620068 0.0020603361 0.9905393303
0.2624887761 0.2500739512 0.2352748895
0.2424026711 0.2503044517 0.24640163
0.2724403328 0.248486641 0.4875569461
0.2724555204 0.2493104183 0.9835660173
0.2724195888 0.0010763872 0.4841980873
0.2725488683 -5.4857581462e-04 0.9805655479
0.2726051734 0.4982483272 0.4822468561
0.2825156126 3.5273348435e-04 0.2274736691
0.2825778445 0.2484814023 0.7283325731
0.2825741403 0.2499573913 0.2283710317
0.3125632758 0.2503450512 0.4639069502
0.3126877398 0.2504393468 0.9657298939
0.3124384415 -7.5460464065e-05 0.4665925555
0.312482152 -5.0118506879e-05 0.964331527
0.2925983009 0.2482869176 0.4787009311
0.3026554297 -1.1671481297e-04 0.2209939518
0.3025568957 0.2518472334 0.7228030044
0.292615711 0.2489712159 0.9755925478
0.2926138589 -3.6463380497e-04 0.4718017037
0.3026428351 -2.5475317407e-04 0.7200368309
0.2926075616 7.6730694931e-04 0.9722772143
0.3024994794 0.2513390846 0.2233832145
0.3125440136 0.501874781 0.9653316834
0.3125658688 0.5007543652 0.4642292229
0.332671977 0.2519467677 0.4592247363
0.3225392808 0.2509199928 0.7131061172
0.3324978756 0.2507510464 0.9606179831
0.3225885478 -8.0513857496e-04 0.7110613529
0.3325586259 1.9112120958e-04 0.9622941712
0.3225985493 0.2478966383 0.2154467878
0.3325686275 0.4998035507 0.9560617148
0.3625540588 0.251225144 0.2029198282
0.3526017612 0.5001198341 0.4553315347
0.362661483 0.5008486609 0.7007125118
0.3526784399 0.2495134159 0.4569410458
0.3427168816 0.2509278507 0.7079080818
0.3525973161 0.2507739655 0.958497281
0.3526265799 0.0013314438 0.4555880563
0.3427216972 -2.2770865646e-04 0.7085554053
0.3526425083 0.0012827899 0.9584787596
0.3426653921 0.2486346328 0.2103311728
0.3626763001 0.2506744312 0.7043751218
0.3924846667 0.2512179408 0.4388641439
0.3924846667 0.0010517655 0.435019098
0.3925735695 0.2519539708 0.9384478484
0.3925031881 2.7454667071e-04 0.9365030998
0.3826868377 0.5022532732 0.192333913
0.3925217095 0.5004714783 0.9383552413
0.3726445261 0.2506881826 0.4459559941
0.3824534679 0.2510535783 0.6933882179
0.3824238336 9.2151963451e-04 0.190750332
0.3725445104 0.2511465643 0.9452637294
0.3824979193 0.2508977285 0.1924746758
0.3925994995 0.5004007565 0.4377167422
0.4024825269 0.2502042625 0.6832301474
0.4126433756 0.5000510768 0.9349195187
0.4024528926 0.249164391 0.1841159609
0.4125581771 0.2496057471 0.4373981739
0.4124915 -6.9043120901e-05 0.4314592819
0.4125322471 0.2486071299 0.9352158614
0.4125026129 -0.0024530861 0.9330118129
0.4026158811 0.5008316353 0.685291581
0.4026677411 0.501638387 0.1858467872
0.4425776878 0.2477296564 0.6847350125
0.4425036021 -7.9760801921e-04 0.1861505384
0.442566575 -3.8460614849e-04 0.681941983
0.4426258435 0.2483871067 0.1815692662
0.4326428004 0.2486202265 0.4316500525
0.4224819517 -3.2822520498e-04 0.1841668947
0.4226153059 0.2488035792 0.6815659982
0.4326057576 -0.0030568402 0.4334345909
0.432624279 0.2490163992 0.9343453548
0.4225930802 -3.0471677442e-04 0.6847489035
0.432520559 -0.0013158412 0.9311967141
0.4225967845 0.2494132268 0.1805237323
0.4426036178 0.4986399161 0.1829315163
0.4524644196 -3.9639310532e-04 0.4322399596
0.4525385052 0.2498945275 0.9311781927
0.4625808169 0.4993942814 0.1766509042
0.4724230972 0.5008008582 0.4247258212
0.4526459294 0.5000130966 0.9316412281
0.4724342101 0.2484800927 0.42185778
0.4623622642 0.2489345454 0.6784858868
0.4625400697 -0.0016683367 0.1758507791
0.4723601244 0.2485789722 0.9225379522
0.4724416186 -5.3574112829e-04 0.4265214725
0.462569704 0.2486123685 0.177943699
0.452508871 0.2496548594 0.4298618098
0.4625030269 0.4992947471 0.6794119576
0.4724490272 0.499229264 0.9243067475
0.492448452 0.5020817075 0.9156294642
0.4824876346 0.24897449 0.6676508585
0.4824098446 6.7543416913e-04 0.6650282261
0.4823246461 0.2491512944 0.1688876528
0.4923225063 0.2487590507 0.4127683952
0.4923891834 0.249884705 0.916111021
0.5024574251 0.4999050495 0.162035655
0.5024240865 0.499945649 0.6619444103
0.5122663669 0.4998035507 0.4191795832
0.5023611137 0.2486208813 0.166561363
0.522367947 -6.1687468114e-04 0.1686116837
0.5223753556 0.2492986314 0.1707388683
0.5124552853 0.2499187563 0.4150002258
0.522342017 0.5001722205 0.6697595217
0.5224309198 0.2502330751 0.670954153
0.5025166936 0.2483032883 0.6656135028
0.5124330596 0.2496948041 0.914214428
0.5024759465 -0.0018877706 0.6609766664
0.5325139786 -9.2418683895e-04 0.4216864569
0.5324769358 8.4005866619e-04 0.9206487678
0.5325436129 0.2524902773 0.4199445177
0.5324398929 0.2511681737 0.9228342949
0.5424562746 0.5002010331 0.673570303
0.5524541348 0.5003372379 0.9232047232
0.5525726719 0.5000700669 0.4228032982
0.5424859089 0.0012285044 0.6733767542
0.5523874577 0.0013770855 0.9244086152
0.5425525859 0.2507359853 0.1735485671
0.5524541348 0.2501499116 0.4255055728
0.5424044146 0.2513207493 0.671071764
0.5524393177 0.2520233829 0.9255106395
0.5724906024 0.2523874689 0.4294006266
0.5624482908 0.0020734327 0.1751423349
0.5725609838 0.2514543348 0.9300669078
0.5624742208 0.5005166616 0.1774445469
0.5624445865 0.0011325716 0.6761855269
0.5624223608 0.2516219715 0.1783928434
0.572549871 0.5004950522 0.9256032466
0.5623630923 0.2501047282 0.6770097299
0.5725313495 0.499326179 0.4308545577
0.5725461667 0.0017348197 0.4293561752
0.5724498553 0.0017722105 0.9294279189
0.5925937471 0.5012245338 0.9380311166
0.5926344942 0.5002226425 0.4380084545
0.582662564 0.2520351698 0.6819734694
0.5926122685 0.001047902 0.4351357829
0.5926530157 0.0012852127 0.9390127516
0.6025953116 0.2485986171 0.1981301901
0.5823958556 0.500914144 0.6816956481
0.5926085643 0.2514615379 0.4359859159
0.6026990316 0.2500595449 0.6923667618
0.5925678171 0.2504223212 0.9378551631
0.5824884627 0.001319133 0.1834278903
0.5826181126 0.2532263073 0.1857865926
0.6126635533 0.4991533036 0.9511720611
0.6127005961 0.4983792934 0.4503872428
0.6125931719 -9.700250044e-04 0.449330596
0.6126709618 -7.765224631e-04 0.9476807742
0.6126450319 0.2493817949 0.4493574521
0.6125931719 0.2494734712 0.9506812435
0.622550285 0.2500097778 0.2014445975
0.6226391878 0.2485193825 0.7028776653
0.6424904413 -0.0018326338 0.2053340948
0.6524660758 -0.0017204613 0.4623567077
0.6524771886 -2.9725170176e-04 0.9608217187
0.6424571027 0.251000537 0.2080622993
0.6525623872 0.2507942652 0.4627799221
0.6425719355 0.251573514 0.7103797648
0.6525512743 0.2510110143 0.9616644431
0.6326666823 0.4995822179 0.9551634262
0.6325925967 0.4995769792 0.4544684367
0.6424682156 0.5012088179 0.2085095915
0.652429033 0.5004302239 0.4593025263
0.6325851881 -5.5512412397e-04 0.4537155412
0.6324703553 4.5233326957e-04 0.9517554857
0.6325407367 0.2489627031 0.455831613
0.6325333281 0.2487989954 0.955357901
0.682374458 0.4981566509 0.7127792142
0.6724543877 0.4998847498 0.9687396239
0.6823707537 0.4986818253 0.2176128674
0.6625602474 0.2519670674 0.2155468034
0.6723914149 0.5005598804 0.4654321888
0.6624787532 0.2499593558 0.7134080162
0.6825152208 0.2514693959 0.2181453581
0.6725655162 0.2501623534 0.466847225
0.6825670807 0.2503974377 0.7202285276
0.6724877263 0.2488055437 0.966804136
0.6623861461 0.4995671568 0.7111604424
0.702481307 0.2500909768 0.2296860523
0.6923056412 0.2485514693 0.4718267076
0.7023998128 0.2510404816 0.731105229
0.6924130654 0.2483059077 0.9749165161
0.7024516727 0.500643044 0.7292178968
0.692394544 0.499415236 0.9744812628
0.7024257427 0.5014805727 0.2303009633
0.7023775871 -1.3393686656e-04 0.2297749551
0.7224214632 0.4999626746 0.7425542422
0.7224622103 0.499170984 0.2428390357
0.7124680544 0.2497399874 0.4860168903
0.7125532529 0.2500156712 0.9860108442
0.7225733388 -4.5683400062e-04 0.2393838656
0.7223955332 -1.3302010325e-04 0.7411475407
0.722562226 0.2502088464 0.239637609
0.7324563663 0.2479103898 0.4951636915
0.7224585061 0.2501374698 0.7371839577
0.7323896892 0.2486503487 0.9941232243
0.7123902644 -0.0018024461 0.4866188363
0.7425505379 -1.2097121405e-04 0.7509675953
0.7526039624 0.5012441788 0.0050993465
0.742394958 0.2480780265 0.2509699372
0.7424394094 0.2496548594 0.7493571582
0.7625721884 4.4905911489e-04 0.2608798207
0.7525632153 5.3759225731e-04 0.5060357626
0.7625833012 0.0019778274 0.7581789085
0.7625129198 0.2497092104 0.2585229706
0.7524557911 0.2507019341 0.5026704213
0.7625203284 0.2493935818 0.7575000987
0.7523780011 0.2508839771 1.004689692
0.7825530917 0.0015947513 0.2659620972
0.782634586 6.8139313064e-04 0.7658226968
0.7726182043 8.6788898093e-04 0.0109386859
0.7826531074 0.2504910785 0.2684541537
0.7724403987 0.2515374983 0.5126034566
0.7826456988 0.2511131679 0.7680665664
0.7724996672 0.2510627459 0.0118077107
0.7926028119 -1.5318889605e-04 0.5221632854
0.7925583605 0.2507510464 0.521543744
0.7926065162 0.2509763082 0.0243793995
0.802585855 8.6487675863e-04 0.2746440109
0.812528151 0.0013740733 0.53002007
0.8024265709 2.8397623617e-04 0.7730942047
0.8126355752 -2.2057099927e-04 0.0324632566
0.8026858707 0.2504419662 0.2812376349
0.8126503924 0.2475351716 0.533631746
0.8026451236 0.250403986 0.7776949244
0.8126244624 0.2496489659 0.033229395
0.8224482213 6.4478808137e-04 0.7844172722
0.8325349844 0.0020120096 0.0399532246
0.8224815599 0.2514196288 0.2859124402
0.8323942216 0.2509389828 0.5415746552
0.8224889684 0.2490707502 0.7876529636
0.8325423929 0.2483582941 0.0392067189
0.822522307 0.0031773467 0.2883443021
0.8325016458 -5.8491893151e-04 0.5387695868
0.8624211409 0.5012376305 0.7999548879
0.8525047749 0.502513896 0.0439796878
0.862487818 0.4990838915 0.2959538258
0.8425847046 9.730548291e-04 0.7948874286
0.8424402375 0.2512140118 0.291154927
0.8425106189 0.2514425478 0.7895356655
0.862632285 0.0031180845 0.2972577335
0.8525640434 0.0020743495 0.5411708883
0.8525010706 0.0020642651 0.0451004186
0.8425921131 0.0014788462 0.2898658364
0.8624470709 0.2526382691 0.2976661307
0.8524455063 0.2511367418 0.5448825801
0.8623766895 0.2507366401 0.7975934074
0.8524751406 0.2525963599 0.0438887476
0.8725153125 0.5007550201 0.5499129966
0.8824761299 0.5006292925 0.8069374617
0.8923813831 0.5008722348 0.0602594566
0.8824872427 0.4995868017 0.3053451097
0.8924554687 0.0017306942 0.5590218289
0.8725190168 -7.6676548217e-04 0.0520431713
0.8924999201 0.0011820114 0.0595412887
0.8825057642 0.250303142 0.3072796716
0.8724856782 0.2515702399 0.5500732068
0.8924628773 0.2495278222 0.5596876738
0.8824983556 0.2513030688 0.8066438972
0.8724893825 0.2502861164 0.0520777138
0.8924406516 0.2524588454 0.0609831809
0.9025496403 0.5007347203 0.3128657306
0.9025088932 6.4956834719e-04 0.3124119559
0.9125326834 -3.1689662981e-04 0.5659506905
0.9025274146 -2.7930933414e-04 0.812580011
0.9125771348 9.6781618162e-04 0.0668312253
0.9024162861 0.2510529234 0.3134704548
0.9126104734 0.2496168792 0.5657617721
0.9024792589 0.2499829297 0.8136246189
0.9126215862 0.2495546703 0.0691439945
0.912369695 0.5028046409 0.0686356743
0.9226416722 1.4750946931e-04 0.3192130197
0.922678715 -2.3569759387e-04 0.8191671525
0.9325617425 0.5012016148 0.5753206748
0.9325358125 0.5001460273 0.0746925477
0.9226305593 0.2515237469 0.3229117465
0.9226231508 0.2520273119 0.8220889059
0.9425299684 -3.3156484275e-04 0.3249815147
0.9325506296 -2.4383651133e-05 0.5774024819
0.9425040385 0.0032281616 0.825976551
0.9325617425 7.654079396e-04 0.0725926821
0.942511447 0.2513770647 0.328333891
0.9325728553 0.2508479613 0.5713663525
0.9426336884 0.2516809063 0.8284778682
0.9325802639 0.2533389382 0.0706430253
0.9226046293 0.5020109858 0.8226454744
0.9623886305 0.2518550913 0.329524818
0.9524574473 0.2522499544 0.5747705887
0.9724753935 0.250950115 0.5771228085
0.9624997589 0.2492436256 0.828383409
0.9525278287 0.2494420393 0.078390904
0.9724087164 0.2493811401 0.0717424566
0.952479673 0.5009959979 0.0779435192
0.9724716892 0.5011577411 0.0780553885
0.9624590118 0.5010287394 0.3262057803
0.952531533 0.0014383777 0.5808363524
0.9626257046 -2.1638008128e-04 0.8257191034
0.9923785069 0.5000661379 0.5757772277
0.9824695494 0.5006161959 0.8257042862
0.9924007326 -5.1825714233e-04 0.5761809945
0.9824547323 -2.0832566078e-04 0.8246744955
0.9822509967 0.2484277062 0.3266141775
0.9923970283 0.2501571147 0.5761596949
0.9823547167 0.2495808635 0.8303698309
0.9923859155 0.2504111891 0.0788949643
0.002472769 1.0006509914 0.3242230627
0.0123492769 0.9996163585 0.5739445336
0.0223295788 1.0002384479 0.8229362606
0.002424354 1.0000419986 0.8263145669
0.0123927282 1.0001074817 0.0743786097
0.0125409736 0.749929323 0.0735669086
0.0025094043 0.4995173896 0.8243559272
0.0224253716 0.7482398592 0.325116721
0.0024917349 0.7508526346 0.3271587071
0.012441921 0.7510425356 0.5736815295
0.0225106813 0.7480565065 0.8219101742
0.0025265181 0.7503287698 0.8292613241
0.0224325209 0.4995226282 0.3234442372
0.0024773993 0.5000242287 0.327379112
0.0124715183 0.4997930734 0.576435664
0.0325353975 0.7495953592 0.0665142313
0.0325165057 0.4981527219 0.0660533259
0.0423828639 0.7483773737 0.3165829787
0.0324687205 0.750819893 0.5676092833
0.0424939924 0.7475064485 0.8149137094
0.0424195363 0.4979732983 0.3162912664
0.0323716682 0.4988592845 0.5686853776
0.0422539548 0.998463856 0.8168723491
0.0523985047 0.7477159944 0.0588848897
0.0522981186 0.7488815935 0.5626223921
0.0724016337 0.9995312305 0.5542460818
0.0623674715 0.9996883899 0.8079931824
0.072413117 0.9984245662 0.0541754493
0.0723082858 0.7490256563 0.0553975849
0.0623282061 0.4976746953 0.8097240087
0.0623934015 0.7484035669 0.3087011902
0.0723408835 0.748089248 0.5560759977
0.0622470823 0.7497787119 0.8092378215
0.0723042111 0.4973826408 0.5578697968
0.10250375 0.4983668516 0.2950157161
0.1026211757 0.9987650783 0.2966983867
0.0825409976 0.9980316676 0.3057312812
0.1023848425 0.9978024768 0.7969062629
0.082626937 0.9994526508 0.8043342767
0.0923629044 0.7497721635 0.0515937492
0.1023422432 0.7506168955 0.2958769619
0.0823239266 0.7494905862 0.3004285999
0.0924951473 0.7503484148 0.5480256643
0.1022748253 0.7527516443 0.7956412502
0.0823068869 0.7495953592 0.8006531453
0.1123641813 1.0009980518 0.0445910797
0.1124008537 0.7490453012 0.0420777236
0.1223783404 0.4991225265 0.7901070512
0.1121808193 0.4992325381 0.0440278434
0.122331296 0.7514485307 0.2923402976
0.1123867774 0.7508002481 0.5416996748
0.1222942532 0.7499162264 0.7924064849
0.122375377 0.5004308788 0.2921273013
0.1123534389 0.4986418806 0.5431647187
0.1224342751 1.0014236919 0.2946304706
0.1123645517 1.0001009334 0.5447631169
0.1223920462 1.0002580928 0.7922194186
0.1424611115 0.999943774 0.2871561533
0.1525256489 0.9987454334 0.532166702
0.1324691781 1.000028902 0.5407226701
0.1425674245 0.9999896121 0.7880233919
0.152579361 0.999478844 0.0339815497
0.1323487889 1.0007950542 0.039298863
0.1525252784 0.7490780428 0.0345951642
0.1323987968 0.7482464075 0.0418355561
0.1424236983 0.749189364 0.2878488543
0.1525593578 0.7477159944 0.5332928041
0.1323347127 0.7485279848 0.5413172075
0.1424725948 0.7478076707 0.7884447541
0.1424062881 0.498806898 0.2858457631
0.1824914475 1.0003759624 0.7729451073
0.1725632278 0.7511473085 0.0262095006
0.1624831324 0.7502501901 0.2794419836
0.1725687842 0.7514878206 0.5282772047
0.1625709239 0.7489929147 0.7807333626
0.1824699626 0.7521033617 0.2719658141
0.1825418257 0.7506365404 0.772078305
0.18232068 0.4997144937 0.2712129186
0.1625775916 0.999839001 0.2799670658
0.1725061818 1.0002449962 0.5248387039
0.1624779464 0.9998128078 0.7791173691
0.1924526353 0.9980513126 0.5130748267
0.2024038216 0.9975863826 0.7602829414
0.1924267053 0.9993282329 0.01792376
0.1924933824 0.7500930307 0.0164316748
0.2024827228 0.7492221056 0.2599898667
0.1925426494 0.7503877046 0.5148575129
0.2025656988 0.7496215524 0.7568055456
0.2124939185 0.4984978178 0.5025472539
0.2326855955 0.7496608423 -0.0043855816
0.2226177243 0.9995181339 0.2488409005
0.2326700376 0.7485476297 0.4990800449
0.2125457784 0.9999175807 0.5029649118
0.2225703095 0.9984573077 0.752808624
0.2124031635 0.9990270107 0.0061346937
0.2325296452 0.5007550201 0.4989105739
0.212576524 0.7494185548 0.005710368
0.2324614864 1.0016004962 0.4985753363
0.222678845 0.749739422 0.2468655915
0.2325244592 1.0015088199 -0.0049704879
0.2126328291 0.7509312143 0.4997329248
0.2225621601 0.7504400911 0.7519862732
0.2526716849 0.7494840379 0.9915765296
0.2426849375 0.4992620055 0.740641906
0.2525249953 0.4980289589 0.9913913154
0.2426912348 0.7505710573 0.2439040171
0.2525883385 0.7509050211 0.4910185987
0.2426660457 0.7515271105 0.7438498152
0.2525750031 0.4985521688 0.4896331968
0.2625121131 1.0005200252 0.7372858255
0.2426641935 1.0004807353 0.2446504301
0.2624902578 0.7512586298 0.2350239243
0.2624872944 0.7495560693 0.7373858411
0.2425886261 1.0008736339 0.7425810982
0.2624335823 0.4992024159 0.236551015
0.2825278367 0.4991624712 0.7300254305
0.2826934182 0.7501388689 0.22876739
0.2827008267 0.7488095621 0.7276843235
0.2725444232 0.7503156732 0.9852699875
0.2727103751 0.4973132287 0.9812786224
0.2726233244 0.7506168955 0.4835776199
0.2824378226 0.5009776626 0.2286590398
0.2825515441 0.9998455493 0.7292012275
0.2926464566 0.7497656152 0.9756851548
0.3025606 0.50100713 0.7167353886
0.2926509017 0.5025669373 0.9741108345
0.3026213503 0.7494578447 0.2182842687
0.2926731274 0.7507609583 0.4766311629
0.3026676538 0.749549521 0.717486432
0.3026376491 0.5021393327 0.2197002309
0.2925501452 0.5003221768 0.4739548183
0.3126781086 0.7476243181 0.9631554171
0.312673293 0.7475653833 0.4647756046
0.3325393636 0.7507675066 0.9556357223
0.3226289245 0.9990401073 0.2122286918
0.3325978913 1.0017249141 0.463445767
0.3225222411 0.5027483254 0.7100510096
0.3226218863 0.7491500742 0.2082975213
0.332630489 0.7489732698 0.458292183
0.3226359626 0.7498507433 0.7095268536
0.3225655812 0.5003870051 0.2113007689
0.3326297481 0.4986667642 0.4580384396
0.342513146 0.4992947471 0.2067954345
0.3426220519 0.9988502063 0.2100394605
0.3525906484 0.7495888109 0.9576915994
0.3424912908 0.5005258292 0.7086702381
0.3526562142 0.4987512374 0.9544040481
0.3425175912 0.7500799341 0.2048451294
0.3526321363 0.7500864824 0.4559927493
0.3624836774 0.7512455332 0.1978755206
0.3425605608 0.7501978037 0.7077580584
0.362609623 0.7504335428 0.6984288212
0.3625799887 0.9988960445 0.2047775262
0.362661483 0.9992954913 0.7008421617
0.3625948059 0.5014903952 0.1999267674
0.3724296777 0.7503484148 0.9493384409
0.3825312578 0.5008322901 0.6942726155
0.372603779 0.5009206923 0.9459305004
0.3825016236 0.7502239969 0.1913606126
0.3723518877 0.7498965814 0.4468200181
0.3823312265 0.7485869196 0.6921815477
0.3725037633 1.0016528827 0.4478211006
0.3825090321 1.0006771846 0.6919139132
0.3725296933 1.0022618755 0.9444117443
0.3725741447 0.498412035 0.4468089052
0.3924142853 0.7504924776 0.9386701054
0.3924402153 0.7488946901 0.4390039806
0.4024862312 1.0006247981 0.1860440402
0.4025380912 1.000559315 0.6858361106
0.41254336 0.749019108 0.9343175727
0.41256929 0.7508002481 0.4347116425
0.4126248542 0.4994001749 0.4323640531
0.4024491884 0.7492875887 0.1813933127
0.4025047526 0.7492090089 0.6805093514
0.4326539132 0.7500668375 0.9310022393
0.4226745744 0.4987872531 0.6851721179
0.4327354075 0.4982705915 0.9329840308
0.422656053 0.7490322046 0.1827342632
0.4325761233 0.7480172166 0.432350162
0.4225930802 0.7497328737 0.6821809092
0.4226634616 0.4967422161 0.1846271519
0.432768746 0.4972601874 0.4338615095
0.442685112 0.4975653386 0.6791054281
0.4426147306 0.7476701562 0.1818498656
0.4426814077 0.7484755983 0.6813881926
0.452482941 0.9994330058 0.9322987384
0.4624363498 0.9991252353 0.6787099959
0.472367533 0.9999765155 0.9254458145
0.4526162952 0.7473099992 0.930344729
0.4525792523 0.7480696031 0.4294876772
0.4525199838 0.4967127487 0.4300618411
0.4724045758 0.7486458543 0.9221860453
0.4624956183 0.7478011224 0.1779640726
0.4723638287 0.7482136659 0.4176765704
0.462399307 0.7489470766 0.6787035134
0.4824394789 1.0022291339 0.1659807166
0.4923928877 1.0011159213 0.4148279766
0.492422522 1.0001664165 0.9175927342
0.4823913232 0.4992050352 0.1681366094
0.492422522 0.7494054582 0.4131147456
0.4924114091 0.7491500742 0.9155553785
0.4924447477 0.499759677 0.4158707323
0.4823616889 0.4994204746 0.6676351153
0.4824654089 0.7502370935 0.1719557253
0.4823950275 0.7507020235 0.6705902072
0.5123478611 1.0011486629 0.4188165635
0.5123182268 0.9995443271 0.9166759242
0.5025315107 1.0002384479 0.1606697006
0.5125627095 0.7489274316 0.9157961569
0.5224012856 0.4997472353 0.1651972607
0.5223901727 0.751559852 0.6729739134
0.5224901884 1.0009522136 0.6701882925
0.5024389036 0.7495757143 0.1669160481
0.5024463122 0.7515009172 0.6664284451
0.5123774953 0.4998166473 0.9198153041
0.5123849039 0.7485672746 0.4173468892
0.5222864528 0.7507478616 0.1727965976
0.5326028814 0.7498180017 0.4219790952
0.5324139629 0.5028472049 0.4209715302
0.5524726562 0.7506037988 0.9285851945
0.5424377532 1.00146953 0.1724169086
0.5525134034 1.0001664165 0.4244517043
0.5425414731 0.7501781587 0.1780020415
0.5524837691 0.7500471925 0.4262399469
0.5424896131 0.4992397413 0.1742060773
0.542474796 0.7482071176 0.6732415479
0.53258436 0.7501912553 0.9229361627
0.5324102587 0.5017222054 0.9206302464
0.5625112636 0.4995619181 0.6733860149
0.5624482908 0.7508002481 0.177628835
0.5623149366 0.7495560693 0.6758697368
0.5725091238 0.7507085718 0.9302428612
0.5725313495 0.75028948 0.4308527055
0.6025582688 0.5004465947 0.6893940746
0.602547156 0.7490125597 0.1953260478
0.5924603929 0.7513568544 0.4354441645
0.6024582532 0.7495953592 0.6919092829
0.6025064089 0.5011747667 0.1894593893
0.6026879187 1.0005724117 0.1923496562
0.602547156 1.0006771846 0.6949153086
0.5825810697 1.0028708682 0.6839950819
0.5825292098 0.7501257723 0.1831861858
0.5824032642 0.4997341386 0.1802496153
0.5825366184 0.7499489679 0.682269812
0.5924826186 0.7520378786 0.9366327497
0.6123560978 0.750479381 0.4456994724
0.6224132265 0.4993635043 0.6994354602
0.6226428921 0.7493923616 0.1993692728
0.6225021293 0.7490060114 0.7008967999
0.6225132422 0.5005238647 0.2003509079
0.6225465807 0.9997473247 0.2041005685
0.6225206508 0.9983394382 0.7007208464
0.6125487205 0.7485345331 0.947560385
0.6425274841 0.9990008174 0.7095157407
0.6322740283 0.7506823785 0.9502182081
0.6323999739 0.7504073496 0.4529561631
0.652377173 0.7532558641 0.9592381376
0.6424274684 0.5022283897 0.7065050846
0.6524438501 0.5004374271 0.962460864
0.6424422856 0.7491762674 0.2077270617
0.6524808929 0.7503156732 0.4601276553
0.6425423012 0.7499620645 0.706353209
0.6624454146 0.9986341121 0.2126435715
0.6623898504 0.9978614116 0.7116484817
0.6824040923 0.9969315517 0.2174878478
0.6725247691 0.7499882578 0.9655817225
0.6724914305 0.9998717426 0.4634707709
0.6824966994 0.997298257 0.7187449622
0.6725210648 0.9962570758 0.9654242905
0.6824633608 0.7489732698 0.2183370547
0.6724692048 0.7503353182 0.4627827003
0.6823670494 0.7508002481 0.7191904022
0.6624305975 0.7508853761 0.211066473
0.6623565118 0.4998958819 0.2102543089
0.6625120917 0.7498769365 0.7128884905
0.692539011 0.9991645252 0.4743891455
0.7023998128 0.9996752933 0.7275555997
0.6924982639 0.9986603053 0.9757407191
0.6924501082 0.7469301973 0.9718049182
0.7024072213 0.7499751611 0.2304232046
0.6924130654 0.7504990259 0.4720072914
0.6924204739 0.5007969292 0.4759023452
0.7023220228 0.7508329897 0.7321202026
0.7325341562 0.4991873548 0.9970773901
0.722614086 0.7509508592 0.245014376
0.7326415805 1.0014236919 0.4959906727
0.7324415492 0.7521164583 0.4959471474
0.7325378605 0.5002783031 0.4989318736
0.7225029575 0.7499620645 0.7432886163
0.7325489734 0.9995181339 0.9955771554
0.7125162101 1.0002777377 0.9875573824
0.712371743 0.750544864 0.9854737231
0.7125717743 0.4997321741 0.9886964494
0.7124050816 0.7503549631 0.4858603844
0.7125384358 0.5014746793 0.4867207041
0.7324600706 0.7502829317 0.9974385577
0.7425060865 0.4985796717 0.7512991287
0.7425616508 0.7504400911 0.2499938586
0.7426061022 0.500007858 0.2486936552
0.7426616664 0.7502174486 0.7528021415
0.7425097908 1.0008474407 0.2495447143
0.7525446939 0.749274492 0.0036141142
0.7525632153 0.9984180179 0.0071453147
0.7525965538 0.4998395664 0.505989459
0.7625684841 0.5013993737 0.7598180538
0.7627055426 0.7514485307 0.2598611429
0.762553667 0.4997911089 0.2572718489
0.7524891296 0.7514943689 0.5022805455
0.7625981184 0.7501781587 0.756955569
0.7725478229 1.0005527667 0.51230804
0.7825679089 0.7487768205 0.2644785318
0.7825975431 0.5007635329 0.268208745
0.7725774572 0.75164498 0.5126238302
0.7826568117 0.7509377626 0.7639233257
0.7726330214 0.7486785959 0.0112805912
0.7726626557 0.5007248978 0.5138156833
0.7826494031 0.4992122384 0.7684110647
0.77266636 0.4993346918 0.0122134223
0.792499092 0.7487047891 0.5194582326
0.7926768976 1.0025500011 0.0205401878
0.8125059253 0.7513830476 0.0315739509
0.7925472477 0.7518021394 0.0188428853
0.7926768976 0.4987977304 0.5222114411
0.7927324618 0.5009364082 0.023297008
0.8126429838 0.501057552 0.5339697619
0.8026599407 0.5005978606 0.7752538018
0.8126133495 0.5001709109 0.0342247359
0.8025895593 0.7497787119 0.2750977856
0.8027562521 0.5015218271 0.2776426281
0.8124429525 0.7522146829 0.5302108405
0.8026006722 0.7492679437 0.7769892584
0.8325312801 0.7507675066 0.0371926075
0.8325349844 0.5018289428 0.5436999877
0.8225000813 0.4998343278 0.7862777484
0.8324868287 0.5020771237 0.041798328
0.8225297156 0.7515467554 0.2893277893
0.822574167 0.4997491998 0.2862078568
0.8325275758 0.7518545259 0.5384371274
0.822574167 0.7503091249 0.7852683313
0.8525121834 0.5015683201 0.5425748116
0.8624581837 1.0034864093 0.7984055715
0.8625767208 0.7492482988 0.2958751098
0.8524492106 0.7531379946 0.5450798331
0.8424883932 0.5015977875 0.7902867089
0.8425328446 0.7513175646 0.2903696189
0.8425217318 0.4996909198 0.290501121
0.8423698562 0.7511931467 0.7913498382
0.8624248452 0.7509705042 0.7972878041
0.8524455063 0.7515074655 0.0431312217
0.8825391027 0.7508133447 0.8069448702
0.8725153125 0.7508919244 0.0529603518
0.8924406516 0.7506758302 0.0598504111
0.8922443246 0.4997216969 0.5593913311
0.8724264097 0.4985711589 0.0513259295
0.8823501843 1.0015088199 0.3058914914
0.8725338339 1.0008670856 0.551723465
0.8824687213 0.7509901491 0.3076204656
0.8725375382 0.7511604051 0.5519577609
0.8923962002 0.7497459703 0.5590570196