POSCAR file written by Ovito 3.7.11
1
269.9893084254 0.0 0.0
0.0 15.2729016668 0.0
0.0 0.0 10.799572337
Sr Ti O 
800 800 2400 
Direct
0.0226266189 0.4990728677 0.7909454135
0.0126226302 0.5001964263 0.0430058888
0.0126335565 0.2509418915 0.5442606451
0.0224403152 -0.001514065 0.2918145376
0.0224640199 0.2482573984 0.7916963691
0.0026208267 0.2491694713 0.7919065626
0.0126146298 0.2500357114 0.0445569688
0.0224945396 0.2516797998 0.2910709896
0.0024859695 0.251313792 0.2927256848
0.0525178396 2.448017738e-04 0.5351167645
0.0524459849 0.2499342245 0.0340034953
0.0524685784 -9.9346980108e-04 0.0330812366
0.0426152252 0.500770646 0.7857266883
0.0326333485 0.2496972034 0.5384928242
0.0424907758 -1.3462841742e-04 0.2874041777
0.0425118878 0.2498392851 0.7874063844
0.0525919166 0.4997191104 0.0331917965
0.0527037729 0.5000091666 0.5323148017
0.0324348221 -6.4736661026e-04 0.5379872486
0.0324374148 0.2502085666 0.0427148588
0.0324563044 -0.0012126161 0.040649777
0.0424907758 0.2474042534 0.2843836878
0.0525908054 0.2522808643 0.535972354
0.0626252768 0.2489311407 0.7827284214
0.0725134462 0.2486031087 0.0299336119
0.0625519406 0.2486240609 0.2859161559
0.0724815931 0.4970136651 0.0328465977
0.0625315694 0.4997819668 0.2823308287
0.0725271504 0.2487091789 0.5329037139
0.0624441586 -0.0011404622 0.2798788797
0.0824882856 0.4982707936 0.2787538352
0.0925612771 0.4971158067 0.528720215
0.0925160901 0.2462184931 0.5294563552
0.10255871 0.2482783505 0.7745864324
0.0826142165 0.2460449832 0.7832182556
0.0925238682 -2.8279934456e-04 0.5296832161
0.0924571989 0.2474730026 0.0265944056
0.0925072009 -0.0025204881 0.0276630591
0.1026113047 0.2466781307 0.2743842177
0.0826497735 0.2474533599 0.2826049136
0.1025835258 0.4968355718 0.7769430072
0.082507916 0.4986518606 0.7785236253
0.0925831298 0.4989137624 0.029951483
0.1225602428 0.2474487767 0.271482251
0.1125513279 0.2474743121 0.5246932036
0.1224694984 0.2502275544 0.7704547873
0.1124953998 0.2488001898 0.02302019
0.1524751311 0.2498975582 0.5129038479
0.1324947102 0.2501758288 0.5160410092
0.1424273258 0.2510741519 0.7634776591
0.1524403149 0.2511599248 0.0149236657
0.1324447083 0.2505706458 0.0162118649
0.1422921352 0.2506184428 0.2652903391
0.1424443635 0.4998867275 0.7599599272
0.1524003133 0.5008269548 0.0123834725
0.1324673017 0.5010679045 0.0166066953
0.152412536 0.5007143371 0.5079971721
0.1323347039 0.5001551768 0.5170521603
0.1825029868 0.0018424026 0.2576252208
0.1824011309 0.2522586027 0.7583459744
0.182392612 0.2518245005 0.2560983084
0.1625244179 0.4999672623 0.7567347995
0.1725007389 0.5007365987 0.0099497651
0.1624910832 0.5011949268 0.2608512744
0.1724481442 0.2528845479 0.5085999738
0.172427773 0.5012551642 0.5093666708
0.1623470034 0.2492041733 0.7625016946
0.1825129872 0.5015982556 0.7601423419
0.172397031 0.2511258775 0.0100674549
0.1723911049 1.3224948757e-04 0.0086261015
0.16231478 0.2509903434 0.2610790612
0.2023863667 0.2514185528 0.7515420013
0.1924344912 0.2514598023 0.0071613213
0.202388589 0.2513144468 0.2520685192
0.2025341504 0.5019531325 0.7555653088
0.1925178278 0.5012800449 0.0063450853
0.2025719296 0.5018320029 0.2517546179
0.192473752 0.5011058802 0.5086231228
0.1925133832 0.2511173657 0.5044627729
0.2025182238 0.0014084968 0.2500184381
0.2225053115 0.5000982132 0.253608395
0.2323364416 0.501439805 0.9973896995
0.2125393614 0.2506721327 0.5013756136
0.2224316049 0.2526226461 0.7519059046
0.2125249163 0.2503080892 8.2366293444e-04
0.2224293826 0.2521754489 0.2516823928
0.2324679283 0.2513092088 0.4950901796
0.2324264452 0.252121759 0.9972230262
0.2224193822 0.4997662527 0.75221888
0.212469729 0.5011255229 4.8354455668e-05
0.2424142481 0.5010214169 0.2468553498
0.2625713425 -0.0016525456 0.2442913594
0.2625694906 0.247645203 0.7403276684
0.2626124553 0.499557386 0.7417036488
0.2524324225 0.2515416466 0.4942401459
0.2424538793 0.2502085666 0.7460278941
0.2525424269 0.2507022514 0.9927135884
0.2525539088 0.0014092825 0.4930632474
0.2524802022 0.001505204 0.9926765499
0.2625487491 0.2494431586 0.2422283148
0.2424649908 0.2494346468 0.2445534068
0.272417288 0.2509680817 0.4910492788
0.2724972912 0.250313982 0.989926441
0.272596184 2.8755723797e-04 0.491267806
0.2724998838 0.0016899103 0.9937043683
0.2726228517 0.5011870698 0.4913928109
0.2825654676 -0.0019656492 0.2407884429
0.2825643565 0.2499414268 0.7376923788
0.2825328737 0.249090246 0.23873188
0.3126677707 0.24978625 0.4823294891
0.3125859156 0.2499132723 0.9825279998
0.3125614702 6.0485123395e-04 0.4854462792
0.3125003567 -8.2179318997e-04 0.9813427677
0.2925414182 0.2491609595 0.4886065895
0.3025729265 -0.0010510227 0.2390763381
0.3024681076 0.2504318378 0.7403489655
0.292442155 0.2491341146 0.9924080207
0.292592161 9.9390631527e-04 0.4917196757
0.3026184839 -4.948743039e-04 0.7351246845
0.2925714194 0.0018183076 0.9933710218
0.3025047757 0.2487347144 0.2353789695
0.3124792447 0.500077261 0.9806297765
0.3126173984 0.4993347695 0.4832498959
0.3325463357 0.2494228613 0.4791228806
0.3225881636 0.2516287289 0.7283651576
0.3325207791 0.25074612 0.9785185818
0.3226792783 1.2111866229e-04 0.7252928137
0.3325452245 -0.0018986023 0.9788982265
0.3224959377 0.2500049379 0.2301213539
0.3325430022 0.500077261 0.9786667358
0.3622849207 0.2510957588 0.2242729741
0.3523504532 0.4992044734 0.4738217448
0.3621663975 0.5013284967 0.7190962721
0.3523541571 0.2492879818 0.4755014409
0.3425382128 0.250676716 0.7293864944
0.352463791 0.2506957039 0.9734535664
0.3525026815 6.0282149522e-04 0.4737837803
0.3424933962 -3.2417982443e-04 0.7264854536
0.352513793 9.9220395375e-04 0.9726850175
0.3425559913 0.249388814 0.2268888185
0.3624145554 0.250236721 0.7231436546
0.392400928 0.2491950067 0.4669446206
0.3925638975 8.7945524119e-04 0.4634065175
0.3924638935 0.2493960163 0.9683607722
0.3925416744 9.5730554272e-04 0.9628049966
0.3824153474 0.5000163689 0.2175791906
0.3923972242 0.4978275248 0.9656847403
0.3724223591 0.2517636083 0.4683280087
0.3825301668 0.2498628562 0.7203972495
0.3823412704 -7.2272884496e-04 0.2174856683
0.3723001321 0.2513190301 0.9721479592
0.3824079397 0.2502465423 0.216454146
0.3924231511 0.4991088792 0.466737205
0.4025531819 0.249903451 0.7140645913
0.4125832087 0.5009376083 0.9609252926
0.4024605856 0.2520562836 0.2130123431
0.412475797 0.2507755839 0.4612230977
0.4123869046 -8.2166223908e-04 0.4583063156
0.4125424664 0.2492493513 0.9617679185
0.4125424664 6.281604916e-04 0.9585918668
0.4025828127 0.5005054704 0.7089467961
0.4024198433 0.5001276771 0.2148031547
0.4425399505 0.2512699235 0.7018326255
0.4425658775 0.0020739892 0.2040888415
0.4424992081 0.0018351348 0.7023687578
0.4425510621 0.2512876019 0.2023174751
0.4326543739 0.2503840408 0.4530792567
0.4225317508 0.0014443774 0.2077093553
0.4225465662 0.2515403371 0.709145878
0.4326543739 2.347185556e-04 0.4524607137
0.4326136315 0.2503152915 0.9553972959
0.4223984122 0.0026257508 0.7079606459
0.4327136355 -7.6617175072e-05 0.9533416589
0.4226354586 0.2502609469 0.2061194775
0.4425881006 0.4992895914 0.2019896843
0.4525144195 4.2263307654e-04 0.4524412685
0.4525810889 0.25015946 0.9474432772
0.4625370386 0.4997878596 0.201602632
0.4725115077 0.5000176784 0.4535802025
0.4525699773 0.5014627214 0.9522119846
0.4724818769 0.2489939971 0.4507532387
0.4626111157 0.2496297637 0.7021594903
0.4625592618 -0.0013410135 0.1984404697
0.4725189154 0.2499938071 0.9518693784
0.4726485502 -6.7342583651e-04 0.4537052074
0.4626481542 0.2491747093 0.2038286461
0.4524588618 0.2504010644 0.4502559968
0.4624481462 0.4998631563 0.7025687658
0.4726189194 0.5004792802 0.9559991716
0.4923456264 0.496899083 0.9551935841
0.4825378306 0.2492015543 0.7049966397
0.4825970923 5.9830368966e-04 0.7028984084
0.4826156115 0.2496958939 0.205538899
0.4925567459 0.2488309633 0.4555858375
0.4925493382 0.2496310732 0.9587029823
0.5024275071 0.5010129051 0.2108789252
0.5024978803 0.5010888566 0.7101172128
0.5126205034 0.4991966163 0.4604526969
0.5024534341 0.250018033 0.2121206411
0.5224616338 3.7699669288e-04 0.2099483328
0.5225320069 0.2495773833 0.2137373718
0.5125242032 0.250828619 0.4633537377
0.5225171915 0.4980180583 0.7125441608
0.5225912686 0.2491904234 0.7132821529
0.5025386226 0.2494071471 0.7100718406
0.512579761 0.249383576 0.9635735456
0.502579365 3.3548526213e-04 0.7064328077
0.5325101798 0.0013637771 0.4653084447
0.5325472183 0.0011847018 0.9666847799
0.5326212954 0.2497855952 0.4625731512
0.5326324069 0.2507343344 0.9670181264
0.5425327989 0.4975859204 0.719691666
0.5526443105 0.4988450132 0.9707775345
0.5525665296 0.5003915431 0.4687520996
0.542480945 -6.3119417588e-04 0.7199574173
0.5525776412 6.6839520178e-05 0.9713238525
0.5425920606 0.2495033961 0.2170078716
0.5524591179 0.2491714356 0.4706956951
0.5425513182 0.2515534322 0.7197953738
0.5525998643 0.2501640433 0.9701663992
0.5724376868 0.2471128876 0.4720911207
0.5624854409 0.0015566677 0.2218275069
0.5724895407 0.2471718155 0.9745647215
0.5624409947 0.4987723354 0.2174588154
0.5624521062 9.8820995174e-04 0.7218343435
0.5625521102 0.2503349342 0.2246591005
0.5724969484 0.4994100663 0.9728239119
0.5624743293 0.2502216617 0.7210482012
0.5723895368 0.4992038186 0.4746736304
0.5724413907 -0.001302121 0.4731939421
0.5724673176 -3.4153081678e-04 0.9714442276
0.5924755173 0.5020781906 0.9779352254
0.5926051521 0.5010194526 0.4796562351
0.5825232714 0.2498464874 0.7246826044
0.5924495904 -0.0011296587 0.483667505
0.5924940366 0.0010967028 0.9785185818
0.6023833171 0.2508770708 0.2293398414
0.5824491944 0.4981516282 0.7236149695
0.5924458865 0.2491956615 0.4762375812
0.6024573941 0.2497679168 0.7301559693
0.592408848 0.2502275544 0.9752128954
0.5824677136 0.0012394392 0.224647989
0.5825491983 0.2496461325 0.2268036299
0.6124133439 0.4991317956 0.9864077831
0.6124948286 0.4988646558 0.4838036215
0.6124466785 0.001569239 0.4833665672
0.6123985285 6.5988339421e-05 0.9833335873
0.6125170517 0.2507690364 0.4813637101
0.6124207516 0.2498877369 0.9832502507
0.6224396668 0.2498766061 0.2337418676
0.622410036 0.2495322052 0.7358589729
0.642436755 -0.0011660631 0.2321899543
0.6525630819 7.5753996664e-04 0.4845425397
0.652585305 8.6747323515e-04 0.9871300339
0.6424997204 0.2500658301 0.2342437393
0.6524556702 0.2484315631 0.4885954779
0.6424700896 0.2497050604 0.7339135255
0.6524482625 0.2500298186 0.9872874476
0.632410432 0.4989458454 0.9877319096
0.6323956166 0.4983807923 0.4846990273
0.6425071281 0.5010875471 0.2353928589
0.6525741935 0.4997073248 0.4873009822
0.6323252435 0.0011553033 0.4811877772
0.6323696897 0.002157274 0.981731672
0.6324252474 0.2492362562 0.4837378782
0.6323326512 0.2487091789 0.9870744762
0.6825309352 0.4995881595 0.7441500419
0.6726157278 0.4990276897 0.9935006566
0.6824679698 0.5008125502 0.2434042873
0.6627227435 0.2482914456 0.2379725907
0.6726046163 0.5015714106 0.4935734528
0.6625486625 0.2494628013 0.7365673343
0.6824013005 0.2496913106 0.2425468459
0.6725231315 0.2499938071 0.4918789413
0.6825494545 0.2517492037 0.7424870131
0.6725268354 0.249970236 0.9910838942
0.6624486585 0.5017842058 0.7366580786
0.7024539464 0.2502445781 0.2424422121
0.6924683658 0.247871748 0.4940179149
0.7023835732 0.2515606345 0.7404998974
0.6924276234 0.2482652554 0.9923432033
0.7024761695 0.4986806698 0.7419740298
0.6925942967 0.4990715582 0.9957229668
0.7025465426 0.4975610398 0.2435255884
0.7025946927 -0.0022908657 0.2440024591
0.7223695498 0.4978576435 0.7455778763
0.7224065883 0.4982485319 0.2472544397
0.7125210117 0.2493927426 0.489607555
0.7123617461 0.2467115232 0.9905097974
0.7223880691 -0.0015598979 0.2440450534
0.7224028845 -0.0014897737 0.7455565791
0.7224102922 0.2488185229 0.2471535098
0.7322403111 0.2475057403 0.4936984578
0.7223732537 0.2478953192 0.746103823
0.7322625342 0.2482096013 0.9969452374
0.7124839732 -0.0014778571 0.4970291452
0.7423295995 -0.003428567 0.746796443
0.7524225917 0.4970640811 -0.0038335863
0.7423258956 0.2478363913 0.2486109749
0.742266634 0.249858273 0.7474010966
0.7623452069 -0.0028811923 0.2469627615
0.7523448109 7.6467678991e-04 0.498148634
0.7622822414 -0.0010092494 0.7492095015
0.7624118762 0.2501666623 0.2479248366
0.7523040685 0.2490057827 0.4946049752
0.7623266876 0.2505915979 0.7429703656
0.7522411031 0.2481539472 0.994009936
0.7824126682 0.0012994147 0.2487396837
0.7824719298 -0.0010848735 0.7455991734
0.7723381952 9.8938850971e-04 -0.0023153132
0.7823719258 0.2531994848 0.2489137647
0.7722900451 0.2469400325 0.491934499
0.7824385951 0.2506603471 0.7469371893
0.7724233837 0.2490142945 -0.0041498673
0.7925093643 -0.0021619446 0.5019700816
0.7923797295 0.2508266548 0.5001209343
0.7923908411 0.250196781 8.7866511244e-04
0.802491241 -8.5191189367e-04 0.2560334911
0.8123657061 -0.0017086581 0.5087009037
0.8024393871 -2.9118020124e-04 0.7547319424
0.8124990447 -0.001092927 0.0079572787
0.8024690179 0.2499996999 0.2569640835
0.81236941 0.2503342794 0.5088083154
0.8025134641 0.2493272671 0.7541948841
0.8123731138 0.2488813793 0.0072632698
0.8223846214 -9.3447642709e-04 0.7587311749
0.8322924211 4.0397257533e-04 0.0104118204
0.8225290715 0.249938153 0.2592678784
0.832518356 0.2487556665 0.5099435455
0.8224549945 0.2521361636 0.7605238385
0.8324961329 0.2498733323 0.0109658238
0.8223586944 -0.0010158624 0.261530005
0.8323294596 -2.5968651324e-04 0.5099916956
0.8624602824 0.5001859503 0.7651758745
0.8524561825 0.5005264226 0.0114428797
0.862519544 0.5014594476 0.2633661888
0.842222444 9.3497841672e-04 0.7577913228
0.8424706019 0.2530960336 0.2602660661
0.8423668941 0.2481696613 0.7591608215
0.8623380553 8.7628023838e-06 0.2606040424
0.8523672901 0.0018161469 0.5100250302
0.8523117324 8.697326941e-06 0.0107974838
0.8423780057 -0.0012075745 0.2599632763
0.8624528747 0.2500311281 0.2639643607
0.8524747018 0.2503172558 0.5122130798
0.8624380593 0.249863511 0.7635572919
0.8525006287 0.2484990028 0.0119073426
0.8726903171 0.5015262326 0.5140668569
0.8825536706 0.4995632788 0.770263113
0.892568882 0.5019374184 0.0207226916
0.8825981169 0.4993891141 0.2687173267
0.8924911012 -4.6105618711e-05 0.5189189009
0.8724051206 -7.4616905349e-04 0.0116964083
0.8924762858 0.0012478856 0.0239927285
0.8825425591 0.2509117728 0.2659311052
0.8724236399 0.2505444556 0.5138964798
0.8924170242 0.2507474295 0.5227366447
0.8825536706 0.2498419041 0.7663194383
0.8724532707 0.2494935747 0.0156550836
0.8924022088 0.2506996324 0.0193593969
0.9025915011 0.499303996 0.2743101407
0.9025396472 2.4270655963e-04 0.272966569
0.9123326276 5.8252410794e-04 0.5269525524
0.9024174202 0.0029919549 0.7715983511
0.9124437431 0.0017838675 0.0271189634
0.9024285317 0.2507480842 0.2751888792
0.9124622624 0.2514905757 0.5262867853
0.9025137203 0.2532865671 0.774025299
0.9124918932 0.2504704683 0.0283920694
0.9125659702 0.5026268748 0.0290196869
0.9224589545 0.0015215074 0.2811187437
0.9224811776 0.0015089361 0.7789967922
0.9324667582 0.4999875597 0.5324435105
0.9327038047 0.5015727201 0.0327850211
0.9226330355 0.2510250453 0.2809289213
0.9224996969 0.2532878766 0.7811237283
0.9425338235 0.0017695939 0.284625364
0.932696397 1.6950501454e-04 0.5330564978
0.9425153043 0.0014242764 0.7836025301
0.93267047 0.0017042494 0.0326030695
0.9427597584 0.2496638109 0.2831280825
0.9325667622 0.2506184428 0.531170312
0.9426671622 0.2501745193 0.7819246859
0.9326297277 0.2514224813 0.0329990111
0.9225404392 0.5022281293 0.7810515032
0.9627383273 0.2498870821 0.2918849107
0.9525416272 0.25086594 0.5373622238
0.972672054 0.2508096311 0.5411595964
0.9626605465 0.2520431885 0.7870665562
0.9525638503 0.2507520127 0.037991431
0.9726350155 0.2508705233 0.0396869611
0.9525379234 0.5011949268 0.0334862526
0.9724646384 0.5015216493 0.0439380554
0.9624457231 0.5006043383 0.2870384225
0.9526453351 5.6157196623e-04 0.5365427469
0.9624568347 -7.8702572982e-04 0.7860517012
0.9926209921 0.5003954717 0.5458579306
0.9825798537 0.4989190004 0.7905046553
0.9925506189 1.8849289296e-04 0.5418948107
0.9826205961 -5.9616481396e-04 0.7928084502
0.982698377 0.2487687616 0.2966638037
0.9924395034 0.2500514255 0.5435976559
0.9824465151 0.2495878594 0.7950344643
0.992450615 0.2488676295 0.041051367
0.0024350786 0.9992044188 0.2916256412
0.012601333 0.9981371691 0.5433652393
0.0225559494 0.9989294219 0.790114825
0.0024073738 1.0005859506 0.7964613726
0.0124679574 0.9975609852 0.0459485054
0.0125235151 0.7481781185 0.0437903643
0.0026284566 0.4999063701 0.7964854477
0.0225379858 0.7502536901 0.292471045
0.0025786398 0.7495269126 0.2970990061
0.0126346677 0.7481912136 0.5440893421
0.0224353521 0.7479816922 0.7935057
0.0026400867 0.7486691843 0.7969336136
0.0225090587 0.499415959 0.2917108298
0.0025587502 0.5007529676 0.2970888205
0.0126209634 0.4999646433 0.5430105956
0.0323792643 0.7500048834 0.0419442727
0.032520381 0.5005846957 0.0392117571
0.0425478151 0.7482632366 0.2845596207
0.0324566748 0.7485251384 0.5387530196
0.0425581859 0.7500048834 0.7862915255
0.0426200402 0.4998664301 0.2880486477
0.032565568 0.5007582056 0.5393910079
0.0424555893 1.002406168 0.7882851229
0.0525400627 0.7499983358 0.033423565
0.0525630265 0.7498673849 0.5337611553
0.0724945565 0.9998067929 0.5324907346
0.0625652745 0.9987460907 0.7829441707
0.0725664112 0.9990079925 0.0309404111
0.0725090016 0.7505876148 0.0289098677
0.0625441625 0.4983048408 0.7823709999
0.0624800859 0.74876085 0.2808094722
0.072462333 0.7481781185 0.5289961518
0.0625463848 0.7473793181 0.7831691796
0.0724871488 0.4978425842 0.5345019254
0.1025227827 0.497528302 0.2770611756
0.1024124079 0.9979407428 0.273932348
0.0824516175 0.9979603854 0.2777704629
0.1024638914 1.0003567866 0.7746771767
0.0824442098 0.9996431043 0.7783745453
0.0925931302 0.7460043338 0.0215359646
0.1025809331 0.7469799179 0.2739703124
0.0824568029 0.7471632492 0.2803168601
0.0925683144 0.7476870527 0.5265312394
0.1025735254 0.7466852784 0.7742197512
0.0825116199 0.7472614623 0.7819256119
0.112525401 0.999230609 0.0215787441
0.1125379941 0.7493697716 0.0222895129
0.1225502424 0.4995731001 0.7692565917
0.112592811 0.5004347569 0.0220435773
0.1225406124 0.7487673975 0.2678321064
0.1125965149 0.7470126556 0.5214764096
0.1224861658 0.7486037089 0.7678333872
0.1225776509 0.4992686393 0.2695321737
0.1124976221 0.499709289 0.5238385402
0.1224043107 0.9998853634 0.271802634
0.1124728063 0.9971484899 0.5221208796
0.1224057922 0.9993615599 0.7685519341
0.1424776981 1.0018103414 0.2668941063
0.1523958687 0.999603819 0.5139057394
0.1324984141 0.9988181137 0.5161410131
0.1424032507 0.9984187135 0.7675481907
0.1524058691 1.0015549872 0.0157447167
0.132490636 0.9984907365 0.0200402572
0.1524929095 0.7484596629 0.01046673
0.1325021179 0.750168572 0.0138762168
0.1424165846 0.7492715584 0.2647643924
0.1524880945 0.7503780934 0.5107695041
0.1325632315 0.7472221771 0.5155585827
0.1423980654 0.7524012846 0.7604071672
0.1424680681 0.5016133149 0.263313409
0.182605213 1.0004419047 0.7598515896
0.1725596301 0.7504370213 0.0112501869
0.1624058947 0.752826875 0.2624726349
0.1725092577 0.7514387956 0.5113593423
0.1624558966 0.7505941624 0.7637952643
0.1824526144 0.7518971237 0.2602058785
0.1824855787 0.7495007225 0.7629637499
0.1824715041 0.5021109283 0.2579178249
0.1623432996 0.9995187009 0.2598614204
0.1723481402 1.0015615347 0.5100481793
0.1624599709 1.0002847636 0.7627748535
0.1924974566 1.0002258357 0.5040423859
0.2024648883 1.0004288096 0.7539133915
0.1925467178 1.0032638963 0.004836044
0.1925907936 0.7522114058 0.0096866065
0.2025104457 0.7508953494 0.2544297239
0.1926022756 0.7519364089 0.5057118965
0.202519335 0.7506072574 0.7555829021
0.2125138048 0.5009782031 0.5039979397
0.2323508866 0.7496447684 -0.003461053
0.222424938 1.0010639214 0.2500295496
0.2324597798 0.749808457 0.4985255008
0.2125338056 1.0017383184 0.5020756414
0.2224590134 0.9996431043 0.7486446644
0.2124023189 1.002118076 7.0114576594e-05
0.2324490386 0.5015209945 0.4964244917
0.2125267683 0.7504894017 0.0011013591
0.2325264491 1.0043507886 0.4950512891
0.2225167935 0.7527352093 0.2515675735
0.232484966 1.001083564 -0.0020574697
0.2125319537 0.7507251132 0.502877525
0.2225130896 0.7528203274 0.7483955804
0.2525527977 0.7516352219 0.9937784453
0.2424512866 0.4992044734 0.7465519889
0.2524939065 0.498736324 0.9927043287
0.2425486978 0.7496906012 0.2429487137
0.2525424269 0.7502864278 0.4969374749
0.242573884 0.7497757193 0.7446704329
0.2526057627 0.5004740422 0.4938021656
0.2625035621 0.9990276351 0.7420388472
0.242470917 0.9995776288 0.2441432054
0.2624705978 0.750024526 0.2437024472
0.2625191183 0.7483549022 0.743256488
0.2424590646 0.9988901367 0.7441657833
0.2625502306 0.5006324928 0.2438644907
0.2825847276 0.4999004773 0.7392368844
0.2826065804 0.7509280871 0.2405319513
0.2824436109 0.7521328353 0.7408286141
0.2725380335 0.74988048 0.9903338645
0.2726487786 0.5012944495 0.9931117523
0.2725850724 0.7491406075 0.490820566
0.2826295442 0.4977640136 0.2401106383
0.2824236101 1.0012079674 0.7409684345
0.2926391999 0.7497495291 0.9879634003
0.3027418221 0.4987684069 0.7352163548
0.2926029021 0.4994185781 0.9883615642
0.3025418142 0.7512620119 0.2351548865
0.2925369736 0.7489965616 0.4877204433
0.3025462588 0.7507709461 0.7364534409
0.3025566296 0.4986466226 0.2359919567
0.2926629045 0.5001453555 0.4867759614
0.312531469 0.7503584508 0.980814969
0.3127025869 0.750240595 0.4797053111
0.3325078156 0.7508560641 0.9751943761
0.3226577959 0.9993157271 0.2273471699
0.3325333722 0.9991978713 0.4789710227
0.322610757 0.4997184556 0.7267317596
0.3224818631 0.7494810798 0.2283861
0.3326211534 0.7501227392 0.4760125723
0.3226140905 0.750024526 0.7287216532
0.322512605 0.4997086343 0.2315982642
0.3324567025 0.5003588054 0.4793821501
0.3424841366 0.5017134923 0.2231960796
0.3425496947 0.9997609601 0.2228118052
0.3524137891 0.7506203525 0.9703886303
0.3423896884 0.5003791028 0.7249474297
0.3523741579 0.5024415793 0.974527683
0.3425711771 0.749651316 0.2263619457
0.3523682317 0.7495465553 0.4717633299
0.3625330787 0.7498411948 0.2218951022
0.3424615431 0.7489441812 0.7263910054
0.3624552978 0.7530233013 0.720237058
0.3623441823 0.9991520384 0.2192672204
0.3623478861 1.0008609475 0.7217102645
0.3623441823 0.4995351244 0.2179912439
0.3724408784 0.7497102439 0.9677496369
0.3824338667 0.5001872598 0.7147609152
0.3723223552 0.5003227939 0.9694811869
0.3825560938 0.7494745323 0.2159281993
0.3723297629 0.7501227392 0.4666168298
0.3825820207 0.7507905887 0.7156989153
0.3724556938 1.0000686946 0.4689484036
0.3823783089 0.9994008451 0.7172832373
0.3723371706 0.9998984585 0.9673144344
0.3724482861 0.5007830863 0.4703104946
0.3924898204 0.7490227517 0.9631290835
0.3925194512 0.7502929753 0.4651565868
0.4024531779 1.0001603603 0.2122697211
0.4025087357 1.0008805901 0.7115293058
0.4125535779 0.7484662105 0.9600919262
0.4125461702 0.7504370213 0.4594693246
0.4125054278 0.5019557515 0.4593656168
0.4024531779 0.7497298865 0.2112937565
0.4025939243 0.748171571 0.7139581056
0.4325543699 0.7505745197 0.9543416985
0.4226280509 0.4989582857 0.7064346596
0.4328062317 0.5015085542 0.9533046204
0.4226428663 0.7493042961 0.208062147
0.432724747 0.7481060955 0.4534977918
0.4226576817 0.7466394456 0.7045077314
0.422750278 0.4994696489 0.2044332996
0.4328506779 0.5008773709 0.4520634758
0.4426918084 0.5002507709 0.6995640171
0.4426325468 0.7496906012 0.2045629344
0.4425658775 0.7508822543 0.7021252297
0.4524699733 0.9987264481 0.9514156567
0.4624740732 1.0007169015 0.7013927933
0.4727337387 0.99864133 0.9544991122
0.4525403465 0.7503584508 0.9507674829
0.4525810889 0.7503715459 0.4545283882
0.4525144195 0.5006933849 0.4533866763
0.4725152115 0.7502078572 0.9543602178
0.4625370386 0.749363224 0.2037527171
0.4726596617 0.7501161916 0.451489379
0.4626185234 0.7493435814 0.70617539
0.4825748692 1.0012407051 0.2031147289
0.4926826768 1.0006186884 0.4575544339
0.492578969 0.9999901241 0.9584344532
0.482478569 0.5010253454 0.2055842711
0.4925197074 0.749579293 0.4556025048
0.4924826689 0.7505745197 0.9563510374
0.4924863727 0.5006658853 0.4556951011
0.4825156075 0.5015013519 0.7032900906
0.4825711653 0.7507382083 0.2070574776
0.4826341308 0.7510721331 0.7054698066
0.512579761 1.0014305839 0.4618370109
0.5125093878 1.0012079674 0.9628883333
0.5025238072 0.9997020322 0.2111780112
0.5125353148 0.7508233264 0.9602678591
0.5226320109 0.4998579183 0.2099779636
0.5225394146 0.7505155918 0.7124330453
0.5224616338 1.0018496267 0.7100709147
0.5025460303 0.7502667851 0.2103437189
0.5025238072 0.7508757068 0.7113209642
0.5124760532 0.4986479321 0.9629253718
0.5124908686 0.7493239388 0.4602906534
0.5225505262 0.7520542647 0.2144948092
0.532580553 0.7512685594 0.4675094578
0.5326287031 0.4979866301 0.4638676469
0.5524665256 0.7514518907 0.9702404762
0.5425216874 1.0009198754 0.2183171827
0.5524368948 0.9991454909 0.468690986
0.5424105719 0.7502798802 0.216579151
0.5523257793 0.7509673724 0.4676724272
0.542480945 0.4989078696 0.2152976187
0.5424476104 0.7499721457 0.7162239361
0.5325212914 0.7490162042 0.9656384422
0.5326398146 0.499624171 0.9651754609
0.5624669216 0.4994840535 0.7194064695
0.5623965485 0.7503191655 0.2212858188
0.5624372908 0.7510852282 0.7186471802
0.572482133 0.7519429565 0.9716016413
0.5724191676 0.7514191529 0.4699197384
0.6025055441 0.4992922105 0.7316069527
0.6025462865 0.751131061 0.2322390303
0.592482925 0.7496906012 0.4760625742
0.6025981404 0.748688827 0.7307522892
0.6024722095 0.5008485617 0.2307898989
0.6023944286 1.0019805776 0.2283416538
0.602509248 1.0008740426 0.728825361
0.5824269713 1.0016924856 0.7252835541
0.5824640098 0.7513405824 0.2270406763
0.5824010443 0.4977188356 0.2243877935
0.5825195675 0.7498673849 0.7247140871
0.5924458865 0.7521197402 0.9771944553
0.6125059401 0.7497822669 0.4788562034
0.6224026283 0.5005303511 0.7342116854
0.6225433746 0.7490882272 0.2348419112
0.6224989284 0.7495727455 0.7346163311
0.6224692976 0.5003719005 0.2359817711
0.6223878129 0.9985889496 0.2328816484
0.6223767014 1.0004484522 0.7288031379
0.612609648 0.7507840411 0.9814168447
0.6423960126 1.0009329705 0.7317643663
0.6325882169 0.7488525156 0.9810186808
0.63265859 0.7503911885 0.4842980855
0.6526704936 0.7492584633 0.9864540812
0.642558982 0.4999725003 0.7331255313
0.6526556782 0.4998048832 0.9895467963
0.6425552782 0.7522048583 0.233485376
0.6526149358 0.7514453431 0.485598137
0.6426219475 0.7507774936 0.7332496103
0.6625153278 1.0017383184 0.2368281009
0.662437547 0.9992895369 0.7371664321
0.6824531544 0.9993681074 0.2424542496
0.6724972046 0.7496382209 0.9935932528
0.6725342431 1.0009591607 0.4941031034
0.6825161198 0.997822887 0.743084259
0.6725268354 1.0003829768 0.9896393926
0.6826457546 0.7501227392 0.243905233
0.672437943 0.7490554895 0.4946568291
0.6825235275 0.7491864403 0.7452148989
0.662659778 0.7495269126 0.2380948178
0.6625745895 0.5024081868 0.2365882766
0.6625523663 0.7484072826 0.7401758105
0.6926276314 0.9992633467 0.4959031747
0.7024169079 0.9991193007 0.7395906021
0.6925831852 0.9966377814 0.9957137072
0.6924239196 0.7470519409 0.9962600251
0.7023909809 0.7494025093 0.2449367554
0.6923572503 0.7491537026 0.4937854983
0.6925942967 0.5002252355 0.4892593931
0.7025798773 0.7495334602 0.7459945594
0.7323032765 0.498440375 0.997500815
0.7224214037 0.7476805052 0.2480794724
0.732440319 1.0000948848 0.4982097475
0.7324069843 0.7474513411 0.4996986954
0.7323329073 0.4987782282 0.5008774458
0.722488073 0.7484858531 0.7486502201
0.7324551344 0.9979996707 0.9998990581
0.712587681 0.9993222746 0.9967693045
0.7124802693 0.7493304863 0.9939451186
0.7124469347 0.4973063403 0.9955562935
0.712487677 0.7492126305 0.4954531569
0.7124950847 0.4997053605 0.4973180456
0.7323366112 0.7483614498 0.9982971428
0.7423777495 0.4988705486 0.7492095015
0.7423999726 0.7475626494 0.2473155533
0.7423518226 0.500437376 0.2486794962
0.7423184879 0.7468947998 0.7493863604
0.7423147841 0.9985300217 0.2446284098
0.7523633301 0.7497691718 -0.0032596839
0.7523559224 0.9996234616 -0.003332835
0.7524299994 0.5002023191 0.4972800811
0.7626304034 0.499888037 0.7449352582
0.7625452148 0.7480471676 0.2462136578
0.7624933609 0.4978727029 0.2453015846
0.7523707378 0.7488918008 0.4971884108
0.7625081763 0.7490489419 0.7484029881
0.7724270876 1.000193098 0.4966522784
0.7825719337 0.7498150046 0.2476488998
0.7824830413 0.4989078696 0.247395186
0.7724233837 0.75134713 0.4970328491
0.7824867452 0.7494025093 0.7484594718
0.7725122761 0.7504763066 -0.0033217512
0.7726270955 0.5006698138 0.4963346733
0.7825719337 0.5003483294 0.7493326546
0.7725826493 0.5001525578 -0.0017737547
0.7925241797 0.749651316 0.4992783084
0.7925686259 0.9998722683 0.0010053368
0.8124842293 0.7505548771 0.0074955012
0.7925389951 0.7502144048 -5.5723739739e-05
0.7924723258 0.4999063701 0.5033442101
0.7926464068 0.5012892115 0.0027582766
0.8125138601 0.5009808221 0.5098213184
0.8023393832 0.4958213572 0.7533115158
0.8125027486 0.4970287244 0.0088716668
0.8025134641 0.749278106 0.2549917831
0.8024986487 0.4983572211 0.2553306855
0.812491637 0.7492519158 0.5100713283
0.8025505026 0.7480668103 0.7553301143
0.8323961289 0.7509018969 0.0125323673
0.8324109443 0.498589659 0.5075573399
0.8223846214 0.4978812147 0.7622396471
0.8325294675 0.5031919278 0.0103652445
0.8224624022 0.7491078698 0.2597540088
0.8224105483 0.4972330078 0.2613401827
0.8323924251 0.7494156044 0.5118676958
0.8223549906 0.7488263254 0.7589145155
0.8525117403 0.5000144046 0.5111213699
0.8622306437 1.0012079674 0.7641286108
0.86237139 0.7507774936 0.2629374682
0.8523228439 0.7499132178 0.5109028427
0.8424706019 0.4977005024 0.759371015
0.8424150442 0.7497036963 0.2582502455
0.842592829 0.5012708783 0.2590160166
0.8424520827 0.7500376211 0.7611738642
0.8623269438 0.7471501541 0.7612460893
0.8523080285 0.7511768938 0.0096600314
0.8824721859 0.7512620119 0.7676306014
0.8723828975 0.7508233264 0.0148618114
0.8924244319 0.7538286492 0.0201161861
0.892520732 0.501221117 0.5221745854
0.8726162401 0.5005480295 0.0137338038
0.8823425512 0.9989883498 0.2642551129
0.8722828936 1.0008151147 0.5149974493
0.8824425551 0.7489048959 0.2661144458
0.8724384553 0.7512489168 0.5149548551
0.8925022127 0.7511703463 0.5181725751
0.8823203281 0.9997216748 0.763727669