POSCAR file written by Ovito 3.7.11
1
269.9623199121 0.0 0.0
0.0 15.271374966 0.0
0.0 0.0 10.7984927965
Sr Ti O 
800 800 2400 
Direct
0.0224375051 0.5001440604 0.8335943364
0.0124648911 0.5010044937 0.0888052115
0.012470003 0.2500081028 0.5876498282
0.022317192 -7.3140218449e-04 0.3369500268
0.0224170948 0.2517839744 0.8361521008
0.0023223646 0.2496466423 0.8381051511
0.0124114763 0.2523156881 0.0862057747
0.0224051673 0.2487652547 0.3356035426
0.0023465161 0.249618485 0.336769446
0.0525223703 -7.8987760023e-04 0.577656767
0.0525431139 0.2499183925 0.0769740234
0.0524279127 0.001096724 0.0789026259
0.042430962 0.5009835395 0.8300030945
0.0323569635 0.2496171754 0.5840456216
0.0424580028 -0.0022822121 0.3319715542
0.0426124688 0.248676854 0.8298836334
0.0525023675 0.4999574367 0.075660692
0.0525390393 0.4976884858 0.576901106
0.0323984508 -0.0030137114 0.5861292457
0.0324773507 0.2530019394 0.0818412767
0.0325292098 -7.1896060668e-04 0.0887570567
0.0425013422 0.2487325137 0.3323178989
0.0523842029 0.2498326111 0.5748248903
0.0624437549 0.2489820001 0.8209407187
0.0724107014 0.2492347606 0.069158303
0.0623352212 0.2489165181 0.321207089
0.0724425577 0.5019493988 0.0708996572
0.0624256042 0.4996660419 0.3235629734
0.0724855266 0.2481084704 0.5698436396
0.062455238 9.1278506492e-04 0.3260901779
0.0823783887 0.4987885832 0.3179279277
0.092496097 0.4997046762 0.562145343
0.0924735013 0.2512941691 0.563672408
0.1023841436 0.249382095 0.8072212115
0.0824132084 0.2478458876 0.8149435855
0.0924331253 -0.0027960493 0.562901004
0.0924938745 0.2497402815 0.062519784
0.0923301479 -6.3036347623e-04 0.0656895782
0.1023033916 0.2512358901 0.3075681486
0.0824024662 0.2496394392 0.317781611
0.1024419294 0.499189333 0.8084287874
0.0823676465 0.5012939241 0.817823617
0.0925060984 0.4988671616 0.0636487379
0.1223773041 0.2511907076 0.3013367234
0.1124548083 0.2504298068 0.554455381
0.1224165689 0.2493853691 0.8020908659
0.112392207 0.2498188599 0.0519984083
0.1525063236 0.2490068832 0.5397940756
0.132504273 0.2488693711 0.546448708
0.1424286209 0.2495936019 0.7936591336
0.1524789124 0.2492301768 0.0399846947
0.1324109266 0.2503761116 0.0491057824
0.1424082477 0.2492118419 0.2912936552
0.1424152857 0.5001898978 0.7941008619
0.1524481674 0.4988815676 0.0380223838
0.1325116814 0.4996470521 0.0456427991
0.1525389208 0.4982503213 0.5403941594
0.132435004 0.5000576241 0.5476220199
0.182355304 -0.001524782 0.2762424806
0.1825112517 0.2483383121 0.7779486078
0.1824423532 0.2478537454 0.2759526254
0.1624962363 0.4988363851 0.7823538522
0.1726076474 0.4978489167 0.028548006
0.1626010657 0.5008283472 0.2827137541
0.1724546631 0.2491738623 0.5328282887
0.1725113377 0.4999679138 0.5311484246
0.1623514013 0.2479283949 0.7848208631
0.1826279347 0.4967992404 0.776324307
0.1724268814 0.2518592787 0.030753962
0.1724776293 4.4838680243e-04 0.0297052045
0.1624862349 0.2509667592 0.2847399628
0.2024521828 0.2485845244 0.7657570916
0.1924915334 0.2486716155 0.0244278014
0.2024140293 0.247648132 0.2649084915
0.2025659023 0.4969478845 0.7670776462
0.1924496757 0.4983760467 0.0209180523
0.2025725699 0.5002043038 0.2690609228
0.1925193151 0.4964659371 0.5229898786
0.192527094 0.2480109022 0.5251466611
0.2024132884 -0.0010113377 0.2652316848
0.2226049952 0.4989581816 0.2586566931
0.2325263798 0.4997721227 0.999198929
0.2123772716 0.2473488793 0.510724278
0.2224612714 0.249287801 0.7564696843
0.212515439 0.2481209119 0.0117507544
0.2225034996 0.2493663794 0.2587242951
0.2325337882 0.2494063234 0.5006830619
0.2325463826 0.2485871437 1.0028012836
0.2224983136 0.4994637025 0.7548713131
0.2123665293 0.4993811952 0.0090447287
0.2426029712 0.49914546 0.2461873603
0.2625724247 0.0014522257 0.241682102
0.2626013177 0.2490036091 0.7394960193
0.2624583348 0.500018335 0.7438660736
0.2525651022 0.2504186749 0.4954527023
0.2424459123 0.24969117 0.7505336708
0.2525680656 0.2510793882 0.995068723
0.2525125023 3.6961197026e-04 0.4923031887
0.2526010332 -0.0016517515 0.9949946386
0.2624479629 0.249854875 0.241011638
0.2425155516 0.2487325137 0.247474577
0.2725304811 0.2504599286 0.4880016625
0.2725764135 0.2519424408 0.9840949693
0.2725656712 0.002661678 0.4867144458
0.2725853036 8.0755550939e-04 0.9890771461
0.272431208 0.5017365823 0.4901602971
0.282640781 7.3009031698e-04 0.2335791193
0.2825485459 0.2522056784 0.7329145452
0.2824633488 0.2518285021 0.2344755407
0.3124204924 0.2497553424 0.4772270107
0.3123986375 0.2483710531 0.9741028341
0.3125531035 0.0018013102 0.4716780882
0.312577181 1.2706668483e-04 0.9699355859
0.2924443713 0.2492930395 0.4805524748
0.3025172585 3.7386829951e-04 0.2266087021
0.3024665107 0.250196691 0.7268877782
0.2925066022 0.2480351305 0.9806407836
0.2926051345 0.0016194667 0.4790874555
0.3025298529 -0.0021603501 0.7245355981
0.2925410515 5.1334493503e-04 0.9804833542
0.3023990939 0.2514126915 0.2266976034
0.3126390415 0.4991559372 0.9726118853
0.3125512514 0.5004439679 0.4731958926
0.3325481162 0.2492524407 0.4666023798
0.3225804288 0.2501495439 0.7191292881
0.332444398 0.2492740497 0.9675463636
0.3225185684 0.0020943421 0.7165983793
0.3324336558 -6.2316045749e-04 0.9703800924
0.3225115303 0.2492910751 0.2198623902
0.3325355218 0.4983668792 0.9660646753
0.3625415612 0.2498673166 0.2019839693
0.3526149907 0.4986340457 0.4533727558
0.362504519 0.4994316163 0.7044670567
0.3526086935 0.2503374772 0.4576057539
0.3425406218 0.249862078 0.7110707561
0.35271093 0.2493683438 0.9562855328
0.3524412628 0.0015443588 0.4541626808
0.3426239668 -1.6170888449e-04 0.7111050201
0.3525238669 -5.8400222836e-04 0.9562114484
0.3424487571 0.25001858 0.2100119415
0.3625304486 0.25150895 0.7008072867
0.3927494806 0.2480855517 0.4417396508
0.3926828046 -4.1368357626e-04 0.439693995
0.39270503 0.2497514134 0.9388386535
0.392638354 -0.0012272318 0.9399128775
0.3826184371 0.5005618355 0.1949913267
0.3924975936 0.4997767064 0.9390886884
0.3726096329 0.2506995926 0.4472774607
0.3825406485 0.2514467421 0.692419079
0.3825925076 -5.7985414692e-05 0.1962220541
0.3726355625 0.2497409363 0.9482103318
0.3826295498 0.2522187748 0.1932438606
0.3925420443 0.4996562196 0.4420832173
0.402761989 0.2517800454 0.6855996088
0.4126189202 0.5034024441 0.9297633129
0.4026471582 0.2516850966 0.1848306495
0.4125670611 0.2505398166 0.430780714
0.4127041172 -8.9405944394e-04 0.4327671023
0.4125929906 0.2503774213 0.9308375369
0.4125855822 7.0245691783e-04 0.9313005645
0.4025212147 0.4994506061 0.6835456185
0.4024100881 0.4998539752 0.1823469696
0.4426934876 0.249505856 0.6694232773
0.4425008682 -0.0018307793 0.1695674083
0.4426231074 -5.2487199274e-04 0.6682240358
0.442582361 0.2482518759 0.1706157028
0.4325513315 0.2497461749 0.4253123583
0.4224832598 0.0026738577 0.1767748956
0.4226017948 0.2513864987 0.6774410628
0.4325957821 6.2414045958e-04 0.4265097476
0.4326402328 0.2495949115 0.9229845892
0.4225388231 0.0011857795 0.6802183023
0.4326957961 5.9906085798e-04 0.9236143067
0.4225499357 0.251290895 0.174901486
0.4425008682 0.4981520983 0.1690867857
0.4524429964 -0.0025072082 0.4143728687
0.4524985597 0.2512791082 0.9150853386
0.4626221947 0.5013351777 0.1609884333
0.4725791398 0.4992751144 0.4097805611
0.4524948555 0.5011046811 0.9183913555
0.4725495061 0.2508004349 0.4071487123
0.462492547 0.2490153959 0.6600210392
0.462425871 -4.6240217571e-04 0.1581204405
0.4725791398 0.2511487991 0.9063378216
0.4725495061 -0.0030245814 0.4098648321
0.4625147723 0.2503551574 0.1634795217
0.4524504048 0.2493120293 0.4134171797
0.4625073639 0.5006882157 0.6598034162
0.472530985 0.4988763291 0.9095753104
0.4926189735 0.4992043938 0.9065091418
0.4824471836 0.2487921023 0.6581504078
0.4822990148 -9.683815009e-04 0.6556111645
0.4824471836 0.249447577 0.1591724391
0.4925819313 0.2478858316 0.4047187436
0.4924411709 0.2506563745 0.9075731791
0.5025573975 0.5028569792 0.1514722904
0.5025499891 0.5018164704 0.6557084003
0.5125217511 0.5001479893 0.4038149137
0.5024536794 0.2502575892 0.1567461746
0.5224712878 0.0012451062 0.1560868233
0.5224046118 0.2501993102 0.161520915
0.5125513849 0.2487639451 0.4052262218
0.5224712878 0.501138077 0.6565492584
0.5223860907 0.2510564695 0.6588403189
0.5024351583 0.2501822849 0.6573289968
0.5125069342 0.2505771413 0.906697131
0.5026388904 0.0014250507 0.6555806047
0.5324615708 0.0020984674 0.4111742741
0.532413416 0.0033045147 0.9105069219
0.5324837962 0.2525029666 0.4128800677
0.532598627 0.2504658219 0.9120238002
0.5426259523 0.5020044037 0.6653523388
0.5525199257 0.5014753092 0.9207620568
0.5525347425 0.5006292819 0.4227045869
0.5425333468 -6.8266086887e-05 0.6617842482
0.5524125033 -7.1802114266e-05 0.9177523775
0.5424444455 0.2514179301 0.1636878841
0.5525384468 0.2487842445 0.4190438909
0.5425852059 0.250803709 0.6640067806
0.5524791792 0.2490664718 0.9170022728
0.5724671539 0.249644023 0.4264791878
0.562380561 3.633136493e-06 0.1714297052
0.5724671539 0.2496538453 0.9294484542
0.5625176172 0.5006587488 0.1752959855
0.562547251 0.0019122367 0.6722847877
0.5625620678 0.2507139987 0.1722492641
0.5725523509 0.5018623078 0.9318006343
0.5625546594 0.2518461823 0.6759584485
0.5725338298 0.5013947664 0.430091729
0.5724115905 -9.9791387771e-04 0.4251938232
0.5725153087 -0.0011498321 0.9256238464
0.59261441 0.4989889581 0.9357271082
0.5924958749 0.5001885881 0.4364092773
0.5824611412 0.2501587114 0.6803192423
0.5925995931 -0.0017180193 0.4346942231
0.5925069876 -7.7507867083e-04 0.9361993963
0.6024268905 0.2511468346 0.1849991915
0.5824166905 0.5020423832 0.6813073432
0.5924180863 0.2500107221 0.4329856514
0.6024935664 0.2508803229 0.6875850711
0.5924291989 0.2512699408 0.933624963
0.5824759581 -7.8359132933e-04 0.1788177733
0.5824500285 0.2493873336 0.180692109
0.6126172015 0.5007530429 0.9465341719
0.6125579339 0.5025675488 0.4456735331
0.6126134973 0.0020862223 0.441641489
0.6124616242 2.1749731096e-04 0.9420613255
0.612424582 0.249098558 0.4418072528
0.6124468073 0.2507061408 0.9413760447
0.6224407946 0.2505411262 0.194306972
0.62229633 0.2516137212 0.6955130293
0.6424806284 -6.9060690565e-04 0.2053251763
0.6525894465 -0.0011860436 0.4602968702
0.6524931368 -0.0020028005 0.9624808418
0.6424843326 0.2509837845 0.2086978692
0.6524597988 0.2503132489 0.4581604609
0.6424621073 0.2491463599 0.7048050668
0.6524005313 0.2499124991 0.9563040539
0.6324940495 0.5009913973 0.9542389509
0.6325607255 0.4995501387 0.4535570407
0.6424213608 0.5011177775 0.2073060083
0.6525561085 0.4992783885 0.4616878051
0.6324829368 -8.7808183875e-04 0.4493342292
0.632553317 5.156595208e-05 0.9498031467
0.6324792326 0.2484286773 0.4505973684
0.6324718242 0.2485694636 0.9487289227
0.6826047464 0.4985194522 0.7204313216
0.6725589 0.4976459225 0.9652682679
0.6825232536 0.4984755793 0.2167369541
0.6624426734 0.248938782 0.2117844111
0.672525562 0.4990033641 0.4655763107
0.6624982367 0.2486761992 0.7129200882
0.6826566055 0.2472532756 0.2204217276
0.6724255481 0.2499864938 0.4655707544
0.6826010422 0.2497258755 0.7218657811
0.6726033507 0.2494351354 0.965286789
0.662535279 0.4980741747 0.7139313405
0.7026631012 0.2500008998 0.2270124621
0.6925691 0.2492203545 0.4751554253
0.7025371577 0.2494344806 0.7254922131
0.692602438 0.2493689986 0.9754456141
0.7025927211 0.4996221689 0.7251356819
0.6926691139 0.500868946 0.9712876264
0.7025816084 0.5004917697 0.2222701337
0.7024112142 -1.6066117267e-04 0.2287988226
0.7227214561 0.5002769888 0.7326848836
0.7225843999 0.5002475219 0.2324308109
0.7126793139 0.248302297 0.478206777
0.7125348493 0.2492635726 0.9792609614
0.7224843859 4.8538412593e-04 0.236109102
0.7225843999 -2.5397300629e-04 0.7341258254
0.7225621746 0.2518592787 0.2319566707
0.7325672746 0.2517918322 0.4843261496
0.7225251324 0.2514284072 0.7309031534
0.7326043168 0.2501914524 0.9849747217
0.7125348493 -8.2530335601e-04 0.4824008809
0.7423723466 -0.0019981513 0.7415351927
0.7525404323 0.4989948515 6.5975612542e-05
0.7424501352 0.2498496364 0.2428776392
0.7425760787 0.2494436481 0.7418130093
0.7623380959 0.0014742931 0.252292842
0.752603404 -7.2845549501e-04 0.4964695109
0.7625492365 9.7204626451e-04 0.7568623317
0.7624936732 0.2512843468 0.2546366876
0.7524922774 0.2515574067 0.495933325
0.7625677576 0.2519267251 0.75303865
0.7524367141 0.2499760167 1.0000323787
0.782485352 7.0108179608e-04 0.2610088732
0.7825446196 3.224876547e-05 0.7597794055
0.7724098719 -5.3139747542e-05 0.005296613
0.7825742533 0.251134393 0.2610079472
0.7724691394 0.2508718103 0.5059782453
0.7825668449 0.2508410337 0.7567373143
0.7724320972 0.2490448628 0.0059049386
0.7925089731 0.0017067542 0.5154147474
0.7924422971 0.2509438405 0.5141071575
0.7924460013 0.2513609607 0.0158806826
0.8025362984 6.872650965e-04 0.2659817894
0.812433976 0.0050056058 0.5247873517
0.8025066646 0.0028060003 0.7675378956
0.8125413984 0.0028764589 0.0240336723
0.8024807351 0.2513432806 0.2711815892
0.8125228773 0.251138322 0.5260801247
0.8026511292 0.2537373021 0.7711652537
0.8124636097 0.2528742495 0.0241888791
0.8224242591 0.0010700728 0.775921473
0.8324812181 0.0011006529 0.0289550999
0.8223649915 0.2522973532 0.2762813749
0.8324367675 0.2499884582 0.5283221043
0.8223649915 0.2516268176 0.7766113841
0.832496035 0.2501678789 0.0290673377
0.8225057519 -6.2241743945e-05 0.2759266958
0.8325330772 8.507736218e-04 0.5319318673
0.8625372645 0.5010333058 0.7953195505
0.8524840096 0.5013227362 0.0415529691
0.8624965181 0.499189333 0.2940477432
0.8424752054 0.0014790733 0.7802081824
0.842501135 0.250756562 0.2826831943
0.842315924 0.2520151258 0.7820362153
0.8624891096 4.9979016341e-04 0.2924475199
0.8524358548 -8.2150540068e-04 0.537298357
0.8524877139 9.3662050873e-04 0.0370441917
0.8423900084 -5.7169161452e-04 0.2817626955
0.8625039265 0.2526489914 0.2877737195
0.8524840096 0.249869281 0.5361657915
0.8626150531 0.2530792081 0.7895446705
0.852406221 0.2513131589 0.0365473631
0.8724016041 0.5005520132 0.5482628501
0.8825178307 0.4996162755 0.8004961989
0.8925007053 0.5009534178 0.0561067594
0.8824548589 0.5019421958 0.3031832774
0.8926599868 0.0011483893 0.5524949222
0.8725238434 4.4439240113e-04 0.0452361683
0.8924303251 -0.0012198978 0.0518334778
0.8825289433 0.250032986 0.2980520058
0.8724312378 0.2525330883 0.5431491735
0.8924932969 0.2483212868 0.5508280229
0.882573394 0.2514015596 0.7974115091
0.872501618 0.2507951963 0.045872646
0.8923414238 0.248302297 0.0503518822
0.90248358 0.499756407 0.3117187278
0.9023909744 -0.0021384792 0.308514577
0.912640553 -0.0011805431 0.5633390281
0.9023798618 -0.0023850188 0.8071610179
0.9126035108 -0.0012571571 0.0634896416
0.9025021011 0.2484090327 0.3080413628
0.9124034829 0.2484312966 0.5583485169
0.9025280306 0.2497429008 0.8092483462
0.9123627364 0.2488687162 0.0634726022
0.9127183416 0.4986477969 0.0616506812
0.9223567237 -9.102334951e-04 0.3158220783
0.9224493293 -8.5686567447e-04 0.8144796318
0.9325062883 0.4983413412 0.5688110881
0.932635936 0.4990989678 0.0712464648
0.9224826672 0.2491417761 0.3162175038
0.9224604419 0.2486801281 0.8147083675
0.9423632195 4.1695544795e-04 0.325302105
0.9324655419 -7.3912905914e-04 0.5699621746
0.9424632334 1.6281985055e-04 0.823161399
0.9325618516 -0.0036236107 0.0708129784
0.9425373178 0.2496649772 0.3206746073
0.9324099786 0.250145615 0.5670006502
0.9424965714 0.2504029592 0.822994709
0.9324433166 0.2504357002 0.0660673161
0.9225419348 0.4994597736 0.8171475968
0.9624141659 0.2487639451 0.3302990986
0.9525757558 0.2488602036 0.5780021856
0.9725526178 0.2497743321 0.5823870568
0.9625660389 0.2518271925 0.8295826655
0.9524757418 0.2510296219 0.0785538735
0.9724711249 0.2507755517 0.0850389452
0.9526239107 0.4995285297 0.0792180403
0.9725155756 0.5000523856 0.0874059422
0.9625030671 0.4988488266 0.3339764637
0.952394249 -0.0010407391 0.577807714
0.9623956447 -6.4345987393e-04 0.8316533248
0.9924257616 0.5010994426 0.5896223257
0.9824762249 0.5016003798 0.8331183441
0.9923739025 -5.0496546824e-04 0.5882378733
0.9823576898 -1.8862198176e-04 0.840269342
0.9824688164 0.2508076379 0.3376788322
0.992366494 0.2529240158 0.5908484228
0.9824243658 0.2492236286 0.8363493505
0.9923776067 0.2492517859 0.0918491549
0.0023121409 1.0015134536 0.3394624145
0.0123011275 0.9997192471 0.5879609828
0.0223370466 1.002449846 0.8364512166
0.0022532809 1.0017753815 0.839496086
0.0123707299 0.999319807 0.091683391
0.0124005488 0.7513198719 0.0880940012
0.0025019082 0.5001368574 0.8388339565
0.0224279482 0.7511365223 0.339690224
0.0023340699 0.7505144434 0.3411524651
0.0122711974 0.7481439954 0.5880693312
0.0223793859 0.7533498135 0.8404073243
0.0022896193 0.7501150033 0.8419927307
0.022357568 0.4995494839 0.3319928535
0.0024206376 0.4984939143 0.3371491287
0.0123487268 0.5016999124 0.5884249364
0.0323169579 0.7514377395 0.0827904833
0.03252069 0.49894574 0.0806524997
0.0425028239 0.7495518582 0.3307991684
0.0323506663 0.7493750568 0.5873331174
0.0424480014 0.7496828222 0.8316644375
0.0423753987 0.4999155282 0.3292452479
0.032496983 0.4981121543 0.581148921
0.0423431719 0.9974339257 0.8335489597
0.0523934634 0.7509924619 0.0790741313
0.0524693999 0.7494536352 0.5753203298
0.0723836606 1.0010354351 0.5746091195
0.062388562 1.0013235558 0.8265720601
0.0723518043 0.9996406687 0.0727611206
0.0723095762 0.7491393217 0.0752426707
0.0624522746 0.4977448003 0.822608544
0.062435976 0.7497679488 0.3235824205
0.072434038 0.7486351104 0.571664264
0.0623918958 0.7499643947 0.8254144912
0.0723551381 0.5009783009 0.5713382926
0.1024234083 0.5004590287 0.3046288495
0.1024115548 1.0010092423 0.3084710524
0.0824624745 0.9980625528 0.3188919511
0.1024360027 1.0016575139 0.8085843647
0.0823876493 0.9991822948 0.8204063849
0.0924038619 0.7494077978 0.06487715
0.1023848844 0.7501608407 0.3089627877
0.0823846859 0.7489887131 0.3197735556
0.092455721 0.7493750568 0.5630621376
0.1023963675 0.7520270774 0.8072767748
0.0824087633 0.7499709429 0.8207860675
0.1124477703 1.0005770611 0.0541175929
0.1124488815 0.7501019069 0.051910433
0.1226080771 0.4998231986 0.8014074372
0.1124648097 0.5012290969 0.0561132418
0.1223635985 0.7515163179 0.3004578971
0.1124073943 0.7499709429 0.5551369576
0.122465835 0.7492964784 0.8027761467
0.1223654506 0.5019042162 0.3006958932
0.1123662774 0.5003732473 0.5566816176
0.1222969225 1.0006098021 0.2990049165
0.1123399774 1.0008062481 0.5563463856
0.1224232365 0.9997061507 0.7998951891
0.1425916066 1.0007538625 0.2944774328
0.1524803941 1.0007800553 0.542336097
0.1323749957 1.0008913747 0.5485036244
0.1424460308 0.9998109219 0.7954047476
0.15248558 1.0003544224 0.0412655215
0.1324798251 1.0005246755 0.0464038312
0.1525500334 0.7500364249 0.0399993263
0.1324150013 0.7502066781 0.0476324286
0.1424393632 0.7500167803 0.2949441646
0.1525159546 0.7491000325 0.5392356644
0.1324409308 0.7503703831 0.5492963276
0.1424949265 0.7495715028 0.7963613626
0.142634946 0.5001034615 0.2928068293
0.1824734687 0.9989072704 0.7785496176
0.1725287475 0.7485630802 0.0290045512
0.1624569716 0.7506781484 0.2865929992
0.1725243024 0.7497352078 0.527327521
0.1624469702 0.7494667316 0.785389461
0.1824301293 0.7505078952 0.2727549569
0.1824442053 0.7485958212 0.774862992
0.1824630969 0.4986471421 0.276382315
0.1624736406 0.9990382344 0.2874579347
0.1724876307 0.9995489939 0.5312678857
0.1624365984 1.000210362 0.787353624
0.192379666 0.999948434 0.5195847738
0.202472556 0.9991626502 0.7672480404
0.1924204124 0.999221584 0.0205975446
0.1925096841 0.7479475495 0.0215472142
0.2023925448 0.7486678514 0.2673106786
0.1925037574 0.7493619604 0.5252327842
0.2024436631 0.7485630802 0.763749404
0.2125239587 0.4990099123 0.5113512174
0.2324900784 0.7495060208 0.0037172259
0.2224797925 0.9995817349 0.2582992358
0.2325178601 0.7481112545 0.498905962
0.2124728405 0.9984030591 0.511177119
0.2225786952 0.9985602159 0.7553843477
0.2124691362 0.999981175 0.0091908602
0.2323693208 0.5016442527 0.4992254511
0.2124472813 0.7481047063 0.0136765788
0.232411549 0.9982066132 0.5004256186
0.2223642209 0.7496631776 0.2542421881
0.2325956487 0.9994180299 8.9757314835e-04
0.2124332053 0.7496631776 0.5134144683
0.2223575533 0.7499643947 0.7561251918
0.2525406544 0.7495715028 0.9952168918
0.2424962897 0.500956037 0.749547422
0.252611405 0.5007844742 0.9943741816
0.2424118334 0.7476332359 0.2476431191
0.2525602868 0.7503114493 0.494977636
0.2424696193 0.7502852565 0.7483667017
0.2524250827 0.5010162805 0.4933866733
0.2624746333 1.0012777184 0.7417259601
0.2426529782 0.9982589987 0.2451640694
0.2625050079 0.7498727199 0.2429813574
0.26244537 0.7485172428 0.7424658782
0.2425485192 0.9988155956 0.7467488833
0.2624894502 0.5003470545 0.2412237047
0.2825315064 0.5020508959 0.7376929899
0.2824992797 0.7515163179 0.2365369395
0.2825178008 0.7512020043 0.7370354907
0.272588267 0.7526164153 0.9869472192
0.2725026995 0.5030802727 0.9874750707
0.2724652868 0.7538867658 0.4881553877
0.2824633488 0.5011420059 0.2335930101
0.2825781796 0.9997978255 0.736537273
0.292476598 0.7499316537 0.9802333193
0.3024765121 0.4993897079 0.7267692432
0.2925254938 0.5000366699 0.9820946902
0.3025761557 0.7507894678 0.2249927358
0.2925395698 0.7519026616 0.4807312034
0.3025439289 0.749578051 0.7267303489
0.3025906021 0.4989948515 0.2280190841
0.2925236417 0.5004976631 0.4813599949
0.3125482881 0.7493685086 0.9719729072
0.3125456951 0.7500429731 0.4729162239
0.3324466205 0.7506716002 0.9677686168
0.3225396824 1.0003151332 0.2162183632
0.3326547977 0.9986780835 0.4660124827
0.3224492994 0.4981586465 0.7186607042
0.3225985795 0.7498923645 0.2161924336
0.3324140234 0.7494077978 0.4649975262
0.3225193092 0.7498203344 0.7157214051
0.3224985656 0.4997839094 0.2212088744
0.332608495 0.501138077 0.4641020309
0.3424183825 0.4997616456 0.2106361027
0.3425613655 1.0001907174 0.2081246411
0.3524227417 0.7508353052 0.9551742666
0.3425513641 0.5006770838 0.7129071235
0.3525109021 0.4983714629 0.9563596172
0.3424587585 0.7489297793 0.2106388808
0.3524694148 0.7506585038 0.4563046464
0.3624489557 0.7517127638 0.200434679
0.3425172852 0.7506388592 0.7119838465
0.3625897161 0.7484779536 0.7021287674
0.3626119414 0.9970934193 0.2034369498
0.362537857 0.9988810776 0.7048532217
0.3625008148 0.4992358252 0.2031702459
0.3723984924 0.749283382 0.9484974089
0.3825591696 0.5011171227 0.6954889519
0.3725837034 0.5001283447 0.9514978276
0.3824443388 0.7490018095 0.1938495007
0.3723836755 0.7503769313 0.4482516707
0.3824887894 0.7490345505 0.693610912
0.372376267 1.000210362 0.4484785542
0.3825258316 0.9988221438 0.6927172688
0.3725466612 0.9985667641 0.9455062507
0.3725059148 0.5001584664 0.4517577156
0.3925494527 0.7513395165 0.9398850959
0.3926235371 0.7501870335 0.4400458959
0.402610116 1.0007342179 0.1856159443
0.4025471442 1.001231881 0.6889797102
0.412615216 0.7514573841 0.9287168706
0.4126707793 0.7516079926 0.4291656738
0.4125966948 0.5011361125 0.4294842368
0.4026323413 0.7511299741 0.1869161257
0.4025878907 0.7500953587 0.6855384892
0.4326031906 0.7512478417 0.9216510697
0.4226203159 0.5010293769 0.6771012006
0.4326217117 0.5021654894 0.9231234974
0.4226277244 0.7509204318 0.1759044038
0.4326068948 0.7512347453 0.422167475
0.4226758792 0.7491458699 0.6766344688
0.4225943864 0.4995350779 0.1735818574
0.4325587399 0.5014222688 0.4233991283
0.4425675441 0.4992430282 0.6679036207
0.4425749526 0.7485434356 0.167481006
0.4426082906 0.7489166829 0.6681147613
0.4525652357 0.998167324 0.9181042784
0.4624443921 0.9969035216 0.6569382016
0.4725420976 0.997839914 0.9111375655
0.4526319116 0.7506192146 0.9118580364
0.4523615035 0.7498137862 0.4145710445
0.4525096723 0.4995920472 0.4166472601
0.4724902385 0.7501608407 0.9083029106
0.4626036736 0.7513133237 0.1611995739
0.4725272807 0.7474826274 0.4076774898
0.4624703217 0.7486940441 0.6583124674
0.4824768174 1.0004002598 0.1580250568
0.4923930161 1.0006752841 0.4091897379
0.4924745089 1.0015658392 0.9062461421
0.482469409 0.500058279 0.1577222367
0.4924041287 0.7488970383 0.402324891
0.4924411709 0.7493947014 0.9024233864
0.4924559878 0.4984926046 0.4072552087
0.4825101554 0.4999718427 0.6533636286
0.4826472116 0.7484452126 0.1561229395
0.4825731271 0.7464218191 0.6559315796
0.5124513709 1.0015985802 0.4039334488
0.5124587793 1.0020635023 0.9071573804
0.5025907355 0.998167324 0.1579074478
0.5126106524 0.7489232311 0.9027678789
0.5225453722 0.498978481 0.1596132414
0.5225638933 0.7502001299 0.6540803953
0.5223194147 0.9975648897 0.6568585608
0.5023499612 0.7500495213 0.154067097
0.5024722005 0.750730534 0.6555509709
0.5126143566 0.4998559396 0.9039485992
0.5125328638 0.7500757141 0.4020591132
0.5224786962 0.7520991076 0.1572981035
0.5325467679 0.7492506411 0.4107158768
0.5325245426 0.5010149708 0.4133847678
0.5525014046 0.750959721 0.9166411113
0.5425444595 0.9997650845 0.1626997832
0.552575489 1.0010747243 0.4199338299
0.5424740793 0.7513133237 0.1618144745
0.5525125172 0.7516800228 0.4217618628
0.5425889101 0.5023612805 0.1631554024
0.5424444455 0.751719312 0.6643308999
0.5324060075 0.7518699206 0.9130970982
0.5324356413 0.4989902677 0.9111042275
0.5625250256 0.5008623978 0.6762816418
0.5624546454 0.7509138836 0.1735587061
0.5626361523 0.7501084551 0.6757611988
0.5725004918 0.750894239 0.9277630338
0.5724375201 0.7514311913 0.4252799464
0.6026121015 0.4989437755 0.6876230394
0.6025046791 0.7503114493 0.1906851702
0.5926366353 0.751915758 0.4335903654
0.6024046651 0.7509073354 0.6917671362
0.6025083833 0.5007170278 0.1869050131
0.6025120875 1.0029016717 0.1856150182
0.6025454255 0.9999942714 0.6877610216
0.5825130003 1.0007276697 0.6757111918
0.5825722678 0.749709015 0.1817033612
0.582457437 0.5004230136 0.1799420043
0.5824759581 0.7515097697 0.6844040716
0.5925106918 0.7505733772 0.9326618656
0.6125283002 0.7491393217 0.443572314
0.6225889635 0.5001283447 0.6988533103
0.6224815411 0.7506716002 0.1954849141
0.6225185833 0.7494732798 0.696515021
0.6225148791 0.4982666918 0.1962202019
0.6225408086 1.001592032 0.1955951147
0.6226260057 1.0012122364 0.6944249145
0.6124949622 0.7525509333 0.9410241437
0.6424324735 1.0013562968 0.7032409597
0.6326311056 0.7495387618 0.9494512457
0.6325051621 0.7504293168 0.451680853
0.6525672212 0.7487005923 0.959461902
0.6425139663 0.5010968233 0.7060774666
0.6524264608 0.5002383544 0.961795561
0.6424472904 0.7489035865 0.2028989118
0.6525338832 0.747535013 0.4596801175
0.6425991634 0.748360086 0.7032039175
0.6624204481 0.9974339257 0.2125465545
0.6625538001 1.00014488 0.7114022838
0.6824899156 0.9978922996 0.2209736564
0.6724885198 0.7476856215 0.9659628092
0.6725366747 0.9998895003 0.4686498878
0.6825825211 0.9980625528 0.7181069232
0.6725514916 0.9985340231 0.9660739359
0.6826121549 0.7498137862 0.2211051563
0.6726440971 0.7486154658 0.467613632
0.6827010562 0.749643533 0.7188135033
0.6624389692 0.7470177052 0.2143116156
0.6626464056 0.4985528481 0.2119140588
0.6625056452 0.7468081629 0.7134775734
0.6924653818 0.9990709754 0.4757425443
0.7024297353 0.9998174701 0.7247078444
0.6925468747 0.9994638673 0.9753252269
0.6926468886 0.7509335282 0.9727785752
0.7026816224 0.7510055583 0.2257243194
0.6925653958 0.7480719653 0.4720559187
0.6925579873 0.4986982181 0.4733514698
0.7027075519 0.749414346 0.7263849303
0.7324931901 0.4998971933 0.9868916559
0.7225732872 0.7517782458 0.2335152215
0.7324894859 1.0000008196 0.4855911409
0.7326265421 0.7525443851 0.4900639873
0.7325932041 0.5028438828 0.4873293465
0.7226621885 0.7490672915 0.7355232426
0.7325265281 0.9994704155 0.9887993295
0.7124866944 0.9984096073 0.9810019451
0.7125718915 0.7508156606 0.9802147982
0.7126089337 0.5000536952 0.9784089906
0.7125941168 0.7490869361 0.4810997734
0.7126496801 0.4976734249 0.4823740253
0.7325672746 0.7508549498 0.9897902086
0.7424316141 0.4979844644 0.7419732168
0.7425501492 0.7497875934 0.2415756056
0.7425353323 0.4991074805 0.2438833351
0.7425760787 0.7510513957 0.7406276587
0.7425353323 0.9995358975 0.2455196746
0.7524589394 0.7494994726 -0.0040282717
0.752603404 1.0002561994 -8.4859646582e-04
0.7524996859 0.5004826023 0.4973640802
0.7624455183 0.498004109 0.7530627274
0.7624455183 0.7508418534 0.2528253237
0.7623640255 0.4994191748 0.2524206376
0.7525033901 0.7489297793 0.5008636427
0.7625492365 0.7491458699 0.7542240006
0.7725543365 0.9996144759 0.5049595846
0.7824112676 0.7510317511 0.2652872481
0.7825557322 0.5021556671 0.2607384651
0.7725247027 0.7509728173 0.5089332873
0.7825075773 0.7496893704 0.7641272345
0.7724839563 0.7507829196 0.0078656752
0.7724358014 0.5022846666 0.5072117508
0.7825927744 0.4990099123 0.7618463606
0.7725172943 0.5007058958 0.0058950298
0.79252379 0.751588348 0.5174205829
0.7925423111 1.0022992374 0.0144845619
0.8125117646 0.7524134211 0.0240873835
0.7926682546 0.7503703831 0.0163433398
0.7926015786 0.502777746 0.5156657084
0.7924422971 0.5018812975 0.0181307189
0.8124747224 0.5021216164 0.5270598911
0.8025696364 0.503602819 0.773335927
0.8125599195 0.5005061758 0.0259761656
0.8025029604 0.7523610355 0.2736828642
0.8025844533 0.5019736271 0.2730225868
0.8126673419 0.7539195068 0.5260291917
0.8024733266 0.7509466246 0.7739850917
0.8325256688 0.7510972331 0.0315299036
0.8324071337 0.4989738972 0.531020629
0.8225502026 0.4993857789 0.7801026121
0.8325108519 0.5011498637 0.0334070174
0.8226613292 0.7501935817 0.2783196224
0.8225353857 0.5013083301 0.277508398
0.8324256548 0.7523610355 0.5297723067
0.8226020617 0.7506716002 0.7759196209
0.8524877139 0.4998028992 0.5379243702
0.8624631801 1.0020504059 0.792843279
0.8625224476 0.7490476469 0.2926364352
0.8525025307 0.7515948962 0.5388078269
0.8424640928 0.5001329284 0.7824566443
0.8424233464 0.7524985477 0.2851520573
0.842501135 0.5000360151 0.2855132189
0.8425900363 0.750566829 0.7870656209
0.8625743067 0.7507239858 0.7925284203
0.8525173476 0.7511561669 0.0402031511
0.8825548729 0.7488184599 0.7968290204
0.8725423645 0.750697793 0.0473574828
0.8923414238 0.7477903927 0.0516403027
0.8925340433 0.4997767064 0.5527375486
0.872568294 0.5010097323 0.048697392
0.882354845 0.9999156931 0.2964740078
0.8724942096 1.0007931517 0.5463533243
0.8825437602 0.7502066781 0.2996485249
0.8726053362 0.7503572867 0.5466357712
0.8923969871 0.7496566294 0.550829875
0.882440042 0.9978333658 0.7986866871