POSCAR file written by Ovito 3.7.11
1
270.0248353181 0.0 0.0
0.0 15.2749113714 0.0
0.0 0.0 10.8009934127
Sr Ti O 
800 800 2400 
Direct
0.0226087672 0.5014180115 0.756155701
0.0124146678 0.4987430369 0.0090544213
0.0126308702 0.2503140996 0.5079442729
0.0226494671 6.4595182594e-05 0.2597671009
0.0224013048 0.2495952738 0.7594257706
0.0024635091 0.2503697464 0.7608432328
0.0125331754 0.2502990422 0.0054962301
0.0224027861 0.2514571504 0.2585838764
0.0025035795 0.2496208058 0.2589431026
0.0524163587 1.4106043805e-04 0.5077665114
0.052412285 0.2491631927 0.0061458
0.0523711777 -0.0023917202 0.0072322741
0.0423046962 0.5006219349 0.7562621727
0.0324267159 0.2500188442 0.5070675017
0.0424539418 -3.0627439971e-04 0.2580598505
0.0424720882 0.2495527203 0.7611126524
0.0524048783 0.4972399185 0.0076436252
0.0525544942 0.4987777343 0.5066193947
0.0325526303 -3.1837455487e-05 0.510472744
0.0323885713 0.2497792356 0.0097258411
0.032432271 0.0019963249 0.0089723919
0.0424931974 0.2485019777 0.2608299661
0.0523304407 0.2498126236 0.5068480774
0.0624820995 0.2503710557 0.7555002057
0.0723719306 0.2519245835 0.0048395313
0.0624509913 0.2494833255 0.2572673308
0.0724282217 0.499465136 0.0029534085
0.0625039494 0.4992949223 0.2571349356
0.0724345174 0.2499245719 0.5039992654
0.0624369185 -0.0012699461 0.2572654791
0.0823495313 0.4994775747 0.2539796702
0.0924797106 0.4984412348 0.5044705183
0.0923678691 0.2503343943 0.5035150507
0.1023973169 0.2509321064 0.7527291643
0.0823099053 0.2496869273 0.7525365894
0.0925334094 0.0010864669 0.5054139501
0.0922486208 0.2496666326 0.0063381897
0.0923719428 -1.6047977309e-04 0.0045187274
0.1023365817 0.2498767811 0.2534963814
0.0824421154 0.2511468376 0.2539685602
0.1025061958 0.5007659619 0.7523754931
0.0825095166 0.5005276626 0.7528921123
0.0923223177 0.5005918201 0.0039261893
0.1223462227 0.2515304732 0.2495921109
0.1122989987 0.2499095146 0.5038372432
0.1223258542 0.2501707272 0.7486702784
0.1123538085 0.2517157443 0.0038394381
0.1524686371 0.2483009946 0.5010337974
0.132272717 0.250753382 0.5000366669
0.1423643814 0.251157967 0.7499220151
0.1523379084 0.2515579693 8.6813730347e-04
0.1323478953 0.2495546843 5.9936572949e-04
0.1424010447 0.2508561649 0.2501994624
0.1422721676 0.5007273365 0.7480907021
0.1523490185 0.5018703873 -8.50593492e-04
0.1323353039 0.5017767697 -0.0028244767
0.1523653133 0.501476277 0.5001875789
0.1323153057 0.5009518877 0.4994644973
0.1824147715 0.0022966867 0.2525668372
0.1823962547 0.2505831682 0.7514848343
0.182525502 0.2517137803 0.2513206556
0.1623666156 0.499741406 0.7551493121
0.1723512527 0.5015096651 0.0032406043
0.162383651 0.5012144097 0.2532732537
0.1724919805 0.2512339085 0.5024392237
0.1723616221 0.4990160336 0.4996941058
0.1624395718 0.2504181918 0.7537281465
0.182394403 0.4999463172 0.7531282017
0.1724708713 0.2481543489 0.0011986625
0.1722797778 -1.9157651653e-04 0.0024096622
0.1623088431 0.2496037845 0.2524437004
0.2024836662 0.2498983852 0.7469796932
0.1925545795 0.2491946168 -7.8596980663e-04
0.2025036644 0.2512260525 0.2472617697
0.2025610665 0.5000471361 0.7473000341
0.192321638 0.4999135838 -4.9442254984e-04
0.2024277455 0.500138135 0.2495865558
0.1923982976 0.5022644976 0.5000875881
0.1925075468 0.2507389793 0.5006616094
0.2024351522 0.0025316471 0.2505309134
0.2224077595 0.5013145739 0.2462942661
0.232513867 0.5011744749 0.999972163
0.2126586562 0.2500208082 0.4950852705
0.2225618194 0.2502787475 0.7463047552
0.2124912642 0.2493648305 -0.005117951
0.2224118332 0.2505170467 0.2449647587
0.2325357168 0.2483062319 0.4935576332
0.2326386703 0.2504168825 0.9966206194
0.2225507093 0.5000995096 0.747108385
0.212498671 0.5020844638 -0.0015005337
0.2424940601 0.5001623577 0.2453184299
0.2625033307 1.6227169041e-04 0.2434445282
0.2625470303 0.2503573077 0.7416440728
0.2624903689 0.5000340428 0.7424504801
0.252576466 0.2505222841 0.4941436904
0.2424770246 0.2503213009 0.7458834977
0.2525286926 0.2494564841 0.9924173023
0.2525479501 -1.9065998094e-04 0.4953028431
0.2524568474 -0.0010139708 0.9951485326
0.2627099783 0.2498793998 0.2429991988
0.2426081236 0.2491959261 0.2445453529
0.272515743 0.2497288261 0.4883238554
0.272513521 0.2481530396 0.9910933501
0.2725294455 -0.0020968576 0.4955981863
0.2725538877 2.8927733731e-04 0.9948985556
0.2724142709 0.4989774081 0.4925873521
0.2826114811 -9.2663806465e-04 0.2456498809
0.2825888905 0.2478315974 0.7377323956
0.2825174156 0.2482885559 0.2380357664
0.3125942787 0.2466433745 0.4913133952
0.3125898347 0.2489654829 0.9903249022
0.3124402188 -0.0019267093 0.4916846574
0.3123724473 -0.0014834989 0.9943060175
0.2925938962 0.2486283287 0.4916531788
0.3025444624 -0.0021291328 0.2449823497
0.3026203813 0.2498846372 0.7424180757
0.2925509372 0.2492424076 0.9910377996
0.2925168662 1.4014390245e-04 0.4939631515
0.3025800147 3.7058713805e-04 0.7475314943
0.2923254024 -3.0483412948e-04 0.9948244883
0.3024433606 0.2492234222 0.2401003913
0.3124509586 0.5002022925 0.9935097944
0.3125850203 0.4991233992 0.4924466243
0.3324980035 0.2498793998 0.4912541414
0.3225155884 0.2524862889 0.7408969193
0.3325291117 0.2493772692 0.9941393662
0.3224659633 -4.853261751e-04 0.7424430734
0.3324557851 -0.0015667727 0.9922321342
0.3225870633 0.2506538724 0.2401216857
0.3324517114 0.5004058943 0.990750789
0.3626289357 0.2530957851 0.2427575543
0.3525231985 0.5002913274 0.4935428198
0.362510428 0.5022193255 0.7412005951
0.3524717218 0.2495913458 0.4916568821
0.3424844923 0.2510172133 0.7454603885
0.3524602414 0.2502250647 0.991047058
0.3525246799 4.3514863883e-05 0.4921614654
0.3424533841 -9.4509971023e-04 0.7436013002
0.3524780175 -6.2994239881e-04 0.9922691678
0.3425930008 0.2510761334 0.2435574808
0.3625622751 0.2492960904 0.7441568047
0.3925854394 0.25240511 0.4912374763
0.3925150755 0.0040360749 0.4917985358
0.392611363 0.2530191889 0.9908248562
0.3925558125 0.0037403612 0.9891953765
0.3825308087 0.5048720414 0.2425047998
0.3925224823 0.5026396225 0.9943800848
0.3725502453 0.2532483228 0.4921216542
0.3827233836 0.2520260571 0.7423366017
0.3824197078 6.585102489e-04 0.2385996035
0.3725428386 0.2520358771 0.9923617519
0.3826196894 0.2545838461 0.2421400185
0.3924706352 0.5021080319 0.4933604291
0.4026252567 0.2519213102 0.7390683838
0.4125576764 0.5018160498 0.9936208953
0.4026548836 0.2533255737 0.240637379
0.4126835908 0.2514532224 0.4920855464
0.4126132269 0.002482547 0.4898792679
0.4127835816 0.2531219718 0.9929635484
0.41259471 0.0024727925 0.988639872
0.4026363668 0.5029185112 0.7399396
0.4025734096 0.5014173568 0.2396291384
0.4425104768 0.2507141019 0.7363186368
0.4425475105 0.0011639796 0.2343064798
0.4426771282 8.9209589227e-04 0.7343447443
0.4425030701 0.2514682797 0.2392930582
0.4325336167 0.2528876006 0.4877785352
0.4225160197 8.3553255262e-04 0.2403809211
0.4224641726 0.2512175418 0.7408478498
0.4325299134 0.001031933 0.4870378626
0.432485473 0.2511304709 0.9881306596
0.4224715793 0.0034233053 0.7424004847
0.4324780663 0.0013352409 0.9899638243
0.4226604508 0.2509805519 0.2403568492
0.4424882567 0.5004910012 0.2334695198
0.4526317681 8.0307221386e-05 0.4878933394
0.4525021504 0.2484535323 0.9855197887
0.4625234508 0.5006029495 0.2370654853
0.4724410571 0.502277591 0.4853185763
0.4524910403 0.4994422226 0.9867511569
0.4724669806 0.2499795641 0.4861962733
0.4624382734 0.2502780928 0.7355020452
0.4625086373 -0.0010616307 0.2371923255
0.4724817941 0.2510172133 0.9855568223
0.4725003109 0.001236255 0.4882534915
0.4624049432 0.2490630285 0.2370525235
0.4524540066 0.2497491208 0.4851759968
0.4624086465 0.5004910012 0.7372315158
0.4725299378 0.5003567942 0.983779208
0.4925429118 0.4978238826 0.9846402399
0.4825253147 0.2493327518 0.7356316629
0.4825771618 -0.0016919453 0.7345271349
0.4825919752 0.2494473187 0.2351554758
0.4925466151 0.2502021513 0.4825401281
0.4925392084 0.2515226172 0.9823719301
0.5025753223 0.4989171787 0.2296420941
0.5025234752 0.498387552 0.731317245
0.5124225646 0.4976765823 0.4841557203
0.5024271878 0.2477347065 0.2342537069
0.522473492 -9.4372490683e-04 0.2369469777
0.5224105348 0.2469026231 0.2330334488
0.5126114362 0.2499566507 0.4815161482
0.5225475593 0.4978297746 0.735451124
0.5223549844 0.2479304523 0.7380407006
0.5024234844 0.2461837974 0.7332013309
0.5124521916 0.2482924839 0.9827237495
0.5025308819 -0.0016162656 0.7291442967
0.5324022083 2.0358125907e-04 0.4893533903
0.5323688781 7.1854333045e-04 0.9876029304
0.5323466579 0.2481406009 0.4867702946
0.5323318445 0.2504005158 0.9849179922
0.5423087045 0.5005806908 0.7399525618
0.5523077848 0.4994271653 0.9879269746
0.5523485218 0.5020013209 0.4871378534
0.5425420164 -5.3652123483e-04 0.7381555048
0.552422589 -5.9635791589e-04 0.9911489005
0.5423346281 0.2495409363 0.2365016483
0.5523411151 0.2488993614 0.4886728974
0.5422531541 0.249963852 0.7389369144
0.5524596227 0.247118009 0.9882602773
0.5723985294 0.2479959192 0.4921142475
0.5625364736 -3.0385212706e-04 0.2396124733
0.5724392664 0.2487330757 0.9920747413
0.5624179659 0.4988778986 0.2413984201
0.5625253635 -1.2355648193e-04 0.7386221286
0.5624105592 0.2501334111 0.2390597463
0.572354089 0.4999535186 0.9918340227
0.5623290852 0.2481746436 0.7392155925
0.5724874101 0.4995901777 0.4919040816
0.572557774 -2.0264041051e-04 0.4918466795
0.5725725874 -3.7278869726e-04 0.9921488085
0.5923929865 0.5007829833 0.9953892512
0.5923633596 0.5012261937 0.4963370072
0.5825309307 0.2498623784 0.7463566023
0.5923855798 -8.8899463838e-04 0.4953898721
0.5925670446 -6.4414870055e-04 0.9938986476
0.6024179903 0.2502977328 0.2451036348
0.5824161265 0.4997531901 0.7436050036
0.5925374177 0.2498748171 0.4939464864
0.6024661341 0.2520843226 0.7459686751
0.5925559345 0.2509412718 0.9919266067
0.5824938971 -0.0012063124 0.2436741367
0.5824568634 0.2485700632 0.2449027274
0.6123207832 0.5007279911 0.9964261929
0.6124281807 0.4997603914 0.4965286562
0.6124874345 -0.0015400622 0.497686883
0.612431884 7.513534195e-05 0.9936301537
0.6126614926 0.2486165447 0.4944575505
0.6125726118 0.2489019801 0.9991111311
0.6225161417 0.2496044391 0.2464757308
0.6225790988 0.2495212963 0.7488332264
0.6425180055 -0.002766125 0.247433976
0.652457832 -0.0020789852 0.4957185456
0.6524096883 -9.1511590287e-04 0.9932135254
0.6425180055 0.2490879059 0.243730613
0.6523985782 0.2474466525 0.4939520414
0.6423661676 0.2487199823 0.744980803
0.6525170858 0.247118009 0.9944634104
0.632567069 0.4992765915 0.9977779204
0.6324930017 0.4986487647 0.4974998632
0.642492082 0.5007240631 0.2504642529
0.6526170766 0.4997833048 0.4946593837
0.6324226378 -0.0033015782 0.4965860584
0.6325855858 -0.0023143384 0.9981760319
0.6326448396 0.2499854561 0.5008754786
0.6326670598 0.2498820185 0.9986204355
0.6826032073 0.4982808411 0.7449622861
0.6725448732 0.5006160429 0.9933616599
0.6825217333 0.5001924725 0.2436398806
0.6625531997 0.2486898675 0.2449045791
0.6725189497 0.5014546729 0.4945723547
0.6625235728 0.2495232603 0.7403164172
0.6823735988 0.2497458475 0.2453869421
0.6724004421 0.2482329091 0.4949565786
0.6823439719 0.2515245812 0.7391396736
0.6723152647 0.2492175302 0.9921395501
0.6624680223 0.4998180022 0.7473722496
0.7024347165 0.2511304709 0.2403161122
0.6923874925 0.2487474784 0.4932400698
0.7023902761 0.2497334088 0.7412237411
0.6923986026 0.2505484708 0.99440786
0.7025532241 0.4979744563 0.7421680987
0.6925541438 0.5014147382 0.9955466441
0.7026754351 0.499048767 0.2468562514
0.7024865635 7.0067088633e-04 0.2504151833
0.7225736048 0.5010808573 0.7473028116
0.7225365711 0.5012379777 0.2461461315
0.7124115765 0.2514434023 0.4951139716
0.7123301025 0.2519265475 0.9910563164
0.7225847149 -0.0012502406 0.2477746854
0.7224699106 -3.2617631551e-04 0.7492174503
0.722473614 0.248331764 0.2415622939
0.732572685 0.2503972424 0.4945501345
0.7224143602 0.2498047676 0.7427347133
0.7325912018 0.2503239196 0.9958892052
0.7125189741 -0.0017597035 0.4964277396
0.742619909 -2.0696122118e-04 0.7500988507
0.7525078884 0.5001728324 -0.0026670746
0.7425976888 0.250640779 0.2447277435
0.7425125115 0.2510139399 0.7444725164
0.7625032653 0.0014736377 0.2477802405
0.7525930657 -0.0014636625 0.4959398215
0.7625328922 -1.1759900056e-04 0.7502682796
0.7624032745 0.2528614138 0.246306302
0.7524560413 0.2498381557 0.4980257408
0.7624736384 0.2485556605 0.7440299645
0.7524597446 0.2489190014 0.9973427752
0.7826606704 0.0010492817 0.2447295952
0.78261623 0.0015891212 0.7463464181
0.7725208623 -8.1652285945e-04 -0.0014923863
0.7824866123 0.2501798926 0.251835423
0.7724727186 0.2491140926 0.4964786608
0.7824125451 0.2504031344 0.7493165153
0.7724245749 0.2488371679 -0.0041971005
0.7925301329 -7.8778292183e-04 0.4975739305
0.7924782859 0.2512116498 0.5011106422
0.7925523531 0.2496411006 -7.5458380471e-04
0.8024958829 6.2369310432e-05 0.2530908631
0.8126468011 5.7936085349e-04 0.5065638443
0.8024921796 0.0012327198 0.7517820292
0.8125357002 3.2397475631e-04 0.002253658
0.8024477392 0.2509582931 0.2501679838
0.8124764464 0.2515121425 0.5052945166
0.8024551459 0.2493131117 0.7514579849
0.8124357094 0.248754025 0.0060319216
0.8225421872 -7.3809359915e-04 0.7550382112
0.8326449616 -1.6931779491e-04 0.0050085898
0.8226532881 0.2520745026 0.2530047599
0.8324486834 0.2500967497 0.5022142444
0.8224310863 0.2525209863 0.7545910301
0.832526454 0.2489045987 0.0029455388
0.8225532973 0.0012828019 0.2564766628
0.8325634876 0.0020946561 0.5020642582
0.8626755326 0.5013604007 0.7536550051
0.8526394187 0.5015856066 0.0032131994
0.8626570158 0.5014239035 0.2540037421
0.8425255342 0.00230487 0.7491850459
0.8425884914 0.251982849 0.2502503836
0.8424996107 0.2498735078 0.750922849
0.8625940586 -5.0615227135e-06 0.2489264314
0.8526949692 7.8918203818e-04 0.5001098083
0.8526283087 0.0022756064 0.0013357795
0.8426070082 5.3477794342e-04 0.2552378878
0.8626273889 0.2508293235 0.2524149994
0.852509801 0.2512993753 0.5027169759
0.8625496183 0.2531520866 0.7501266259
0.8525135044 0.2506898791 0.0032880073
0.8726375793 0.4981224114 0.5042770176
0.8826551763 0.4992844476 0.7553057792
0.8925690792 0.4991646433 0.0034463261
0.8826736931 0.4977649625 0.2532676987
0.8926246297 -0.0024696257 0.5010550917
0.8725412918 -4.2293628773e-04 -0.0011830629
0.8926246297 -8.978326602e-04 0.0048077749
0.8825514822 0.2523402979 0.2555869298
0.8726375793 0.2493248958 0.5032872938
0.892617223 0.2510211413 0.5029206609
0.8824663048 0.2497962569 0.7528800764
0.8726597994 0.2514506037 0.0047512986
0.8926283331 0.2498558318 0.0036343643
0.9026200066 0.4990396016 0.2521955751
0.9025570494 -8.9410105099e-04 0.2517085829
0.9126079768 -8.7753794343e-04 0.5056370777
0.9025089057 -8.8146595312e-04 0.7503849355
0.912559833 -0.0033883217 0.0033847577
0.902582973 0.2493628665 0.2538778278
0.9125413162 0.2500234268 0.5022309095
0.9025681595 0.250080383 0.7539596067
0.9125931633 0.248185773 0.0016464916
0.912682044 0.4993158716 0.005720191
0.9224885494 -0.0012186856 0.2563526001
0.9224181855 5.6443441664e-04 0.7560899663
0.9325024431 0.4999508999 0.5037437333
0.9324283758 0.4993106343 0.0062094053
0.9226700142 0.2467324094 0.2529482836
0.9225181763 0.2489209654 0.7543169812
0.9423570922 5.9251968598e-04 0.2594717577
0.9324431893 -0.0012028426 0.5055111633
0.9422682115 0.0022412363 0.7590906162
0.9323913422 0.0012922946 0.0073397642
0.9425200402 0.2478433815 0.2560822546
0.9324876297 0.2473347042 0.5056324485
0.9424644897 0.2503252289 0.7558205466
0.9325246633 0.2498859465 0.0073315243
0.9226440906 0.4986959008 0.75323097
0.9624774637 0.2500568149 0.2564609235
0.9525080103 0.2509425811 0.5091793445
0.9724913574 0.2500888937 0.5081738814
0.9624774637 0.248728493 0.757260229
0.9525968911 0.2495743244 0.0076639937
0.9727135592 0.2470080247 0.006725006
0.9525006036 0.5007476312 0.0060900644
0.9726061617 0.4993355117 0.0044951185
0.9625330141 0.5012471431 0.2571923377
0.9524339431 0.0012780228 0.5107236468
0.9625144973 -0.0018491966 0.7572093078
0.9925932121 0.5000608842 0.5088553002
0.9824571074 0.4996792125 0.757341703
0.9925302549 1.3647776006e-04 0.5087006848
0.9825570982 -0.0020499179 0.7547391646
0.9825533948 0.2497811996 0.2538278324
0.9925450684 0.2486427314 0.5057852122
0.9824978444 0.249965816 0.7556038999
0.9923858238 0.2487049249 0.0073905003
0.0025726842 0.9967557464 0.2558906056
0.0123893738 1.0005135424 0.5074674649
0.0225913243 1.0002058483 0.7584434535
0.0024786558 0.9996624736 0.7593081888
0.0124785879 0.9996362869 0.0096567733
0.0125446559 0.7494482559 0.0080355336
0.0024789891 0.5010448506 0.75571963
0.022553476 0.75111766 0.2564072247
0.0024691382 0.7494024291 0.2613521403
0.0125145846 0.7510390998 0.510019082
0.0224217103 0.750849246 0.7596738959
0.002454584 0.7492125753 0.7586165857
0.0226798347 0.5007829833 0.2578274645
0.0024069958 0.5010022971 0.2580820707
0.0124300738 0.5001505737 0.510559773
0.0323930153 0.7504760851 0.0041992198
0.0324037551 0.5010402679 0.0079772982
0.0425113439 0.750973633 0.2568062621
0.0324867104 0.7488721478 0.5043520107
0.042365061 0.7489376146 0.7559649778
0.0425139362 0.5020530397 0.2537907987
0.0325948486 0.4996504071 0.5085312559
0.0423017335 1.0001796616 0.7574250287
0.0524722795 0.7494482559 0.005101822
0.052330811 0.7501225642 0.5057370685
0.0726233889 0.9981960167 0.5053047009
0.0624758038 0.9990470854 0.7544197496
0.0724856238 0.9993875129 0.0043495763
0.0724397021 0.7515693811 0.0098027784
0.062494691 0.500017676 0.7565464058
0.0624117356 0.7505219118 0.2574191687
0.0723571171 0.7492780421 0.5078128035
0.0624458066 0.7503713381 0.7574713207
0.0724111862 0.5001014736 0.5019948201
0.1023484325 0.5008425581 0.254010223
0.1022291842 1.0001272881 0.2542574225
0.0821913977 0.9977508422 0.256486847
0.1023254717 1.0006510227 0.7567389807
0.0823454576 1.0000618213 0.7585175208
0.0924219382 0.74843352 0.0056758432
0.1024595334 0.7500309106 0.2551193802
0.0823961937 0.7500570974 0.2557267318
0.092486747 0.7506659389 0.5084257101
0.1025413777 0.7497166699 0.7548354521
0.0824765567 0.750044004 0.7565130755
0.1124508366 1.0026543077 0.0041244119
0.1125537901 0.7540440272 0.0022295861
0.1225210214 0.4998101462 0.7515579757
0.1124315791 0.5005721801 0.0054140155
0.1224636193 0.7512878737 0.2494097202
0.1125500867 0.7499850839 0.5023836732
0.1224613973 0.7515628344 0.7498692422
0.1224910242 0.5005597414 0.2514280531
0.1124452815 0.5002978741 0.5045010711
0.1224032545 1.002772148 0.2522150177
0.1124015819 1.0003695154 0.5049695465
0.1223606658 1.0003891554 0.7522190261
0.1424121547 1.0034071762 0.2500707705
0.152287913 1.0017377721 0.5016411489
0.1323104913 1.0006117426 0.4978220558
0.1423643814 1.00089325 0.7519162761
0.1522908757 1.0028572548 0.0025247442
0.1323382666 1.0015413716 -8.6549952831e-04
0.1523542032 0.7499654438 0.0015990886
0.1324415904 0.7509147128 -8.0643088753e-04
0.1424325232 0.7508296059 0.251207703
0.1523927182 0.7521716759 0.5001357319
0.1325034365 0.7511962202 0.5014587583
0.1423847499 0.7502993246 0.748370306
0.1424528917 0.5025610623 0.2477098766
0.1823744048 1.0019210792 0.7516116745
0.1723849533 0.7498803369 0.0027504642
0.1622199624 0.7520538356 0.2515928528
0.1722990353 0.7497035765 0.5032669253
0.1623984645 0.7479948923 0.7500729272
0.1824103275 0.74977559 0.2504411068
0.1823007079 0.7489834414 0.7507756403
0.1823699608 0.5011502522 0.2527520054
0.162458459 1.0008081431 0.2532408493
0.1724456885 1.0004415289 0.5040612967
0.1623592089 0.9991845658 0.7573130019
0.1923882985 0.9995118999 0.497686883
0.2025255142 1.0006706628 0.746445483
0.1923486726 1.0000683679 -9.300306296e-04
0.1924464413 0.7500701907 0.0045744631
0.2024562614 0.7483484131 0.247846901
0.1923038619 0.7499130703 0.5019587123
0.2024018219 0.7480799991 0.7509043322
0.2124883015 0.502310979 0.4954972696
0.2325042382 0.749238762 -0.0028068395
0.222466643 1.0005790092 0.2480755837
0.2324649826 0.7504498983 0.4965406922
0.2124534899 1.0003040485 0.4944381078
0.222508491 0.9972074675 0.7464677032
0.2123157248 0.9993285928 -0.0022158753
0.2325086822 0.4988648052 0.4954278316
0.2123420187 0.751818155 -0.0011128842
0.2324268379 0.9984186039 0.4951732254
0.2225029359 0.7515693811 0.2503550037
0.2324823884 0.9986739245 -0.0046711587
0.2124831168 0.7506528455 0.5008236316
0.2225507093 0.7516937681 0.7470630188
0.252417962 0.7476610114 0.994704129
0.2425244276 0.4997263487 0.7458696101
0.2525342476 0.4969106204 0.9952503751
0.2425403521 0.7524139032 0.2462183471
0.2525198045 0.7488852411 0.4951834096
0.2425151692 0.7521978626 0.7453215124
0.2526342384 0.4994094892 0.4965332854
0.2625648065 0.9989554319 0.7428680343
0.242530353 0.9993809662 0.2446833031
0.2624600013 0.7496904831 0.2449934598
0.2624581496 0.749507176 0.7463010519
0.2424677662 0.9989685252 0.7447687854
0.2624144499 0.500521116 0.2421011332
0.2825681517 0.4997184926 0.7424097432
0.2824333493 0.7504629917 0.2463016728
0.2824537178 0.7492060286 0.7435772284
0.2725364819 0.7480865458 0.9945467361
0.2726127711 0.4966841051 0.9927228298
0.2725035219 0.7489441613 0.4959101946
0.2825825948 0.4986644767 0.2427325566
0.2825485239 0.9999112476 0.7427180481
0.2924624268 0.7479228788 0.9960188229
0.3027307415 0.4987247062 0.7441299553
0.2925398271 0.4988995026 0.9935653449
0.3023859584 0.7498476035 0.2419770706
0.2926016732 0.7491994819 0.4962231288
0.3024144743 0.74977559 0.7450687578
0.3025303896 0.4990415656 0.2428158823
0.292656483 0.4982697117 0.4919170434
0.3125279885 0.7512355003 0.9953429592
0.3124291087 0.7489899881 0.4984423691
0.3324172702 0.7510980199 0.9957503291
0.3225985437 1.0004939023 0.2439750349
0.3324291209 0.9994202463 0.4925901296
0.3224896648 0.5009165356 0.7422236492
0.3224185602 0.747733025 0.2449490194
0.3324880044 0.7505546453 0.4927132665
0.3223889333 0.7496970298 0.742538435
0.3225292908 0.4973184787 0.2438435656
0.3325283711 0.4998042542 0.490105173
0.3425007871 0.4994448413 0.242776997
0.3424326452 1.0010569171 0.2421909398
0.3525046817 0.7490881883 0.9923710103
0.342447829 0.5013067179 0.7383573381
0.3523754344 0.4986225779 0.9900286332
0.342527081 0.7487674008 0.2449814239
0.3524835726 0.749382789 0.4945695772
0.3626067155 0.7498606969 0.2426520085
0.3424685678 0.7488394144 0.7433902085
0.3625844953 0.751386074 0.7409663574
0.3624733944 1.0009652635 0.2404355457
0.3624326574 1.0003367819 0.7407922993
0.3624882079 0.5010939507 0.2413993459
0.3726428294 0.7509605396 0.9912229678
0.3825715457 0.5016078653 0.7400831053
0.3725872789 0.5025145809 0.9922784262
0.3825382155 0.7531340383 0.2416150668
0.3726020924 0.7516806747 0.4915550397
0.3824900717 0.7522175027 0.7404293698
0.3724946948 1.0013711578 0.490768075
0.3824493347 1.001325331 0.741980153
0.3725095083 1.0013711578 0.9920377076
0.3724909915 0.5013080272 0.4903394107
0.3926298798 0.7522698762 0.9900749252
0.3925002621 0.7531143982 0.4922151641
0.4025548928 1.0014366247 0.2416743206
0.4026030365 1.003989831 0.7402691993
0.4126391504 0.7517068614 0.9940560405
0.4125058293 0.7520407423 0.493675215
0.4125243461 0.5019692422 0.4936122578
0.402414165 0.7517003148 0.2437296871
0.4024030549 0.7521193025 0.7444521479
0.4324891764 0.7492584021 0.9867048648
0.422508613 0.5000909989 0.7394914931
0.4324225159 0.5019142501 0.9881954685
0.4225826802 0.7531143982 0.2415197052
0.4325225067 0.7513926207 0.4899672227
0.4225123163 0.7519359953 0.7414635339
0.4225382399 0.5008589248 0.2378561533
0.4325336167 0.5011410868 0.4907440031
0.4426475013 0.5007482858 0.7368028515
0.4423327154 0.750993273 0.2362303769
0.4424697398 0.7503255114 0.7335994424
0.4525428874 0.9994726198 0.9861493604
0.4625382642 0.9993940596 0.7381592082
0.4725817849 1.0005397291 0.9863530453
0.4524725235 0.7491929352 0.9858160577
0.4524021596 0.7516283012 0.4869721279
0.4524354898 0.5006952577 0.4864332885
0.4725410479 0.7513795273 0.9875844136
0.4624308667 0.7501552976 0.2374182306
0.472592895 0.7516021145 0.4913707973
0.462504934 0.750188031 0.738718416
0.4825438315 0.9997017537 0.2340296535
0.4925132848 1.0015151849 0.4835696631
0.4925947588 0.9982418434 0.9829644681
0.482477171 0.5002435366 0.2350462266
0.4926243857 0.7514842742 0.482651229
0.4925947588 0.7488525077 0.9835477478
0.4925021748 0.4985760965 0.4839668487
0.4826734492 0.5023188351 0.738427702
0.4823697734 0.7504237116 0.2335158118
0.4824919844 0.7522567828 0.7360334778
0.5124558949 0.9973711346 0.4819272215
0.5126077328 0.9991780191 0.9852512948
0.5025679155 0.9981305498 0.232933458
0.5125855126 0.7497821367 0.9816868079
0.5224994155 0.5010245559 0.2378265264
0.5225105256 0.7499719905 0.7365565778
0.5224253483 1.0006641161 0.7346771211
0.5025605088 0.7475300778 0.2300633516
0.5024642214 0.7497821367 0.7326476781
0.5124484882 0.4989427107 0.9826496823
0.512629953 0.7479294254 0.4831928459
0.5224808987 0.750168391 0.2364331361
0.532357768 0.749219122 0.4907782593
0.5323318445 0.4975129152 0.4873248732
0.5523892588 0.7486626539 0.9913155518
0.5425197962 0.9982876702 0.2365507179
0.5524744361 0.9981240031 0.4917142843
0.5422642642 0.749899977 0.2377700501
0.5524744361 0.7483942399 0.4874276415
0.5425605332 0.5002297886 0.239887448
0.5423309247 0.7509867263 0.7380712533
0.5325244193 0.7472027436 0.9892046349
0.5323466579 0.4998376423 0.9887694897
0.5624957366 0.4989911562 0.7418894206
0.5624105592 0.747896692 0.2381616808
0.5624772197 0.7470390766 0.7379323772
0.5724503765 0.7487870409 0.9937875467
0.5725392572 0.7489179746 0.4908763984
0.6024735408 0.4999522092 0.7424680711
0.6025105744 0.7505088185 0.2471173385
0.5925151975 0.7483418665 0.4996959575
0.6023772533 0.7477199316 0.74773055
0.602455024 0.4996281484 0.2443490746
0.6024402105 1.0010045436 0.2464590657
0.6024328038 0.9988244982 0.7453955796
0.5824494567 1.0008212365 0.7437003652
0.5824531601 0.7469736097 0.244207421
0.5824790836 0.4995273295 0.2430936345
0.5824198298 0.7459916073 0.7437383246
0.5925522311 0.7493893357 0.9982871328
0.6125170614 0.7497690433 0.4969702823
0.6224717013 0.4982409063 0.747649076
0.622560582 0.7472878505 0.2494384213
0.6225642854 0.7476151847 0.7467778599
0.6223939307 0.5000451721 0.2467997751
0.622560582 0.9994660731 0.2486681218
0.6224828114 0.9996362869 0.7469861741
0.6125022479 0.7494548025 0.9985463682
0.6423957945 0.9990208987 0.7480786662
0.6326670598 0.7492976822 1.0012405648
0.6325448488 0.750168391 0.5005542119
0.6524541286 0.7478574119 0.997065023
0.6424439383 0.4992163621 0.7462603149
0.6524689421 0.4978454867 0.9951392742
0.6426291064 0.7486102805 0.2458952287
0.6525430093 0.7513402472 0.4984923645
0.6426031829 0.7476544648 0.7464510381
0.6625087593 0.9990732722 0.2428686552
0.662516166 0.9977377489 0.7447604529
0.6825217333 1.0005266357 0.2395180375
0.6725374665 0.749631563 0.9951300158
0.67256339 1.0016461185 0.4938252012
0.6825032165 1.0007164895 0.7432865144
0.672522653 1.0002582217 0.9914914616
0.682569877 0.7503189647 0.2450777113
0.6724448824 0.7490750949 0.4984173714
0.6825624703 0.749114375 0.7455918579
0.6625198694 0.7493566023 0.243631548
0.6626050468 0.4992667715 0.2454406409
0.6624791324 0.749507176 0.7450493152
0.6925504405 0.9987721247 0.4930650859
0.70246064 0.9994464331 0.7466991634
0.6925097035 0.9985626309 0.9952781503
0.6925319236 0.7493566023 0.9995925683
0.7025569274 0.7521127558 0.2476941373
0.6926096943 0.751818155 0.4964120003
0.6925837707 0.5016294694 0.4909402814
0.7025976644 0.7502338578 0.7477277725
0.7325763884 0.5002677593 0.9971298318
0.7224958341 0.7504629917 0.2497883891
0.7324949144 1.0014824514 0.4975285643
0.7325874985 0.7489376146 0.498321084
0.7324875077 0.5019279981 0.4950797154
0.7225106476 0.7520603823 0.7470982008
0.7325023211 0.9981109098 0.9956021946
0.7124967539 1.0005397291 0.997814954
0.7126189649 0.7507117656 0.9988889293
0.7124745337 0.5023836472 0.9984074921
0.7125708211 0.7502534978 0.4996459621
0.7125448976 0.502816383 0.4965379147
0.7327985902 0.7492322153 0.9973705504
0.7424199274 0.4992746275 0.7518755391
0.7425125115 0.7502665912 0.2455748878
0.742619909 0.4995607176 0.2511540042
0.7424495543 0.7505088185 0.7492304121
0.7426162056 0.9995380866 0.2457257998
0.7525523287 0.7493696957 -0.0013260127
0.7524745581 1.0004611689 -0.0047450964
0.7525634388 0.5005715254 0.4963925577
0.7625551123 0.4988536758 0.7475842672
0.7624625283 0.7504760851 0.2482172373
0.7625625191 0.4980340311 0.2497707981
0.752585659 0.7492518554 0.5003671921
0.7624995619 0.7503844315 0.7473379935
0.7726171498 1.0016526652 0.4985062521
0.7825310527 0.749238762 0.2475876656
0.7825940099 0.4998474623 0.2493069519
0.772435685 0.7509343529 0.4996385554
0.7825088325 0.7500178173 0.7488378556
0.7724245749 0.7510914732 0.0013442972
0.772517159 0.4997990168 0.4972350727
0.7825977132 0.4994559707 0.7486934244
0.7725875229 0.4991764273 -0.0013148101
0.7925560565 0.7495660962 0.5005495827
0.7925523531 1.0001534748 -0.0012938861
0.8126616145 0.7504695384 0.0091277479
0.7925042094 0.7509801796 0.0014302152
0.7925153195 0.4977433584 0.5019744516
0.7924301421 0.5002873994 -0.0024058856
0.8125505136 0.5000739775 0.5070323197
0.8025403233 0.4980949153 0.7548160094
0.8124764464 0.4980445058 0.0070809918
0.8026403141 0.7513075138 0.2535019364
0.8024995863 0.4997361687 0.2510753078
0.8125838439 0.7501094708 0.507943347
0.8025773569 0.750600472 0.7559631261
0.832700512 0.7512747804 0.0053048588
0.8326042246 0.5004366637 0.5020512964
0.8223829426 0.5017590937 0.7566278798
0.8326671818 0.4991600606 0.0051929247
0.8226162544 0.7500963775 0.2538898637
0.8226384746 0.5020242343 0.256795152
0.8326301481 0.7502665912 0.5024216327
0.8226866183 0.7489048812 0.7562880962
0.8526171986 0.4992955769 0.5011532309
0.8626903461 1.0014431713 0.7489795092
0.8626903461 0.7502731379 0.2504355518
0.8527394095 0.7512485936 0.5031354559
0.8426107116 0.5020340544 0.7568954478
0.8428403201 0.7516937681 0.2551036409
0.8426070082 0.5015901893 0.2522677907
0.8426884822 0.7521782226 0.7553946599
0.8626236856 0.7505153652 0.7496618539
0.8525357246 0.7517461415 7.3731600342e-04
0.8824663048 0.7486626539 0.7506626877
0.8726523927 0.7512027669 -0.0011764894
0.89266907 0.7508165126 0.0033065241
0.8923802077 0.4983947534 0.5059426051
0.8725153683 0.4977970412 0.0029538714
0.8825885158 0.9987001112 0.250504064
0.8725153683 0.9989030584 0.5021475838
0.8825662956 0.7487543075 0.2524909183
0.8725375885 0.7505546453 0.5005329176