POSCAR file written by Ovito 3.7.11
1
269.9873111353 0.0 0.0
0.0 15.272788683 0.0
0.0 0.0 10.7994924454
Sr Ti O 
800 800 2400 
Direct
0.0224625984 0.4992594673 0.8012711991
0.0124453498 0.4985706605 0.0511558543
0.0124592394 0.2501458261 0.5489241547
0.0225570102 -5.4074332114e-04 0.2982281138
0.0225828263 0.2496383876 0.7989312743
0.0025008455 0.2500914811 0.802243467
0.01244072 0.2484702971 0.0464879497
0.0225077487 0.2497470777 0.2991670468
0.0025041419 0.2515463562 0.306372941
0.0524893429 0.0014389213 0.5470157317
0.0524463779 0.2492638653 0.0468051868
0.052413043 0.0014730343 0.0476618012
0.0425718397 0.4989798851 0.7930513684
0.0325487761 0.248908331 0.5489565636
0.0424218327 -8.1508745612e-04 0.2946066473
0.0424922064 0.2476433361 0.7994396316
0.0524026721 0.4981692931 0.0442847906
0.0525363821 0.4968767983 0.5439942934
0.032570629 -2.1015536469e-04 0.5495658515
0.0324880325 0.2520943897 0.0489153786
0.0325884076 3.4756858322e-04 0.0504195234
0.0425022068 0.2478941089 0.298433679
0.0524715642 0.2512373098 0.5482306036
0.0624849978 0.2511187983 0.7925254177
0.0725476929 0.2489941045 0.0429622285
0.0624375882 0.2490137473 0.29422237
0.0724499105 0.4989301233 0.0428912992
0.0624301804 0.4959143021 0.2948094346
0.0724869493 0.2507868354 0.5437905801
0.0624194392 -0.001784655 0.298099404
0.0825789051 0.5014967797 0.290555531
0.0925256688 0.502208503 0.5327446906
0.0926075245 0.2501962425 0.5354855602
0.1025513252 0.2502715399 0.7846528255
0.0825359401 0.250213921 0.7869844166
0.0924623325 8.0517983845e-04 0.5338623357
0.0925404844 0.250333742 0.0341725561
0.0924708514 0.0019567704 0.0347471202
0.1024935447 0.2502407662 0.2803041233
0.0825103833 0.249928446 0.2866090492
0.1024353938 0.5016768385 0.7830101557
0.0825244581 0.4989196472 0.7887678337
0.0924727034 0.5007857111 0.0318137416
0.1225281899 0.2491460087 0.2797772467
0.1125817966 0.2494321385 0.5301195672
0.122440408 0.2508654065 0.78039707
0.1126088349 0.2503278491 0.0310337975
0.1523732962 0.2497994584 0.5233923992
0.1324934731 0.2479962514 0.5303001313
0.1424994989 0.2491073779 0.7769320923
0.1524521888 0.2488605336 0.0249370295
0.1325212522 0.2505543959 0.0326248908
0.1425191294 0.2495467213 0.2793309294
0.1424469038 0.5003516057 0.7762700242
0.152459967 0.5008642822 0.0215301101
0.1324186548 0.5000078571 0.0269765698
0.1525699722 0.4995285733 0.5226062512
0.132424581 0.5002717251 0.5282407752
0.182575086 9.1053060532e-04 0.2607337591
0.1825150831 0.2503415991 0.7608757822
0.1826210141 0.2510533224 0.2644496745
0.1625226621 0.4985169702 0.7692854367
0.1725405403 0.5002252372 0.0180974488
0.1624822898 0.5029555834 0.2683572655
0.172506835 0.2479497635 0.5164939269
0.1725668378 0.5016650528 0.5155133253
0.1625334034 0.2480682749 0.7691474672
0.1823676688 0.4993838715 0.7655556318
0.1724272017 0.2498354702 0.0143739405
0.1724579438 0.001371743 0.0171076801
0.162338209 0.251288381 0.2703388401
0.2025926934 0.249843982 0.7552403322
0.1925607404 0.2501772545 0.008183094
0.2025871376 0.2508536208 0.2546584736
0.2026930685 0.4996019064 0.758670123
0.192700747 0.5008930916 0.0150610098
0.202556025 0.5010986861 0.2613754559
0.1926648194 0.4999194646 0.5128678306
0.1924462906 0.2485069636 0.5088639387
0.2025841745 0.0013589752 0.2565335617
0.2225869664 0.5015511247 0.2546566216
0.2324589118 0.4999986905 1.0017824742
0.2125735328 0.248848748 0.5064277131
0.222386957 0.2516779628 0.7565635425
0.2124961218 0.2508726089 0.0046082038
0.2224480709 0.2512045718 0.2509703373
0.232555583 0.2505550506 0.4995292407
0.2325066918 0.2490419019 1.001273191
0.2226221532 0.5010548172 0.754367143
0.21256131 0.4982138167 0.0082465229
0.2424241949 0.4993314908 0.2482442833
0.2624503213 -0.0010521103 0.2388206922
0.2623929111 0.2487119033 0.7414989456
0.2625262507 0.4989072068 0.7419600784
0.2524298503 0.2509367753 0.4929261526
0.2424360473 0.2486732725 0.7465852958
0.2524165164 0.2505864791 0.9959118279
0.2523802184 -4.3224970976e-04 0.4929724511
0.2523861446 -0.0014982633 0.9926709348
0.2623273525 0.2500495765 0.2409670894
0.2424301211 0.2518717715 0.2483665112
0.2724774592 0.2498596963 0.486460108
0.2724604213 0.2508523113 0.9860409936
0.2723059696 -7.1726642088e-04 0.4863943642
0.2724430131 -0.0013075319 0.9873836493
0.2722959691 0.4977155449 0.4859924935
0.2824849665 -7.1864141535e-04 0.2335806312
0.2823079211 0.2497817799 0.7352893946
0.2823397745 0.2487819625 0.2357446218
0.3124148916 0.250385468 0.4715158872
0.3125123036 0.2495905902 0.9721792311
0.312651199 0.0011328869 0.4706982562
0.3124863764 2.9617480726e-05 0.9716699479
0.2924054327 0.2509086206 0.4833507026
0.3024733133 2.6513439088e-04 0.2274414538
0.3024210886 0.249819756 0.73094382
0.2923113542 0.2493267222 0.9822815577
0.29245062 7.9352512341e-04 0.4804200094
0.3025577617 -0.0012302048 0.7265806519
0.2924213594 -0.0012433655 0.9763460936
0.302464424 0.2481619055 0.2304971529
0.3124234105 0.4994977996 0.9709662111
0.3125949001 0.5004347602 0.4712640235
0.3324917611 0.2477939308 0.4706612174
0.3226027778 0.2495846974 0.7201942407
0.3325588012 0.2499932672 0.9675030854
0.3225198109 7.8200618711e-05 0.7180580292
0.3325180586 0.0012103449 0.9685494309
0.3225405526 0.2508791565 0.2219041565
0.3325676905 0.4990178611 0.96827164
0.3626098431 0.2487269627 0.2108860461
0.3524986272 0.4979303059 0.4605570388
0.3625950276 0.5010168411 0.712246645
0.3526360411 0.2498852319 0.4642766581
0.3423937079 0.2497038636 0.7182941514
0.3526819692 0.248125239 0.9682253416
0.3525801125 -2.6233485178e-05 0.4639988673
0.3425796425 3.1123427052e-05 0.7169172348
0.3525493703 -0.0016050545 0.9655215108
0.3424885272 0.2494976144 0.2170298533
0.362554285 0.2504974318 0.7091427954
0.3926853306 0.25141344 0.4500954361
0.3925705104 5.2677619598e-04 0.4503973021
0.3925556949 0.2502643375 0.9492151889
0.3925853259 2.9309261179e-04 0.9493726037
0.3825255939 0.4995200615 0.2054469016
0.3925927337 0.4997669057 0.9491874098
0.3726103131 0.2503134444 0.4561327568
0.3825367055 0.2509400491 0.704124967
0.3826107831 5.0503818815e-04 0.200404072
0.3726325364 0.2526227804 0.9577155884
0.3825255939 0.2511711791 0.2046922365
0.3925149523 0.4999063694 0.4536187498
0.4026191308 0.250899454 0.7004349788
0.4125492271 0.4991998842 0.948029948
0.4025450533 0.2517696291 0.2011291061
0.4124973728 0.2512523692 0.4493741059
0.4125084845 7.6877522292e-04 0.4495546699
0.4126307124 0.2501805283 0.9479188317
0.412493669 0.0013445051 0.9497429915
0.4025746843 0.5003954746 0.7007433266
0.4023672671 0.501359935 0.2034847723
0.4425098944 0.2498662439 0.6947189694
0.4425802681 0.0012772613 0.1940815527
0.4424395207 9.1229845535e-04 0.6922521868
0.4425691564 0.2500823144 0.1966511179
0.432553871 0.2504732057 0.4446868486
0.4225126583 2.4621184791e-04 0.1951834563
0.4225089544 0.2523386149 0.6992904805
0.432402012 0.0020392046 0.4454729966
0.432553871 0.2515051063 0.9447427565
0.4224830273 6.3042458874e-04 0.697034819
0.432490905 -2.5572661002e-04 0.9465946954
0.422642294 0.2491577943 0.1949121472
0.4426617534 0.5005408312 0.1965409275
0.4523918403 0.0011968568 0.4465341576
0.4525881458 0.25105987 0.9439279034
0.4624997227 0.5000209523 0.1949556678
0.4724112996 0.5009886865 0.44555263
0.4524881411 0.5012623759 0.9479836495
0.4724631539 0.2501805283 0.4432228909
0.4622960095 0.2499775529 0.6944458084
0.4624034219 -9.3019413614e-04 0.19155736
0.4724520423 0.2483105358 0.9436038141
0.472429819 8.1892978316e-04 0.4438516241
0.4623330482 0.2500967191 0.1945047207
0.4525770342 0.2511541553 0.4448600049
0.4624404607 0.5014234467 0.6961097755
0.4723779647 0.5032528441 0.9437149304
0.4923677931 0.4991560153 0.9476225215
0.4824154735 0.2526208161 0.6959782878
0.4825414053 0.0016510633 0.6951773243
0.4824043619 0.2518449264 0.1915999545
0.4923974241 0.2512189765 0.443159925
0.4924381667 0.2514350471 0.945696505
0.5023867824 0.4978327468 0.1959094163
0.5024386367 0.4997269654 0.6974598389
0.5124391067 0.4994729188 0.4509176969
0.502490491 0.2515502847 0.2014754186
0.5224543922 9.2624482785e-04 0.2052542999
0.5224877271 0.251291 0.2020189627
0.5125354075 0.2507095738 0.450279704
0.5223840185 0.5010724957 0.7051333477
0.5224951349 0.2504168964 0.700124779
0.5024090057 0.2509446324 0.699033987
0.5124131796 0.2503357063 0.9502985732
0.5025608647 8.3228687231e-04 0.6997210563
0.5323770807 -0.0033063155 0.4564207333
0.5325956095 2.4699755904e-04 0.955817351
0.5324437505 0.2503723728 0.4525261059
0.5325400514 0.2499042199 0.9547987846
0.5425145942 0.4993419669 0.7075538318
0.5524261711 0.4998644648 0.95857674
0.5523743168 0.499752501 0.4594384678
0.542429405 -0.0023260754 0.7064778553
0.552429875 -0.0016806137 0.9616139197
0.5424812593 0.2496089235 0.2066339944
0.5524520983 0.25010785 0.4609598355
0.5423812546 0.2505386816 0.7094057707
0.5525928456 0.2501261833 0.9599934732
0.5725234119 0.2487872006 0.4648377956
0.5624229372 -6.494333603e-04 0.2105499192
0.572519708 0.2494589836 0.9641695954
0.5624784954 0.5010240435 0.2110740179
0.562337748 8.0033944673e-05 0.7099085721
0.5624192333 0.2481180366 0.2135667276
0.5724826692 0.5004236292 0.9609657411
0.5624044178 0.2498466011 0.7115382784
0.5724678537 0.4988017905 0.4611024348
0.5723937762 1.5048604234e-04 0.4638173772
0.5724048878 3.0180091011e-04 0.9629195367
0.5925354635 0.5019714802 0.9648455531
0.5924613859 0.5007824373 0.4651841081
0.5825757362 0.250263028 0.7144245251
0.5924687937 5.2572858114e-04 0.4668388155
0.5924576821 1.4930747565e-04 0.9640769985
0.6024729676 0.2527550418 0.2189021636
0.5825646245 0.5016185649 0.7162051643
0.5925317596 0.2506526097 0.4656294994
0.6026026033 0.2506578478 0.718458048
0.592550279 0.2504830271 0.9666789726
0.5824683237 -0.0013696031 0.2166585396
0.5824868431 0.2498204107 0.2153714421
0.6125067724 0.5019590397 0.9701420983
0.6125104763 0.5024605853 0.4710297532
0.6124919569 -2.8414316243e-04 0.4689991023
0.6125586267 3.4652096839e-04 0.9677253181
0.612551219 0.2510376082 0.4714510693
0.6124104716 0.2499821363 0.9701698774
0.6226553975 0.2513257023 0.2268469814
0.6225035385 0.2509557633 0.722941592
0.6425859638 6.1471036621e-04 0.2282507511
0.6524456864 0.0013574038 0.480492235
0.6523345701 4.1166951596e-04 0.9810129796
0.6425378134 0.2505701101 0.2315888709
0.6526197687 0.250282016 0.4846303924
0.6424229932 0.251127965 0.7311586449
0.652549395 0.2500482669 0.9822908174
0.6325336395 0.5019904682 0.9763275742
0.6324151154 0.5013278518 0.4774282021
0.6424674397 0.5003817247 0.23112959
0.6524790213 0.4992948243 0.4813793137
0.6324780814 0.0017187655 0.4740206345
0.6324817852 -0.0016064295 0.9745126741
0.6324706736 0.2491420801 0.4748901198
0.6324669697 0.2490202949 0.9762905354
0.6823470917 0.5009651152 0.7369042853
0.672457738 0.500070714 0.9872262345
0.682398946 0.5009271391 0.2368418955
0.6623646711 0.2508739184 0.2346992023
0.6723651411 0.4993858358 0.4872999623
0.6625017146 0.2486470821 0.7364857471
0.6824804313 0.2500220766 0.2383252986
0.6724688497 0.248832379 0.4831053207
0.6824508002 0.2489024382 0.7382182359
0.6725540388 0.2494917216 0.9880503473
0.6623202246 0.4995848826 0.7365292676
0.702548041 0.2490818423 0.23864661
0.6924846051 0.2510192749 0.492156672
0.7023628471 0.2484853566 0.7397229362
0.6924438625 0.2478240497 0.9888374214
0.7025147061 0.5004753552 0.7415341325
0.6923920082 0.5001833326 0.989059654
0.7024332208 0.5009624961 0.2377826805
0.7024072937 0.0010943215 0.2415439684
0.7224341608 0.4975374504 0.7460741607
0.7224452724 0.4998415483 0.2476692562
0.7124781373 0.2499179698 0.4937187825
0.7125262877 0.2499782077 0.9945043543
0.7224637918 -0.0010344973 0.2443200248
0.7225082383 -1.1711407214e-04 0.7446064991
0.7226452818 0.2504712414 0.2444857733
0.7324901889 0.2503776109 0.497219873
0.7225675004 0.249909458 0.7437175684
0.7325716742 0.2495925545 0.9991342016
0.7124188753 -1.7132331297e-05 0.4888648507
0.7424388046 1.9409300986e-04 0.7476631242
0.7524429785 0.4993792882 0.0011473004
0.7424758434 0.2519876639 0.2490480247
0.7424499163 0.250777014 0.7468056765
0.7624767834 -0.0019711304 0.2532111833
0.7523985319 -0.0023165814 0.5008413394
0.7623915942 -0.0012214311 0.7532309785
0.7624730795 0.2470442314 0.2546686592
0.7525615026 0.2493371984 0.5016682302
0.7624508562 0.2494164242 0.7500974979
0.7525022405 0.2511377864 1.0034306998
0.7824592039 0.001763551 0.2535380506
0.7824666117 7.5430504301e-04 0.7541347246
0.7724328068 -0.0035999751 8.5311987453e-04
0.7824666117 0.2492546987 0.254189933
0.772488365 0.2505766577 0.5026849446
0.7824999466 0.2481193461 0.7556107199
0.7725587386 0.2483602975 0.0040822531
0.7925300476 1.1218745182e-05 0.5071703406
0.7924300429 0.2479844657 0.5060591773
0.7924856011 0.2489580928 0.0068780326
0.8024823672 0.0016564978 0.2570771058
0.8123606092 -7.7370667013e-04 0.5097417577
0.8024156974 -5.6692171425e-07 0.7574858081
0.8124457984 -7.0652836882e-04 0.0095074155
0.8022638384 0.249011783 0.258190121
0.8123976479 0.250564872 0.5078092595
0.802304581 0.2476217291 0.758003425
0.8124532061 0.2487020819 0.0109457238
0.8223166326 0.0011781962 0.7621897328
0.8324356267 -2.4728021542e-04 0.0161740251
0.8224388606 0.2494897573 0.2620921563
0.8324208112 0.2483052978 0.518248639
0.822364783 0.2499762434 0.7653009902
0.8323837724 0.2507311809 0.0160781872
0.8224240451 1.5454554983e-04 0.2629403443
0.8325022965 -5.536420788e-04 0.5173745238
0.862577784 0.4989150639 0.7795933285
0.8526699109 0.5009965436 0.0262883893
0.8626518615 0.5013206495 0.2791522173
0.8424101695 7.0814451433e-04 0.7707743955
0.8426509216 0.2508235019 0.2723694911
0.8425286936 0.252294746 0.7679362992
0.8626407499 0.0012463566 0.2785281139
0.8525032364 0.0013674871 0.5230794216
0.8525143481 3.920267378e-04 0.0268978624
0.8424027618 -0.0016688281 0.2708768284
0.8625259297 0.2514658208 0.281556034
0.8525662024 0.2498891604 0.5251415555
0.8626444538 0.2506473717 0.7778830629
0.8524921248 0.2489908307 0.0254930741
0.8725412152 0.5023414192 0.5347086718
0.8825676123 0.500388927 0.7847361628
0.8924940047 0.5012099951 0.0388149965
0.8825750201 0.498607327 0.2830005463
0.892545859 -0.0011983181 0.5325150502
0.8724930648 -0.0024684856 0.0306377604
0.8925125241 8.4328682808e-04 0.0336459573
0.8826268743 0.2490477948 0.2842441232
0.8727078897 0.2515312967 0.5312270267
0.8924977086 0.2488552955 0.5356364932
0.8825046464 0.2507842164 0.7849769148
0.8726782587 0.248603868 0.0304440476
0.892486597 0.2511129055 0.0350580607
0.9024907708 0.4979925081 0.2862997754
0.9025574406 -8.9627760585e-04 0.284283014
0.9124393865 1.7680736508e-04 0.5333363851
0.9024426204 8.7399503794e-04 0.7881770652
0.9125505029 0.0016586585 0.0330917646
0.9025389212 0.2500260051 0.2866349763
0.9124912408 0.2494111862 0.5348947917
0.9025500329 0.2512785596 0.7853500805
0.9125838378 0.2494963049 0.0350050026
0.9126319882 0.4988607189 0.0411197345
0.9226250504 0.0020544605 0.2883933923
0.9225843077 7.562038449e-04 0.7849704331
0.9325995932 0.4993727406 0.5423238445
0.9325699622 0.5011510668 0.0454354002
0.9226991279 0.2525140904 0.28834339
0.9224435604 0.2511816552 0.7875288866
0.9426482136 8.1238219044e-04 0.2915639117
0.9324736614 3.9896718608e-04 0.5390783216
0.9424296848 4.2083614577e-04 0.7904355047
0.9324958846 1.4727772191e-04 0.0398421744
0.9424519081 0.2501772545 0.2943205227
0.9326107049 0.2499291008 0.5415321406
0.9425630244 0.2516832008 0.7936467667
0.9326995979 0.2479661325 0.042728236
0.9226694969 0.5005532716 0.7921800311
0.962515814 0.2514913564 0.2984457166
0.9526227565 0.2495624356 0.5407561782
0.972605177 0.2490353543 0.5516029843
0.9624343287 0.251497904 0.7957477914
0.9525931254 0.2500240408 0.0428179624
0.9725014684 0.2513433808 0.0493965123
0.9525190479 0.4983807803 0.0455046628
0.9724866529 0.5004904147 0.0476404113
0.9625824838 0.4986747672 0.2969752771
0.9524968246 0.0012493685 0.5446008034
0.962393586 -1.2117357962e-04 0.7937801063
0.9925579666 0.4994022048 0.5519798538
0.9826167586 0.4998120841 0.8010165575
0.9925061123 0.0019823061 0.549370472
0.9826426858 -2.5415518777e-04 0.7987562661
0.9825278656 0.2499297555 0.2968363817
0.9925098162 0.2490301163 0.5495760372
0.982394526 0.2477808356 0.7999841016
0.9924727774 0.2485416659 0.053836258
0.0024637696 1.000602749 0.2980623652
0.0125414284 0.9996729909 0.5493232475
0.0225499358 0.9994634679 0.8012989782
0.0023092068 0.9993783492 0.8015054694
0.0124862407 0.9977021654 0.0515923563
0.0125657259 0.7471126969 0.049914407
0.0025325136 0.4995036925 0.801215641
0.0225288608 0.7501507799 0.2976771619
0.0025043641 0.7481275737 0.3017403159
0.0125689853 0.7474335289 0.5507770195
0.0225732703 0.7498037575 0.7970561862
0.0024926969 0.7478067417 0.8024453284
0.0225244532 0.5006377355 0.297857726
0.0025683301 0.4998985123 0.3018245791
0.012478907 0.500603688 0.5516761359
0.0325376645 0.7490442367 0.04811673
0.0325387756 0.4993432765 0.0484933217
0.0425014661 0.751466846 0.2982771901
0.0326213721 0.7480555502 0.5470888833
0.0424551676 0.7534965998 0.7986294083
0.0424047949 0.4992430983 0.2964308071
0.0325765552 0.4985621486 0.5501362487
0.0425366529 0.9998497759 0.7968061745
0.0525282336 0.7495091158 0.0450059356
0.0525393452 0.7495811393 0.5457554873
0.0724199091 0.9999741801 0.5401154074
0.0623761038 0.9991360883 0.7947208913
0.0725291735 1.0018860772 0.0424589641
0.0723958339 0.7518662492 0.0443667389
0.0625564826 0.498253757 0.7929059912
0.0624098091 0.7513424418 0.2935603018
0.0724095383 0.7519513679 0.5435952005
0.0623723999 0.7503144697 0.7945958854
0.0725432483 0.4988567903 0.5404117176
0.1025887344 0.5004275578 0.2810069341
0.1025954013 1.0002426314 0.2814541773
0.082555941 1.0021479809 0.2933843676
0.102563548 1.0028092878 0.7796794437
0.082519643 1.0000527512 0.7911559089
0.0923823288 0.7512704182 0.0358653209
0.1023953919 0.7516174406 0.281431954
0.0823903777 0.7503930408 0.287251672
0.0924367758 0.7503930408 0.5369893345
0.1023465007 0.7504519691 0.7842898455
0.0823966743 0.7503341125 0.7895530558
0.1125836485 1.001872982 0.0311571366
0.1124925331 0.7514013701 0.0324343263
0.1225244861 0.4992149436 0.7819008444
0.1125569806 0.5011104717 0.0307102638
0.1224792988 0.7516698214 0.2802467132
0.1124529016 0.7493585212 0.5311233181
0.1223792941 0.7495614965 0.7825999513
0.122587452 0.4999869048 0.2802578248
0.1124854958 0.4994702997 0.5320863263
0.1225655991 1.0001444175 0.2802457872
0.1125017928 1.0014081029 0.5308390455
0.1226089345 0.9997777523 0.7812563696
0.1425250556 1.0006420346 0.2746853407
0.1524977465 0.9988479942 0.5256184298
0.1325642171 1.0000462036 0.53221874
0.1426202453 1.0004521544 0.7810174695
0.1525551566 1.0003539405 0.0248154497
0.1325742176 0.9992932305 0.0314960414
0.1525677498 0.7494043543 0.0243257045
0.1324856949 0.7515977979 0.03218237
0.1424246805 0.7497186388 0.2774317661
0.1525221921 0.7498495906 0.5254850902
0.1324479154 0.7493781639 0.5289954403
0.142563576 0.7504519691 0.7773561863
0.1424206063 0.5008531513 0.277342873
0.1825339729 1.0010479853 0.7631981136
0.172544985 0.7499347093 0.017426121
0.1624474734 0.7514864888 0.2729334065
0.1724846118 0.7499870901 0.5197107447
0.1626341488 0.7490311415 0.7695743391
0.182665831 0.7491882837 0.2661266051
0.1826176806 0.7508317295 0.7639833356
0.182622866 0.49963268 0.2666627414
0.162531181 1.0021807189 0.2708638648
0.1726546197 1.0010872709 0.5148827401
0.1625208102 0.9990182316 0.770428083
0.1926429665 1.002436075 0.5097713887
0.2026719564 1.0003146549 0.7575608116
0.1925888899 1.0008057244 0.0109910037
0.1927003766 0.7501442323 0.0097141845
0.2026882534 0.7511198236 0.2577863984
0.1925744448 0.7519906534 0.5118159293
0.202653437 0.7489394752 0.7582386212
0.2126350172 0.4997151797 0.5082092783
0.2325511383 0.7511067284 -0.0014583776
0.2226136343 0.9999676325 0.257554906
0.2326378091 0.7514275605 0.4993338612
0.2125953857 0.9989658508 0.5055684134
0.2226551177 1.0005372731 0.7553134837
0.2125998303 1.0007729864 0.0068534019
0.232471505 0.5012165427 0.5053572924
0.2126990943 0.7505763734 0.0074766719
0.2324281696 0.9991360883 0.4983782607
0.2225795586 0.7493061404 0.2535658296
0.2324844685 0.9995485866 0.0018235359
0.2127539117 0.7513686321 0.5069786649
0.2224914063 0.7478132893 0.7567413286
0.2524813342 0.7500722088 0.9909208526
0.2424316027 0.4995927397 0.7471881019
0.2523583655 0.5011563049 0.9950043778
0.2424956798 0.7495549489 0.2451145065
0.2525813389 0.7506942301 0.4904352948
0.2424853089 0.7474924572 0.7466778927
0.2524991128 0.500933032 0.4961466744
0.2624092082 0.9990509695 0.7423925061
0.2424627153 0.9988087086 0.2476998132
0.262518843 0.7474531717 0.2401568661
0.2624918047 0.7492275693 0.7404535261
0.2425538306 0.9977545462 0.7445018645
0.2624051339 0.4994925616 0.2397466617
0.282476818 0.5009598771 0.7323874063
0.2825816377 0.7476954326 0.2312860789
0.2824542243 0.7490311415 0.7335754251
0.2725437586 0.7517680353 0.9870225212
0.2724396796 0.5002258919 0.9876799596
0.2725074606 0.7515847027 0.487702759
0.2825160791 0.5001479756 0.2335797052
0.2824231117 0.9997057288 0.7354468094
0.2924861773 0.7513817273 0.9796703239
0.3025070186 0.5025057637 0.7256250515
0.2923772832 0.4979597701 0.979059184
0.3024822026 0.7491817362 0.2252302387
0.2925502543 0.7497644719 0.4803264864
0.3025318345 0.7502948269 0.7249009434
0.3024796099 0.5000235713 0.2227430848
0.2924124701 0.5004602958 0.4808774383
0.3124893395 0.7492734025 0.9710680678
0.3125045254 0.7505239927 0.4698630317
0.3324576854 0.7483632871 0.9672345543
0.3224524004 0.9989069225 0.2197781307
0.3325702833 1.0003081074 0.4674147685
0.32254759 0.5000412498 0.7173468847
0.3224927726 0.7500722088 0.2142667605
0.3325162066 0.7490835223 0.4686518637
0.3225938885 0.750406136 0.7170070539
0.3224857353 0.5013088638 0.2197503516
0.3324828717 0.4979368535 0.4667286252
0.3425440853 0.4992175627 0.217253012
0.3425288994 0.9982783536 0.2166900226
0.3526441896 0.7492537597 0.963576975
0.3426559424 0.4983349472 0.7149078812
0.3524308463 0.5003928556 0.9629565754
0.3424533403 0.7484222154 0.2142658346
0.3527204895 0.7499347093 0.4616830177
0.3626394742 0.750196613 0.2070849415
0.3425088985 0.7505436354 0.7152495639
0.3625394695 0.7495942345 0.7074177143
0.362765406 0.9986319236 0.2098841472
0.3625950276 0.9983110916 0.7106215686
0.3626765129 0.5012721973 0.2094202365
0.3727251333 0.7498888762 0.955363626
0.3826330064 0.4997603581 0.7038684735
0.3726288325 0.4992044675 0.9549561995
0.3825441133 0.7500656612 0.2016207959
0.3726621674 0.7506942301 0.4535946746
0.3825663366 0.7496269725 0.7021035757
0.3724473425 1.0000462036 0.4548058426
0.3826959723 1.0006223918 0.7007386967
0.3725066045 0.9997646572 0.9540950479
0.3725584588 0.5004589862 0.4537206064
0.3925853259 0.7501507799 0.9469280444
0.3925964376 0.7506418493 0.4489814948
0.4026339463 0.9998890614 0.1978400626
0.4027302472 0.998062283 0.696093108
0.4124640379 0.750373398 0.9470484204
0.4123603294 0.7488805469 0.444914637
0.4125270039 0.5007974968 0.4493805877
0.4024154175 0.7511918471 0.1992142013
0.4025413494 0.7497710195 0.6996219776
0.4324464585 0.750969229 0.9452705591
0.4225608087 0.5005742239 0.6980246803
0.4324575701 0.4992994076 0.9449649892
0.4224793234 0.7509626814 0.1954473576
0.4324649779 0.7516894642 0.4424432246
0.422431173 0.7510150621 0.6972237167
0.4225422893 0.4998919647 0.195344575
0.4326798028 0.4998625006 0.4430247334
0.4426173069 0.5015799341 0.6934152044
0.4425247099 0.7530841014 0.1961668358
0.4423950742 0.7521412481 0.6971487132
0.4524436946 1.0008842955 0.9456872453
0.462521946 1.0008973907 0.6938902267
0.4724409307 0.9998825138 0.9438908646
0.4525362915 0.7516632738 0.9463076449
0.4525288838 0.7501442323 0.445461885
0.4524362868 0.5026144538 0.4455572598
0.4724557462 0.7513293466 0.9435667753
0.4623849025 0.7510608953 0.1929314986
0.4724520423 0.7502228034 0.4453878074
0.4623256405 0.7515519647 0.6957458695
0.4826154829 0.9989069225 0.1932463282
0.4925603947 0.9980229975 0.4466221247
0.4925418753 0.9997908475 0.94312231
0.4824488084 0.5013147566 0.1951371578
0.4924789094 0.7500787564 0.4435256829
0.492308531 0.7512835134 0.9453446366
0.492490021 0.5013959468 0.4461517322
0.482400658 0.4990224444 0.6943106169
0.4823413959 0.7529269592 0.1923379522
0.4823117649 0.7511525616 0.6931198202
0.5124835532 0.9999021566 0.4497000471
0.5123724369 0.9984551386 0.9496133558
0.5025016027 1.000989057 0.1976298676
0.5125650386 0.7462615098 0.9503448716
0.522491431 0.4971236425 0.2001188734
0.5225321736 0.7465168659 0.7029980622
0.5225469891 1.0005569159 0.7073593783
0.5024090057 0.7516043455 0.1979400673
0.5024719716 0.749843043 0.6966162808
0.5123872524 0.4973901295 0.9522523687
0.5125354075 0.7500591136 0.4520557134
0.5225173581 0.746981745 0.2048653928
0.532399304 0.7467329365 0.4573791117
0.5324844932 0.5000085119 0.4532437322
0.5523595013 0.74927995 0.9598545778
0.5425442252 0.9995223962 0.2073766219
0.5524039479 0.999011684 0.4610320612
0.5424812593 0.7483109063 0.210677703
0.5523520936 0.7490180463 0.4582476711
0.5424849632 0.5010842814 0.2057348781
0.5424479244 0.7482978111 0.7098270868
0.532428935 0.7484418582 0.9561599597
0.5324548622 0.4998762505 0.9553358469
0.5624377527 0.5005637477 0.7092289106
0.5622895976 0.7500067328 0.2107110379
0.5624081217 0.7503472077 0.7102622925
0.5724197033 0.7483632871 0.9623732147
0.5725308197 0.7479966219 0.4612033655
0.6025544529 0.501411661 0.7157810703
0.6024248171 0.7484745961 0.2151038369
0.5924947208 0.7493978067 0.4665693584
0.6024248171 0.7490900699 0.7138448682
0.6025063025 0.5012682687 0.2181178674
0.6025692684 1.0005569159 0.2206383563
0.6025470451 1.0015717927 0.7176237495
0.5825164741 0.999155731 0.7170459446
0.5824386927 0.7488085234 0.2130296654
0.58239795 0.5029005836 0.2158325749
0.5825275858 0.7485531673 0.7112123371
0.5925058325 0.7491097126 0.9660493134
0.6123512096 0.7500067328 0.4661174853
0.6224072377 0.5006331522 0.7247407507
0.6224220532 0.7494960206 0.2175826571
0.6225257618 0.7480882882 0.7166449998
0.6224257571 0.5005388669 0.2223199168
0.6223739028 1.002645598 0.2230051342
0.622429461 1.0000069181 0.7231490092
0.6123475057 0.7513489893 0.9669197246
0.6423600273 1.0018926248 0.7261611878
0.6323262224 0.750615659 0.971697727
0.6323039991 0.7509233958 0.4727372409
0.6524086477 0.7517483925 0.9791795601
0.6424081777 0.5008793417 0.7310567882
0.6522827158 0.4998199412 0.9825223098
0.6424081777 0.7497055436 0.2260950942
0.6523938321 0.7511001808 0.4809542937
0.6424081777 0.7514210129 0.7258852489
0.6624128215 1.00084501 0.2320453738
0.6625350495 0.998625376 0.7332272606
0.682487839 0.9994438251 0.2378937968
0.6723762527 0.750052566 0.9840223803
0.6723169907 1.0003473929 0.4841859271
0.6824100576 1.0015325072 0.7361431384
0.6724466264 1.0005765587 0.9826889843
0.6823322762 0.7495484013 0.2374206264
0.6724132915 0.7502882793 0.4837275722
0.6822433831 0.7490245939 0.7367811313
0.6623609672 0.7525144609 0.233160241
0.6624424525 0.5019668969 0.2330009743
0.662338744 0.7508120867 0.7326142688
0.6923327461 0.9992343021 0.4869295745
0.7024998906 1.0004848924 0.741185968
0.6923808966 0.9989527557 0.9857539431
0.6924142315 0.7502948269 0.9894022627
0.7023739588 0.7499674473 0.2382678885
0.6924623819 0.7500722088 0.4889509658
0.6924105276 0.5013317804 0.487371262
0.7024517402 0.7488478089 0.7407489104
0.7324383346 0.5002749989 0.99827305
0.722578612 0.749489473 0.2448691246
0.7323864803 0.9995944197 0.4951521832
0.7325716742 0.7495418538 0.4985773442
0.7325716742 0.5017527906 0.4988199481
0.7225526849 0.7508317295 0.7456074721
0.7325420432 0.9991229931 0.9973285611
0.7124410986 0.9985009718 0.9898930265
0.712548511 0.7496204249 0.9930691017
0.71251888 0.5017495168 0.9896893132
0.7124448024 0.7516239882 0.4953225616
0.7125077684 0.499592085 0.4922622326
0.7324161114 0.7481734069 0.9965414871
0.7425610326 0.5005545811 0.750578076
0.742579552 0.7493781639 0.2449561658
0.7425239938 0.5002691061 0.2499601046
0.7424610279 0.7477674561 0.7469843886
0.7424795473 0.9990509695 0.2483359542
0.752580022 0.7493650688 -0.0012749431
0.752305935 0.9981866873 0.0014987058
0.7525281677 0.5011785667 0.5007996708
0.7625841958 0.4993341098 0.7537245202
0.7624212252 0.7475317428 0.2514796205
0.7625693803 0.4990872656 0.2539769601
0.7525244638 0.7492537597 0.4979625004
0.7625804919 0.7484025726 0.7525244638
0.7724439184 0.9976694275 0.5017015651
0.7825555047 0.7506876825 0.2530371011
0.7824962427 0.4986656006 0.257554906
0.7726180007 0.7487561426 0.5046442959
0.7825555047 0.7484025726 0.7542578786
0.7725550348 0.7488412613 0.0020659547
0.7726031852 0.4994545855 0.5049193089
0.7826332862 0.4991206583 0.7577247082
0.7725994813 0.4983781613 0.0048708087
0.7923855964 0.7514210129 0.5044026179
0.7925670864 0.9986843044 0.004284207
0.8125124682 0.7506942301 0.0075071363
0.7925041204 0.7486186432 0.005370184
0.7924041157 0.5012630306 0.5070832995
0.7924856011 0.4989425638 0.0060117882
0.8124346867 0.4977338782 0.5104075298
0.8024527361 0.4978497706 0.7571478292
0.812427279 0.4981306623 0.0119345666
0.8025675563 0.747721623 0.25579649
0.8024971827 0.4980658411 0.2591475734
0.8124124635 0.7497775671 0.5118400045
0.8025194059 0.7490180463 0.7575089573
0.8325356314 0.7502424462 0.0156813167
0.8325134081 0.4977633423 0.5163244745
0.8224129334 0.4983611375 0.764851895
0.8325393353 0.4990925036 0.0198877181
0.8225684963 0.7487757854 0.2656108402
0.8225129381 0.49953774 0.2635755593
0.8325689663 0.7497775671 0.5152975744
0.8224721955 0.7485400721 0.7644676177
0.8525958334 0.4995711327 0.5245887518
0.8624888909 0.9987170423 0.7779756599
0.8625518568 0.7509495862 0.2821718036
0.8524661977 0.7501900654 0.5255119433
0.8425064703 0.5004720814 0.7691057986
0.8425249897 0.7480097171 0.2711694347
0.8424768393 0.5007444613 0.2717463137
0.8425509169 0.7489067373 0.7723457657
0.8624111095 0.7491620934 0.7813887833
0.8524699015 0.7508841103 0.025777069
0.8824713115 0.7490245939 0.7862677162
0.8725893656 0.7504585167 0.0325766478
0.892456966 0.7537912414 0.0366299864
0.8925717862 0.4993321455 0.5391116565
0.872578254 0.5004969623 0.0346203549
0.8825120541 0.9999217994 0.2819995733
0.8724300988 1.0006485822 0.5319640984
0.8825639084 0.7487692378 0.2860636532
0.8725893656 0.7528156501 0.5317529773
0.892516228 0.7509888717 0.5373189797
0.8826342821 0.9999807277 0.7828694084
0.9025722561 0.7516108931 0.2863229246