POSCAR file written by Ovito 3.7.11
1
270.013593538 0.0 0.0
0.0 15.2742754403 0.0
0.0 0.0 10.8005437415
Sr Ti O 
800 800 2400 
Direct
0.0223774206 0.4996438456 0.763460443
0.0126067273 0.5013264132 0.0110791561
0.0124262919 0.2486774404 0.5110527805
0.0222852771 9.9027415029e-04 0.2596145136
0.022478971 0.2508818003 0.7608503892
0.002539012 0.2492365504 0.7605115174
0.0124069966 0.2489314622 0.0126549101
0.0225670036 0.2483271783 0.2613181315
0.0025544556 0.2494925363 0.2620282809
0.0524840159 -5.1788249453e-04 0.5077048009
0.0524006868 0.2507868694 0.008547802
0.0525258657 0.0016140681 0.0093064675
0.0426282158 0.4998736438 0.7578264674
0.0324565057 0.250467378 0.511110185
0.0424060048 6.840075769e-04 0.2595098892
0.0424248927 0.2502081186 0.756310803
0.0526077134 0.5020577081 0.0050264978
0.0524295742 0.5012864767 0.5058039707
0.0323753987 9.8084653452e-04 0.509368606
0.0324320625 0.2507272921 0.0094235913
0.032468357 -0.0013767776 0.0117006988
0.042376747 0.2516288079 0.256841505
0.0524606838 0.2504988034 0.5076307305
0.0623694442 0.2491998874 0.7575968493
0.0723737553 0.2487645149 0.0062827309
0.0623916653 0.2495573512 0.2567248442
0.0725159703 0.4997132434 0.0079640351
0.0623912949 0.5000543397 0.2529250355
0.0723119065 0.2507344938 0.5060539581
0.0623257426 0.0012407607 0.2568461344
0.0824780614 0.4999626824 0.2550869637
0.0923594157 0.5016989349 0.5042336793
0.0923857107 0.249327553 0.5050317873
0.1023103962 0.2494525999 0.7540840632
0.0824606549 0.2502618036 0.7596180439
0.0922868268 -0.001230715 0.5019874961
0.0924490409 0.2512497392 0.001999428
0.0924179313 6.9369707089e-04 0.0031839054
0.1023448389 0.2507122341 0.2539277628
0.0823473272 0.248630957 0.2561619096
0.1022981746 0.5002749721 0.7543016449
0.08240288 0.4997715113 0.7557154626
0.0925212594 0.4999561354 0.0042988493
0.1223527205 0.2500667043 0.2535074136
0.1124369234 0.2516196421 0.5014625226
0.1223638311 0.2506624773 0.7555700995
0.1123521129 0.2493170779 0.0011167873
0.1523630614 0.2530920524 0.5035013088
0.1324751738 0.2512261701 0.5041633125
0.1423691202 0.2500706325 0.7540581386
0.1524930549 0.2497328096 0.0030508566
0.1323592537 0.2523293321 0.0030420607
0.1423802307 0.2508988223 0.253212984
0.1425498518 0.5003489527 0.7533692844
0.1525041654 0.4986028797 0.002303209
0.1324255467 0.499804246 0.0053799986
0.1525237941 0.4990284318 0.5011958693
0.1324544341 0.500535541 0.5033253917
0.1823911793 -2.6248576457e-04 0.248970605
0.1825411717 0.2492921995 0.7503916565
0.1823704396 0.2494728955 0.2511010533
0.1623955193 0.5002808644 0.74916857
0.1725016772 0.498374391 0.0023652429
0.1624618123 0.4995921247 0.2510538335
0.1723761279 0.250067359 0.5017004735
0.1724342732 0.5004661432 0.50511882
0.1623977414 0.2502951931 0.753610013
0.182474138 0.5006317812 0.7487315549
0.1724768636 0.2524419397 9.4466630007e-04
0.1724994551 0.0019145733 0.0040330293
0.1625336605 0.2520268628 0.2544832904
0.2025394241 0.2501649086 0.7502999945
0.1925073366 0.2513904987 -0.0020262952
0.2025272025 0.2491016831 0.2504788624
0.2023083247 0.5019130204 0.749736134
0.1924910411 0.5012733828 0.0016032443
0.2024212819 0.5026960362 0.2474067948
0.1924388215 0.4989577247 0.5000959247
0.1925254839 0.2500490275 0.4968192378
0.202463502 -9.3315587524e-04 0.2482567521
0.2224673097 0.5007882534 0.2486891377
0.2324323636 0.499092592 0.9925674268
0.2125174403 0.2505158255 0.498367308
0.2225291585 0.248501982 0.7459279924
0.2126274348 0.2505400492 -3.7350807529e-04
0.2226324866 0.2496987654 0.2480595398
0.2325227294 0.2506029 0.4974960556
0.23248125 0.2484011589 0.9956506049
0.2223858323 0.5020027137 0.7461196494
0.2123178207 0.4999535166 2.9405090808e-04
0.2424000099 0.5000641602 0.2474549406
0.2625319593 -0.0021811365 0.246677202
0.2625197377 0.2481124381 0.7442253003
0.2624552965 0.499507669 0.7456696721
0.2525683868 0.2478662726 0.4935536615
0.2426325908 0.2473202565 0.7451234033
0.2525846823 0.2491422742 0.9940673513
0.2525217225 4.1833212697e-04 0.4933416351
0.2526343094 9.6919295391e-04 0.9924007685
0.2624308533 0.2488673021 0.2453235664
0.2424829687 0.2497668538 0.2452069056
0.2725521955 0.2484712113 0.4944526903
0.2725633061 0.2503645908 0.9919656053
0.272401092 4.453055832e-04 0.493296267
0.272413684 -0.001702816 0.9917341354
0.2725114568 0.4985341367 0.4963479653
0.282422069 -0.0024703155 0.2443847248
0.2824791032 0.2503272731 0.7463677851
0.2825761353 0.2501838948 0.2448559973
0.312427225 0.2526573346 0.4948934089
0.3123646356 0.2504012537 0.9954746879
0.3124961104 0.0015724949 0.4980534349
0.3124879627 6.6619985823e-04 0.9946136201
0.292537856 0.2504627951 0.4921944707
0.3023606948 -7.8519468331e-04 0.2454930023
0.3024318023 0.2499174337 0.7418856033
0.2925056354 0.2495855031 0.9939284694
0.2924237877 -0.002103686 0.4952415395
0.3023373626 -0.0021777321 0.7414708094
0.2925678545 -0.0021790415 0.9939562458
0.302546241 0.2501917512 0.2450282109
0.3125053692 0.4981524492 0.9949099015
0.3124235215 0.5003424058 0.494861929
0.3324454764 0.2489222965 0.4940823386
0.3225011623 0.2492280393 0.7459196595
0.3324769563 0.2495226523 0.9916785827
0.3224793115 -2.6877084175e-04 0.7446363907
0.3324814005 0.0013114023 0.9943914091
0.3224533869 0.2498905912 0.2465577635
0.3326110236 0.4989505231 0.9954654291
0.3622713822 0.2486512526 0.2446226758
0.3525633524 0.5003450245 0.4909982346
0.3626195128 0.4994219038 0.7379626527
0.3525015037 0.2512477751 0.4937082833
0.3424271961 0.2491462024 0.7438355051
0.3524507655 0.2496012158 0.9944284442
0.3523663253 2.8654191487e-04 0.4945026878
0.3424501579 -0.0011342783 0.7430596183
0.3523922499 3.4958909532e-04 0.9952339592
0.342404975 0.2490702577 0.2424561182
0.3623824877 0.2523856359 0.739601459
0.3924920829 0.2518874126 0.4908871291
0.3925291181 -2.7924597038e-04 0.4933684856
0.3925624497 0.2520936417 0.9881695001
0.3925254146 0.0012660319 0.9930581429
0.3825629532 0.4993793486 0.2392099853
0.3926365201 0.5010920322 0.9885583694
0.3724597581 0.2497236439 0.4903973389
0.3823629632 0.2530796132 0.743007769
0.3826073954 0.0024510308 0.2443319497
0.37243013 0.2515607195 0.9919933816
0.3824444406 0.249544912 0.240217342
0.3926365201 0.5011057808 0.4930805372
0.4025397252 0.2525126468 0.7414448848
0.4125725534 0.5016851863 0.9881787589
0.4024471373 0.2511737945 0.2413626547
0.4123503424 0.2524439038 0.4875715553
0.4124281162 9.5276009587e-04 0.4925074179
0.4123466389 0.2512595596 0.9863084827
0.4125466288 0.0020227945 0.9911878666
0.4024767654 0.5001630192 0.7413911838
0.4024915795 0.5025709894 0.2428885038
0.4425636361 0.2506775353 0.7340665525
0.442541415 2.5786625024e-04 0.2351574116
0.4424710481 9.4130292393e-04 0.7345017158
0.4425228974 0.2499966519 0.2340695034
0.432567843 0.2505518337 0.4840430292
0.4225683465 0.0025568296 0.2360036653
0.4226350098 0.2520975699 0.7387089114
0.4326456169 0.0017893955 0.487166946
0.4325122903 0.2524602712 0.9862714475
0.4225387183 7.3874012401e-04 0.737254355
0.4325863606 0.0012378145 0.9888361332
0.4224905726 0.2520569788 0.238008194
0.442548822 0.5010769742 0.2375202556
0.4525112834 8.7648806552e-04 0.4832884376
0.4524927658 0.2527031633 0.9836049151
0.4625292975 0.4994552933 0.2324584734
0.4726621207 0.4986185924 0.4826718019
0.4525890572 0.5013899186 0.9829567996
0.4725399046 0.2513047336 0.4806802355
0.4625774433 0.2498860083 0.73144724
0.462632996 0.0024472336 0.2303178404
0.4725176835 0.2504182758 0.9824105308
0.4726991559 -0.0010603632 0.4814089026
0.462625589 0.251692968 0.2330852937
0.452544615 0.251654341 0.4832152931
0.4626774382 0.4990840809 0.7313055804
0.4725324976 0.4997453234 0.9847622642
0.4924240887 0.50130088 0.9812254053
0.4825134766 0.250822223 0.7313037287
0.4825986575 0.0024660234 0.7313574297
0.4824542203 0.2511377862 0.2322945927
0.4924796415 0.2486348852 0.4798913864
0.492475938 0.2479134107 0.9796791868
0.5023754396 0.4991534787 0.2339917295
0.5023976607 0.5001420689 0.7303945152
0.5125378909 0.4987279266 0.4833245469
0.5026198717 0.2505472508 0.2334806441
0.5224781312 -9.7905003256e-04 0.2332084356
0.5225151663 0.2511626646 0.2384859477
0.5123971572 0.2470151684 0.4854059236
0.5223448045 0.4997551439 0.732398118
0.5225855332 0.2504804719 0.733234187
0.5025420978 0.251617678 0.7326268102
0.5124786346 0.2487095205 0.981817968
0.5025272838 -5.1539465148e-04 0.7316916721
0.5325257735 -0.001857586 0.4854661057
0.5325961403 -0.0016783958 0.9868084575
0.5325479946 0.2488162358 0.4870252865
0.532636879 0.2474151874 0.9895860954
0.5425697122 0.4970191712 0.7356701755
0.5525469877 0.4985216975 0.9894564723
0.552513656 0.4962322272 0.491271369
0.5423882399 -0.0013743552 0.7398384841
0.5525247666 -8.1406675661e-04 0.9884102287
0.5425586017 0.2488221281 0.2390211059
0.5526247615 0.2484437141 0.4901519809
0.5426178579 0.2480279824 0.7370747344
0.5525580982 0.250134138 0.9908452913
0.5726570863 0.2499416575 0.4940453034
0.5625205596 -0.0013875146 0.2410274864
0.57259783 0.2477981843 0.992650756
0.5624687104 0.5002789003 0.2394683056
0.5625279667 -0.001033979 0.7423068784
0.5625501878 0.2487985591 0.2423153845
0.5724645034 0.4982860071 0.9911786078
0.5626575898 0.2500496822 0.7414180343
0.5722645135 0.4990375976 0.4925046402
0.5724645034 5.2982677735e-04 0.493204605
0.5724941316 -2.7112774569e-04 0.9928451906
0.5924042403 0.4973445549 0.9954746879
0.5924783106 0.4972653367 0.4947045295
0.5824936281 0.2483821727 0.7434355253
0.5926005267 -6.4325669035e-04 0.4965433258
0.592459793 2.6081238016e-04 0.9985763835
0.6026259479 0.249295473 0.2477808501
0.582464 0.4985806201 0.7439799423
0.5924560895 0.2477713418 0.4963488911
0.6025592846 0.2463244646 0.7466973981
0.5925153458 0.2469032155 0.9974282932
0.5825380703 -7.385803609e-04 0.2448671079
0.5825232563 0.250475889 0.2438041984
0.6124661932 0.4992078184 0.992919261
0.6124810073 0.5002350357 0.4940156753
0.6125624846 -0.0012201744 0.4951980231
0.61253656 -0.0013441083 0.9993448634
0.6123884193 0.2494401607 0.4972155142
0.612429158 0.2502722787 0.9927988966
0.6225286495 0.2494100447 0.2436199485
0.6224990214 0.2494146276 0.7420976297
0.6424498688 4.9804007779e-05 0.2444949044
0.6524864005 7.080349032e-04 0.4942360345
0.6525160287 -9.0965230537e-04 0.9961135446
0.642494311 0.250566237 0.2470216291
0.6525567674 0.2513420512 0.4947248988
0.6425646778 0.2498303592 0.745171549
0.652482697 0.2511770679 0.994752502
0.6323577843 0.4985446118 0.9920859696
0.6324244476 0.4994808264 0.4924694568
0.6425350497 0.4978768224 0.2414848708
0.6524086267 0.4989583794 0.4966303584
0.6326170305 5.3211821174e-04 0.4948378561
0.6324911109 -6.4450061187e-04 0.9943914091
0.6323429702 0.248101963 0.4919222621
0.6323244527 0.2494624203 0.9933451654
0.6824960008 0.5010252532 0.7471547825
0.6725002077 0.4988857082 0.9981134439
0.6825626641 0.5000589226 0.2482215686
0.6623710881 0.2511482613 0.2434921771
0.6725483534 0.4982873165 0.4987765467
0.6625007112 0.2498873177 0.7489593212
0.6824700761 0.2499403481 0.2423246433
0.6725224288 0.2507665738 0.4936045849
0.682440448 0.2479860819 0.7486843351
0.6725853886 0.2494617656 0.9957894868
0.6625673745 0.5000137486 0.744289186
0.7024616622 0.2488005231 0.2503881262
0.6924362411 0.25071027 0.49382587
0.7025024009 0.2499855221 0.7483760173
0.6924917938 0.2492948183 0.9947432432
0.7025320291 0.5027281163 0.7484732346
0.6925880853 0.4987331641 0.9979467856
0.7023949989 0.5014553882 0.2457133616
0.7024690693 1.8696272331e-04 0.2436143932
0.7224310272 0.5003391323 0.746544628
0.7225828714 0.4995737932 0.2479845435
0.7124907869 0.2494748595 0.4950295131
0.7125537467 0.2487907027 0.9987060066
0.7224199167 0.0021506565 0.2460392711
0.722493987 4.188558834e-04 0.7451928442
0.7224680624 0.2529388536 0.2479215837
0.7323564534 0.2510120847 0.4957563284
0.7225458363 0.2511711757 0.7465159257
0.7323490464 0.2503731018 0.9939284694
0.712498194 0.0031965326 0.4987524738
0.7423781711 -1.9871841902e-04 0.7430651735
0.7526146928 0.4996418815 3.0358746499e-04
0.7424077992 0.2506644413 0.2443134321
0.7425040907 0.2488699209 0.7461529811
0.7626104858 -0.0025149003 0.2481974958
0.7525258083 0.0015729532 0.4989922766
0.7625919682 -4.7316678918e-04 0.7456974484
0.7626104858 0.2479644769 0.2468216391
0.7525184013 0.2498742238 0.4927259254
0.762540119 0.2509322118 0.7480065914
0.7525072908 0.2500817623 0.9939655046
0.7824835593 -1.8261290875e-04 0.2523917291
0.7825391121 -0.0011154231 0.7523461878
0.7725877613 8.189403276e-04 -0.0015595595
0.7826020719 0.2502192484 0.245825393
0.7725803542 0.2513669297 0.4981793545
0.7826354035 0.249553423 0.7483602773
0.7725840577 0.2506487286 -0.0023395572
0.7926089755 0.0016511238 0.5015273341
0.7926015685 0.2493164232 0.4993533695
0.7924608348 0.2499508232 1.1750306098e-05
0.8025529193 3.2477613437e-04 0.2492344806
0.812582044 -5.6056864371e-04 0.5026041318
0.8026306932 -9.6366468738e-04 0.7514249378
0.8126190792 3.3453109791e-04 0.0064728139
0.8025714369 0.2498251217 0.2519232341
0.8125487123 0.2488476612 0.5013310477
0.802593658 0.2507947258 0.7523702606
0.8125931545 0.2511888525 4.8922626689e-04
0.822563023 4.2929704614e-05 0.7554876963
0.8325328914 0.0017156113 0.00236478
0.8224333999 0.2494578375 0.2534083445
0.8325032633 0.250906024 0.5027994923
0.8225852441 0.2490676389 0.7514295672
0.8325477055 0.2526658456 0.0016946285
0.82257043 -0.0014261416 0.2544601434
0.8325921477 -9.3439979677e-04 0.5047771705
0.8625276776 0.498995697 0.7544488597
0.8525133669 0.4993341746 0.0019819289
0.8625313811 0.498858211 0.2522435884
0.8425583126 -0.0012885901 0.7571015039
0.8425323879 0.2507272921 0.2512353058
0.8424990563 0.2520818572 0.7521730483
0.862623969 -1.9636151508e-04 0.2561748719
0.8525170704 3.2634740367e-04 0.5046345851
0.8524726282 -0.0011642634 0.0023129307
0.8425212774 0.00103152 0.2517723158
0.8624462002 0.2510507117 0.2516158422
0.8525466986 0.2500529557 0.5005931219
0.8625017529 0.248344855 0.7552821511
0.8524689247 0.2509525074 -0.0023156418
0.8726012445 0.5007456982 0.5041318326
0.8825600023 0.4988084541 0.7528424591
0.8926446798 0.4986290675 0.0027601305
0.8825562988 0.4996621771 0.255430465
0.8925632024 8.5095493948e-04 0.5039855437
0.8726605007 -2.6009735696e-05 0.006727153
0.8925261672 -5.6613355579e-04 7.0903001537e-04
0.8825451883 0.2473117455 0.2497696388
0.8724827319 0.2500208756 0.5016347361
0.8923928406 0.2477916373 0.5016856595
0.882585927 0.2511358221 0.7512888336
0.8724086616 0.2484391312 0.0021141445
0.8924372828 0.2499089227 -4.4080216367e-05
0.9024849251 0.4984640843 0.2519389741
0.9025293673 -2.7322277142e-04 0.2538786912
0.9124807182 2.8948804479e-04 0.5019013894
0.9026145482 2.0146299839e-05 0.7547951385
0.9126436729 0.0026320542 0.0034500031
0.9024886286 0.2493465392 0.2497677871
0.9124029443 0.2490512715 0.5024050677
0.9025738095 0.2495769921 0.749628732
0.9124844217 0.250572784 0.0023133937
0.9125547885 0.4982578552 3.4053004951e-04
0.9225728026 6.3137005553e-04 0.2549017879
0.922639466 -0.0015775072 0.7534544653
0.9326204449 0.4992543018 0.5039133251
0.9326908118 0.4988510093 -2.9749338384e-04
0.9225135464 0.2528877874 0.252054709
0.9225135464 0.2501144971 0.751861027
0.9426532731 -0.0012004681 0.2557332275
0.9326685907 0.0019126092 0.5052706642
0.9427754892 -0.0030761053 0.7571061333
0.9326500731 -0.0018534614 0.0016342612
0.9425717958 0.2513688937 0.2567081784
0.9326130379 0.251314554 0.5036374131
0.9426977154 0.2482715291 0.7562135856
0.9325463746 0.2481222586 0.0020026686
0.922439476 0.4987246531 0.7544683031
0.9626781909 0.249349158 0.2587701116
0.9525601818 0.2478662726 0.5067548487
0.9726073206 0.2493622519 0.5064391239
0.962700412 0.2504300603 0.7589745578
0.9525453677 0.2487075564 0.0089075987
0.9724221448 0.2535372454 0.0086052991
0.9526786943 0.498903385 0.0067958532
0.9724999186 0.5017683327 0.0112073903
0.9625670854 0.4987835757 0.2585229019
0.9526194381 -0.0019472793 0.5043892271
0.9625004221 0.0015072217 0.7583005176
0.9924915047 0.500264497 0.5088964076
0.9826401488 0.4999927983 0.7582153367
0.9925211328 -3.1970615472e-04 0.5078001665
0.9825068222 0.0023674917 0.7602485677
0.9825327468 0.2511227282 0.2609903702
0.9925989067 0.2516556504 0.5120064362
0.9826364453 0.2506362894 0.7603300451
0.9926989017 0.2523116553 0.008454566
0.0023932045 1.0017652084 0.2607987132
0.0125678033 0.9991529732 0.5127841748
0.02230098 1.0011890764 0.7606883604
0.0025372343 0.9994999619 0.7593078743
0.0124371433 0.9998927792 0.0108139842
0.0123867384 0.7512590542 0.0107235258
0.0025439376 0.5006704082 0.7603911531
0.0223896792 0.7495633927 0.2635374642
0.0025277162 0.7505127012 0.2563396784
0.0124468094 0.7484373164 0.510013018
0.0224772304 0.7502180882 0.7614985048
0.0025544556 0.7512917889 0.7593282437
0.0223532366 0.4997283014 0.2597793201
0.0026042679 0.5000333895 0.2587830739
0.0125766547 0.4996759257 0.5103074476
0.0324731715 0.7497794422 0.014048451
0.0325465012 0.4982467253 0.0113426613
0.0423785988 0.749366984 0.2596237724
0.0324331736 0.7516191367 0.5138220855
0.0425437756 0.7500609613 0.760775393
0.0424322998 0.4980444244 0.2599394972
0.0324198409 0.5002415827 0.5093584213
0.0425182214 1.0008289938 0.7598985853
0.0524006868 0.749668144 0.0076062754
0.0525240139 0.7490199954 0.5084973536
0.0722959814 1.0007766182 0.5078501639
0.0624224044 0.9998404036 0.7580931206
0.0724170864 0.9996439949 0.0082030046
0.0724859719 0.7466696384 0.0019833177
0.0624512919 0.4994133928 0.7533535445
0.0625064743 0.7475534774 0.2554573155
0.0725118965 0.7490199954 0.5023097021
0.0625368431 0.7483980346 0.7553682578
0.0725685603 0.4995377849 0.506246541
0.1024403897 0.5006311265 0.254172195
0.1024374269 1.0010515903 0.2541768244
0.0825662051 1.001686645 0.253612038
0.102413354 1.0005802095 0.7500564882
0.0824717654 0.999918967 0.7515045635
0.0924342268 0.7527714008 0.0022020104
0.1024507595 0.7507025629 0.2506029302
0.0824743579 0.7493277023 0.2546721698
0.0923483052 0.7493866249 0.5012486444
0.1023766892 0.7509055186 0.7508934831
0.0824717654 0.7496092214 0.7540349916
0.1122961898 0.9990613159 -1.111138785e-04
0.1123028561 0.7481296095 0.0031416853
0.122262725 0.5017421448 0.7531637392
0.112388037 0.5009185378 -2.8803207733e-05
0.122422717 0.7508335021 0.2537444387
0.1123035968 0.7515274793 0.5029818905
0.1223519798 0.7501264309 0.7538072253
0.122356424 0.5013552198 0.2519639728
0.1123661863 0.5007443888 0.5004894234
0.1223175371 1.0004361765 0.2531759488
0.1122950787 1.000796259 0.5001172199
0.1223342029 1.002269324 0.7535989025
0.1423861563 0.9992577245 0.2522806235
0.1525260162 1.0000826409 0.5038540688
0.1323959186 1.002413357 0.5075020333
0.1423798604 1.0010581373 0.7523684089
0.15243528 0.9989827524 0.0025812506
0.132329996 1.0010515903 0.0060846853
0.1523997263 0.7514947445 0.0014146426
0.1323181447 0.7521756279 0.0044903211
0.1423783789 0.7513179768 0.2502510961
0.15241417 0.7491836693 0.5020569371
0.1323444397 0.7513703524 0.5012616068
0.1424302282 0.7514030872 0.7525582141
0.1423743051 0.499804246 0.2527380079
0.1824737677 1.0000760939 0.7491232019
0.1724135335 0.7504472317 0.0014188091
0.1625410675 0.7494520945 0.2529685519
0.1724676048 0.7510888333 0.5010005088
0.1623858902 0.7523982244 0.7546414426
0.182333034 0.751573308 0.2512927103
0.1824808044 0.7512983359 0.7507296025
0.1824526576 0.5001584363 0.2494205823
0.162348855 1.0010843251 0.2522334037
0.1723005762 1.0009402921 0.5022976657
0.1624369987 1.0021776666 0.7473464395
0.1924991889 1.0030745995 0.501827319
0.2024301704 0.9999386079 0.7515453022
0.1925202989 1.0009075573 -7.1145402388e-04
0.1923332713 0.7513376176 -0.0050853079
0.2023209166 0.752895793 0.2508251413
0.1924395623 0.7509317064 0.4969034928
0.202362396 0.7530725608 0.7482982434
0.2124130011 0.4997066964 0.5000801848
0.2324571771 0.7508662368 -0.0039998162
0.2225587866 1.0003445191 0.2460300123
0.2324453259 0.7497205196 0.4963081524
0.2124967006 1.0006063973 0.5015291859
0.2225513796 1.0026883291 0.7469344232
0.2125166996 1.0010450433 -1.8259176132e-04
0.2324319932 0.5012288635 0.4970868169
0.2124352222 0.7496092214 -0.0026190617
0.2326197615 1.0014705954 0.4961600118
0.2223724997 0.7494324536 0.2440856658
0.2326219837 1.0011432477 -0.0036028362
0.2123704107 0.7506043586 0.4954970822
0.2223339831 0.7491116528 0.7473297737
0.2525743125 0.7519399375 0.9964746375
0.242483339 0.5005748227 0.7457354095
0.2524195054 0.502584738 0.9958357808
0.2423937139 0.746872594 0.2445069408
0.2524409858 0.7510757394 0.4957081826
0.2425037084 0.7472654114 0.7462353843
0.2523213622 0.4996530114 0.4946026827
0.2625152934 0.9993821167 0.744427142
0.2425751862 0.9992642715 0.2450356179
0.2624719623 0.7492622328 0.245157834
0.2624497412 0.7488432276 0.7427735216
0.2426337018 1.0002463148 0.7468381317
0.262506405 0.4991358019 0.2457568779
0.2823839228 0.4985387196 0.743882725
0.2824909544 0.7459887551 0.2430496068
0.2824316981 0.7478480904 0.7458317009
0.2724284981 0.7495502988 0.9934377534
0.2723547981 0.5011777973 0.9944099266
0.2723892408 0.7488628685 0.4932564542
0.2824028107 0.4993047133 0.2439865967
0.2823639238 0.9962657659 0.7459863228
0.2924111957 0.7485878964 0.9939099518
0.302182926 0.5001230828 0.7417930154
0.292364161 0.4989583794 0.9928359318
0.3025129093 0.748051046 0.2472040273
0.2923526801 0.7479397478 0.4928074028
0.3024640229 0.7487646641 0.7450280377
0.3024614304 0.4993898238 0.2433070013
0.2923563836 0.4997597267 0.4939527155
0.3123109346 0.7468595001 0.993946987
0.3124857406 0.7488301337 0.4925879694
0.3325958392 0.7476778696 0.9889935327
0.3222915432 0.9980530847 0.2442384358
0.3325165839 0.9997618401 0.4923814983
0.3225437527 0.4987809569 0.7418883809
0.3225059768 0.7518548271 0.2440477047
0.3325013995 0.7487057415 0.4914880247
0.3225659738 0.7504341378 0.7451465502
0.3225200502 0.5012825486 0.240654357
0.3324936221 0.4995534976 0.4954924528
0.3426090388 0.4995417131 0.2387914879
0.3424746011 0.9965996606 0.2419607727
0.3525374278 0.7510822864 0.9900675527
0.3426545921 0.4989204071 0.7445002865
0.3527037157 0.5013447446 0.9927155675
0.3424916373 0.7510364577 0.2379193095
0.3525170585 0.7508269551 0.4889325978
0.362449151 0.7519661253 0.2414506132
0.342492378 0.7508662368 0.7426587125
0.3624713721 0.7510560985 0.7414041461
0.3624380405 1.0004230826 0.2452032021
0.3624898897 1.0013003746 0.7439317966
0.3626009952 0.5003443699 0.2406765781
0.3724671652 0.7521297992 0.9917711706
0.3824740688 0.5019398629 0.7434271924
0.3725116074 0.499825851 0.9900675527
0.3826185059 0.7509120655 0.239189616
0.3725153109 0.7521952688 0.489752001
0.3826444306 0.7510953803 0.7428948118
0.3725967883 1.0014705954 0.4937980936
0.3826444306 1.0016473632 0.7416902428
0.3724116124 1.0012676398 0.9944284442
0.3726078988 0.5011522641 0.4904565952
0.3924994899 0.7525749922 0.9912341606
0.3925365251 0.7508007673 0.4933564492
0.4024434337 1.0030745995 0.2411061861
0.4025212076 1.0006325852 0.7397801538
0.4124244127 0.7533868147 0.986965857
0.4124540409 0.7521887218 0.4897418164
0.4125058901 0.5006690988 0.4910186039
0.4026286096 0.7535112068 0.2400969777
0.402710087 0.7519595784 0.7401106927
0.4324678481 0.7530005443 0.9883454172
0.4225387183 0.5029991603 0.7384107783
0.4326122852 0.5008753279 0.9888824272
0.4225053867 0.750846596 0.2382748472
0.4325159938 0.7515864019 0.4843106083
0.4224757585 0.7517959045 0.7408078798
0.4225313113 0.5022809593 0.2394858973
0.4325715465 0.5016537609 0.4837198973
0.4424229024 0.5015287141 0.7329573491
0.4427043697 0.7504668726 0.2366175232
0.4425525255 0.7505978117 0.7402069841
0.4526334995 1.001241452 0.9852437215
0.4626292925 1.0020008988 0.730695426
0.4725917539 0.9993690228 0.9819198147
0.4525409115 0.7522869262 0.9833086337
0.4525964643 0.7502115413 0.485180009
0.4526779417 0.4999404227 0.483346768
0.4725176835 0.7497794422 0.9819846263
0.4626070714 0.7510299107 0.2340046918
0.4724695378 0.7488301337 0.4783303539
0.4625478151 0.7506567343 0.7330971569
0.4826282856 1.0009599329 0.2317575827
0.4927018525 0.9971430579 0.4817616626
0.492590747 1.0002332209 0.9805680309
0.482502366 0.50033324 0.2300011897
0.4924796415 0.7479855765 0.4798858311
0.4924574204 0.750689469 0.9793643878
0.4925166767 0.5002383092 0.4830134514
0.4823727429 0.4976876154 0.7287307101
0.4826505067 0.7502639169 0.2343926352
0.4826208786 0.748057593 0.7332175212
0.5125860366 1.0003707069 0.486361431
0.5124564135 0.9979286926 0.9816605685
0.5025346908 0.9979483334 0.2308372587
0.5123971572 0.7470428149 0.9819938851
0.5224299854 0.4962165145 0.2321566367
0.5224188749 0.7482801894 0.7335776882
0.5226188648 0.9976013448 0.7362682935
0.5024680275 0.7497139727 0.234348193
0.5025272838 0.7478349965 0.7297760278
0.5124490065 0.4988091088 0.9849659577
0.5123341974 0.7491640284 0.4805672783
0.5224633171 0.7469577045 0.233443609
0.5325479946 0.7478677313 0.4837356373
0.5324813312 0.5001643286 0.4861327388
0.552506249 0.7494651884 0.9857807315
0.5424400891 1.0003838008 0.2412506233
0.552513656 1.0011236068 0.4876456256
0.5426141544 0.7485158798 0.2379730105
0.5524173646 0.7493604371 0.4898927347
0.5423623153 0.4969268591 0.236212914
0.54252527 0.7474552731 0.7372969454
0.5324035574 0.7510560985 0.9842530306
0.5325554016 0.4980188913 0.9835956563
0.5623501978 0.4989315369 0.7383218938
0.5624057506 0.7508924247 0.241375617
0.5624131576 0.7511673968 0.7420272628
0.5723904331 0.7491574815 0.9895212839
0.5722311818 0.7502311822 0.4912917383
0.6023111489 0.4992745973 0.747733457
0.6023889228 0.7478939191 0.2464892485
0.5922672101 0.7504144969 0.4896899671
0.6024111439 0.7504603256 0.7439993858
0.6024296615 0.4996484285 0.2474530888
0.6025444705 0.9972870909 0.2461883377
0.6025148423 0.9986226698 0.7470149747
0.582571402 0.9975031405 0.7447947161
0.5823010452 0.751861374 0.2435579146
0.5823343769 0.4990441445 0.242871838
0.582356598 0.7519072027 0.742662416
0.5922116574 0.7487450233 0.9912989722
0.6124254545 0.7492033102 0.4961387165
0.6223768053 0.5016969708 0.7418457905
0.6223397702 0.7502901048 0.2417570793
0.6223731018 0.7498645527 0.7441466006
0.6224768003 0.50007529 0.2424690805
0.62240273 0.9982822282 0.2438699359
0.6225471671 0.9977715656 0.7459724346
0.6122550927 0.7492425919 0.9931229544
0.6425313462 0.9987208742 0.7433697878
0.6322355682 0.7481492503 0.9908175149
0.6323392667 0.7469446105 0.4901038352
0.6525789885 0.7509644412 0.9956876401
0.6425091251 0.4994821358 0.7446086144
0.6526382447 0.5013434352 0.9972708937
0.642394316 0.7493342493 0.2471244017
0.6524234407 0.7475207426 0.492176879
0.6423276527 0.7497270666 0.7455039397
0.662471083 1.0000433592 0.2460383452
0.6624229373 1.0011694355 0.7454298693
0.682447855 0.9986815924 0.2503983109
0.6725779816 0.7497859892 0.9980486323
0.6724076198 0.99786977 0.495966503
0.682440448 0.9985441064 0.7481732497
0.6724076198 0.9995588845 0.9982338082
0.6825071113 0.7493866249 0.2472771717
0.6727187152 0.7507549386 0.4970729288
0.68254785 0.7501591656 0.7482241731
0.6625599674 0.7488759624 0.250443679
0.6624821936 0.5005885713 0.2456689194
0.6626044096 0.7490396363 0.7487713677
0.6924066129 1.0016342693 0.4982589801
0.7025838783 1.0011694355 0.7474214357
0.6924769797 1.0018765067 1.0007151648
0.6924843868 0.7509382533 0.9948543487
0.7024838833 0.7487646641 0.2485900686
0.6924362411 0.7493146084 0.4968627541
0.6925214219 0.4986316863 0.5014162286
0.7024875869 0.7508596899 0.7471751518
0.7325527398 0.501021325 0.9977430922
0.7225902785 0.7507942203 0.2462050035
0.7325860715 1.0001873922 0.4961433459
0.732482373 0.7510495516 0.4959072467
0.7325934785 0.4999083426 0.4993292966
0.7225495398 0.7485617085 0.7477380864
0.7325564434 1.0019943519 0.9962061325
0.7125204151 1.0004296295 0.9957524516
0.7124685658 0.7494062658 0.9958913335
0.7125944854 0.4989465949 0.9950487834
0.7124537518 0.7501788065 0.4956776286
0.7125907819 0.4983272529 0.4988876522
0.7322971972 0.7506370934 0.9990670996
0.7427263017 0.4999306023 0.7441938204
0.7425744575 0.7495502988 0.2514899226
0.7425040907 0.500113917 0.2435356934
0.7426596384 0.7489217911 0.7477121618
0.7424152063 1.0003838008 0.248103982
0.752551733 0.7496092214 -7.4171293982e-05
0.7525850646 0.9986946864 1.4498433898e-04
0.75255914 0.4999522072 0.4992135617
0.7625697471 0.4998631686 0.7490732044
0.7626734456 0.7496812379 0.2508381036
0.7625586366 0.5012360652 0.2472614318
0.7525406224 0.75025737 0.4950517342
0.7626438175 0.749380078 0.7503175862
0.772528505 0.9980334439 0.4998348267
0.7825872578 0.7513310707 0.2532027993
0.7825205945 0.5005093531 0.2514167781
0.772635907 0.7495633927 0.4980043633
0.7826317 0.7505912647 0.7512045786
0.772735902 0.7496746909 -0.0019323185
0.7726099824 0.499660213 0.5017532487
0.7824428207 0.4998186493 0.7514425296
0.7725136909 0.5011077449 -5.9451546688e-04
0.7925534227 0.751422728 0.5011134661
0.7925534227 1.0000499061 6.1884937045e-04
0.8124264963 0.749222951 0.0010847518
0.7926237896 0.7499693039 9.7846089493e-04
0.7925867544 0.502358868 0.5018569472
0.792605272 0.4993191166 0.0056659101
0.8125376018 0.5001112982 0.5033253917
0.8025418087 0.5010658443 0.7519906501
0.8126338932 0.501223626 0.0028545701
0.8024751454 0.7489872606 0.2522945117
0.8025492158 0.5005754774 0.2558480365
0.8126005616 0.7505650769 0.5025393202
0.802601065 0.7492556858 0.750994404
0.832458821 0.749078918 0.004558651
0.8325217808 0.5001695661 0.5046929155
0.8227074601 0.4985845482 0.7549479086
0.8324662281 0.5014553882 0.0016491679
0.8225408019 0.7504734195 0.2572803718
0.8224333999 0.4980398416 0.2534444538
0.8324995597 0.7507811264 0.5077390584
0.8225000632 0.7512394133 0.7539025909
0.8525874373 0.5023320255 0.5056613852
0.8625017529 0.998458996 0.7558830467
0.862623969 0.749962757 0.2574192537
0.8525652162 0.7517107941 0.5048558702
0.8425027598 0.4993164979 0.7490982031
0.8424398 0.750100243 0.2521750733
0.8425694231 0.4998526935 0.2547045756
0.8425138704 0.7489021502 0.751155507
0.8626424866 0.7495372049 0.7562145115
0.8527096533 0.7499954918 0.0066574342
0.8827933239 0.7499823979 0.7559839676
0.8726012445 0.7494520945 0.0095416409
0.8925669059 0.7483587529 0.0031696469
0.8928631873 0.4995639728 0.4997033519
0.8726938324 0.500703143 0.0064682771
0.8825488918 0.9994934149 0.2563618995
0.8726456867 0.9999386079 0.5030476279
0.8827118465 0.7495110171 0.2544277377
0.8727901238 0.7497336135 0.5068613248
0.8926002376 0.7496223153 0.5058687822