POSCAR file written by Ovito 3.7.11
1
269.9746604355 0.0 0.0
0.0 15.2720730514 0.0
0.0 0.0 10.7989864174
Sr Ti O 
800 800 2400 
Direct
0.0225701967 0.4973081585 0.8189101186
0.012620374 0.5001342319 0.0683796811
0.0126461542 0.2510455858 0.568323638
0.0226056445 -4.4556773567e-05 0.3236006707
0.0226131637 0.2488526943 0.8210538383
0.0025277602 0.2478737833 0.8154449786
0.0125445891 0.2490196657 0.0666585011
0.0225049684 0.2508033135 0.3242146172
0.0025868398 0.248152069 0.3152054384
0.0525724569 0.0010088038 0.5662521473
0.0526120902 0.2496744556 0.0626880358
0.052564308 0.0011632033 0.0639448205
0.0425407747 0.5004229943 0.8184304439
0.0325590971 0.2494079561 0.5673883651
0.0424722497 -0.001945543 0.3179019877
0.0425704071 0.2514312571 0.8162330155
0.0525783833 0.4999613674 0.0656169218
0.0526172759 0.5011570138 0.5661206535
0.032532428 8.8766768293e-04 0.5688810977
0.0325542819 0.2496868967 0.0668298134
0.0325783582 4.4273790967e-04 0.068904823
0.0427019009 0.2515523932 0.3162546109
0.0526439451 0.2506389612 0.5686255182
0.0624763493 0.2508845075 0.8129734503
0.0725072907 0.2491290156 0.0584567128
0.0626330307 0.2502336463 0.3107605768
0.0725576658 0.5006901486 0.0614734774
0.0625515416 0.5000052383 0.3135580615
0.0725776677 0.2478757476 0.5575791111
0.0625415406 0.0013773851 0.3131191315
0.0825682349 0.5003909096 0.3052776548
0.0924513847 0.5002285217 0.5533426024
0.0925025006 0.2496561215 0.5533203781
0.1024049114 0.2500260779 0.8015316358
0.0825352689 0.2498388079 0.8036123866
0.0926547371 -0.0017246168 0.5542954696
0.0925739888 0.2490785968 0.0528387782
0.0925154648 -1.5253163687e-04 0.0556453379
0.1023760198 0.2501681673 0.3059527181
0.0825063773 0.2502087642 0.307674176
0.1024160236 0.5001001829 0.8004602389
0.0825448994 0.4995259321 0.8047402702
0.0924395317 0.4987028611 0.0525801428
0.1223834531 0.2517887724 0.2947192565
0.1125362326 0.2498702378 0.5498265317
0.1223560431 0.2517953203 0.7948337849
0.1124239999 0.2509473673 0.0470953688
0.1525362829 0.2508078971 0.5341398743
0.1324540278 0.2498715474 0.5404719501
0.1424605225 0.2509709398 0.7875108755
0.1526062895 0.248918828 0.0358157917
0.1324625472 0.2497680906 0.041111659
0.1424749683 0.2502644214 0.2862610553
0.1424649674 0.4995423018 0.7899777736
0.1524233094 0.5002344148 0.036808107
0.1324718073 0.5007025896 0.0421970387
0.1524899823 0.5009003362 0.5371818265
0.1325232936 0.5001204814 0.5426462282
0.1824720554 -8.2578666684e-04 0.2755054162
0.1825442844 0.2511025525 0.7755903123
0.1825398395 0.2513009539 0.2761480691
0.1625068483 0.5010188532 0.7868608145
0.1724933411 0.5000536928 0.0339532094
0.1625816701 0.5008623584 0.2845433015
0.1725285296 0.2496057027 0.5305506486
0.1724362987 0.5017345386 0.5317581693
0.1624249888 0.2498191642 0.7835623567
0.1825676199 0.5001237553 0.7783266802
0.1725900168 0.2530223967 0.0302966626
0.17258372 0.0011106237 0.0272048909
0.1624231368 0.2512623213 0.2822801261
0.2025487544 0.2505806849 0.7690702559
0.1926515292 0.2493581921 0.0239405105
0.2025613482 0.2488395985 0.2652961247
0.2025076394 0.499413963 0.7723714917
0.1925748554 0.5010240915 0.0207503963
0.2026150569 0.4991356773 0.2703104842
0.1926281937 0.4993419361 0.5213497851
0.1926104143 0.249548736 0.5233462687
0.2025439391 -0.0041529709 0.2707003356
0.2225591509 0.500741877 0.2605401228
0.2324289661 0.4988089371 1.0051303732
0.2126422943 0.2493693235 0.5157335172
0.2224521038 0.2501452496 0.7598119796
0.2125971048 0.2496744556 0.0138213201
0.2225202584 0.2500954856 0.2619356242
0.232598982 0.2490923474 0.504823234
0.2324660066 0.24983226 1.0057045011
0.2224246938 0.4997446319 0.758976716
0.2124330154 0.4990361492 0.0155535197
0.2425454711 0.4978306809 0.252181931
0.2624317818 -5.3348843169e-04 0.2447673463
0.2624806753 0.2504274641 0.742880761
0.2625888336 0.4992162164 0.7417686196
0.2525460393 0.2483504704 0.494790811
0.2424528698 0.2482620737 0.749301734
0.2526175274 0.2496508832 0.9941386009
0.2524197311 -3.9283954972e-04 0.4975382911
0.2524830704 -0.001557187 0.9983982599
0.2624036311 0.2515589411 0.2444367597
0.2425165795 0.2489856166 0.2511633169
0.2724634641 0.2489358526 0.4872373243
0.2725716224 0.2492331272 0.9838135578
0.2725393971 -0.0012473404 0.4877438534
0.2724901332 -0.0020564644 0.9912957415
0.2726019956 0.4983460006 0.4873725222
0.2825510775 -0.0018301035 0.2373814679
0.2824673659 0.2500182204 0.7344429321
0.2825429285 0.2493948603 0.2331208829
0.312638716 0.249545462 0.4760760917
0.3126342711 0.2510907663 0.9729792076
0.3125209272 -0.0011138288 0.4722942553
0.312656125 1.9771550915e-04 0.9700622672
0.2925409039 0.2505630056 0.4759844164
0.3024599829 -9.4279763149e-04 0.2267350984
0.3025370272 0.2486641147 0.7262773509
0.2924720085 0.2507018211 0.9797483614
0.2926227634 -0.001083512 0.4788596862
0.3024866521 -0.0017433438 0.7244494016
0.292507197 -5.2504164129e-04 0.9814522251
0.3025792534 0.2480846256 0.2243182049
0.3125990827 0.4991173431 0.9739978218
0.3124798122 0.4984540409 0.4719090339
0.3326124424 0.2503619851 0.4651741426
0.3225652032 0.2501799535 0.7174126301
0.3326050343 0.2504968718 0.9649136359
0.3225018639 -3.7398159907e-04 0.7193313286
0.3325620673 0.00206498 0.9605150749
0.3225329779 0.248987581 0.2180194656
0.3325357685 0.5000032739 0.9622837594
0.3625700687 0.2480748038 0.203037504
0.3524943083 0.4991068665 0.4554473038
0.3625811809 0.4978385384 0.7016176292
0.3525646853 0.2486693531 0.4534313739
0.3425515233 0.2466945066 0.7077265358
0.3525876504 0.2488062042 0.9528662089
0.3525302376 -7.4694995646e-04 0.4534897127
0.3424767015 -0.002099615 0.7093646525
0.3525509803 -8.2225080109e-04 0.9546904542
0.3426663489 0.2490733585 0.2082666984
0.3625070999 0.2510685035 0.7010379451
0.392606221 0.249835534 0.4444814598
0.3925321399 6.4382390433e-04 0.4465464685
0.3926617817 0.2488245383 0.9434486584
0.3925247318 -1.1357163464e-04 0.949189938
0.3825312014 0.4988816188 0.19943161
0.3924802832 0.5013953574 0.9423467031
0.3726265681 0.2488415628 0.4483633056
0.3826460269 0.2513369673 0.6968616273
0.3825867621 0.0012520583 0.1979573976
0.3725821195 0.2488598969 0.9475971959
0.3827089958 0.2500339353 0.1992454814
0.3925617724 0.5024836183 0.4425877636
0.402570119 0.2508838527 0.6895063073
0.4124488239 0.5013672014 0.940892863
0.4025923434 0.2505512194 0.1925985613
0.4125932819 0.2495886782 0.4387559225
0.4126377306 -2.5502385927e-05 0.4375280295
0.412667363 0.2489443648 0.9404946775
0.4126118022 3.0713091035e-04 0.9359572146
0.4024367732 0.5003850165 0.6953475963
0.4023552841 0.5011884438 0.1910669361
0.4425368329 0.2515347139 0.6837279873
0.4426035058 6.0602492931e-05 0.183987568
0.4426331382 0.0021010589 0.6849401381
0.4424997924 0.2508432557 0.1838208857
0.4325618227 0.2506068765 0.4341240063
0.4226053327 0.0028841223 0.1866322606
0.4225349557 0.2498879172 0.6872403539
0.4325766389 0.0020091264 0.432872037
0.4325544146 0.2498093424 0.9374666155
0.4225868124 4.4895841423e-04 0.6881598847
0.4326507199 7.4616757403e-04 0.9331236153
0.4224682828 0.2494976624 0.1873517726
0.4425516491 0.4987153021 0.18139288
0.4525266593 0.0022848585 0.4320247352
0.4525229553 0.2500935212 0.9306974617
0.4625275979 0.4988907858 0.1782916631
0.4725989135 0.5004046602 0.4294244912
0.4524970269 0.4991356773 0.9332902976
0.4725063122 0.2519701492 0.430207898
0.4625609344 0.2506913444 0.680749004
0.4625164858 0.0010140421 0.180815974
0.4725174244 0.2505171703 0.9312808498
0.4725840973 -5.6059673576e-04 0.4280826986
0.4625868627 0.2511680315 0.1804650152
0.4525822201 0.2503469249 0.4321238186
0.4624683331 0.4997092733 0.6777829849
0.4724100069 0.4982163522 0.9316697752
0.4925007813 0.5000275012 0.9288824766
0.4825998521 0.2499285141 0.6802517351
0.4824850265 -0.0010364981 0.6778024311
0.4825665156 0.2488062042 0.1803751919
0.4924192922 0.2500214943 0.4287179434
0.4924748529 0.2484336287 0.9284194701
0.5025276482 0.5013947026 0.1824355705
0.5023720781 0.500586037 0.6795562995
0.5124211693 0.50104439 0.4362316115
0.502368374 0.2499802426 0.1812984267
0.5224554444 0.0029046172 0.1841903648
0.5223961796 0.2502113834 0.1853228785
0.5123582005 0.2505341949 0.4321293747
0.5224035877 0.50135607 0.6811638577
0.5223146904 0.2505309209 0.6842391463
0.50236467 0.2494642681 0.683275167
0.5123285681 0.251737044 0.9318827581
0.5024535672 0.0017016371 0.6780913472
0.5324341587 -0.0023949908 0.4352509639
0.532382302 -0.0015490676 0.9358368329
0.5323971182 0.2520729512 0.437495619
0.5324230465 0.2509008772 0.9344848542
0.5423684243 0.4999914877 0.6900693231
0.5524101075 0.5000792296 0.9404205964
0.5523693629 0.4996444491 0.4406542488
0.5423684243 -3.7725554884e-04 0.6875477902
0.552298986 0.0014346137 0.9425874665
0.5423239757 0.2498113067 0.1892649151
0.5524767804 0.2492062808 0.4415413691
0.5423091595 0.2492724146 0.6894016679
0.5523841791 0.2510207038 0.9387722936
0.5722601186 0.2478993201 0.4433091276
0.5623999339 0.0010555558 0.1921864856
0.5723008631 0.2490766324 0.942189281
0.5623443732 0.4988213781 0.1914503054
0.5623554853 0.0014528169 0.6892896203
0.562262884 0.2477984824 0.1912558427
0.5723712401 0.4995265869 0.9437635028
0.5623665975 0.2497124335 0.693526129
0.5723156793 0.4970252892 0.4446046196
0.5723527199 -9.833291296e-04 0.4444712737
0.5724082806 -5.0711799128e-05 0.9438746243
0.5924027497 0.4995030144 0.9484120872
0.5922916282 0.4985574977 0.4491513426
0.5823018017 0.2483851742 0.6971153548
0.592495351 -0.0011147455 0.4490911517
0.5924768307 -7.0707324831e-04 0.9506622984
0.6024777693 0.2485658963 0.2044783799
0.5823573625 0.4980362849 0.6962217524
0.5923842294 0.2487092953 0.4478586286
0.6024481369 0.2487570949 0.7040345227
0.5924434943 0.248569825 0.9467545242
0.5824758921 -0.0013922455 0.19755736
0.5823018017 0.2495801659 0.1972156613
0.6124342593 0.4974371521 0.9538385224
0.6124490755 0.4990472806 0.456470548
0.6126379821 -0.0026121846 0.4537952969
0.6126046457 -0.0035272536 0.9543385693
0.6125083403 0.2479163446 0.4543953532
0.6124675958 0.2501642385 0.9535792388
0.6225018708 0.2489004939 0.2046478403
0.6224018614 0.2503213881 0.7071662981
0.6424889318 2.8846939668e-04 0.2117605449
0.6524676461 -5.1260063218e-04 0.4620645915
0.6525195028 -0.0020900551 0.9627838063
0.6424222589 0.2514803663 0.2114447745
0.6525269109 0.2521606931 0.4619803243
0.6425259723 0.2503750809 0.7108499771
0.6524565339 0.2499193471 0.9597557444
0.6325731864 0.4984520766 0.9586074885
0.6324954013 0.5010129601 0.4567094593
0.6425852371 0.4983034392 0.2132356833
0.6525824717 0.5022177736 0.4611450608
0.6326065228 -0.0029533302 0.4581651515
0.6326546755 -0.001203404 0.9594779405
0.632473177 0.2496502284 0.4606968706
0.6325731864 0.2505014554 0.9611910643
0.6823111876 0.5001709002 0.7199017526
0.6725547164 0.5001892343 0.9667101008
0.6824963902 0.5022158092 0.2208104683
0.6626686034 0.2527997681 0.2177185114
0.6725584205 0.4999535099 0.470395929
0.6625982265 0.2512996443 0.717406148
0.6825000942 0.2514797115 0.2238848309
0.6723398814 0.253420509 0.4713265719
0.6824408294 0.2512603569 0.7267829539
0.6725695326 0.2513160141 0.9736274166
0.6624648806 0.5007163402 0.7167829413
0.7025612362 0.2513683973 0.2287908469
0.692512145 0.2506599145 0.4744129726
0.7025575322 0.2508956389 0.7300443711
0.6925195531 0.250574137 0.9790353316
0.7024315945 0.5018681157 0.7282367941
0.6926010422 0.5004288874 0.9753683207
0.7025093795 0.4996784981 0.2264619246
0.7024427066 0.0013654679 0.2307854785
0.7223556866 0.5028954812 0.7329326051
0.722318646 0.4995586716 0.2337644618
0.7124584614 0.2507679549 0.4798236656
0.71250291 0.2496554667 0.9798965235
0.7223075339 9.6598056135e-04 0.2315077685
0.7223742068 0.0015811557 0.7324057038
0.7225779296 0.2509886191 0.2340867142
0.7325084912 0.25064289 0.4908033998
0.7224705121 0.2522412323 0.7343466267
0.7324714507 0.2512734527 0.9853692593
0.7124621655 0.0045374014 0.4828971022
0.7423575637 0.0016954166 0.7440577233
0.7523585023 0.5032726402 -7.4032432744e-04
0.7424020124 0.2511516618 0.2413022062
0.7422575543 0.2510907663 0.7429900305
0.7625483475 -0.0010533917 0.2510429352
0.752332574 -1.4336457752e-04 0.4979781472
0.7624779706 -1.2509593782e-04 0.7518908658
0.7623964814 0.2473368555 0.2497113288
0.7524659198 0.2501773343 0.4947259901
0.7622742477 0.2512125572 0.7521482974
0.7523844307 0.252011401 0.9969536799
0.7824613275 -0.0020892694 0.2608623753
0.7824761437 -0.0020038193 0.7605250095
0.7722862985 -7.0190040768e-04 0.006757972
0.7823613181 0.2477834223 0.2599215463
0.7724233484 0.249935062 0.5057973995
0.7824020627 0.2463775882 0.7619019906
0.7724307565 0.2490681201 0.0029791914
0.7924844904 3.1791734987e-05 0.5132758792
0.7923622567 0.2505152059 0.5120044636
0.7923289202 0.2490792516 0.0102595043
0.8024335723 6.2450760071e-04 0.2667342227
0.8124567352 -7.6934377287e-04 0.518965302
0.8024706128 -1.9823597561e-04 0.7669793189
0.8126011932 -5.5267377732e-04 0.0181505227
0.8025335816 0.2460298948 0.2661934312
0.812516 0.2494623037 0.5202441257
0.8024483885 0.2469983291 0.766983949
0.8124382149 0.2519806259 0.0193459126
0.8224984183 -3.2683672243e-04 0.771601975
0.8325178772 -1.6274636014e-04 0.0237976267
0.8225317548 0.2495467716 0.2716476468
0.8324215718 0.2509257592 0.5225758261
0.8224836021 0.248254871 0.7722168475
0.8324586123 0.2520696773 0.0217956796
0.8225280507 -7.1748440857e-04 0.2700271243
0.8326030703 -0.001653834 0.5249204905
0.8622762255 0.4994853351 0.781196394
0.8522715829 0.500249475 0.0318642171
0.8623651228 0.5000085123 0.2838978705
0.8425817846 7.5585846534e-04 0.7776831013
0.8424410307 0.2495264731 0.2776472839
0.8423743577 0.2499180375 0.7779609051
0.8624762443 0.0021053151 0.2832496615
0.8522938072 -9.4338694245e-04 0.5311794113
0.8524419693 -6.7551237256e-04 0.0358602403
0.8424743671 7.6456717172e-04 0.2773454037
0.8625577334 0.2499435743 0.2833867114
0.8523715923 0.25301192 0.5301811694
0.8624354997 0.2507077142 0.7839318359
0.8524345612 0.252990312 0.0314213978
0.8724623667 0.5000962541 0.5373049862
0.8824596012 0.4989981714 0.7906815434
0.8923679385 0.5004465667 0.0437906142
0.8824151526 0.5026813649 0.2885158965
0.8924346115 -1.2182198806e-04 0.5439991329
0.8723623573 1.8285177721e-04 0.0380952648
0.8923790507 5.670825218e-04 0.0444793825
0.882515162 0.249688861 0.2878037926
0.8723697654 0.2518732403 0.5346102888
0.8925531411 0.2498302957 0.5395181568
0.8824929377 0.2519288975 0.7912047406
0.8723882857 0.2522680787 0.0345782681
0.8924457236 0.2520258064 0.0416466167
0.9025466716 0.5000995281 0.2942766223
0.9024948149 -2.852575604e-04 0.2975797101
0.9124068562 0.0028866105 0.5494440884
0.9024540703 0.0011013256 0.7978479567
0.9124216724 0.0038245316 0.0481694511
0.9023244285 0.2467684978 0.2966101747
0.9125031616 0.2504654419 0.5467540211
0.9023911014 0.2495670701 0.7986776642
0.912532794 0.2517449015 0.0492000107
0.9124994575 0.4997033802 0.0461174992
0.9225374366 -5.5229849806e-05 0.301104115
0.9225967014 3.7896136822e-04 0.8017344326
0.9325420793 0.5007497345 0.5546205001
0.9324976306 0.5014228586 0.0534678187
0.922563365 0.2504320476 0.3010263299
0.922637446 0.2488703736 0.8016381272
0.9424244882 -8.8550351058e-04 0.3013458043
0.9325087428 0.0028433288 0.5528536676
0.9425207935 -7.2887775375e-04 0.8018622223
0.9325680076 9.9727952112e-04 0.0518629458
0.9426800678 0.2511752342 0.3022329246
0.9326494968 0.2504385955 0.5532666694
0.9426170989 0.2495271279 0.8018159217
0.9326494968 0.2498158903 0.0500828714
0.922418907 0.5003418004 0.7989360218
0.9624856302 0.2491617551 0.3107189062
0.9525217321 0.2512832746 0.5530101638
0.972571762 0.2490687749 0.5593339054
0.962541191 0.2510639199 0.8102370824
0.9524958038 0.2518031778 0.0517453422
0.9725162012 0.2502650762 0.0607197956
0.9525698848 0.5003313237 0.0564852315
0.9725124972 0.5006305627 0.0630415875
0.9626189761 0.5022000942 0.3086279692
0.9525587727 -0.0013223794 0.5558280209
0.9625300788 1.6523792747e-04 0.8084211712
0.9925514149 0.5014313708 0.5609831343
0.9826504857 0.5006115738 0.811360336
0.9925440068 5.0487747624e-04 0.5634815169
0.9824504669 6.4958605592e-04 0.8131743951
0.9825245479 0.2494943884 0.3113115544
0.9924625176 0.2517350796 0.5596191174
0.9824356507 0.2493156308 0.8119752085
0.9925958635 0.2496181437 0.061918334
0.0026696994 1.0032519144 0.312363505
0.0127031225 1.0018703076 0.5678680397
0.022681133 0.9987993427 0.820742698
0.0026753666 1.0012940924 0.8129465959
0.0126264116 0.999630926 0.0705888699
0.0126932327 0.7510792076 0.0670742808
0.002551429 0.5015623288 0.8119511321
0.0225159324 0.750208337 0.3207096586
0.0025875806 0.7518649555 0.3140155119
0.0126384128 0.7507125252 0.5679810133
0.0225656037 0.7488070865 0.8201444937
0.0025236116 0.7511970698 0.8152921864
0.0225909764 0.4985712483 0.321098584
0.0025390946 0.5014542885 0.312870034
0.0124916953 0.5028771471 0.5718378567
0.0325557635 0.7497696277 0.0697356417
0.0326120651 0.4995881371 0.0702510605
0.0425000301 0.750267268 0.3180797822
0.0324946466 0.751183974 0.5715980194
0.0425655918 0.7505881151 0.8180480006
0.0425189207 0.4969408213 0.3162842433
0.0325613196 0.5016323914 0.5700636161
0.0424763242 0.9984261124 0.8168145515
0.0525594927 0.7505029924 0.06601983
0.0524124419 0.7505160882 0.5702645609
0.0726295244 0.9986225494 0.5603034409
0.0625319101 1.0004821529 0.8126900904
0.07254322 0.9988779175 0.059439768
0.0725039571 0.7497630798 0.0614722736
0.062667108 0.5006102642 0.8157746391
0.0625122786 0.7477528746 0.3125422255
0.0725458129 0.7494946159 0.5608146
0.0625026481 0.7493702058 0.8132855166
0.0726047073 0.4995193842 0.5590579536
0.1025371461 0.4984952927 0.2994539601
0.1026082639 0.9999910604 0.3012846875
0.0825052661 0.9999124856 0.3056230576
0.1025164034 1.0014643378 0.8015288577
0.082528972 0.9988844654 0.803500339
0.0925691735 0.7517143538 0.0529532333
0.102428247 0.7496714092 0.3055378644
0.082484153 0.7500511874 0.3064722113
0.0924562 0.7510006328 0.5507766209
0.1024852893 0.7513738631 0.8023391189
0.0825634197 0.7506339504 0.8055588656
0.1123928858 1.0011631345 0.0474128986
0.1124906728 0.7520482967 0.0478984071
0.1225471722 0.5005166293 0.7930808426
0.1123691799 0.5014346448 0.0464845707
0.1224019733 0.749684505 0.2958489921
0.1125284541 0.7524018833 0.5513470448
0.1224097519 0.7495731907 0.7935855196
0.1224316058 0.500586037 0.2950313228
0.1123839961 0.5004681748 0.5479550598
0.1224497556 1.001254805 0.2954146921
0.1125295653 0.9999386772 0.5474170463
0.1225260591 1.0010583681 0.7926845092
0.1425564574 1.0004297697 0.2904512633
0.152381824 1.0021649631 0.5364752787
0.1324673624 1.0009274101 0.5411951661
0.1425205281 1.002688795 0.7918140571
0.1525618409 0.9994475848 0.0388714488
0.1324603247 1.0012155176 0.0428639531
0.1526488861 0.7515833959 0.0388880244
0.1325377394 0.7510202765 0.0454007653
0.1424516328 0.7501297622 0.2920486355
0.1524773885 0.7507452647 0.5379254148
0.1325747799 0.7512363572 0.5438305986
0.1424642266 0.7497434361 0.7916862673
0.1425923867 0.498852808 0.2903188435
0.1825228009 0.9997225966 0.7762783398
0.1725663109 0.751766737 0.0323168522
0.1624924025 0.7505095403 0.2825736722
0.1725100093 0.7506797857 0.5309960607
0.1624246184 0.7507387168 0.7860857417
0.1825002062 0.7515506564 0.2724968005
0.1824553872 0.7499136815 0.774487431
0.1824416822 0.4993380074 0.2761619593
0.1624894393 0.9991398335 0.2850285322
0.1726044626 0.9999648688 0.5297607596
0.1624564732 1.0014774336 0.7833873403
0.1925363333 1.0006851378 0.5215988825
0.2025872765 0.9982100318 0.7713547296
0.1925611504 1.0000565394 0.0238647626
0.1925618912 0.748774347 0.0227195626
0.2025543105 0.7480737217 0.2690631449
0.1925422597 0.7494618764 0.5250362422
0.202464302 0.7478772847 0.7689980269
0.2126096986 0.4997682044 0.515280697
0.2324385966 0.7503916781 0.006140877
0.2224124705 0.9999386772 0.2613735344
0.232583425 0.7484993352 0.5008895315
0.2123544895 0.9991005461 0.5166030433
0.2223939502 0.9986421931 0.7621103435
0.2125456185 0.9996505697 0.0141914474
0.2324134091 0.5001728645 0.5078299977
0.2124626478 0.7468230729 0.0128692863
0.232425262 0.9996047344 0.5069447294
0.2225780416 0.7497827235 0.2610188715
0.2323745165 1.0011565866 0.0049103912
0.2125471002 0.7480082427 0.5134527476
0.2225243328 0.7488070865 0.7606685415
0.2525653003 0.7488267302 0.9940089591
0.2425210243 0.4979616389 0.7505601854
0.2525023314 0.4998493983 0.9996113367
0.2425221355 0.7488725654 0.2511966534
0.2525167772 0.7491410293 0.4966446887
0.2425258396 0.7491213856 0.7512630291
0.2524371401 0.4984893996 0.4959937017
0.2625558676 0.9994082974 0.7426474058
0.2423969386 0.9992969831 0.2530764594
0.2625521635 0.7490755503 0.2447553081
0.2626040202 0.7484862394 0.7434965595
0.2423461931 0.9991791209 0.7532493267
0.2624477093 0.4985123172 0.2420189402
0.2825692273 0.4995318252 0.7367190716
0.2825684865 0.7475433418 0.2342774729
0.2824877382 0.7490886461 0.7355430353
0.2726786694 0.7480344343 0.9884991827
0.2723686403 0.500548714 0.9901011849
0.2725264329 0.7496059302 0.4896116212
0.2824751444 0.4982733189 0.2346154676
0.2824951463 0.9986552889 0.7388035265
0.2925031226 0.7494618764 0.9804984318
0.3025470282 0.4997105828 0.7264375511
0.2924501546 0.4987689949 0.9816466877
0.3025811054 0.7487350596 0.2244598848
0.2925205316 0.7504113218 0.4814358539
0.3024881337 0.7496714092 0.7249559306
0.3026311101 0.4971935703 0.2273712692
0.292636098 0.4996575449 0.4765279859
0.3124664776 0.748185036 0.974229325
0.3124783306 0.7457164779 0.4750269191
0.332569105 0.7483421856 0.9650062371
0.3224888997 0.9989041091 0.2184500616
0.3326209617 0.9998470066 0.4629063372
0.3225466829 0.4983518937 0.7191868706
0.322497419 0.7476939435 0.2163507905
0.3325409542 0.7465349653 0.464700024
0.3224255604 0.7497892714 0.7149475839
0.3226592861 0.4987107186 0.2164980265
0.3324931719 0.5000890514 0.4652269253
0.3425759701 0.4996699859 0.2091306684
0.3425222613 0.9999059377 0.2090371411
0.3524146712 0.7504898966 0.9578666782
0.3425681916 0.4993799139 0.7075450373
0.352382446 0.4996267697 0.9548293561
0.3424515139 0.749880942 0.2083287413
0.3524417108 0.7498482025 0.4578975338
0.3623367135 0.7504702529 0.2014327237
0.3424226223 0.7493112747 0.7077006075
0.3624663553 0.7491672209 0.7019241394
0.3626034052 1.0007768084 0.199504765
0.3625219161 1.0006262067 0.7009333057
0.3625515485 0.4991599045 0.202967127
0.372478406 0.749291631 0.9497825862
0.3824682325 0.5011340962 0.6996146634
0.3725784154 0.5007523537 0.9495325627
0.3825719459 0.7487481554 0.1967369127
0.3724709979 0.7495404512 0.4527859429
0.3825645378 0.7479362158 0.6958828317
0.3726747208 0.9989368486 0.4480040127
0.3826089864 0.9991463814 0.6948994061
0.372689537 0.9982427713 0.9476434965
0.3725006304 0.5009998643 0.4512348714
0.3924210184 0.752028653 0.9428282298
0.3924839873 0.751118495 0.4407338859
0.4026516082 1.0014970773 0.1876258724
0.4027182811 0.9997553361 0.6914685285
0.4125895779 0.7510333723 0.9400687116
0.4125747617 0.7517274496 0.4407190697
0.4124154875 0.5010699268 0.4398208373
0.402566415 0.7515506564 0.1921753735
0.4025145583 0.7501166664 0.689190537
0.4324507011 0.7491541251 0.9365869033
0.4224238342 0.5011923725 0.6888469862
0.4324988538 0.4990184699 0.9352256645
0.4225905165 0.7498089151 0.1852432414
0.4325618227 0.7503523907 0.4355945147
0.4224497625 0.7511512345 0.6873996281
0.4224016099 0.5000072027 0.1908391369
0.4324544052 0.5007333647 0.4346851701
0.4427479638 0.5002252477 0.6808082688
0.4425590572 0.7505422798 0.1814076962
0.442473864 0.7525328413 0.6825630631
0.4526044444 1.0002922638 0.9347533979
0.4625387101 0.9993362705 0.6790247681
0.4725100163 0.9995588991 0.9304474382
0.4525859242 0.7502869117 0.9297158881
0.4525266593 0.7511643303 0.4305847853
0.4525785161 0.4990721626 0.4316793324
0.4726322499 0.7496583134 0.9274656769
0.4625201898 0.752683443 0.1822522199
0.4725729851 0.7499398731 0.4259871316
0.4624572209 0.7509155101 0.6812851654
0.4825813318 0.9986160015 0.1792417522
0.4924192922 0.9991791209 0.4302940172
0.4923896597 0.9993297226 0.9266693059
0.4823887212 0.5016808458 0.1769313502
0.4926452393 0.7489118528 0.4301134447
0.4927378406 0.7483880209 0.9271786129
0.4924118841 0.5002501298 0.4285234807
0.4826183723 0.5017941245 0.6773727612
0.4826294845 0.7511315908 0.1763794466
0.4827035655 0.7497696277 0.6794423999
0.5125026585 0.9997160487 0.4335369142
0.5124915463 0.9988713696 0.9340774085
0.502368374 0.9990547108 0.1809419118
0.5126767489 0.7517994765 0.93490156
0.5223998836 0.4994172369 0.1842403695
0.5225999024 0.750077379 0.6883163808
0.5223591391 1.0001351142 0.6834020307
0.5025424644 0.7488070865 0.1834690008
0.5025239442 0.7488660175 0.6831566373
0.5125026585 0.5015453043 0.9345774555
0.5125767395 0.7511643303 0.4350185347
0.5225628619 0.7516226833 0.1866665231
0.532530464 0.7500904748 0.4377974992
0.5325193519 0.5014929211 0.4368742644
0.552447148 0.7494094932 0.939809428
0.542490658 0.99871422 0.1864035355
0.5523100981 1.0029441631 0.4420543802
0.542486954 0.7494291369 0.189834413
0.5523989953 0.7496976008 0.4406912893
0.542412873 0.5005402017 0.1874082594
0.5425202904 0.7495142596 0.6909795938
0.532456383 0.7522971169 0.9393556817
0.5325119437 0.499937795 0.9378092403
0.5622702921 0.4978948503 0.6907203102
0.5623888218 0.7501101185 0.1921735214
0.5624258623 0.7498678462 0.6913268486
0.5723008631 0.7502148849 0.9418744366
0.5724045766 0.7493963974 0.4424997924
0.6024110964 0.497733772 0.7013351953
0.6025074017 0.7485320747 0.2009576792
0.5924397902 0.751511369 0.4505736983
0.6024666572 0.7490362629 0.7031974071
0.6023184951 0.4995102171 0.2003428066
0.6025740747 0.9988779175 0.2016864513
0.6024666572 0.9977844183 0.7010851718
0.5824833002 0.9995850907 0.6969736748
0.5824721881 0.7500380916 0.1969860101
0.5825018205 0.4982130782 0.1944616991
0.5823832909 0.7509613454 0.6981858256
0.5924731267 0.7494487806 0.9509771427
0.6123712904 0.7488267302 0.4529591073
0.6224018614 0.5017973984 0.7074459539
0.6224648303 0.7481588444 0.2040737123
0.6225315032 0.7486237453 0.7061819464
0.6223944533 0.4985313061 0.2068323046
0.6225055749 0.9994606806 0.202458746
0.6226278086 0.999820815 0.7047669988
0.6123638823 0.7485975537 0.953162533
0.6424444832 1.0000892789 0.7080460103
0.6325805945 0.7497696277 0.9569684458
0.6325583702 0.7490624545 0.458056808
0.6525083906 0.7501886933 0.9595983222
0.6426074614 0.501733229 0.7084821623
0.6525676554 0.5022609897 0.9587834309
0.6425444926 0.7500577353 0.2103048527
0.6525713595 0.7501625017 0.4594661995
0.6425593088 0.7481064612 0.7079274806
0.6624796968 0.9992838873 0.2159600131
0.662490809 1.0002202369 0.7150142568
0.6824445335 1.0015887479 0.2205613708
0.672451003 0.7511577824 0.9663304355
0.6726436137 1.0010125328 0.4691837782
0.6824223092 1.0001351142 0.7236493265
0.6725399002 1.0015756521 0.9703585913
0.6825371348 0.7508893185 0.2223309813
0.672454707 0.7519762698 0.4674836186
0.6825593591 0.7513345757 0.722967781
0.6625537778 0.7503851302 0.2154608921
0.6625426657 0.5033381192 0.2123041144
0.6625463697 0.750987537 0.7144688353
0.692438064 1.0008750269 0.4746917025
0.7024315945 1.0027149866 0.7303499553
0.6923936153 1.000933958 0.9770536641
0.6924269518 0.7507583605 0.9733125723
0.7025204917 0.7510399202 0.2297159337
0.6925528896 0.7497041487 0.4753213912
0.6925047369 0.5013501769 0.4784346464
0.7024945633 0.7512298093 0.7294896894
0.7324418183 0.500950755 0.9881102573
0.7224371757 0.7492065083 0.2364406389
0.7323936657 1.0011958739 0.4913747497
0.7323788495 0.7485713621 0.4908061778
0.7324418183 0.4990708531 0.4881096284
0.7224075433 0.7507780042 0.7352485632
0.7324047778 1.0021977026 0.9910364579
0.7124103087 1.0022762774 0.9839154192
0.7124732776 0.750725621 0.9823226771
0.7126362559 0.5019853231 0.9801280267
0.7124584614 0.7514851774 0.4823368644
0.7124695736 0.5005264511 0.480071837
0.7324529305 0.749815463 0.9875361294
0.7423649718 0.5009717083 0.7477460324
0.7424353488 0.7500839269 0.2450238518
0.7423538597 0.5006809816 0.2433959213
0.7423723799 0.7519304345 0.7448865048
0.7424094205 1.0007637126 0.2434838925
0.7524733279 0.7520155572 -0.0013490852
0.7524177671 1.0005476319 -1.2107835995e-05
0.7523881347 0.4996457586 0.4968910081
0.7624594503 0.5002697735 0.7531187589
0.762437226 0.7491541251 0.2511901713
0.7624668584 0.5007222333 0.2516207672
0.7522992375 0.7497172445 0.4986291342
0.762292768 0.7488070865 0.7521057008
0.7724122362 0.9974373796 0.5049389856
0.7824502153 0.7485320747 0.2611151768
0.7825539288 0.4994080699 0.2545386337
0.7724529808 0.7484993352 0.5039898225
0.7824353991 0.748774347 0.7569589341
0.7724159403 0.7477659704 0.0060470719
0.772467797 0.5000091671 0.5049519498
0.7824539194 0.4988115562 0.7550911662
0.7724307565 0.4991710359 0.0032012493
0.7923696648 0.7463516241 0.5112877296
0.792388185 1.0001678537 0.0120458757
0.8124122865 0.7483749251 0.0211006143
0.7924844904 0.7477463267 0.0112965461
0.7923585526 0.4982353411 0.5123804248
0.7924844904 0.4980709888 0.0145539814
0.8124271027 0.4980565834 0.5195607283
0.8023150426 0.4988082823 0.7646791031
0.8125011838 0.498946443 0.0201445987
0.8024557966 0.7476546561 0.2647544072
0.8023965317 0.4984651723 0.266761077
0.8124567352 0.7493963974 0.5224711866
0.8024335723 0.7484731436 0.7679664486
0.8323030422 0.7502410764 0.0233516589
0.8323734192 0.4996621284 0.5241907924
0.8223687765 0.4993262211 0.770302779
0.8323548989 0.4998919597 0.0246407614
0.8224650818 0.7491999604 0.2741247311
0.8223687765 0.5008466434 0.2695122612
0.8325438055 0.7514851774 0.5226610192
0.8224687859 0.7508827706 0.7707565253
0.8522419505 0.5012008848 0.5302469164
0.8623947552 1.0015232689 0.7847541353
0.8625132848 0.7491279335 0.2833635611
0.8524197449 0.7512560009 0.5308590108
0.84224842 0.4988659038 0.7753893675
0.8423743577 0.7513935068 0.2794243025
0.8422928686 0.4979151488 0.2794483789
0.8423743577 0.7478641889 0.7787109755
0.8623725309 0.7510661118 0.7854634611
0.8524901219 0.748708868 0.0314611237
0.8826299876 0.7485975537 0.792095565
0.8725364477 0.7499660647 0.0358698708
0.8925975897 0.7490362629 0.0456095812
0.8923457142 0.4978247878 0.5433305517
0.872340133 0.5000550024 0.0379164518
0.8824966417 1.001778637 0.2894317232
0.8724586626 1.0001285663 0.5403913869
0.8825929471 0.7507518126 0.2935422942
0.8725216315 0.7493178226 0.5366808535
0.8926568545 0.7507976479 0.5408442072
0.8823892243 1.0006458504 0.7909454571