POSCAR file written by Ovito 3.7.11
1
269.9580142861 0.0 0.0
0.0 15.271131403 0.0
0.0 0.0 10.7983205714
Sr Ti O 
800 800 2400 
Direct
0.0223413561 0.5020483093 0.8296221867
0.0125234219 0.5021517725 0.0828468018
0.0124501883 0.2516968521 0.5835005808
0.0224314071 0.0011679358 0.326853264
0.0224451129 0.2541694914 0.8293897431
0.0025088276 0.2522888187 0.8344636803
0.0125258297 0.2519921805 0.0817947864
0.0225084561 0.2519600939 0.3311502285
0.0026211043 0.2516019017 0.334228485
0.0523941034 5.9175062128e-04 0.5678879678
0.0526145081 0.2508855173 0.0662071773
0.0525044909 0.0015451836 0.067487469
0.0425166415 0.500802822 0.822145098
0.0323754349 0.2515069513 0.5730702551
0.0424518166 9.260415042e-04 0.3240861671
0.0425314586 0.252183391 0.8223238295
0.0525185672 0.4994355363 0.0670003562
0.0524337392 0.5001617431 0.5666525905
0.0324395189 7.9468254022e-04 0.5773875931
0.0324421119 0.2502483674 0.0729143314
0.032429147 0.0023769491 0.074082476
0.04248071 0.2513530661 0.3232026963
0.052565982 0.2503760593 0.5673721468
0.0626534765 0.2484377615 0.8133298383
0.0725390879 0.2497814733 0.0606952091
0.0625701303 0.2483270952 0.3098107991
0.0725327906 0.5003516439 0.0613705919
0.0625434594 0.4993464793 0.3155857712
0.0726657742 0.249748077 0.5611934082
0.0625627217 7.3993872472e-04 0.3184000977
0.0826117653 0.5003876596 0.3114601296
0.0925225657 0.5017601839 0.5578521479
0.0926425844 0.2514768291 0.5519947556
0.1026685879 0.2523012605 0.8007547347
0.0825187879 0.250118711 0.8062759637
0.0924295883 -0.001866155 0.5562083738
0.0926536972 0.2503865366 0.0538510892
0.0924610747 0.002006839 0.0569137877
0.102542272 0.2508756948 0.3007269791
0.082597689 0.2518003152 0.30571757
0.1026148758 0.5013672857 0.8048525942
0.0826510307 0.4993621953 0.8090495431
0.0925440505 0.5014288398 0.0556602595
0.1225472346 0.2488686399 0.2965263259
0.1126464358 0.2498489209 0.5470689896
0.1225246385 0.2488909041 0.794110183
0.1125823517 0.2522940573 0.046954276
0.1525833868 0.2503040279 0.5299098399
0.1326684381 0.2493735141 0.5377416133
0.1424451436 0.2499903642 0.7819527369
0.1525348607 0.2477737636 0.0274204977
0.132594723 0.2497448028 0.0393618917
0.1425951669 0.249420007 0.2847615335
0.1425992417 0.4996477013 0.7841345577
0.1525252296 0.4996431175 0.0272313942
0.1324810016 0.4993831498 0.0402970371
0.1525596794 0.5006201243 0.532017575
0.1325273051 0.4989404845 0.5407754184
0.1823324573 -0.0010045293 0.2680506015
0.182465441 0.2501311527 0.7683830342
0.1824495126 0.248478361 0.2674671775
0.1625041888 0.5010503478 0.7774455545
0.1725175977 0.4989352459 0.0217820283
0.1624078775 0.4997943833 0.2719178696
0.1724305472 0.2484161521 0.5200101523
0.1724123962 0.5006653076 0.5182932186
0.1623986168 0.2486820132 0.7762249944
0.1824743312 0.499598589 0.7696980535
0.1724175822 0.2482400028 0.0202203966
0.1724531433 -0.0011553367 0.0226993932
0.1625093748 0.2515986275 0.275433231
0.2024852208 0.2515567184 0.7600585916
0.1924429184 0.2498620175 0.0138481094
0.2023622387 0.250357724 0.2604753495
0.202607462 0.4997943833 0.7570442339
0.1925692343 0.4984853774 0.0111185183
0.2025467118 0.4995789441 0.25862784
0.1925036686 0.4998205765 0.5124812037
0.1925466382 0.2509398682 0.514417616
0.2024148394 -5.204132094e-04 0.2621006022
0.2226220558 0.4989817388 0.2499385258
0.2323798694 0.4994355363 0.9981789532
0.2125390064 0.2497860572 0.5043780918
0.2223316403 0.2507512771 0.752503713
0.2123919465 0.251751203 0.0017398376
0.2223571998 0.2497860572 0.2482077011
0.2324043177 0.2494900738 0.4937912604
0.2324906274 0.248991748 0.9921131952
0.2224027624 0.5025230613 0.752463892
0.2125149285 0.5012638225 0.0048642124
0.2425558963 0.4997649159 0.2429911492
0.262609385 -0.0010140243 0.2334961541
0.2625152963 0.2495365668 0.7341591938
0.2625675267 0.4983897722 0.7363113803
0.2525715278 0.2504421971 0.4893451986
0.2425203352 0.2476997677 0.7395220647
0.2526448726 0.2518959205 0.9883440906
0.2524611403 0.0020171198 0.4895581947
0.2524785504 0.0010055379 0.9877699272
0.2626101259 0.249196055 0.2348685898
0.2424688457 0.2478235307 0.2411908692
0.2725568578 0.2483807913 0.4850037828
0.2725438928 0.2502018744 0.9867697717
0.272501664 -2.4525350518e-04 0.4807151529
0.2723508999 -8.2163516072e-04 0.981676387
0.272414243 0.4982935122 0.4819236742
0.282463954 -8.9818482617e-04 0.2309800221
0.2825050715 0.2464320162 0.7281647431
0.2824091306 0.2485340216 0.2321857652
0.3126312376 0.2499504196 0.4675658859
0.3126375349 0.2483022116 0.9671926533
0.3125312221 -0.0010458491 0.4664499717
0.3125627085 1.9171477332e-04 0.9675538206
0.2924992182 0.2480979046 0.4760190523
0.3023448233 -6.4050909173e-04 0.2189818601
0.3025178131 0.2499877449 0.7224860823
0.2925695995 0.2489891286 0.9778424575
0.2924618049 -0.0018336754 0.4753430212
0.3024396528 -5.3049759647e-04 0.7197236157
0.2925169987 -6.582999505e-05 0.9748975551
0.302572266 0.2483074503 0.2214998442
0.3123852735 0.4986248563 0.9675816027
0.3124282431 0.5003536084 0.4662805009
0.3325895264 0.2502942055 0.4652664543
0.3224661003 0.2504068363 0.7155887134
0.332534703 0.2499111298 0.9598581794
0.3224894373 -5.6775744219e-04 0.7153247835
0.3324057941 6.772059792e-04 0.9618770119
0.3225349999 0.2524826485 0.2140690591
0.3324817318 0.4998028961 0.9608305529
0.3625208475 0.2494285198 0.1950012792
0.3524933622 0.5000432188 0.4528617476
0.362461579 0.4992809963 0.6979730112
0.3523848268 0.2494298295 0.4508049462
0.342394014 0.2503727851 0.7076698894
0.3524915101 0.2484528226 0.9508012155
0.352458542 -0.0020409292 0.4494973355
0.3424992155 5.7204022838e-04 0.7088941539
0.3525052159 -0.0022063394 0.9525607484
0.3424136467 0.2508082473 0.2060307721
0.3622911821 0.2497317062 0.6967830113
0.3925588518 0.2507637188 0.4348367224
0.3925625561 -0.0016843086 0.4339106525
0.3924403148 0.2497192645 0.9357711005
0.3925514432 -9.1016822119e-04 0.9358359254
0.3825647051 0.5011204147 0.1900708829
0.3924884705 0.5003942079 0.9349283769
0.3726261226 0.2512522223 0.4415785115
0.3823165183 0.2493800624 0.6840569583
0.3826017479 0.0012454677 0.1875408598
0.3726113054 0.2504507099 0.9437353019
0.3824498724 0.2493342242 0.1867861128
0.392521809 0.5008565181 0.4351478819
0.4024307573 0.2478248403 0.6826150674
0.4123952697 0.5000884021 0.9302054202
0.4023196289 0.2494966222 0.1836976696
0.4124174954 0.2488738785 0.4288107853
0.4124841724 3.8881870234e-04 0.4276772757
0.412306367 0.2501200206 0.9295386499
0.412517511 -4.7319994269e-04 0.9280013738
0.4024492787 0.4992508741 0.6829984604
0.4025529985 0.4992954026 0.1831522144
0.442525881 0.2487835119 0.6690370301
0.4425851495 -5.8478303074e-04 0.166553337
0.4424480912 7.1531710435e-04 0.6674432637
0.4424443869 0.2500925178 0.1694602705
0.4324354231 0.249925536 0.4220421402
0.4223931207 4.8940064086e-04 0.1712568461
0.4223671908 0.2486780842 0.6726487028
0.4324946915 -8.0932435054e-04 0.4188008954
0.4323539289 0.2489858545 0.920509468
0.4225338833 4.6931787594e-05 0.6745082512
0.4324946915 0.002101331 0.9183980286
0.4222671752 0.2508639079 0.173241414
0.4424406826 0.5004531426 0.1682350799
0.4524126036 5.2168377608e-04 0.4163394016
0.4524496464 0.2494979318 0.9110931889
0.4625438087 0.4998867144 0.1607450263
0.4723860799 0.5001800783 0.4103829198
0.4525274363 0.5002324648 0.9166014529
0.4724046013 0.2510354734 0.4135547093
0.4623585947 0.2497729606 0.6653336764
0.4624771317 -6.3271661082e-04 0.1619100223
0.4724490527 0.249860053 0.9094475627
0.4722823601 9.5871753762e-04 0.4117516511
0.462336369 0.2500316185 0.1661875393
0.4524718721 0.2486073626 0.4107163049
0.4624512017 0.4995409639 0.6600754513
0.4724231227 0.4997891446 0.9105940373
0.4924632761 0.5022139813 0.9155920367
0.4824617208 0.2517309032 0.664653015
0.4824431994 -8.2462685405e-05 0.663686198
0.4823876352 0.2512757962 0.1616738745
0.492515136 0.2498227277 0.4116358924
0.4924669803 0.2501966358 0.9139843793
0.5023907457 0.5010595155 0.1633213529
0.5025018741 0.5014347333 0.6633629996
0.5124737952 0.499066212 0.4223523736
0.5024463099 0.2513589596 0.1686888542
0.5224494205 -2.5062311388e-04 0.1688203561
0.5224123777 0.2503079569 0.1746499664
0.5126145578 0.2488129793 0.4177924053
0.5225012804 0.4994970903 0.6726440724
0.5225568446 0.2496079433 0.674531403
0.5025352127 0.2524374652 0.6669339252
0.5125626979 0.2502634285 0.9186110247
0.5023351815 8.914009798e-04 0.6656114974
0.5322842832 -7.7068936113e-04 0.4192889343
0.5323546645 0.001304337 0.9231395066
0.5324954271 0.2496943809 0.4266400774
0.5324435672 0.2483323338 0.9266585724
0.5425043909 0.502261784 0.6766706245
0.5524133392 0.4987283195 0.9327706339
0.5523911135 0.4987774318 0.4306638513
0.5424340096 -3.0667659004e-04 0.6748323757
0.5523207322 -5.5335117495e-04 0.9266307903
0.5422895427 0.2494769772 0.1792247518
0.5523651836 0.2494075652 0.4326428627
0.5422895427 0.2520517701 0.6798989043
0.5522948023 0.2511323883 0.93165935
0.5724571968 0.252770119 0.4385567453
0.5624408244 -0.0011297328 0.1838949225
0.5725868466 0.2511736426 0.9396235514
0.5623259918 0.5013410925 0.181187094
0.5624260073 0.0014241709 0.6835800323
0.562355626 0.2491783746 0.1855655527
0.5724683097 0.5000523864 0.9368453416
0.5623630346 0.2503014086 0.6858368647
0.5724090412 0.5005029097 0.4361035861
0.5723571813 0.001047447 0.4373435937
0.5723238427 -1.6117329094e-04 0.9360118787
0.5925640272 0.500034706 0.9384937461
0.5924788288 0.4998166475 0.4367592436
0.5825476548 0.2511323883 0.6897087631
0.5926195914 0.0018770516 0.4386132356
0.5926492256 -7.8468220399e-05 0.9414293878
0.602506314 0.251229958 0.1921739877
0.5823661451 0.5013384732 0.6867249658
0.5925158715 0.2512122776 0.440988605
0.6025248354 0.2499923287 0.6908533855
0.5924973502 0.2502935507 0.9421146795
0.5825846976 -2.4793830953e-04 0.1885150854
0.5824809778 0.2517760865 0.1874010233
0.612756056 0.5011911364 0.948384173
0.6126523362 0.5004334977 0.4475535147
0.6127116046 0.0018750216 0.4497140359
0.6126597447 0.00190056 0.9453559243
0.6124708264 0.2510551183 0.4447132582
0.6124486008 0.2514512907 0.9464023833
0.6225761015 0.2499261908 0.2026774729
0.6225501716 0.2511212562 0.6993963806
0.6425458736 -9.1979422703e-04 0.2094692698
0.6525177946 -3.9042938911e-04 0.4641616529
0.6526548529 5.340600693e-04 0.965599813
0.6426125506 0.2487894054 0.2092544215
0.6525548374 0.2494376874 0.4649099174
0.6423977024 0.2507984248 0.7083737026
0.6525066818 0.2491181302 0.964090319
0.6325776568 0.49735645 0.955468608
0.6325480226 0.4985940793 0.4588765718
0.6424532666 0.4988867884 0.2111269349
0.6526474444 0.4985338349 0.4655822441
0.6325517269 0.0012313889 0.4549630002
0.6325850654 -2.0367177929e-04 0.9562465067
0.6324146685 0.2512692479 0.4578551166
0.6324257813 0.2503393888 0.9563946779
0.6824446705 0.5007929995 0.7250725956
0.6724468195 0.5006312564 0.9711099291
0.6823891063 0.4991153242 0.2228148635
0.6624082215 0.2511828102 0.2211757198
0.6723801425 0.4993811853 0.4713766637
0.6624860114 0.2492445125 0.7178862929
0.6824039235 0.2498927945 0.225508801
0.6723727339 0.2496446138 0.4696745472
0.6823779935 0.2500250702 0.72762114
0.6723245783 0.2504972029 0.9723045593
0.6625526884 0.4985423477 0.7178955536
0.7025626137 0.2506799006 0.2377875622
0.6924610429 0.2506216207 0.4807151529
0.7025700223 0.2496419945 0.7396137457
0.6924832686 0.2504801773 0.9815467373
0.7024588939 0.5007674611 0.7373671
0.69250179 0.4997125295 0.9827969317
0.7024403725 0.5016835688 0.2355538815
0.7025959523 -2.375265073e-04 0.2399369705
0.7223842146 0.5006967395 0.7451284921
0.7225286815 0.502327267 0.2482753042
0.712538239 0.2521853555 0.4940801942
0.7125493519 0.2528015508 0.9903073588
0.7224879344 -5.4176067813e-04 0.2441422541
0.7224731173 4.2463792133e-04 0.7473455035
0.7225212729 0.2521689847 0.2485484948
0.7325117153 0.2506314431 0.5016137731
0.7225509072 0.2517426902 0.7450219941
0.7324857854 0.2514958191 0.9997903149
0.7126345503 0.0017766661 0.4946756571
0.7425021578 -1.8420279235e-05 0.7546447867
0.7525222344 0.5042655648 0.0049911766
0.742465115 0.251191323 0.2565441826
0.7425651305 0.2505423862 0.7530982499
0.7624719298 -6.5714178209e-04 0.2580490463
0.7526963356 8.7727717088e-05 0.5069618269
0.7625978753 3.4226026595e-04 0.7614125058
0.762594171 0.2516673847 0.2616051548
0.752462966 0.2506072144 0.5045068155
0.7625719453 0.2514395037 0.7620144513
0.7524777831 0.2513838432 1.0082545941
0.7825046746 -6.3802073648e-04 0.2709714261
0.7824898575 -2.072733461e-04 0.7707954463
0.7725364578 4.3819290914e-04 0.0175781339
0.782589873 0.2510930985 0.2696341811
0.7725290493 0.2520740343 0.5149658494
0.7826195072 0.252028851 0.7732208235
0.7726512905 0.2519548552 0.016472962
0.7924099186 0.0022307909 0.5259342216
0.792469187 0.2531551592 0.5230022842
0.79240251 0.2505175026 0.0250903206
0.8023003454 0.0012877043 0.2778474953
0.8124056205 0.0016116489 0.5321972326
0.8024077696 -6.6100528103e-04 0.7783355077
0.8124722976 1.6309868795e-04 0.0294424788
0.8025337151 0.251739416 0.278080865
0.8124130291 0.2497860572 0.5259842294
0.8024114738 0.2492759443 0.7732523099
0.8125463832 0.2506157272 0.0302790904
0.8223923587 -0.0013544706 0.7804951028
0.8325346766 -0.0011276374 0.0337048083
0.82248867 0.2488823913 0.2820629657
0.8325791279 0.250520122 0.536718306
0.8224849657 0.2482701249 0.784522581
0.8324717038 0.2492490963 0.0333295647
0.8224849657 -5.9539128207e-04 0.2826602808
0.8326235793 -7.2236288285e-04 0.540333683
0.8626319494 0.4997616418 0.8000842601
0.8526674369 0.5004898131 0.0466565445
0.8625282296 0.5016829139 0.2975237032
0.8425992046 -0.0013715617 0.7876665884
0.8425880918 0.2480789145 0.2930841239
0.8425065976 0.2497048582 0.7885287595
0.8625541595 -5.85306895e-04 0.2994841932
0.8525340828 -0.001947354 0.5457808263
0.8526303941 -0.0019000752 0.0470301211
0.8425658661 -0.0026317172 0.2891094318
0.8624837782 0.2514630776 0.3028226753
0.8526044642 0.2516451205 0.5449371766
0.8626060194 0.2472924633 0.7994443458
0.8525007443 0.251052499 0.0437874873
0.8725668276 0.5005153515 0.5544488409
0.8824720716 0.4990950245 0.8039922752
0.8926255024 0.500003929 0.0596311547
0.8825535658 0.4980106255 0.3046424028
0.8925847553 -5.4136777993e-04 0.5583892685
0.8725371934 -0.0011536341 0.0519455151
0.8925106697 -0.0013300454 0.0598973072
0.8826906241 0.2464857123 0.3041867764
0.8726223918 0.2505666149 0.5551174634
0.892606981 0.2486957647 0.5558601715
0.8825535658 0.2485706921 0.8057953334
0.8725371934 0.2496675329 0.055617475
0.8925106697 0.2504683904 0.0541456721
0.9025307463 0.4980453315 0.3066834609
0.9025751977 -6.8209081762e-04 0.3067269862
0.9124915545 -0.001385837 0.5641809098
0.9024714779 6.5507271409e-04 0.8104488348
0.9125285973 -0.0013824319 0.0657538661
0.9025048164 0.245904223 0.3074974764
0.9125619359 0.248339537 0.5587634007
0.9025751977 0.2461596068 0.8092921734
0.9124989631 0.2495483537 0.0586372039
0.9125582316 0.4987538579 0.0627937761
0.9225931254 -4.5217988913e-04 0.3151792264
0.9226486896 -5.0299472265e-04 0.8140827332
0.9326687662 0.4997328292 0.5680315086
0.932639132 0.5001866266 0.0689191731
0.9225412654 0.2494494744 0.3144744872
0.922481997 0.246378975 0.8160710053
0.9426332787 -0.0018744059 0.3197141909
0.9325872721 -0.0010270554 0.5682509872
0.9426073487 -8.5044769519e-04 0.8188936665
0.9326465405 -0.0019713208 0.0678963289
0.9425591931 0.2495679987 0.3184880743
0.932613202 0.2498626723 0.5668766994
0.9426443915 0.2487383286 0.8176193943
0.932520595 0.2497009292 0.0639422881
0.9225338569 0.4975974275 0.8122685622
0.9626289807 0.2471785228 0.3271755364
0.9527348495 0.2493702399 0.5692048392
0.9727675943 0.2486728456 0.5762263014
0.9625178523 0.2482223223 0.8231767399
0.9526422425 0.2492510608 0.0736566691
0.9727046215 0.2494023266 0.0773970655
0.9525125927 0.4996621076 0.0696806804
0.9725823803 0.5008322893 0.0807054503
0.9626808406 0.4987014715 0.3233128987
0.9524977756 -0.0014500103 0.5697669637
0.9626808406 1.6650380566e-04 0.822264561
0.9927040278 0.5003863499 0.5867779423
0.9827432196 0.4994270235 0.8272375566
0.9926373508 -4.9913122371e-04 0.5805065967
0.9827246982 -1.0584012815e-04 0.8248251444
0.9825061457 0.2480828435 0.3286692872
0.9926447593 0.2506072144 0.5784025658
0.9826580212 0.249273325 0.831374311
0.9926892107 0.2507964604 0.0806305313
0.0024392242 1.0014166795 0.3312020884
0.0124284072 1.0018554158 0.5828958571
0.0223999578 1.0025757292 0.8278580234
0.0027289359 1.0014363244 0.833360731
0.0125679844 1.0003427577 0.0823013467
0.0126166957 0.7494707104 0.0832505683
0.0027179712 0.5007137651 0.8328115715
0.0224437053 0.7502434102 0.3297407501
0.0025951003 0.7499552849 0.3337450765
0.0124176647 0.7516381988 0.5829884641
0.0224336297 0.751533426 0.8290961789
0.0026739273 0.7512583972 0.8348507775
0.0224143304 0.5019651458 0.3259994275
0.0025291271 0.5024634717 0.3357768739
0.0126157696 0.501779174 0.5809094371
0.0322928295 0.7505773737 0.0763162493
0.0323924746 0.5016593401 0.0755527046
0.0423718042 0.7508916922 0.3217358016
0.0322624544 0.7505446322 0.5769829006
0.0424084765 0.7511274312 0.822396063
0.0424892298 0.5003064606 0.3163581135
0.0323187594 0.5006666173 0.574472325
0.0424629295 0.9999695045 0.8251224129
0.0523726186 0.7507279847 0.0671759391
0.0524748567 0.7499421883 0.5691214929
0.0725524233 1.0027001469 0.5618416572
0.0624641879 1.0017833845 0.8156866863
0.0725446443 1.0005457551 0.0582036179
0.0723542443 0.7510619481 0.0621133926
0.062553461 0.4999174914 0.8178342425
0.0625230859 0.7488224284 0.3151005105
0.0726157664 0.7525680579 0.5678953763
0.0624912291 0.7512649455 0.8140067955
0.0726442894 0.5029539396 0.5600154473
0.1025741288 0.5007360293 0.305201749
0.1024874486 1.0002510815 0.3044747841
0.0825773155 1.0016786116 0.3094783399
0.1026041334 0.9987318751 0.8020854972
0.0824735957 0.9998909248 0.8074159557
0.0925629424 0.7514941361 0.059762101
0.102402991 0.7497195459 0.3022605509
0.0825554602 0.7527972485 0.3094375929
0.0925596085 0.7524763816 0.5593588637
0.1023933599 0.7508916922 0.8038922597
0.0823883972 0.7506428567 0.8095320255
0.1124382552 0.9997337655 0.0513377354
0.1125027097 0.7496278697 0.0500011387
0.1224701856 0.5012703708 0.7959836224
0.1124645556 0.500030777 0.0480438899
0.1225013016 0.7489992326 0.2983460533
0.1125856856 0.7513173319 0.5518567712
0.1225546432 0.7495754833 0.7964799959
0.1226050214 0.4989044689 0.2958484427
0.1124793728 0.4999201107 0.5493091528
0.1226676237 0.9974156662 0.2921071202
0.1125019689 0.9993212224 0.5493980555
0.1225913156 0.9998450867 0.7960530777
0.1425951669 1.0000873739 0.2810526234
0.1524489215 1.0006701729 0.5259407041
0.1325013751 0.9980181101 0.5377545782
0.1425451592 1.0006439797 0.7825083789
0.1525578273 0.9988431963 0.0285047404
0.1324287712 0.9997730554 0.0394893189
0.1525078195 0.7508589507 0.0296800158
0.1325469378 0.7480235354 0.0394462567
0.1425473817 0.7501320891 0.283537269
0.1525415284 0.7503809246 0.5290069217
0.1326036132 0.7491236503 0.5382879945
0.1425610876 0.7489992326 0.7828297251
0.1425358985 0.4997714642 0.286529401
0.1824517351 1.0004606272 0.768553431
0.1723797985 0.750367828 0.0181891548
0.1624882604 0.7504398593 0.2751267019
0.1723846141 0.7525811545 0.5187293976
0.162443809 0.7495165485 0.7737505355
0.1824902596 0.7504267627 0.2664401659
0.1825221164 0.7515268777 0.7661021239
0.1824217305 0.4994348814 0.2658095123
0.1624830744 1.0007618492 0.2743413946
0.1724531433 1.0000480841 0.5209982689
0.1624841857 0.9992557394 0.7698647461
0.1923692032 0.9991640631 0.5123311804
0.2024604021 1.0002969196 0.7598492997
0.1923651285 0.9988497446 0.0130206659
0.1924758865 0.7513238802 0.0131372581
0.2023518667 0.7501320891 0.2600382445
0.1924429184 0.7508851439 0.514801935
0.2025267087 0.7518673894 0.7602141713
0.2125115947 0.4996693107 0.5021129248
0.2324613636 0.748102115 -0.0029106818
0.2225401912 1.0003820476 0.2502682067
0.2324521029 0.750001123 0.4975418436
0.2123445317 0.9996682825 0.5066284418
0.2223716465 0.9992884809 0.7505191452
0.2122448866 1.0006308831 0.0078272657
0.2324169122 0.5004610006 0.4964166686
0.2125197441 0.7501844755 0.0060862543
0.232420987 0.999570058 0.5012840922
0.2225209289 0.7497064493 0.2509766502
0.2323572733 1.0000153426 -2.6908585688e-04
0.2125160398 0.7495165485 0.5043058584
0.222476848 0.7504660525 0.7532955028
0.2526389457 0.7490909088 0.9874458027
0.2426207212 0.4990262673 0.7379607108
0.2525259652 0.4997629514 0.9886867364
0.2424714387 0.7492742613 0.2409806513
0.252581159 0.7496606112 0.4894516967
0.242572936 0.7476830236 0.739564664
0.252568194 0.4995245932 0.4892238834
0.2625945679 0.9992491911 0.7361696916
0.242462178 0.9989086793 0.2439672269
0.2624971454 0.7488944597 0.2350593602
0.262460473 0.7482658226 0.7355695983
0.2424503243 0.9974942458 0.7396378235
0.262563452 0.4982784511 0.234963975
0.2823524551 0.4972824541 0.7299270542
0.2824035742 0.7480235354 0.23095224
0.2824598792 0.7483771438 0.7294167896
0.2726139037 0.7492153266 0.9842323401
0.2723145979 0.4993248699 0.9849639353
0.2725475971 0.7481086633 0.4839915883
0.2822776287 0.4976092145 0.2332507456
0.2825380395 0.9989479691 0.7269821518
0.2924532851 0.7486783657 0.9773701619
0.3024003875 0.4984113816 0.7206126428
0.2924054999 0.4985338349 0.9782406676
0.3024637306 0.7476109923 0.2213081478
0.2923291917 0.749051619 0.4769080794
0.3024937353 0.7506886948 0.7213905415
0.3025126271 0.497668804 0.2232751203
0.2924180944 0.4987532031 0.4761385153
0.3124249093 0.7488813631 0.969572653
0.3125289995 0.7510488515 0.4677761038
0.3324950673 0.750734533 0.9589969344
0.3225927867 1.0007814941 0.2139718218
0.332455061 1.0010958126 0.4615316143
0.322488326 0.4990734151 0.7150238107
0.3224979571 0.7507017914 0.2150312458
0.3325087731 0.7491956817 0.4624400889
0.3224412816 0.7493986791 0.7163443865
0.3225387042 0.4988560114 0.2153349967
0.3324617287 0.4983033346 0.4630522211
0.3425851548 0.4983766756 0.2066012312
0.3425095875 1.0011809406 0.2070679704
0.3524848424 0.7504005695 0.9547092306
0.3425744124 0.4985560991 0.7064928545
0.3523285218 0.4990570443 0.9530515654
0.3424025338 0.7495361935 0.2094924215
0.3524233513 0.7512518489 0.4510827672
0.3624319447 0.7489533945 0.1955235826
0.3424525416 0.7506625016 0.7093562628
0.3623208164 0.7482920158 0.6991000383
0.3626134544 0.9989938073 0.1958773414
0.3624430576 1.0001070188 0.6970006377
0.3624134233 0.4990917503 0.1955319173
0.3725853755 0.7507672745 0.9404755358
0.3825535922 0.5018413829 0.6849793239
0.3724631342 0.4999901775 0.9401051078
0.382457281 0.7506690499 0.1876464318
0.3723853444 0.7513697184 0.4396337646
0.3825758179 0.7496475146 0.6856590593
0.3724075701 0.9998188935 0.4431018965
0.382590635 0.9987449717 0.6863128646
0.3724742471 0.99948493 0.9401514113
0.3724890642 0.5001551948 0.4442122544
0.3925551475 0.7508393058 0.933076237
0.3925181047 0.7484229819 0.433865275
0.4026493098 1.0008207839 0.1810898567
0.4025752242 1.0005915933 0.6805628964
0.4125434409 0.7509768202 0.9268993505
0.412558258 0.7496540629 0.4264141164
0.412424904 0.4989123268 0.4297248164
0.4025011386 0.7501451857 0.179862814
0.4025159557 0.7503350865 0.6823168729
0.4325021001 0.749785029 0.9197686121
0.4224042336 0.4993137378 0.6757251071
0.4323983803 0.4996535948 0.9199167833
0.422489432 0.7513500735 0.1708966049
0.4326169328 0.7513173319 0.4204483739
0.4225005448 0.7530002459 0.6701334969
0.4224190507 0.4986346788 0.1748101765
0.4324169017 0.4978010798 0.4218652609
0.4424517954 0.49835965 0.6679155594
0.4424999511 0.7497981256 0.1647160142
0.442485134 0.7509571753 0.6674460419
0.4525385491 0.9997730554 0.9174071337
0.4624734274 0.9985681675 0.6595392568
0.4722897687 1.0021173479 0.9123211577
0.4524903935 0.7495754833 0.9123711655
0.4524459422 0.7494969036 0.4131064914
0.452390378 0.4988507728 0.4161541876
0.4724823912 0.7502630551 0.911478434
0.4624178632 0.7485081098 0.1638668081
0.4723231072 0.7488944597 0.4124100868
0.4623882289 0.7501713789 0.6655225947
0.4824728336 1.0021893793 0.1634324813
0.492396599 1.0006439797 0.4164384911
0.4924188247 1.0003296611 0.9151567838
0.4825024679 0.4993635049 0.1612756644
0.4924373461 0.7508916922 0.4119794643
0.492422529 0.7506363084 0.911478434
0.492515136 0.4992161681 0.4161782654
0.4825728492 0.499459765 0.6622581981
0.482398748 0.7489206529 0.1613117811
0.482424678 0.7513238802 0.6613339804
0.5123515539 0.9993146741 0.4221143737
0.512325624 0.9991640631 0.9243619189
0.5023685201 1.0036365543 0.1656244888
0.512577515 0.7502434102 0.9176942154
0.5225235061 0.4997315196 0.1712661068
0.5225938874 0.7493790342 0.6723134655
0.5224234905 0.997153734 0.6731691541
0.5025055784 0.7495034519 0.1708521536
0.5024463099 0.7516709403 0.6689536838
0.5124404566 0.5001669817 0.9225190398
0.5124886123 0.7506297601 0.4185378916
0.5224901676 0.7502565068 0.1709067917
0.5324843143 0.7502696034 0.4214383426
0.5324954271 0.5003444408 0.4228635642
0.5523948178 0.7499814781 0.9294275215
0.5423154727 0.999851635 0.1799396778
0.5523688878 1.0009975881 0.4282329177
0.5423562197 0.7513042353 0.1758408923
0.552424452 0.7519263242 0.4276920929
0.5423636283 0.4996110308 0.1756065966
0.5424377139 0.7491105537 0.6756732472
0.53245468 0.7495820316 0.9227690787
0.5325213571 0.498336731 0.9259177164
0.5623889645 0.5012952544 0.6809222116
0.5624111902 0.7501844755 0.1849765722
0.5624037816 0.7504856974 0.6845246236
0.5724979439 0.750649405 0.9366138241
0.572420154 0.7512714938 0.4355655394
0.6024025941 0.5006142308 0.6895763351
0.6026470766 0.7510881413 0.1922489994
0.5924528988 0.7505184389 0.4377242084
0.6025285397 0.7523454156 0.6919702259
0.6024544541 0.4998048606 0.1902162759
0.602665598 1.0021566378 0.1942419019
0.6025544696 0.9996944757 0.6930139067
0.5825032034 1.0006112382 0.6844681333
0.5825439505 0.7512780421 0.1848441442
0.5825032034 0.5020620607 0.1840542065
0.5824587521 0.751664392 0.6888234402
0.5925121673 0.7518084547 0.9386141352
0.6122967253 0.7523519639 0.4438307136
0.6224057047 0.5003103896 0.7015050419
0.6225131288 0.7500797026 0.204863924
0.6224983117 0.7495623867 0.7042971427
0.6223723662 0.5006679269 0.1999752008
0.6225279459 1.0031716248 0.201289294
0.6224649732 1.0011023609 0.7012938979
0.6124856436 0.7522079012 0.9472173249
0.6424125195 1.0009582983 0.7103304883
0.6324183728 0.7487242038 0.9552185691
0.6324924584 0.7496016765 0.4534275763
0.6525659502 0.7496737078 0.9596914868
0.6425718035 0.5001329306 0.7096924261
0.6525289074 0.4989260783 0.9655720309
0.6425606907 0.7477288617 0.2097294954
0.6524622304 0.747820538 0.4607768673
0.6425162393 0.7491629402 0.7096322316
0.6625008285 0.9981490761 0.2186799613
0.6625971397 0.9999367629 0.7190096157
0.6825335732 0.9987908099 0.2276100537
0.6724023682 0.7501582823 0.9666184899
0.6725209051 0.9982276558 0.4740002198
0.682411332 0.9993015775 0.7231334051
0.6725023837 0.9983127837 0.974777166
0.6825372775 0.7500927992 0.2273952054
0.6725801736 0.750217217 0.4669889444
0.682503939 0.7505970186 0.7249410937
0.6625897312 0.7511470761 0.2167972611
0.6625193499 0.4997996219 0.2172427008
0.662626774 0.7495492901 0.7181335536
0.6924980857 1.0013315515 0.4844453626
0.7025552052 0.9996289927 0.7356918395
0.6923906616 1.0003165645 0.9819356866
0.6925462414 0.7482461777 0.9806669708
0.7024922324 0.7506625016 0.2358455936
0.6923906616 0.749051619 0.4796084993
0.69252772 0.4985004385 0.4806799623
0.7025552052 0.7499814781 0.7387589831
0.7325450539 0.4980826568 0.9986142061
0.7225397943 0.7504005695 0.2454415302
0.7326376609 1.0018554158 0.5010396097
0.7324154041 0.7515923607 0.5005923179
0.7326228437 0.5009370622 0.4990068862
0.7224805258 0.7502827 0.7448330758
0.7326672951 1.0031061417 1.0013183303
0.7126197332 1.0012857134 0.9949654906
0.7124234064 0.748403337 0.9902888374
0.7125678733 0.5004924324 0.9930763079
0.7124863791 0.7489992326 0.4917502022
0.7124826749 0.4994538715 0.4896489495
0.7324265169 0.7514090082 0.9971047121
0.7424428893 0.5009475395 0.7516193163
0.7425540177 0.7520769351 0.2516378641
0.7425169749 0.4993877336 0.2532482997
0.7424873407 0.7533800475 0.7508599389
0.7424021422 0.9998909248 0.2549170777
0.7525222344 0.7508524024 0.0046391774
0.7525926158 1.0005326585 0.0090949629
0.7524296274 0.4995868021 0.5057949788
0.7624571127 0.5010346319 0.7613865758
0.7624534084 0.7509768202 0.2591038399
0.7625608325 0.5033448733 0.2588473185
0.7524481488 0.7519001309 0.5056301384
0.7624682255 0.7513959116 0.759044545
0.7725142321 0.9990461937 0.517769063
0.7823157563 0.7505904703 0.2723234882
0.7824565189 0.5041031668 0.2699471927
0.7724475551 0.7507017914 0.5148269389
0.7823268691 0.7506035669 0.7711093841
0.772340131 0.7517036818 0.0139058962
0.7724438508 0.5011439886 0.5160058259
0.7824491104 0.5001355499 0.7691275944
0.7724957107 0.5005552961 0.0168023651
0.7923247201 0.7500338645 0.5242108055
0.7923951014 1.0016262252 0.0254657493
0.8123093093 0.7502957966 0.0292240189
0.7923210159 0.7518477445 0.0252478451
0.7925580898 0.4990537702 0.5221567824
0.7926099497 0.4994198203 0.025991757
0.8125278618 0.5003850402 0.5292940033
0.8025040808 0.5008002027 0.7755887843
0.8125463832 0.5009102142 0.029905236
0.8024077696 0.7509244337 0.2790171217
0.8024114738 0.5011852429 0.2779595498
0.8122537451 0.7516381988 0.528732805
0.802333684 0.7510226583 0.7785272042
0.832486521 0.7503285381 0.0320451058
0.8325939451 0.498981084 0.5327945477
0.8224775571 0.5005500575 0.7826797018
0.8325457894 0.4988592856 0.0333658667
0.8224590357 0.7505118906 0.2795922111
0.8225886855 0.4985115707 0.2791708493
0.8324642953 0.7482789192 0.5308210927
0.8225405299 0.7534193373 0.7816712116
0.852430363 0.5002259165 0.5428748189
0.8625800895 0.9972257654 0.8002370616
0.8624911868 0.7483051124 0.2988674307
0.8524896315 0.7499945747 0.5433850834
0.8425028933 0.5013967531 0.7874748919
0.8425103019 0.7515596192 0.2860413621
0.8425362319 0.5001165598 0.2881870661
0.8425880918 0.7513042353 0.7903577476
0.8625022996 0.7490581673 0.7987007116
0.8525377871 0.7490647156 0.042767236
0.8825461572 0.747820538 0.8053072945
0.8725964619 0.7484164336 0.0508964631
0.8926551366 0.7466614883 0.057274492
0.8926329109 0.499865105 0.5563806228
0.8725705319 0.4992888543 0.0516414864
0.8825980171 0.9998123452 0.3058518501
0.8725483062 1.0005588517 0.5537867009
0.8826202428 0.7479907939 0.3073437488
0.8725964619 0.7488027835 0.5528458139
0.8925403039 0.7480169871 0.5576271129