POSCAR file written by Ovito 3.7.11
1
269.9881700838 0.0 0.0
0.0 15.2728372725 0.0
0.0 0.0 10.7995268033
Sr Ti O 
800 800 2400 
Direct
0.0224518949 0.4997269663 0.7959450073
0.0125269045 0.4993557189 0.0485190185
0.0125597948 0.2477122337 0.5439395214
0.0226214208 0.0010476532 0.295042505
0.0226916091 0.251518992 0.7951329347
0.0025860245 0.2506455459 0.7978163856
0.0125586836 0.2489955578 0.0424914396
0.0227290181 0.2484782996 0.2961221819
0.0027233638 0.2486655602 0.2969574037
0.0525178048 -0.001879046 0.5353132175
0.0525544731 0.2497596595 0.038273477
0.0525133602 -0.0011044682 0.0398302119
0.0425106997 0.4999463099 0.7916327814
0.0324610001 0.2494971018 0.5433515327
0.0425192186 -6.6951304195e-04 0.2880042336
0.0425958886 0.24955603 0.7887798786
0.0524511352 0.5002822003 0.0390649932
0.0524703953 0.5007320185 0.5404606653
0.032596932 -0.0010464568 0.5450608668
0.0326698981 0.2492725201 0.0391685162
0.032546189 -2.3868281161e-04 0.0441329004
0.0426281122 0.2517272048 0.2918386609
0.0525070636 0.2475347945 0.5355891555
0.0624089789 0.2494087096 0.7867427523
0.0725171996 0.2486649054 0.03607764
0.0624978717 0.2497865045 0.2836216342
0.0725912769 0.5015144534 0.0337356856
0.0625419477 0.5003195215 0.2891866929
0.0724627528 0.248876392 0.5346326321
0.0625663932 8.4243433983e-05 0.2876264393
0.082542824 0.4995803006 0.2862921216
0.0924828892 0.4992614339 0.5322121557
0.0924917785 0.2514757781 0.5323612363
0.1024166578 0.2485326445 0.7822499628
0.0823920767 0.2507228073 0.7808582352
0.0924991862 -0.003703265 0.5300944703
0.0925688189 0.249129783 0.0321050586
0.0924943712 -8.6246998553e-04 0.0299154256
0.1023748041 0.249831028 0.2817261808
0.0823083693 0.2499233488 0.2796816468
0.1024173985 0.4998520249 0.7827666521
0.0825954189 0.4985556056 0.7859047526
0.0925147424 0.4981215016 0.0296809709
0.1223204928 0.2492397823 0.2731933995
0.1123930208 0.2494244238 0.5257026112
0.1224497577 0.247166821 0.7735736568
0.1125204338 0.2483224674 0.0267403791
0.1525547805 0.2508190566 0.5143678553
0.13243501 0.2489778794 0.5215163167
0.1425076736 0.248690441 0.7679085937
0.1525155195 0.250038586 0.0156342443
0.1324950127 0.2482772892 0.0212004141
0.1426247158 0.2487343097 0.2674505553
0.1424732276 0.5002671409 0.7714161548
0.1524329233 0.5006187455 0.0184447378
0.1324316766 0.4983231668 0.0209406805
0.1525395946 0.5002422602 0.5195606755
0.1324746414 0.4991841725 0.5221598634
0.1824923885 6.0202541901e-04 0.2611715765
0.182544613 0.2517389904 0.7623407572
0.1825453537 0.2519242867 0.2659458598
0.1625052164 0.5023590902 0.768867895
0.1724719494 0.5031042038 0.0125729065
0.1625104019 0.5010816589 0.2644772769
0.1725126919 0.2501020975 0.5164957264
0.1724371331 0.5018654032 0.5150021424
0.162599665 0.2525633297 0.7645260381
0.1824527571 0.5017207019 0.7600480642
0.1726119556 0.2523105935 0.0133903497
0.1725915843 0.0033326903 0.0136161003
0.1626037393 0.251467921 0.2652069385
0.202543267 0.2508504849 0.76132312
0.192588016 0.2512426845 0.0114909146
0.2025917876 0.2509532818 0.2593872391
0.2023821488 0.5003463666 0.7577924098
0.1924402317 0.5018614747 0.0095390699
0.2024169652 0.5003005335 0.2585372018
0.1923876368 0.5019754024 0.508655568
0.1924480098 0.2520572024 0.5132641033
0.202471412 -9.9743336115e-05 0.2593724236
0.222448954 0.5000085118 0.2476015375
0.2327086627 0.4999456552 0.9992900279
0.2125122223 0.2503777503 0.5050618921
0.2225748854 0.2489785341 0.7480725394
0.212392217 0.2503712027 0.0065855145
0.2225767373 0.2490132363 0.2511007649
0.2325275437 0.2501859064 0.499176449
0.2326075472 0.2488096068 0.9978455202
0.2225697 0.5012656456 0.7475725175
0.212447775 0.5002605934 0.006927011
0.2426328013 0.5000936303 0.2446875209
0.2625410809 0.0013965078 0.2405688219
0.2625407106 0.2525279729 0.7430426894
0.2625151539 0.4993963139 0.7421370942
0.2526621296 0.2484566927 0.4915696342
0.2425887253 0.250923163 0.7459548541
0.2524980483 0.2495527562 0.9951324383
0.2525406428 -8.076013331e-04 0.4943586453
0.2525524951 -0.0012817765 0.9960584048
0.2625314509 0.2506455459 0.2408734649
0.2425613166 0.2515399443 0.2470598471
0.2726711544 0.2485031804 0.4897306648
0.2726511535 0.2495272207 0.9882247283
0.2723915125 -2.4326611193e-04 0.4913770332
0.2725341114 -0.0010238676 0.987845082
0.272440774 0.4990394712 0.4894547268
0.2826034414 0.0011395811 0.2360204745
0.2825293641 0.2497720999 0.7379720969
0.2825686251 0.2509133416 0.2367316168
0.3124288223 0.2489150227 0.4821599627
0.3125225301 0.2490335337 0.9793354499
0.3123769682 -0.0019939559 0.4800126464
0.3125110481 8.2475589573e-05 0.9816966645
0.2926264732 0.2498506707 0.4832526032
0.302543204 3.6511634908e-05 0.2308183947
0.3026746912 0.2482903843 0.7282651901
0.2926390663 0.2496941837 0.9814466535
0.2924901709 -0.0012671754 0.4812978879
0.3025583898 -6.5517385951e-04 0.7335617185
0.2925164684 -0.00162428 0.9810207089
0.3025324628 0.2499109084 0.2329999718
0.3125021589 0.4990578044 0.984057879
0.312354745 0.4995619674 0.4811367697
0.3323845115 0.2499737651 0.4729706712
0.3224396313 0.2477652691 0.728545758
0.3325230361 0.2495599585 0.97352964
0.3223618501 -0.0014864536 0.7309291957
0.3324156239 0.0013331928 0.9724925575
0.3224851888 0.2496404937 0.2292961058
0.3324067347 0.5003293429 0.9742518938
0.3625769454 0.2494067453 0.2124203664
0.3525942858 0.5018791531 0.4670750425
0.3627325078 0.4989818526 0.7146766318
0.3525572472 0.2517311334 0.4627091105
0.3424893987 0.2510076267 0.716189661
0.3524224265 0.2508832228 0.9638903287
0.352419093 -3.1267037396e-04 0.4651731073
0.342489769 0.0018897364 0.7173721203
0.3524146483 4.3779439705e-05 0.9664552559
0.3423975428 0.2514384569 0.2180752438
0.3624065676 0.2508707824 0.7138265945
0.3925189981 0.2505709036 0.4600154739
0.3923745473 -3.4331301041e-04 0.4631415368
0.3924226976 0.2500778715 0.95860306
0.3923597318 -0.0013941983 0.9647422179
0.382600045 0.4990054238 0.2091359632
0.3926412257 0.5026648618 0.9578715465
0.3723958942 0.247436581 0.4649925438
0.3824037401 0.2497360882 0.7097458602
0.3825296715 3.2381908942e-04 0.2139630266
0.3724996024 0.2478883634 0.9614179982
0.382488929 0.2490688906 0.2152214151
0.3927078952 0.5013258833 0.4559171462
0.4023638739 0.2509513175 0.7067281354
0.4126309904 0.5007876729 0.9512416264
0.4025009169 0.2489215703 0.2078062754
0.4124420932 0.2506403079 0.4564245759
0.4125828401 8.5489264539e-04 0.458825607
0.4124865396 0.2517200025 0.9536676586
0.4125235783 -6.9891163973e-04 0.95694558
0.4025120285 0.5009297552 0.7075152069
0.4026527754 0.5006259479 0.2045015009
0.4426174894 0.2489516891 0.6979573807
0.4425878585 -8.7373180918e-04 0.1949307112
0.4427026783 -9.9774282077e-04 0.6962730477
0.4425026696 0.2490538312 0.1969419105
0.4324837121 0.2509002465 0.4492529653
0.4225758706 2.8327170046e-05 0.2017736036
0.422453643 0.2493360316 0.7021001548
0.432568901 -4.5005635118e-05 0.4532864754
0.4324726005 0.2500464431 0.947741473
0.4227203213 -0.0012037949 0.7015686501
0.4324503773 5.8696600367e-04 0.9530657804
0.4223832695 0.2509094131 0.2042125994
0.4426397126 0.5010286235 0.1966039327
0.4525660735 0.0012411339 0.4447611019
0.4525586657 0.2501459662 0.9488989312
0.4625109536 0.5018464153 0.1954983287
0.4724743531 0.5011078492 0.4513169447
0.452551258 0.4993819092 0.9471025561
0.4726002846 0.2513886954 0.4496196481
0.4625109536 0.251400481 0.6967221414
0.4625813271 0.0021286573 0.1991846013
0.4726076923 0.250534892 0.9498526766
0.4724187951 8.6281520738e-04 0.4502409716
0.4624331724 0.2518385135 0.1953270249
0.4526475585 0.2500935856 0.4455528032
0.4626628121 0.5014790965 0.6952239276
0.4723854604 0.5002651767 0.9487600362
0.492597457 0.50231915 0.9586123197
0.482482199 0.2504667972 0.7046521185
0.4824896068 -8.6214260694e-04 0.703587257
0.4824377526 0.2495678156 0.2047570677
0.4925381952 0.2514188142 0.458105205
0.4924789333 0.2501387639 0.9560936908
0.5025904875 0.499182863 0.205825633
0.502494187 0.4991501252 0.7046048942
0.5122872086 0.5011451703 0.4585626325
0.5025830797 0.2504753091 0.206904384
0.5225950677 -1.8780817803e-04 0.2095869089
0.5224987672 0.2505800702 0.2090646638
0.5125724063 0.2499986458 0.4553337873
0.5225172865 0.5018588557 0.7077837372
0.5224098744 0.2511804826 0.7101847683
0.5025015947 0.2510495311 0.7078967051
0.5124724019 0.2500425146 0.9550195697
0.5025719681 -0.0010757244 0.7102810688
0.5325436517 -0.0025321008 0.4605858693
0.5324955015 -0.0021021218 0.9603809157
0.5324325357 0.2503148936 0.4617136965
0.5324473512 0.2481620519 0.9584086071
0.5424663087 0.5019531407 0.7077485505
0.5523482231 0.501345526 0.9631402959
0.5524000773 0.4995979791 0.464547154
0.5426218711 5.4565082504e-04 0.7119839212
0.55248897 -2.2722456081e-04 0.9643070137
0.5425033473 0.2506632244 0.2136769029
0.552544528 0.2493176984 0.4642276955
0.5425218667 0.2482949676 0.7104662621
0.5524482275 0.2486773458 0.9647514776
0.5724935502 0.2517651807 0.4709474344
0.5625894126 -7.389827797e-04 0.2176465213
0.5724379923 0.2516885741 0.9677053107
0.562441258 0.5016035004 0.219590125
0.5626116358 -9.8071913386e-04 0.7180406681
0.5624153309 0.2488849039 0.2134185583
0.5723639149 0.5002540458 0.9701406026
0.5624968159 0.2485411563 0.7178471411
0.5725231812 0.5004897584 0.4702029573
0.5725305889 0.0011875748 0.4720993367
0.572526885 1.0845153101e-05 0.9735759383
0.592427757 0.4983591785 0.9741222585
0.5923425681 0.4998264893 0.473692925
0.5823754647 0.2491068665 0.7240751917
0.5925722078 0.0019207064 0.4712085569
0.5925055382 -0.0011219503 0.974881551
0.6025096802 0.2501845969 0.2269673001
0.5824458382 0.5014123113 0.7234899809
0.592453684 0.2514548258 0.4730762314
0.6025319034 0.250310965 0.7276281252
0.5925129459 0.2505113207 0.9745296838
0.5825384348 -2.3809421165e-06 0.2233245479
0.5823569454 0.2491468067 0.2203031192
0.6124841913 0.5016139765 0.9745574628
0.6124990068 0.5020572471 0.4773190099
0.6125693802 -1.1565393581e-04 0.4768615824
0.6125360454 0.0011619738 0.9777705665
0.6124064101 0.2504032858 0.4759541352
0.6124249294 0.2517357167 0.9755112083
0.6224624063 0.2519576793 0.2287673789
0.6224994449 0.2517920258 0.7248270765
0.6424373555 0.0025630232 0.2307452434
0.6524637208 -3.4462252479e-04 0.4826109084
0.6524711285 -7.2898291368e-05 0.9796873172
0.6424743942 0.2503941192 0.2284034741
0.6525155749 0.2519105368 0.479831157
0.6425262483 0.2510233408 0.7303439849
0.652511871 0.2501806683 0.9805392063
0.6325813681 0.5019930809 0.9769464563
0.6325517372 0.5026229573 0.4786107331
0.6424373555 0.4993282191 0.2293831467
0.652485944 0.5007366018 0.4800080166
0.6325887759 -6.1440040561e-05 0.4801154287
0.6325480334 -4.3465163827e-04 0.978807649
0.6324443251 0.2521894634 0.4793190975
0.6325776643 0.2524343426 0.9762705008
0.682583559 0.4997066688 0.7426630432
0.6725460821 0.5010174927 0.9878913803
0.6825798551 0.4982177509 0.2421114821
0.6624086009 0.2526294602 0.2372353426
0.6725312667 0.4996555977 0.4890380418
0.6625382362 0.2501420377 0.7375859689
0.6825872628 0.2494244238 0.2421753738
0.6724794126 0.2497969806 0.488867664
0.6825465203 0.2471124762 0.744326079
0.6724349662 0.2491991873 0.9886043745
0.662601202 0.4979931692 0.735592363
0.7024881348 0.2479145537 0.2495155102
0.6924876966 0.2498009092 0.4930021044
0.7025288773 0.246481945 0.7487947933
0.6924839928 0.2491743065 0.9950213224
0.7025473966 0.4990538759 0.7471762039
0.6924914005 0.4999220839 0.9946879744
0.7024548 0.500226546 0.2478459926
0.7023325724 2.5330174017e-04 0.2448616026
0.7224778995 0.4985857245 0.7473197287
0.7225001227 0.4987153664 0.2464968595
0.7123330106 0.2475177709 0.4998903692
0.7125367232 0.2497125169 1.0001696961
0.7225667923 -8.100239347e-04 0.2482052676
0.7225112343 -0.001044558 0.7470863851
0.7224445647 0.2475688419 0.2463403711
0.7325968614 0.2485673466 0.4991644114
0.7224816034 0.2492122825 0.7464326528
0.7325968614 0.2483355626 0.9968362167
0.712433015 3.1432511018e-04 0.4951494207
0.74253063 0.0011686523 0.7475715916
0.7523829135 0.5021201038 -0.0038494242
0.7424787758 0.2495311492 0.2432069005
0.7425898918 0.2478353281 0.7442307045
0.7624240942 0.0015636018 0.2489515966
0.7525162527 -0.0018954149 0.4964004014
0.7624463174 -4.0094956201e-05 0.7461094905
0.7624611328 0.2487375835 0.2461320287
0.7525125488 0.2487343097 0.4986208691
0.7624796522 0.2488207377 0.7493383357
0.7525236604 0.2498225162 0.998762227
0.7824027473 -0.0028038251 0.2501877619
0.7823323739 9.5723119402e-04 0.7530570171
0.7724986097 -0.001973462 -7.9360508519e-04
0.7825731251 0.2465860514 0.2496581091
0.7724874981 0.2515870868 0.501553405
0.7824583053 0.2493111508 0.7523023544
0.7724245323 0.2501053713 -0.0011660288
0.7924068893 0.0013580735 0.503873877
0.7925143015 0.248833178 0.5038609135
0.7925105976 0.2484678235 0.0048282153
0.8023480657 -0.001521745 0.2553407655
0.8125596242 -3.7768776283e-04 0.5072018006
0.8024036236 -0.0020095391 0.7567460676
0.8124114695 -3.3892613724e-04 0.0066680181
0.8024739971 0.2486982981 0.2546370309
0.8126151822 0.2477862213 0.5077305275
0.8025628899 0.2494951376 0.7571099725
0.8125707358 0.2499796579 0.0083223499
0.8224415386 -5.7745418118e-04 0.7602786298
0.8326086508 -0.0023371796 0.0138822231
0.8224637618 0.2496346008 0.2596900301
0.8323345647 0.2500641216 0.5106139872
0.8224711696 0.2467949189 0.7581952052
0.8324419768 0.2499698365 0.010713751
0.8225304314 8.7451744209e-05 0.2570741747
0.8324642 -0.0019635752 0.5116223647
0.8624914415 0.4997420257 0.7698179367
0.852472484 0.499706014 0.0173827469
0.862424772 0.4987415567 0.2710479351
0.8426090889 -0.0012008485 0.7688225227
0.8424313034 0.2469245608 0.2665171811
0.8425239 0.2508144733 0.7683502798
0.862450699 -2.9815268334e-05 0.2742286301
0.8524947072 -0.0025998027 0.5210681489
0.8524687802 -9.0758275585e-04 0.0200118435
0.842386857 7.4692318493e-04 0.2643772725
0.8623988449 0.2500713239 0.2694293457
0.8524132222 0.2496948385 0.5191995485
0.8624099565 0.2499940625 0.770304995
0.8523317371 0.2516217889 0.0175593287
0.8723511328 0.4989471504 0.5231969459
0.8824737985 0.5022739717 0.7712772599
0.8924705328 0.5000785709 0.0281541447
0.8824034251 0.5017370708 0.2736980513
0.892411271 0.0017134757 0.5291120199
0.8724400256 0.0012234555 0.0244252776
0.8924223826 0.0014003709 0.0253098534
0.8823849058 0.2511595303 0.2763500193
0.8724770642 0.2501328711 0.524300698
0.8926186875 0.2507575094 0.5238173434
0.8823886096 0.252225475 0.7773164133
0.8723918753 0.2508445921 0.0228661353
0.892577945 0.2518437516 0.0288660278
0.9024746749 0.5028835507 0.2776093337
0.902415413 0.0020359437 0.2792973707
0.9126343793 0.0012931871 0.5333168337
0.9025413445 5.8380525019e-05 0.7785553565
0.9125417826 4.4652058663e-04 0.0328039781
0.9025487522 0.2517514308 0.2797325749
0.9126084522 0.2510239956 0.5311954445
0.9024598594 0.2494584712 0.7788146271
0.9126343793 0.2519832149 0.0303823905
0.912504744 0.5005755316 0.0291605777
0.922590371 4.0311018501e-04 0.2812539379
0.9226014826 1.2595146692e-04 0.7831944487
0.9326093285 0.5026223025 0.5324640186
0.9323870966 0.5008524939 0.0336746644
0.9224792551 0.2514096476 0.2846272338
0.9225755556 0.2490865691 0.7843917233
0.9426431015 1.9594501042e-04 0.2899645047
0.9323722811 0.0015837683 0.5359252814
0.942628286 4.1371725147e-04 0.7887576554
0.9324352468 1.8455223533e-04 0.0360756029
0.9424097579 0.2517579784 0.2904867498
0.9326278479 0.2521691659 0.5356484174
0.942546801 0.2517736926 0.7912698025
0.9325611783 0.2509650675 0.0359645795
0.9225422208 0.5007300543 0.7796915174
0.9625476773 0.250424238 0.2931664969
0.9526842822 0.2508000686 0.5412236617
0.9725592271 0.249035498 0.5449766039
0.9625884198 0.2487330002 0.7967811551
0.9526842822 0.2504956065 0.0408484046
0.972699974 0.2489595462 0.0469207077
0.9525879817 0.5007575541 0.0417217762
0.9726814546 0.5003339262 0.0446576456
0.9626587933 0.5000694043 0.2937767088
0.9525139044 3.7069970415e-04 0.5410514319
0.9627810209 0.0019962654 0.7971441339
0.9925267686 0.499450004 0.5454247716
0.9825300343 0.5006449358 0.7966468899
0.9926008459 -1.2148127479e-04 0.5487712146
0.9826189271 6.8360816476e-04 0.7947032863
0.9825522575 0.2511163164 0.2937128171
0.9928082624 0.2502749534 0.5461664708
0.9828448629 0.2514646472 0.7969098644
0.9927749276 0.2516060747 0.0478110245
0.0026483235 1.0003065157 0.2968851783
0.0124981995 1.0010005583 0.5474730095
0.0224335237 0.9996255682 0.7943254919
0.0027193636 0.9992130712 0.7911549826
0.012608834 1.001295199 0.0419018767
0.0123974914 0.7509946208 0.0465882857
0.0024672415 0.4990257213 0.793134699
0.0224858964 0.7488404697 0.2992047244
0.0024242766 0.7511059295 0.2934155818
0.0123381925 0.7511190247 0.5454479208
0.0225555661 0.7502220073 0.7954616528
0.00237383 0.7506345044 0.795539434
0.0226334214 0.4996660738 0.2958360583
0.0025289849 0.4984017377 0.2924470209
0.0125325343 0.4990224475 0.5493879083
0.0325443371 0.7485458289 0.0429390518
0.0326465638 0.4987081641 0.0429972951
0.0424710683 0.7497505822 0.2942748788
0.0325213731 0.7500255802 0.5446108471
0.0424195846 0.7480874989 0.7928448715
0.0424969954 0.5004609491 0.2900913621
0.0325995247 0.498225608 0.5444923234
0.042522552 0.997013087 0.7900512306
0.0524185412 0.7497571297 0.0389715631
0.0524926185 0.7498946287 0.5381161181
0.0725009026 0.9986106945 0.5324658705
0.0624374987 1.0003654438 0.785093606
0.0724268253 0.9986565275 0.0340272724
0.0725490528 0.7481660698 0.0347528598
0.062501946 0.5017855229 0.7875613067
0.0626204697 0.7496654637 0.2876699597
0.0726290563 0.7499142715 0.5355641544
0.0624523142 0.7510339062 0.7859232719
0.0725360893 0.5011700511 0.5328269975
0.1024570299 0.49881358 0.2814974671
0.10261037 0.9981523645 0.2809104043
0.0825143043 0.9998350905 0.282715113
0.1025896283 0.9967446365 0.779508176
0.0825287493 0.9986172421 0.7841102295
0.0925980794 0.7503136733 0.0355030778
0.1025551823 0.7482904736 0.2800381439
0.0826550512 0.7492529667 0.2800251803
0.0925610408 0.7491678483 0.5316204631
0.1025718497 0.7483297591 0.7792387198
0.082582085 0.7491351104 0.7793887264
0.1124030212 0.9965482094 0.0289038072
0.112547472 0.7477601203 0.0270989133
0.1224060521 0.4987978658 0.7751255766
0.1123800573 0.4966430599 0.0304871173
0.1224449427 0.7492660618 0.2755360948
0.1125015441 0.7501106986 0.5268461799
0.1225116123 0.7496982016 0.7748968629
0.1223682727 0.4985745936 0.275005516
0.1124719131 0.4973979949 0.529413885
0.1224923522 0.9966595181 0.2713933207
0.1124182071 0.9991279527 0.5288286741
0.1225119827 0.998558314 0.7742412786
0.1424895246 0.99864998 0.2667736738
0.1525455208 1.0009612728 0.5132557696
0.1323713035 0.9990559294 0.5209977755
0.1425236002 1.0019695989 0.7646621552
0.1524625542 0.9998940186 0.0149811602
0.1323938971 1.0001166361 0.0164020557
0.1524544057 0.7524481818 0.0180599062
0.132523162 0.749141658 0.020596684
0.1425065624 0.7506934325 0.2660375304
0.1525499654 0.7505821238 0.5158994039
0.1324076014 0.7515969974 0.5204551591
0.1424873023 0.7480154756 0.770608712
0.1424932285 0.4989307815 0.2683867074
0.1824001622 1.0021398358 0.7596295273
0.1725204701 0.7519571139 0.0089684893
0.1625204023 0.7497112967 0.2623160711
0.1724926911 0.750961883 0.5111269726
0.1624548439 0.7515642596 0.7620222247
0.1824434974 0.7508178364 0.2585223863
0.1823483081 0.7532142477 0.7560052944
0.1825272048 0.5021908176 0.2629198012
0.1626422595 1.0029517347 0.2657301096
0.1724926911 1.0015571019 0.5138344986
0.1625411439 1.0022315018 0.7644602945
0.1923746733 1.00320709 0.5100417399
0.2024573373 1.0012821039 0.7575711038
0.1923913407 1.0003392535 0.0094497141
0.1923898592 0.7495737977 0.0049691474
0.2024217802 0.7513350946 0.2531304834
0.1923646729 0.7497964152 0.5067712262
0.2024358549 0.7518850906 0.7550904395
0.2125211116 0.5009199339 0.5027516056
0.2326790318 0.750961883 -0.0027534965
0.2225682184 1.0004178244 0.2486247305
0.2325160617 0.7512958091 0.4980838085
0.2124833321 1.0003719914 0.5014459929
0.2225274759 1.0014130553 0.7503328237
0.2124999995 0.9988005741 0.0042600423
0.2325271733 0.5010502305 0.5011163488
0.2124285149 0.7498815336 0.0021102258
0.2324316136 0.9968624928 0.5011543134
0.2224952523 0.7491678483 0.2482913825
0.2325516188 0.9999005662 -0.0015204888
0.2125155558 0.7504642675 0.5008237434
0.2224667325 0.7495803453 0.751595842
0.2524924925 0.7489386832 0.9965028687
0.2425783544 0.5015412984 0.7458354044
0.2525124934 0.5019937356 0.9975862495
0.2424924247 0.7510470014 0.2489803016
0.2526013862 0.7496982016 0.4912631393
0.2424442745 0.751603545 0.7484216288
0.2525095303 0.5002370221 0.4939725173
0.262573675 1.0010267486 0.7422908046
0.2425861326 1.0011838903 0.2459959116
0.2626047874 0.7502874831 0.2418160988
0.2625729342 0.7519571139 0.7413898392
0.2425976145 1.0023362629 0.7467011831
0.2625107092 0.4985798317 0.241368857
0.2825075113 0.4988456631 0.7365192555
0.2825238083 0.7497440346 0.235897321
0.2826152938 0.7487357085 0.7366942631
0.2726126333 0.7493053473 0.9895673797
0.2725244813 0.4995606579 0.9864746516
0.2725478157 0.7498815336 0.4910973913
0.2825115856 0.5007359471 0.2346472662
0.2826471471 0.9986827178 0.7364664754
0.2925035048 0.7491220153 0.9849190279
0.3023302317 0.4995095869 0.7323922228
0.2924583177 0.4997014307 0.9848079119
0.3024606078 0.7488339221 0.2336629638
0.292615732 0.7500386753 0.4840109697
0.3024957945 0.7493511803 0.7324098162
0.3024909795 0.5004720799 0.2323749444
0.2924898005 0.4991966129 0.4855601117
0.3125447533 0.7494493939 0.9795484222
0.3124006729 0.7492726094 0.4822025572
0.332617855 0.7490892774 0.9727240491
0.3223592574 0.9997434245 0.2301535508
0.3323426578 1.0002934205 0.4733595771
0.3223711098 0.4996608358 0.7312403205
0.3224903743 0.7509291451 0.2296266759
0.3324522922 0.7495410599 0.4725169476
0.3223996295 0.7493970133 0.7282568564
0.3224155562 0.5007156496 0.2269821155
0.3324200686 0.4994945275 0.4753920736
0.3424516192 0.4999659526 0.2203281203
0.3424775463 1.0013606747 0.2195104919
0.3525553952 0.7504511723 0.9665848912
0.3425342154 0.5008917793 0.718925892
0.3525546545 0.4991985772 0.9650755658
0.3424064321 0.7506934325 0.2175974451
0.3526283614 0.7516821159 0.46592777
0.3624843488 0.7508178364 0.2135417118
0.3425268077 0.751145215 0.7191703472
0.3624806449 0.7480482135 0.7146331114
0.3625584261 1.0010529389 0.2147121335
0.3625139797 1.0001231836 0.7134904687
0.3626250957 0.5006809475 0.2144278618
0.3725181218 0.7505362908 0.9641958977
0.382600045 0.498697688 0.7118200251
0.3726033107 0.4993020288 0.9630569589
0.3824222594 0.7507065277 0.2126379685
0.3726144223 0.7498029627 0.4647008644
0.3824222594 0.7490238017 0.7137747404
0.3724403406 0.9988595023 0.4658073944
0.3825074483 0.9999333041 0.7134358367
0.3725625681 0.9987350984 0.9669552778
0.3725588643 0.4986773905 0.4611812657
0.3925264058 0.7521666362 0.9604086947
0.3925449251 0.7506475995 0.4584718878
0.4025490672 1.0010856767 0.2096341332
0.4024564705 0.9996910439 0.710551451
0.4126383981 0.752919607 0.9538250729
0.4125458015 0.7508571218 0.4574098042
0.4125495053 0.4997714897 0.4559838158
0.4025861058 0.7509029548 0.2082812962
0.4025194362 0.7520356847 0.7047826798
0.4326577938 0.7500059375 0.9491582018
0.4225240164 0.5024474824 0.7016630986
0.4324170425 0.4997380971 0.9524176038
0.4224980894 0.7511648577 0.2042200071
0.4326392745 0.7529261545 0.4485770098
0.4225017932 0.7545434048 0.706517015
0.4224610507 0.5014437396 0.2025328962
0.4324800082 0.5003051169 0.4502817141
0.442602674 0.5000582734 0.6975212505
0.4425804508 0.7509291451 0.1977697245
0.4426619358 0.7504839102 0.6980203464
0.4526253353 1.0023755484 0.9470932965
0.4627035547 0.9998285429 0.6968369613
0.4723336062 1.0023951911 0.949454511
0.452662374 0.7507654558 0.9469636612
0.4525771851 0.7501761743 0.4411507585
0.4525586657 0.5008191012 0.4446120213
0.4725743575 0.750149984 0.9476396167
0.4625554 0.7513481897 0.1971530308
0.4724410183 0.7506541471 0.4506113582
0.4625220652 0.7513874751 0.6953720823
0.482537757 0.9992261663 0.2042940844
0.4923863367 0.9992065236 0.4568440387
0.4924789333 0.9990690246 0.9568159447
0.4824859029 0.4993314929 0.2006531842
0.492515972 0.7499404617 0.4573477644
0.4926011609 0.7493446327 0.9564362984
0.4924826372 0.5000641662 0.4571459038
0.4824525681 0.4984600111 0.7038770845
0.4824451604 0.7491285628 0.2042440822
0.482426641 0.7491089201 0.7049484278
0.5124501787 0.9984077198 0.4580876117
0.512498329 0.9981916499 0.9578067288
0.5025645604 0.9994880692 0.2063969543
0.5125390715 0.7493184424 0.9562140665
0.5224098744 0.4997747635 0.2079923946
0.5224506169 0.749508322 0.708534696
0.5225691406 0.998466648 0.7106486775
0.5024423328 0.7497243919 0.2069303111
0.5024867792 0.7495672501 0.7062114461
0.5125390715 0.500773923 0.9572974473
0.5124835135 0.7511583101 0.4560838202
0.522391355 0.7479565475 0.2056922938
0.5324695744 0.7482053552 0.456833853
0.5323362352 0.5013206453 0.4591367317
0.5524704507 0.7483232115 0.9616494898
0.5425885363 0.9994225935 0.2136269008
0.5526223092 1.000928535 0.4659518451
0.5425589053 0.7487029707 0.2113971734
0.5526074938 0.7486636852 0.4629063413
0.5425329783 0.500892434 0.2141500718
0.5424811242 0.7491809434 0.7115848296
0.5324917976 0.7498422482 0.958991966
0.5323843855 0.5001211301 0.9596308828
0.5624301464 0.4997721445 0.7165933824
0.5625375585 0.7491351104 0.217269653
0.5624597773 0.7478583339 0.7187832932
0.572471327 0.7479958329 0.9712239834
0.5724268807 0.749095825 0.4724910205
0.6023948604 0.5021115919 0.7238909244
0.6024800493 0.7500779608 0.2254959393
0.5924722034 0.7508309315 0.4766189792
0.602376341 0.7515053314 0.7278901737
0.6024430106 0.5003745211 0.224786649
0.6025319034 0.9992654517 0.2269385951
0.6024170836 0.9996975915 0.7262558428
0.5825273232 0.9986696227 0.7223177073
0.5824939884 0.7498226054 0.2218328158
0.5824902845 0.502691052 0.2217513308
0.5824050956 0.7502874831 0.7258678629
0.5924907227 0.7490696347 0.9755389873
0.6125027106 0.7511255723 0.4798635658
0.622525372 0.5009061839 0.7276623859
0.6223772174 0.7515773547 0.2288451601
0.6225031488 0.7514922363 0.7278049848
0.6224846295 0.5008721366 0.2272034215
0.6225031488 1.0030106628 0.2279497505
0.622525372 1.0016422203 0.7299124845
0.6123175173 0.7498029627 0.9787706103
0.6425151367 1.0000511604 0.7323449985
0.6323591362 0.7514922363 0.9822244654
0.632336913 0.7502809355 0.4802922883
0.6524377937 0.7506934325 0.9834652605
0.6424855058 0.5003372 0.7340663702
0.6524600169 0.5008302321 0.9807336593
0.6423892053 0.7476291689 0.2302961496
0.6523414932 0.7476357164 0.4828266586
0.6424040207 0.7497178443 0.7310014211
0.6624456396 0.9999791371 0.2381242704
0.6624863821 1.0012100806 0.7349738174
0.6824835546 1.0004963952 0.2421744478
0.672494228 0.7506017665 0.9864561323
0.6725460821 0.9989839061 0.4885982077
0.6824835546 1.0014719835 0.7438732814
0.6724868203 0.9999333041 0.991437832
0.682361327 0.7492202288 0.2410262494
0.6725646015 0.7504642675 0.4874213043
0.6825502242 0.7501892695 0.7412342769
0.6625123092 0.7504904578 0.2371881183
0.6625900904 0.4972120439 0.2390030126
0.6624752705 0.7508309315 0.7323468504
0.692421027 0.9995535449 0.4933984181
0.7024881348 0.9991475954 0.748666084
0.6924062116 1.001570197 0.9942249912
0.6925284391 0.7514398557 0.9909100311
0.7025399889 0.7485654716 0.2460838784
0.6925951087 0.7492660618 0.4945216154
0.6924914005 0.4993334572 0.4998301814
0.7023622033 0.748054761 0.7451224102
0.7325079686 0.4984986418 0.9958083939
0.7224593802 0.7492398715 0.246038506
0.7324709299 0.9969738016 0.4938521416
0.7324561145 0.7494428463 0.4932437817
0.7324672261 0.4981620966 0.4918363126
0.7223149294 0.7476291689 0.7444501585
0.7324487067 0.9988987877 0.9937434886
0.7123885686 0.998924978 0.9960491452
0.7124107918 0.7483886872 0.9959009905
0.7124700536 0.5009369575 0.997160305
0.7123885686 0.7488273745 0.4942725304
0.7123959763 0.4988705438 0.4963642888
0.7325338957 0.7487749939 0.9947620517
0.7424491449 0.49801805 0.7437714251
0.7423972908 0.7497309394 0.2453597726
0.7424232179 0.4968106777 0.2431143038
0.7424824797 0.7498422482 0.7456187282
0.7424861836 0.9991475954 0.2494868053
0.7523569864 0.7476815494 -0.0022820777
0.7524273599 0.9993505702 -0.0026368062
0.7524051367 0.4981424539 0.4947688485
0.7621944545 0.4982773338 0.7481068002
0.7623018666 0.7500059375 0.250212763
0.7623129782 0.5004399968 0.2468922471
0.7524606947 0.7487946367 0.4965744831
0.7623240898 0.7492136813 0.7465789555
0.7723689744 0.9994815216 0.5000801923
0.7823360777 0.7494428463 0.2527517631
0.7823731164 0.5007339828 0.2498933046
0.7723430473 0.7487095182 0.499921852
0.7824360821 0.7500255802 0.7526023676
0.7723467512 0.749095825 5.1821165067e-04
0.7722578584 0.4991186968 0.4983245598
0.7822768159 0.4991245896 0.7473141729
0.772294897 0.4992843504 -0.003126124
0.7923031811 0.7496851064 0.5049387385
0.7923513314 0.9992065236 0.0053449046
0.8123188729 0.7485130911 0.0057143652
0.7922920695 0.749187491 0.0050429469
0.7924846705 0.499703395 0.5012163532
0.7923031811 0.4981359063 0.002360422
0.8125188817 0.4982825719 0.5077110822
0.8026073363 0.5029909308 0.7566858798
0.8124670275 0.5017416541 0.0066983898
0.8023702888 0.7495737977 0.2559694967
0.8023851043 0.5004858298 0.2531767818
0.8124040618 0.7494559414 0.5060137856
0.8024073275 0.7507981937 0.7562599352
0.8324938309 0.7487815415 0.0107338444
0.8325382773 0.5007379114 0.51473639
0.822541543 0.501750166 0.756237712
0.8324567923 0.4969082366 0.0129333852
0.8224637618 0.7489517784 0.2595928036
0.8225526546 0.501642131 0.257619569
0.8324493845 0.7495868929 0.5092296673
0.8224822812 0.7489779687 0.7599045393
0.8524947072 0.4993845282 0.5190532458
0.8625284802 0.9983749819 0.7705781552
0.8625692227 0.7494690366 0.2693311933
0.8524687802 0.7502351025 0.5176726298
0.8424868613 0.5018654032 0.7658992464
0.8424350072 0.7499731996 0.2665440341
0.8423127796 0.4987278068 0.2644096813
0.842442415 0.7489714211 0.764998281
0.8625544073 0.7531618671 0.7701725818
0.8525798962 0.7483101163 0.0200412893
0.8825034295 0.7501565316 0.7732079
0.8724881758 0.7504839102 0.021860906
0.892492756 0.7490107065 0.0226775159
0.8925446102 0.5010332068 0.5247544215
0.872373356 0.5004982702 0.0240095187
0.8825034295 1.0017666242 0.2758833322
0.8725881802 0.9999071138 0.5214079786
0.8825330604 0.7525136575 0.2736239739
0.8724326179 0.7494035608 0.5213255676
0.8925075715 0.7512106907 0.5262109668
0.8824737985 1.0009809156 0.7756228206