POSCAR file written by Ovito 3.7.11
1
269.9877485779 0.0 0.0
0.0 15.2728134285 0.0
0.0 0.0 10.7995099431
Sr Ti O 
800 800 2400 
Direct
0.0224993737 0.4989667915 0.8058866612
0.0123006517 0.4990898861 0.0639509583
0.0124217313 0.2503537892 0.5569244384
0.02254845 -3.4140963961e-04 0.3034490479
0.022417333 0.2505678952 0.807393211
0.0023287548 0.2513634264 0.8131879184
0.0123753218 0.2493539735 0.0567903556
0.0222189536 0.251329379 0.3082955642
0.0021950821 0.251789674 0.3152366198
0.0522693172 0.0011363796 0.5532344562
0.0524137682 0.2528726441 0.0559993938
0.0522737618 0.0013398785 0.0538007755
0.0425125782 0.5005067829 0.8019105548
0.0324117495 0.2493441521 0.5548011939
0.042465539 -9.3239440101e-04 0.3026647531
0.0422936793 0.2506261687 0.8078821221
0.052448955 0.4994329794 0.0513050142
0.0523800629 0.5003529147 0.5565818303
0.0323132265 0.0011551712 0.5527983253
0.0324473066 0.2519716968 0.0552888986
0.0323428574 4.6708579955e-04 0.0542382028
0.0422366397 0.2507623584 0.302436039
0.052517847 0.2511041422 0.5570753712
0.0623716274 0.2496564718 0.8056986897
0.0724920866 0.2517333648 0.0539666164
0.0623034762 0.2514066404 0.3053065396
0.0724983832 0.5001244041 0.0508420302
0.0625208935 0.4995652405 0.3046879931
0.0723802297 0.2497271856 0.5567188736
0.0624194074 -1.2200016304e-04 0.3053157993
0.0824558721 0.5004688069 0.3030351403
0.092505217 0.4998716674 0.5477036497
0.0924685486 0.2499052799 0.5519445828
0.1024038143 0.2472600567 0.7999817636
0.082526616 0.2504002771 0.8034689589
0.09244114 -4.4018460092e-05 0.5545021063
0.092528181 0.251272415 0.0488511065
0.0924218799 -7.3930620453e-04 0.0513527941
0.1025282644 0.2489558805 0.2973163623
0.082413648 0.2474211272 0.3047778119
0.102463817 0.4989497678 0.7912850727
0.0824151295 0.5002226178 0.8026837381
0.0924437327 0.5003516052 0.0490429671
0.1225717664 0.2504061699 0.2877650029
0.1124746416 0.251329379 0.5409376019
0.122515838 0.2497743282 0.7882219708
0.1124353806 0.2499196846 0.039836253
0.1524701601 0.2486029658 0.5264258323
0.1324940685 0.2501351 0.5327150066
0.1425874895 0.2480660641 0.7796400999
0.1525297925 0.2513084267 0.0242526755
0.132469623 0.2504264674 0.035392718
0.1425293387 0.2510059284 0.2795664828
0.1424493351 0.4984593539 0.7801475303
0.1524497888 0.4988063758 0.0234786589
0.1324966612 0.4990898861 0.0320601594
0.1525549788 0.4967602564 0.5227710369
0.1324111018 0.4990407792 0.5317297767
0.1823344782 -4.1631397896e-04 0.2649824877
0.1824344828 0.2482899914 0.7652153713
0.1823907771 0.2504853956 0.2653834318
0.1626032125 0.49772537 0.7691590687
0.1723743966 0.4998284533 0.0209051162
0.1624743178 0.4988266733 0.272195778
0.1724588449 0.2486867748 0.5195634839
0.1724029165 0.4986531624 0.5186921481
0.1624665397 0.2509411074 0.7712434226
0.1824589283 0.4999122624 0.7652061116
0.1724810682 0.2494024256 0.0185448239
0.1723695816 -0.0018735439 0.0223577747
0.1623935734 0.2484536809 0.2715901949
0.2025635443 0.2474086868 0.7605633083
0.1925056805 0.2485289781 0.0150692033
0.2024279826 0.2508920005 0.2604304293
0.2025016896 0.4992876231 0.7592345443
0.1923671557 0.4986315553 0.011773776
0.2024190933 0.5007359482 0.2583507053
0.1925271629 0.4995030385 0.5115816402
0.1924997543 0.2480477308 0.5122353736
0.2024720586 -3.3607804534e-05 0.2595794647
0.2225033379 0.5025116525 0.2521004217
0.2325826842 0.4995763714 0.9983092814
0.2124580673 0.2509476549 0.5065406708
0.2225318578 0.2466760124 0.7535500271
0.2125810359 0.2499596248 0.0034077482
0.2225888974 0.2499432558 0.2532643634
0.2325204591 0.2510242617 0.4985162326
0.2324900874 0.250871703 0.9983555798
0.2224281493 0.5007621386 0.7495822545
0.2123821379 0.4996916089 0.0060100885
0.2425768414 0.501094101 0.2482632105
0.2626258993 -8.0805581671e-04 0.2404758201
0.2625088569 0.2479396957 0.7405364737
0.2626418259 0.4992280401 0.7409420476
0.2525395157 0.2504035509 0.4934076674
0.2425923976 0.2483986812 0.7450709387
0.2525198851 0.2482467773 0.9933646126
0.2525998888 0.002000726 0.4938882448
0.2526206305 0.0017902867 0.9943276192
0.2625658965 0.2489139759 0.240999918
0.242530543 0.247760292 0.2477789293
0.2725237558 0.2490704632 0.4875444384
0.2725815362 0.2489303449 0.9834289765
0.272568943 0.0019527322 0.4821997515
0.2724404187 0.0027930489 0.985669819
0.272488569 0.4994349437 0.4867879226
0.2826075467 -4.7681363768e-04 0.2307624164
0.2824460579 0.2500460529 0.7331148406
0.2823527203 0.2501986115 0.231958767
0.3125229782 0.2522768141 0.472015956
0.3124522342 0.2509031314 0.9744841262
0.3125411272 5.590138524e-04 0.4739030787
0.3125611281 -2.5557083812e-04 0.9725766323
0.2924013244 0.2509221194 0.4789421962
0.3025525258 -8.2776403886e-04 0.2242019335
0.3024621513 0.2500931955 0.7257848784
0.2924665126 0.2510478329 0.9790121095
0.2925542943 0.0026761091 0.4781041953
0.3025721563 9.2731534618e-04 0.7224782468
0.2925513312 0.0011107786 0.9760119733
0.3024662256 0.2490658798 0.2256205164
0.3126159454 0.4983742354 0.9674560295
0.312556313 0.4971170996 0.4701816135
0.3325483313 0.2493939137 0.464565618
0.3224767632 0.248835405 0.7172928264
0.3325435163 0.2493709972 0.9647059047
0.3225063942 9.0308929236e-04 0.7186669628
0.332532775 0.0015791926 0.9644651531
0.3224997272 0.2488419525 0.2160497118
0.3324727723 0.4984475683 0.9642892192
0.3624507993 0.2497265309 0.2085234443
0.352575166 0.4985248298 0.4593801975
0.3626656238 0.5005395208 0.7024893769
0.3525277564 0.2498090304 0.4604182076
0.3426021208 0.2498476611 0.7108203105
0.3525747956 0.2512049749 0.9605205296
0.3525236821 0.0014651992 0.4600107817
0.3426258256 2.5311081614e-04 0.7148862357
0.3525270156 0.0023581585 0.9616779896
0.342509524 0.2487574887 0.2119374881
0.3625508038 0.2502608136 0.7048052227
0.3923966025 0.249255105 0.4547003555
0.3923225251 0.0012004805 0.4506909143
0.3925003109 0.249574627 0.9521590391
0.3923077096 8.3636943065e-04 0.9500570919
0.382562823 0.49974268 0.1998823115
0.3924706799 0.5000117856 0.9514367841
0.3725253305 0.2507001563 0.4535243762
0.3825109688 0.2485990372 0.704910783
0.3824665223 -6.0567005363e-04 0.2025750263
0.3725994079 0.2504500387 0.9558258722
0.3825591191 0.2510511067 0.2018120287
0.3925040148 0.4989255418 0.451393724
0.4023822408 0.2506922992 0.704766332
0.4125530727 0.4994847053 0.948436648
0.4024229834 0.2509548573 0.2017935093
0.4124345488 0.252087589 0.4486463771
0.4125197378 0.001594514 0.4481509843
0.4125419611 0.2517353291 0.9480014431
0.4124826991 0.0016356328 0.9452513183
0.4025415073 0.5013383258 0.6992568228
0.4025378034 0.5003339267 0.199548963
0.4426248076 0.2526559191 0.6858451031
0.442698885 -5.885153885e-04 0.1821741006
0.4426211037 7.599591474e-04 0.6818727006
0.4425655456 0.2509162265 0.1844214248
0.4326725041 0.2494462944 0.4392709517
0.4225275994 9.41654551e-04 0.1921754803
0.4225535265 0.2519559826 0.6979438002
0.4326354654 0.0017926438 0.4378542207
0.4326725041 0.2506124187 0.9408529706
0.4226868658 6.4409499678e-05 0.6925176281
0.4325687957 0.0026227463 0.9382510006
0.4225720458 0.2505004551 0.1999221281
0.4427322199 0.4992529209 0.182825982
0.4526623001 0.0017394774 0.4347087076
0.4526771156 0.2501894449 0.9308617765
0.4626071958 0.4996005975 0.1807990382
0.4725706108 0.4990296483 0.4325002741
0.4527289698 0.5011707077 0.9344082337
0.4726335767 0.2482729677 0.43134837
0.4624479293 0.2507400966 0.6853302649
0.462629419 9.4748189908e-04 0.182624121
0.4725706108 0.2497298047 0.9326211155
0.4725928341 -4.6129586807e-04 0.4290714148
0.4626220113 0.2511794393 0.1822426222
0.4525956304 0.2493434973 0.4353207724
0.4624997835 0.4986773884 0.682902377
0.4725150528 0.4981162606 0.9347415821
0.4925678145 0.4979119761 0.9337230174
0.4825451375 0.2489316544 0.6800485438
0.4825118027 0.0012589504 0.6837422299
0.4824784678 0.2485217758 0.185742781
0.4924900332 0.2484896926 0.4297131106
0.4925381835 0.2474525556 0.9315284734
0.5025127102 0.4995848833 0.1826398624
0.5025497489 0.4993950034 0.6837144509
0.5125650182 0.4989576249 0.4299714556
0.5025164141 0.2486560012 0.1826435663
0.5225321371 2.7284709104e-05 0.1807157011
0.5227210346 0.2502182543 0.1813916577
0.5126020569 0.2484844546 0.4297371858
0.5224913945 0.4997813108 0.6838422345
0.5225469526 0.249515044 0.6803920779
0.5025904915 0.249534032 0.6812680436
0.5125242756 0.2484576095 0.9309543733
0.5025867876 6.159403937e-05 0.6821569728
0.5325918529 0.0034341226 0.4352402132
0.5323918438 -8.0740105849e-04 0.9328618672
0.5325622219 0.2519723515 0.432070625
0.5324548096 0.2515696752 0.9315562524
0.5425182292 0.5002645223 0.6832949874
0.552574241 0.5003470219 0.9375935634
0.5525483139 0.4993125039 0.4413062292
0.5425663795 8.4379625118e-05 0.6810902577
0.5525297946 0.0026073594 0.9409085286
0.5425700834 0.2494109374 0.1840723349
0.5524483094 0.2492001053 0.4373949406
0.5425478602 0.2496387933 0.6843098483
0.5524964597 0.2503989676 0.9367046342
0.5724269937 0.2483089794 0.4430998291
0.5624450593 7.1694153293e-04 0.1909393131
0.5725307021 0.2481976705 0.9427326855
0.5625561755 0.5006318417 0.191634715
0.5623746857 -2.201484189e-04 0.6914398014
0.5625635832 0.2504297412 0.1887206939
0.5725010712 0.4994958362 0.9404733237
0.5626413645 0.2494829608 0.6920213093
0.5723973628 0.4993878011 0.4413571575
0.5724899595 9.0806545477e-04 0.4454193788
0.5724936634 7.3154264104e-04 0.9437234712
0.5923353045 0.4999980357 0.9404085059
0.5923723432 0.4974241812 0.4422414568
0.5824681901 0.2505849189 0.6925963354
0.5924056781 8.5778002415e-04 0.4432794669
0.5924316052 0.0012962061 0.9452327989
0.6025357673 0.2508834886 0.1976368392
0.5823941127 0.4990839933 0.6907934758
0.5924982748 0.2496401028 0.4438406035
0.6025024325 0.2503668844 0.6965483666
0.5924612361 0.2508232509 0.9432141888
0.5823644817 1.8154574366e-04 0.1922532616
0.5825348598 0.2474283296 0.1925430896
0.6123695469 0.4992352424 0.9451679812
0.6122880617 0.5001198208 0.4448637981
0.6123769546 0.0018518339 0.446599062
0.6124510321 1.044807022e-04 0.9460476507
0.6123880662 0.2505050384 0.4453536351
0.6123991779 0.2504939075 0.9470013977
0.6225292672 0.2489958207 0.1983340931
0.6224996362 0.2505371215 0.7012337643
0.6423857237 2.4931321851e-04 0.2043760339
0.6525787788 9.0832735805e-04 0.464132265
0.6525084053 7.9865535768e-04 0.9594186278
0.6425338786 0.2491451056 0.2084354774
0.6524306239 0.2477203517 0.4650684186
0.6426005483 0.2473772584 0.7111305097
0.6525306285 0.2483646338 0.9611872266
0.6324186048 0.4988430422 0.9538443008
0.6324593474 0.4998991672 0.4533512202
0.6424968399 0.5002494629 0.209485525
0.6525047014 0.4983094143 0.4636044632
0.6325074977 4.1470514265e-04 0.4505103506
0.6323000809 0.0011422725 0.9509830598
0.6324482358 0.2496898644 0.4493575205
0.6325074977 0.2492400455 0.9543906219
0.6824616163 0.5003502956 0.7231412399
0.6726611715 0.499022446 0.969030175
0.6826319944 0.5012067194 0.2252945757
0.6626273829 0.2475180314 0.2218147882
0.6725537593 0.4986446505 0.4691936057
0.6626199752 0.2473445205 0.7198188669
0.6826949602 0.247045296 0.2251843855
0.6726019096 0.2493493901 0.4700093835
0.6826616253 0.2471349979 0.7247200152
0.672590798 0.2475442218 0.9705302431
0.6625755287 0.4999888691 0.7193614388
0.7027477219 0.2492943905 0.2340551584
0.6926583752 0.2504192651 0.4778041816
0.7027292026 0.2519978871 0.7315647703
0.6926805985 0.2504448006 0.9766694106
0.7026440135 0.5003941644 0.7307869572
0.6925324436 0.4985274488 0.9744841262
0.7026514213 0.4999816668 0.2311828059
0.7025921593 -0.0011231909 0.2312429938
0.7224634314 0.499482741 0.7382400732
0.7225078778 0.5012793975 0.2397415275
0.712651875 0.2499039704 0.4858702884
0.7126592828 0.2501239691 0.9867254224
0.722674552 7.4830445124e-04 0.2430731602
0.7226264017 -0.0015542837 0.7417272684
0.7225634359 0.250275873 0.2421518221
0.7324342542 0.2512809269 0.4949373665
0.722704183 0.2467977974 0.7433338228
0.7325083316 0.2507682512 0.9938924143
0.7126778021 0.0011413558 0.4865082803
0.7425013776 0.0014540683 0.7464098883
0.7524055307 0.4986040555 -5.9919288382e-04
0.7425310086 0.2495811746 0.2488456444
0.7424347079 0.2508350365 0.7477534678
0.7625059891 0.0023437538 0.2555246511
0.7524907198 0.0014390089 0.501537666
0.762391169 2.272478668e-04 0.7563695995
0.7624208 0.2512337843 0.2550264804
0.7524129385 0.2533047845 0.5023367763
0.7623541303 0.2536465683 0.7575048362
0.7523721959 0.2512776531 1.0022168661
0.782495785 0.0035351518 0.2643519035
0.7823439263 7.4450685362e-04 0.7632078728
0.7725138506 4.889547238e-04 0.0113572756
0.7824735618 0.2536118661 0.2661880979
0.7723768073 0.2519343756 0.5112334763
0.7825031927 0.2527986564 0.7655839065
0.7723842151 0.253300856 0.0094963578
0.792577724 0.0023561942 0.5175995059
0.7925221659 0.2529446675 0.5203153699
0.7925110543 0.2532668085 0.0189065996
0.8024152074 0.001491586 0.2702697646
0.8123230644 0.0030658211 0.5241905457
0.8024633577 0.0031145352 0.7724221798
0.8125267773 0.0034567118 0.0284309207
0.802600401 0.2546810863 0.2759440962
0.8125193696 0.2529787149 0.5259535887
0.8025003964 0.2541743034 0.7738055759
0.8124823308 0.2517654479 0.0264139773
0.8225939008 0.0018868635 0.7746120939
0.83249435 7.0162019079e-04 0.0326135179
0.8224605614 0.2503996223 0.2788988599
0.8324573113 0.2502634326 0.5278258959
0.8225531582 0.2526081218 0.7818513113
0.8325165732 0.252009018 0.0300950703
0.8226272356 0.0010711002 0.2754737045
0.8325313887 0.002034577 0.5301935959
0.8625438617 0.5009363042 0.7958436129
0.8525656311 0.5001093446 0.0429583391
0.8625697888 0.4984757229 0.2980784339
0.8425059154 7.7986379702e-04 0.7820985447
0.8424762844 0.2504127175 0.2858112106
0.8425096193 0.2496951025 0.788935892
0.8624920075 -0.0015288137 0.2926328164
0.8524693305 0.0016536386 0.5411070541
0.8526285969 0.0012499802 0.0420756139
0.8424725806 6.3509675653e-04 0.2832083147
0.8624920075 0.2488386787 0.293655085
0.8524322917 0.2485689184 0.5379717266
0.8625475655 0.252130803 0.7971668211
0.8524137724 0.250755156 0.0381847892
0.872499869 0.500322141 0.5530011123
0.8825484731 0.4992090521 0.8042652913
0.8926007811 0.5000497616 0.0536226193
0.8825447692 0.4997793465 0.3009248593
0.8925378153 0.0028725365 0.5509556491
0.8726183929 4.7854406824e-04 0.0492185306
0.8924563301 3.2474136444e-04 0.0522554277
0.8826188467 0.251486521 0.3033536732
0.8724554225 0.2489873089 0.5468517592
0.8924155875 0.2510831899 0.5516686444
0.8824114298 0.2497507569 0.7997308263
0.8725183883 0.2489375472 0.0477009617
0.8925044804 0.2468685113 0.0497958716
0.902308629 0.498686555 0.3037851743
0.9025604923 0.0010214696 0.303215704
0.9124794609 -1.8060102294e-04 0.5565309021
0.9025012303 5.007403716e-04 0.8036171138
0.9124868686 0.0013549379 0.0593180629
0.9024456722 0.2491614745 0.3041824146
0.9123424176 0.2475186862 0.5561929238
0.902482711 0.2495405795 0.802944861
0.912446126 0.2494240326 0.0581255088
0.912505388 0.5004164262 0.0597803061
0.922468803 9.4839856058e-04 0.3142162032
0.922528065 -6.8319342584e-04 0.8118360052
0.9323729561 0.4997564299 0.5622496801
0.9325099994 0.4993517894 0.0629525797
0.9224206527 0.2492321884 0.3090381904
0.9224465798 0.2507603941 0.8116424779
0.9424067448 0.0013882651 0.3165913109
0.9325840768 -7.4661144375e-05 0.5653257456
0.9426215693 -2.9027302331e-04 0.8124814049
0.9324692568 5.7040664527e-04 0.061285467
0.9424771183 0.2479233268 0.3166940934
0.932406291 0.2487777862 0.5651174028
0.9425326764 0.2491313557 0.8150324466
0.9324988878 0.2475802335 0.0650988808
0.9224799146 0.499797025 0.8128879048
0.9625150646 0.2500041484 0.3140856417
0.9525220186 0.2501495047 0.5638821616
0.9723969945 0.2499851604 0.5672110163
0.9623928368 0.2510321188 0.8145203863
0.9525257224 0.2498483159 0.0670477655
0.9724414409 0.2508468222 0.0633744507
0.9523590482 0.5004046406 0.0676510336
0.9723895867 0.5000320832 0.0670034117
0.962444691 0.5001119637 0.315145875
0.9524775721 0.0014679492 0.5673499115
0.9625076569 0.0010544694 0.815914894
0.9923682711 0.499442146 0.5676415914
0.9823567057 0.498805721 0.8166501125
0.9924460524 1.8678380935e-04 0.5623820935
0.9825641225 -9.4535861359e-04 0.8152333816
0.9825048605 0.2505875379 0.3182608311
0.9923719749 0.2505561095 0.5604458945
0.9824567102 0.2510563448 0.8167630806
0.9924090136 0.2499511129 0.060297737
0.0024416488 0.9981924277 0.3046120637
0.0124548439 1.0000453935 0.553325201
0.0224732615 0.9995084917 0.8049931021
0.002556654 0.9995019441 0.8088858714
0.012464548 0.9988340908 0.0586278464
0.0124933271 0.7504646585 0.0580571724
0.0022731226 0.5011759457 0.8122313935
0.022502448 0.7500259705 0.3041833405
0.0023519781 0.7496527583 0.3119929541
0.0124475473 0.7481271717 0.5568772141
0.022487225 0.7499670423 0.8058940689
0.0023774977 0.7488212154 0.8111739381
0.0222764007 0.5005035091 0.3077251679
0.0022675298 0.4996654186 0.313124487
0.0122635019 0.4986963764 0.5592245428
0.0325647194 0.748028958 0.0544651575
0.0325073093 0.5002036298 0.0536188228
0.0423677568 0.7515842951 0.2996785065
0.0325158282 0.7492075228 0.5543743227
0.0423955358 0.7506414432 0.800749391
0.0424492419 0.4988103043 0.3029971756
0.032385452 0.5007850551 0.5566559077
0.0424810952 0.9997311095 0.8042115852
0.0525022907 0.7510866788 0.0544088587
0.0524726597 0.7498491858 0.5515816034
0.0724976425 0.9991876602 0.5543548774
0.0622923646 1.0005561049 0.8073598762
0.0723494876 0.9996263482 0.0528525844
0.072359488 0.750065256 0.0511164871
0.0623931099 0.5007326744 0.8050514381
0.0623627381 0.7507592997 0.2993312685
0.0723205974 0.7507920376 0.5525316465
0.0623534784 0.7502551359 0.8012540436
0.0724869012 0.5003142839 0.5519371751
0.1023330703 0.5008302334 0.2929698687
0.1023682571 0.9997114668 0.2974811846
0.0822591965 0.9984739737 0.3002461248
0.1023764056 0.9985067117 0.79812242
0.0823351259 0.9967126742 0.8019698168
0.0924196575 0.7506741811 0.0493700189
0.1025927117 0.7484152653 0.295388497
0.0824721691 0.7484545508 0.3016600779
0.0924100275 0.7473087239 0.5485629479
0.102537524 0.7483694322 0.7940546428
0.0824684653 0.7503664448 0.7997373081
0.1124376029 0.9987751625 0.0420901516
0.1123472284 0.7493515696 0.0407262934
0.1223999068 0.5014247539 0.7829735845
0.1124590854 0.499699466 0.0383076651
0.1224395382 0.7501110891 0.2871733094
0.1125705719 0.7481795524 0.5415468888
0.1224299082 0.7500979939 0.7864552239
0.1223887952 0.5004884496 0.2785423622
0.1124024161 0.4998716674 0.5366188874
0.122410648 1.0009882453 0.2892687749
0.1124857532 0.9979698099 0.543764582
0.1224343528 0.9987293294 0.7911989577
0.142497115 1.0011977679 0.2829277464
0.1524197875 0.9979829051 0.5263915715
0.1324499925 0.9996656337 0.5376828246
0.1425137824 0.997812668 0.7817327874
0.1525120139 0.9990239706 0.0258633968
0.1325474043 0.9975049316 0.0370325147
0.1524946057 0.7461498019 0.0238939555
0.1324381401 0.7503860875 0.0329537185
0.1424711879 0.7505366819 0.2810026591
0.1524983096 0.7480158628 0.5279453457
0.1325096248 0.748670621 0.5333733698
0.1425126713 0.7484152653 0.7808651555
0.1425423023 0.5004341047 0.2788192266
0.1824752253 0.9956847038 0.7685507078
0.1723781005 0.7488801436 0.0237659868
0.1625335797 0.7487426444 0.2738532606
0.1724718085 0.748153362 0.5222034185
0.1624606135 0.7490962139 0.7742092979
0.1823700354 0.7494890688 0.2683002308
0.1824541133 0.7473218191 0.7679516065
0.1823941106 0.5003424385 0.2662936583
0.1625295055 0.9969614823 0.2731921195
0.1724458814 0.9990632561 0.5226904776
0.1624406126 1.0002614637 0.7720416069
0.1923734523 0.9998620612 0.5151003184
0.2025324318 0.997937072 0.7625754367
0.1924312327 0.9983102842 0.0150204974
0.192403824 0.7477605071 0.0181760109
0.2024779848 0.7494759736 0.2638213239
0.1924830869 0.7474724135 0.5152493993
0.2025265056 0.7480486007 0.7642958851
0.2124784386 0.4990100056 0.5063952938
0.2325482382 0.7512896539 -6.3410187524e-04
0.2224822259 0.9981924277 0.2544560841
0.2325945366 0.7506545384 0.5035664617
0.2124506596 0.9999340846 0.5098519321
0.2224848186 0.9986638536 0.7546815599
0.2125002915 0.9996067055 0.0105068666
0.2326023147 0.4995056576 0.4991616322
0.212549553 0.7480486007 0.0065430756
0.2325597202 0.9989453997 0.5019182388
0.2226433443 0.7492468082 0.2576830824
0.2325223111 0.9976686211 7.200336436e-04
0.2125102919 0.7471450344 0.5094889527
0.2224859297 0.7479176491 0.7557686463
0.252638409 0.7511979877 0.9927997721
0.2425364692 0.5008518404 0.7464098883
0.252638409 0.4999476193 0.9944109563
0.2425368396 0.7473414619 0.2469187051
0.2526921152 0.7512700111 0.4931345069
0.2426238806 0.7491420469 0.7531926035
0.2525676651 0.4998435128 0.4952549735
0.2625351544 0.9982709987 0.739053999
0.2424923931 0.9977930252 0.2452139981
0.2625284874 0.7498753761 0.2432407604
0.2625877494 0.7486247879 0.7403392425
0.2424898004 0.9982644511 0.74543577
0.2627573867 0.500541485 0.2390609411
0.2826131025 0.4998042273 0.7348964029
0.2824134638 0.7512372732 0.23002442
0.2823845736 0.7516825088 0.7305286121
0.2725482014 0.7505235868 0.9835493524
0.2724048615 0.5002245821 0.9881699324
0.2725715357 0.7503337069 0.4818015852
0.2826812537 0.502949031 0.2328458443
0.2825479144 0.9989977803 0.7290479894
0.2925957777 0.7523110767 0.9763268024
0.3025025235 0.5023931413 0.7260117405
0.2925413308 0.4999011315 0.9795954693
0.3025310433 0.7509491796 0.2253093912
0.2923994725 0.7512045353 0.475395739
0.302551785 0.7511325119 0.7236847831
0.3025040051 0.5019616556 0.2297651489
0.2923413217 0.5002841651 0.4811274806
0.3125585354 0.7492337131 0.9686412685
0.3125355714 0.7493646647 0.4685000558
0.3326479655 0.7493646647 0.9607798007
0.322470837 0.9984019503 0.2196767282
0.3326824115 1.0011912203 0.4626692356
0.3225997317 0.4987507213 0.7155649702
0.3226189919 0.7505694198 0.2150107757
0.3326320388 0.7502420407 0.4641350429
0.3225452848 0.7501372794 0.7177872933
0.3225734342 0.4984122113 0.2118939676
0.3326042598 0.5009421971 0.4584236726
0.3425643413 0.4997230373 0.2080780538
0.3425691564 1.0008769364 0.2134366302
0.3526007227 0.7501962077 0.9520849617
0.3425998985 0.4998343462 0.709244313
0.3525329418 0.4998363104 0.957881521
0.3425839719 0.7514860813 0.2093068132
0.352573314 0.7492009752 0.4530465768
0.3625767309 0.7487295493 0.2056927603
0.3426421227 0.7491354994 0.7089405955
0.3626248812 0.7501176367 0.7019115729
0.3624063528 1.0000781314 0.2070094868
0.3625137651 0.9989781376 0.7066303055
0.3626841432 0.5014371943 0.2035408108
0.3726179273 0.7492271655 0.9491403836
0.3825554152 0.4997976797 0.7014911834
0.3724994034 0.5008046978 0.9522331166
0.3825257842 0.7487557396 0.201254596
0.3727031163 0.7486182404 0.449514935
0.3824924494 0.7485855025 0.7002466825
0.3725290343 0.9999930128 0.4550022211
0.38247393 0.9983102842 0.7006865173
0.3723845833 0.9997638474 0.952566465
0.3724882918 0.4999391075 0.4506825806
0.3925225342 0.7486575259 0.9461865459
0.3926743929 0.7503075165 0.4451564039
0.4024192795 0.9971120767 0.1960089876
0.4023044595 0.9992662312 0.6964381764
0.4126456695 0.7488343106 0.9468995412
0.412601223 0.7498819237 0.4461601532
0.4124308449 0.5008839236 0.4484834067
0.4025378034 0.7511848926 0.1991285736
0.4025748421 0.7505366819 0.7014652563
0.4326539848 0.7508444183 0.9396121735
0.4225794536 0.5010692202 0.6944186403
0.4325947228 0.5008911259 0.9398251461
0.4226424194 0.752494409 0.1966423497
0.4326947274 0.7491354994 0.4397330097
0.4226201962 0.7509491796 0.6926380039
0.4225424148 0.5027820676 0.1959793566
0.4325650919 0.5003162482 0.4404274857
0.4427062928 0.5019164773 0.6830218269
0.4425062837 0.7520295306 0.186233544
0.4427877779 0.750582515 0.6863090131
0.4526882272 1.0009555074 0.9340748852
0.4625071912 1.0007459847 0.6836774122
0.4725261644 0.9990828989 0.9317229266
0.4526252614 0.7503598972 0.9306858425
0.4526511885 0.7512110829 0.4340318251
0.4526289652 0.5009061854 0.4328104734
0.4725150528 0.7493384744 0.9332970721
0.4626368267 0.7523241718 0.1821546552
0.4726632076 0.7488212154 0.4353531813
0.4625405261 0.7478587208 0.6826023634
0.4824488368 0.9985590923 0.1820935414
0.4925159603 0.9988406383 0.4318863574
0.4926270765 0.9996656337 0.9339637691
0.4825784724 0.4991409572 0.1833917484
0.4924233635 0.7493581171 0.4313687413
0.4925604068 0.7484610984 0.9331674366
0.4925455913 0.4999541669 0.4356207861
0.4825710646 0.5020225481 0.6832894316
0.4825525452 0.7488605009 0.1827056062
0.4824747639 0.7490700235 0.680621718
0.5126724305 0.9970073154 0.4320465498
0.5126094647 0.9982448084 0.9311303072
0.5023386282 0.9987817101 0.1838556584
0.5124724214 0.7517348894 0.9328526075
0.5225284333 0.5009166615 0.1835139762
0.5225951029 0.7497182342 0.6819514079
0.522535841 1.000366225 0.6825764363
0.5025127102 0.7494104978 0.1836482415
0.5025238218 0.7485789549 0.6835329612
0.5127131731 0.5004242833 0.9327137123
0.5123872324 0.7473676522 0.4302686914
0.5225469526 0.749705139 0.1822870687
0.5324955522 0.7522783388 0.4331243765
0.5325399986 0.5008413643 0.4351411347
0.5522890429 0.7504450158 0.9348989967
0.5424737827 0.9996067055 0.1851094189
0.5525446101 1.0011257445 0.4397413434
0.5424404479 0.7495676398 0.185568699
0.5524260862 0.7485331218 0.4369106594
0.5424848943 0.5013108259 0.1852844269
0.5426515686 0.7504450158 0.6859330701
0.5323992515 0.7501503746 0.933185956
0.5324325864 0.4998061916 0.9336674593
0.5624413554 0.5005971395 0.6901323347
0.5624450593 0.7486509783 0.1913161821
0.5625043213 0.7493712123 0.6924222534
0.5722084653 0.750503944 0.9405011027
0.5723381008 0.7493515696 0.4411719639
0.602457986 0.4999286314 0.6940501051
0.6022024189 0.7519116742 0.1918226865
0.5922760425 0.7498884713 0.4402543296
0.6022616808 0.748546217 0.6921009425
0.6024839131 0.5015046344 0.1966154966
0.6022839041 0.9972561235 0.1927986567
0.6023839086 0.9987489722 0.6935260072
0.5823941127 1.0003269395 0.6956177688
0.5823867049 0.7485855025 0.1930134813
0.5825015249 0.4999862501 0.1936088787
0.5823459623 0.7500521608 0.6937750926
0.5922575232 0.7496069253 0.9415011481
0.6123213966 0.7505104916 0.4433618781
0.6224700052 0.5012610643 0.6993197886
0.6222699961 0.7505301343 0.197847034
0.6222329574 0.7519640548 0.6937537953
0.6224663013 0.5006927342 0.1977173985
0.6223959278 0.9983299269 0.194987645
0.6224107433 0.9993448022 0.6946547621
0.6122954695 0.7502551359 0.9439271841
0.6424486895 0.9976686211 0.7040811158
0.6322926731 0.7498557334 0.9492329804
0.6323926777 0.7499343044 0.4474018762
0.6525195169 0.74859205 0.9593630697
0.6425153592 0.5000366665 0.705779341
0.6524491433 0.499902441 0.9635299255
0.6424005392 0.7521670299 0.2086141892
0.6524787743 0.7483497895 0.4621831025
0.6423116463 0.7518396508 0.7075201607
0.6625644171 0.9994626586 0.2139116518
0.6625236745 0.9980549285 0.7154445944
0.6825653247 0.9988537335 0.2198221052
0.6725833902 0.749266451 0.9717154821
0.6724907934 0.9992007554 0.4707353424
0.6825393976 0.9985067117 0.7241551748
0.6725945019 0.9999930128 0.9701320769
0.6825986595 0.7499801374 0.222253697
0.672387085 0.7498884713 0.4684824624
0.6824727279 0.7489914525 0.7221800852
0.6624866358 0.7506938239 0.2171071672
0.6624347816 0.5009291019 0.2149644773
0.6626347907 0.7494366881 0.7196466369
0.6926398559 0.9986376633 0.4766615372
0.7026773484 0.9986769488 0.7317045914
0.6927583798 0.9986311157 0.979169524
0.6925028126 0.7479569346 0.9767805267
0.7026477174 0.7496658535 0.2304707365
0.6926324481 0.748984905 0.4795681506
0.6926731907 0.500278927 0.4758253881
0.7026995716 0.7502878738 0.7289303915
0.7324268464 0.5012525525 0.9933738722
0.7225819553 0.7506414432 0.2410073257
0.732582409 1.0006870565 0.4961318651
0.7324787006 0.7505432295 0.4948688449
0.7324009193 0.5004707712 0.4931122837
0.7225634359 0.7498688285 0.7397623645
0.7325787052 0.9986376633 0.9957906486
0.7126111325 1.0007394372 0.9870495112
0.712537055 0.7495087115 0.9853642495
0.7126555789 0.4990237555 0.985438327
0.7125592782 0.7459271841 0.4859656631
0.7126185402 0.4998958934 0.4864564261
0.7324898122 0.7498229955 0.9922071526
0.7423828537 0.5031042087 0.7472506672
0.7423939653 0.7505104916 0.2483196946
0.7423013686 0.5013010046 0.2457130948
0.7423828537 0.7483563371 0.749046119
0.7425347125 1.0001828927 0.2500049562
0.7525573895 0.7491682373 0.0022931606
0.7525462779 0.9997900377 0.0022465844
0.7523944191 0.5034335521 0.4999524089
0.7624319116 0.5010724939 0.7554621509
0.7624763581 0.7512045353 0.2550051831
0.7624096884 0.5016231456 0.2543644133
0.7524240501 0.7514664386 0.5002635341
0.7625096929 0.7493777599 0.7551334323
0.7724805157 0.999128732 0.5078962878
0.7827217212 0.750818228 0.2655417723
0.782495785 0.4989779224 0.2649065583
0.7726397822 0.7519313169 0.5110649501
0.7825957895 0.7509884651 0.7662756046
0.7725434816 0.7505104916 0.0124744559
0.7724619964 0.5012067194 0.5098417465
0.7825180082 0.5018935607 0.7650662904
0.7725101467 0.502055286 0.0095771022
0.7925369814 0.7516825088 0.5182087928
0.7924480884 1.0003400346 0.0173978274
0.812678636 0.7508509659 0.0249507628
0.7924999426 0.7533128567 0.0202624945
0.7925110543 0.5018601681 0.5191736514
0.792488831 0.5012473144 0.0179485932
0.8124712192 0.5028737338 0.5278184881
0.8025337313 0.4993341109 0.7734129655
0.812478627 0.5009782088 0.0267368623
0.8026078087 0.7536140455 0.2723615262
0.8024077996 0.5019996316 0.2715605639
0.8125749276 0.7535682124 0.5231553136
0.8024781732 0.7508706086 0.7736426055
0.8325425003 0.7512896539 0.0333506809
0.83260917 0.5020382623 0.5351086337
0.8225939008 0.5037825382 0.7777344578
0.8324980539 0.5023145703 0.030812325
0.8225939008 0.7525860751 0.2800618756
0.8225568621 0.5002134512 0.2776802861
0.8326536165 0.7530967865 0.5304139763
0.8224235227 0.7518658411 0.7776214897
0.8525508156 0.5008675546 0.5444034999
0.8625364539 0.9976751687 0.7934407261
0.8626586817 0.7503271593 0.300820225
0.8526248931 0.7506414432 0.5393856796
0.8424688767 0.5013442186 0.7866061567
0.8425651773 0.7500783512 0.2863075294
0.8425985122 0.503027602 0.287617774
0.8426022161 0.7525991703 0.7843495728
0.8625846043 0.7488212154 0.7974742424
0.8525619273 0.752494409 0.0374318847
0.8825040266 0.7488212154 0.802540213
0.8725035729 0.7500783512 0.0483254345
0.8925267036 0.7520295306 0.0509282378
0.8926526353 0.502791889 0.5520177343
0.8725702426 0.5013605876 0.0553502903
0.8825336576 0.9978912389 0.2994488664
0.8724294954 0.9993775401 0.5495120651
0.8826336621 0.7472890812 0.3037092449
0.8725369077 0.7501372794 0.5505426674
0.8924637378 0.7527366695 0.5517251284
0.8825151383 0.9971710049 0.7981974234