POSCAR file written by Ovito 3.7.11
1
270.0217700035 0.0 0.0
0.0 15.274737971 0.0
0.0 0.0 10.8008708001
Sr Ti O 
800 800 2400 
Direct
0.0124179838 0.2482654035 0.5322414781
0.0226118656 3.1234483426e-04 0.2799025648
0.0024941173 1.0009054829 0.2812663437
0.022450212 0.2503531643 0.7834721473
0.0023522769 0.2517960696 0.7848924032
0.0124289089 2.0465067917e-04 0.5329395699
0.012467128 0.2501030782 1.0332992261
0.0225442414 -3.1850068455e-04 0.7829416346
0.0024420475 0.0021020973 0.7849349924
0.0125151242 6.3915895111e-04 1.0341787848
0.0223812546 0.2491112445 0.2825690165
0.00241442 0.2511708543 0.287483435
0.0326865718 0.251072653 0.5296166897
0.0425583684 1.00165836 0.2787211786
0.0423983813 0.2498412079 0.7754968645
0.0324814032 1.3054138826e-04 0.5287269466
0.032611763 0.2474889581 1.0301513318
0.0426587307 0.9991116715 0.7763486476
0.0324699226 4.8903326616e-05 1.0284385069
0.042536148 0.248855921 0.2756871639
0.0724426256 0.2510458112 0.5199017323
0.0525679317 0.2496598628 0.5268233964
0.0624452835 0.9987712401 0.274634471
0.0624878726 0.2519872349 0.7702574721
0.072465957 1.0012328208 0.5191092036
0.0524416456 -4.9185881383e-04 0.5229311176
0.0724392925 0.250402265 1.0203836008
0.0525031222 0.2492650933 1.0242073666
0.062521944 0.9992491534 0.7713027582
0.0724718825 6.7739201285e-04 1.0217908948
0.0524527558 1.0005454113 1.0210316967
0.0624412097 0.2503682219 0.2715745326
0.0925117481 0.2524664575 0.5146503038
0.1025420505 0.9994521028 0.2635094421
0.0825069992 0.999366995 0.2665379016
0.1025764922 0.2494405464 0.7622201572
0.0825895852 0.2491865322 0.7655606286
0.0925480415 1.977111166e-04 0.5146595624
0.0925802611 0.2496389131 1.0144026016
0.1024420586 2.8608379456e-05 0.7639839039
0.082427376 1.0021297265 0.7686816732
0.0924587894 1.0025879995 1.0136619206
0.1025476056 0.2499970208 0.2629992981
0.0826640236 0.2494497119 0.2673748712
0.1124342159 0.2506850849 0.5151280431
0.1224015603 4.782396604e-04 0.2643177103
0.1225385863 0.2494202514 0.7640774148
0.112491989 1.0024832514 0.5162316578
0.1125308747 0.2488938922 1.0130138247
0.1224419275 1.0011215259 0.7645820038
0.1124645838 -4.9991132513e-04 1.0163746648
0.1224560004 0.2514661131 0.2646241671
0.1525113548 0.2489907842 0.5059574862
0.1324292703 0.2492971724 0.5090572363
0.142421798 0.0016021869 0.2623169457
0.1425306781 0.2526216157 0.75857971
0.152638752 1.0001198721 0.5070648043
0.1325196334 -0.0015955766 0.5100691917
0.1526450477 0.2479603246 1.0047089387
0.1324925986 0.2497344958 1.0094955898
0.1425554909 5.8095828006e-04 0.7570890894
0.152587645 1.0008138283 1.007079118
0.1325351877 -6.3896444696e-04 1.0134952673
0.1426225225 0.2519387889 0.258112655
0.1725438137 0.2502759126 0.4974044721
0.1625272139 7.7153438065e-04 0.2559007963
0.1625390648 0.2509993293 0.7532412515
0.1725597383 -8.4178298341e-04 0.5003255329
0.1724415997 0.2491544531 1.0000704238
0.1626560924 1.002548719 0.7564872861
0.1725156678 -5.3166309729e-04 1.0025424468
0.1624835137 0.2497940713 0.2511882134
0.1925470157 0.251026171 0.4960508776
0.2025336178 -0.0012495805 0.2495216811
0.1825981882 -0.001090036 0.2516918765
0.2025302848 0.2503564377 0.748146292
0.182483753 0.2501515242 0.7516617492
0.1925807166 -0.0011877791 0.5007208714
0.1924251736 0.2492238487 0.997996517
0.2024969541 0.9992229663 0.7542124695
0.182623001 1.0009774973 0.7526153761
0.1925003527 -0.0018772181 1.000542608
0.202475104 0.2485698277 0.2474412932
0.1824544961 0.2512526888 0.2507891715
0.2125135539 0.2487662304 0.4996894731
0.2224686772 0.9976124641 0.2516159566
0.2225338571 0.250109625 0.7471445209
0.2124742978 0.9976386511 0.5037400724
0.2124772605 0.2506359842 0.9979409659
0.2223483165 0.9989872831 0.750418331
0.2124068958 0.9987646933 1.0020424871
0.2225175621 0.2478254614 0.2485912005
0.2525595843 0.2499243517 0.4999116774
0.2325486052 0.250109625 0.5009421499
0.2426307552 0.9982933268 0.253207495
0.2426985275 0.2492487264 0.7497378303
0.2525281053 0.2504978477 0.9990890215
0.2525436596 -0.0022664228 0.5018726304
0.232624525 -6.0452850436e-04 0.5022161212
0.2325163855 0.2507675741 1.0007370368
0.2426344586 0.9979201617 0.7529570152
0.2526840187 1.6170395228e-04 1.0015147518
0.2325878612 -8.0132402423e-04 1.0051996399
0.2425477989 0.2465305128 0.2502808791
0.272569082 0.2499963661 0.4980238666
0.2625335949 0.9998972823 0.2490041302
0.2624906354 0.2487616477 0.7488638267
0.2725524167 0.2503714953 0.9990149534
0.2725050131 -2.7012014922e-04 0.4988960185
0.2626106257 0.9991182182 0.7509886554
0.2725224191 -0.0027586735 1.0008111049
0.2625795171 0.2494222155 0.2468644879
0.292367856 0.2490385755 0.4951398399
0.3025070385 5.2307640333e-05 0.2397206195
0.2825823487 1.0004013826 0.2452720237
0.3025311106 0.2498261504 0.7384017073
0.2824997628 0.2480172814 0.7459973911
0.2924704403 0.2493587119 0.9940616491
0.2925600627 -0.0026891469 0.4949620765
0.3026933198 0.0014358993 0.7399275102
0.2825745716 1.0004537567 0.7468741723
0.2926230206 -0.0015600932 0.9923303072
0.3025359251 0.2494641147 0.2428898084
0.2824938373 0.2494209061 0.2466413577
0.3326564594 0.2486693384 0.4838453802
0.3126210378 0.2495092873 0.4881024444
0.3226235647 -0.0016065752 0.2372828531
0.322622824 0.2474575337 0.735720442
0.3324931393 0.249843172 0.9847753608
0.3124762347 0.24786867 0.9859048993
0.3324857324 -0.0021679596 0.4831232162
0.3125825224 -0.0025553967 0.4864840564
0.322605418 -0.0016795715 0.7376323249
0.3325457276 -0.0025876067 0.9855253003
0.3126232599 0.9986533985 0.9866085463
0.3225724577 0.2493678774 0.2328498772
0.3524756021 0.2489717986 0.4846230953
0.3424312268 -0.0019082497 0.2325934164
0.3425578833 0.2483930652 0.7351899292
0.3526485512 0.249748244 0.9814515547
0.3524989336 -0.0016550866 0.4850591712
0.3424686312 0.9986468517 0.7343020378
0.3525067108 -0.0010765497 0.9826551614
0.3425775113 0.2505292721 0.2350821046
0.3726154598 0.2473855193 0.4813400267
0.3824480003 0.2519937817 0.7273683376
0.382518365 0.9986533985 0.2320823465
0.3626273762 1.000067498 0.2329656086
0.3624718332 0.2492572372 0.7333187838
0.372508061 0.2491884962 0.9834236179
0.3724525099 -0.0028793302 0.4806650811
0.3825442888 -0.0026955627 0.7305171578
0.3624459094 0.9981296579 0.7325947681
0.3724080691 -0.001775547 0.9833032573
0.3824035594 0.2492925897 0.2312240823
0.362616266 0.2490713093 0.2337396202
0.3925175588 0.2510778904 0.4801771575
0.4024723117 0.2505227253 0.7248046555
0.4024649049 1.0014095832 0.2253828866
0.3923953464 0.9991640455 0.4788022683
0.3924583043 0.2488768706 0.9763686312
0.4024834219 -6.1919324037e-04 0.7240408282
0.392391643 0.998666492 0.9775444623
0.4024982355 0.2530412628 0.22323306
0.4327698688 0.2498562655 0.4641710406
0.4125159463 0.2493757335 0.4716750652
0.4226188354 1.0006043321 0.216982638
0.422633649 0.2522694002 0.7163488558
0.4326180292 1.0000871383 0.4624406246
0.4326217326 0.2503479269 0.9650825042
0.4125900144 -3.5496612186e-04 0.4723444557
0.4125640906 0.2510320631 0.9734614582
0.422615132 1.0000216707 0.7154804073
0.4326995041 1.0024308773 0.9658139267
0.4125752008 -7.8011253107e-04 0.9702302373
0.4226892001 0.2526890473 0.2173918643
0.4526534508 0.2497777044 0.4641765957
0.4425579685 0.2497469346 0.7135000114
0.4426579604 1.0008007348 0.2124015259
0.4525423486 -0.001370761 0.4600630385
0.4526016031 0.2498765604 0.9633881963
0.4426801808 -0.0014841508 0.7129370938
0.4524905009 1.0026338268 0.9608791394
0.4426690706 0.2504624952 0.2164215721
0.4724148204 0.2493901364 0.4571429036
0.4825806674 0.2509692142 0.7086448473
0.4826917695 3.8645412518e-04 0.2054196814
0.4626452377 0.2495466039 0.713539823
0.462556356 6.3693305368e-04 0.2102646612
0.4725518464 0.2480696554 0.9574997822
0.4726222111 0.9999169226 0.4590233075
0.4826102946 1.0010298713 0.704463703
0.4626526445 -4.8433004311e-04 0.7090207429
0.4726962792 -7.9778877537e-04 0.9596292402
0.4825288197 0.2498163303 0.2059613044
0.462537839 0.2502268119 0.2088314434
0.512507884 -8.8689014016e-04 0.4585788989
0.5124782567 -0.0011403806 0.9560184202
0.5123079001 0.2492114099 0.4549366
0.4924465386 0.2483478926 0.454401458
0.5022975961 0.2484748997 0.7068061067
0.5025235038 0.0011471873 0.2013320481
0.4923798773 -6.2312129466e-04 0.4566383147
0.4924539454 0.2511499047 0.9554814265
0.5124004852 0.2492971724 0.9547314869
0.5024494357 -0.001495935 0.7048034904
0.4925465305 -8.8623546445e-04 0.9559906447
0.502360554 0.2493299062 0.2051391485
0.5224774505 1.0001395123 0.2082277884
0.5325396022 -0.0013319387 0.4622369373
0.5224256028 0.9993997288 0.7095947707
0.5326432975 1.0001198721 0.9646658711
0.5224848573 0.2486987988 0.2098341403
0.5324136864 0.2521286449 0.4606361405
0.5223885688 0.2491118992 0.70646169
0.5324025762 0.2486948708 0.9581941707
0.5424980585 -0.0012791718 0.218657503
0.5624927426 2.1499455547e-04 0.2176973952
0.5524935488 -0.0016798334 0.4650598579
0.5424943551 1.00141613 0.7132889173
0.5625260733 1.0004472099 0.7181709311
0.5525713204 -8.8970524574e-04 0.964971402
0.5424795415 0.2504173226 0.2134144072
0.5625334801 0.2493443091 0.2165798927
0.5524824386 0.2511990054 0.4668384182
0.5425054653 0.2487767052 0.7124510219
0.5625482937 0.251415703 0.7168941822
0.5525565067 0.2502471069 0.9601940094
0.5825614948 -6.7163276513e-04 0.2253884417
0.5725141568 -0.0013129531 0.4709149413
0.5825318676 1.0005781451 0.7229140672
0.5725104534 2.7221321294e-04 0.9684618613
0.5826244527 0.2507767395 0.2245449912
0.5724511989 0.2507800129 0.4709862319
0.5824170621 0.2498687043 0.7264350796
0.5725882249 0.2496101074 0.9718782525
0.6025006279 1.000283541 0.2293992295
0.5925569852 1.0014226767 0.4792170497
0.6124257536 1.7204782858e-04 0.4836750236
0.6024228564 0.0011682024 0.7280358764
0.5925384682 -0.0011690554 0.980914561
0.6123813127 -0.0012288273 0.9847938778
0.6025191449 0.2509927825 0.2303315617
0.5924569933 0.2499649416 0.4797244162
0.612429457 0.2502477615 0.4809678345
0.60243767 0.2507852503 0.7306264083
0.5925680954 0.2516101417 0.9805349619
0.6123887195 0.2498412079 0.9805442205
0.6224064303 4.9801086699e-04 0.2326036007
0.6324537683 -4.180113932e-04 0.484711977
0.6222842179 0.0023361439 0.733853
0.6323611832 1.0009382167 0.9838865436
0.622321252 0.2505783728 0.2344117883
0.6324426581 0.2489154965 0.483927781
0.6223286588 0.2514739692 0.7312208048
0.6324056241 0.2482379071 0.9827292295
0.6423455634 1.0029808049 0.2333433559
0.6624069088 0.0011069902 0.2351496917
0.6525151138 -3.6098913844e-04 0.4866599681
0.6424529621 0.0018572486 0.7321864677
0.662380985 1.0036682144 0.7327354975
0.652389198 1.0008203751 0.9869974038
0.6424936996 0.2528677738 0.2364014426
0.6624846803 0.2515008109 0.2362264568
0.6524595627 0.2511852572 0.4845805061
0.6424825894 0.2511466313 0.7349751317
0.6624994939 0.2507721568 0.7366564776
0.6524595627 0.2511780557 0.983497686
0.6825052883 1.0018416692 0.2400622586
0.6726060864 1.0027778555 0.4873562083
0.6825793564 0.0025726127 0.7407200389
0.6726246035 2.5185279821e-04 0.9892101884
0.68242011 0.2525116302 0.2377383719
0.6723912889 0.2512801852 0.4870793787
0.6823682623 0.2509639768 0.739996949
0.6723616617 0.2509377898 0.9875436561
0.702614778 0.0024555567 0.2464228568
0.6926674319 1.0009054829 0.4914225471
0.7126584126 0.9990658442 0.4964758433
0.7024110907 1.0020642589 0.7436660976
0.6925970672 1.0025683592 0.9945523503
0.7126213785 -3.5084166486e-04 0.996894754
0.7024259043 0.2507276388 0.2438212148
0.6924341173 0.2506556245 0.491435509
0.7123584368 0.2469900952 0.4974896505
0.7023925737 0.2498922726 0.7446817565
0.6923859731 0.2494038846 0.9927747158
0.7123769538 0.250303409 0.9993482599
0.7223576305 3.3218150842e-04 0.2464802596
0.7423745351 1.00190059 0.2473838905
0.7324160788 -0.0016359701 0.4980988606
0.7224724361 1.0002704475 0.7484731175
0.7423819419 3.1515993984e-04 0.7440836566
0.7325086639 1.0012131805 0.9979502244
0.7225094702 0.250981653 0.2458701236
0.7425078577 0.2526680977 0.2454664525
0.732408672 0.2499865459 0.4954648137
0.7224761395 0.251005876 0.7484296024
0.7424448998 0.2523348677 0.7440929151
0.7324049686 0.2509148761 0.997978
0.762458101 8.8197817374e-04 0.2446044849
0.7522441097 0.0033912193 0.4960268054
0.762376626 0.0042318883 0.7467436273
0.7523885425 1.0006174256 0.9949041737
0.7624543976 0.251169545 0.245009082
0.7523774323 0.2516068683 0.4939714156
0.7624803214 0.2517384582 0.7454224375
0.7522589233 0.2490470863 0.9928302669
0.7825231498 -1.7342454614e-04 0.2507021414
0.7723647096 0.9994259158 0.4957879358
0.7925371572 1.0012917416 0.5039446855
0.7824120476 -8.8924697273e-04 0.7503424112
0.7723535994 1.0029611647 0.996209624
0.7924371652 1.8147515887e-04 1.0026350319
0.7825083362 0.2495695175 0.2477329364
0.7723906334 0.2476905982 0.4957638637
0.7924186482 0.2495380931 0.4995367076
0.7824342681 0.2492978271 0.749372119
0.7724980322 0.250569862 0.9952189632
0.7925075299 0.2481914251 1.0010981188
0.8024474692 1.0003686488 0.2529676995
0.8123985187 0.0015616625 0.5066537264
0.8024770965 0.0010934384 0.7548420484
0.8124762902 1.0014030365 1.0075883362
0.8025585714 0.248232015 0.2558100629
0.8124318494 0.2496965246 0.5064778146
0.8025067237 0.2484297271 0.7561900878
0.8124614766 0.2491924243 1.0075883362
0.8224717806 1.0001526059 0.2602097082
0.8425183124 1.0005977853 0.2650935737
0.8324413471 9.6432783513e-05 0.5163048001
0.8223532716 -0.0011285964 0.7588306157
0.8425405328 -5.7199112133e-04 0.7645033064
0.8324043131 0.0010461708 1.0121250074
0.822338458 0.2501148624 0.2605448663
0.8425553465 0.2487210578 0.2655805714
0.8324043131 0.2497790137 0.5138762922
0.8224606704 0.249269676 0.758909313
0.8422738877 0.2497796684 0.763155267
0.8324339403 0.2486012521 1.0131897364
0.8626278021 -6.8276225228e-04 0.2679618609
0.8525471334 0.999150952 0.5191008709
0.8626537259 1.0003948359 0.76812894
0.8524656585 6.327431291e-04 1.0163931818
0.862416708 0.2492336689 0.2655250204
0.8525138028 0.2517076884 0.5154307965
0.862572251 0.2484192523 0.7688353645
0.8525397266 0.2499001287 1.0137730227
0.8827817326 0.9986599452 0.2672276608
0.8726788435 7.7055236707e-04 0.5194101052
0.8926661209 9.4122632593e-04 0.5222515428
0.8826335964 1.0011280727 0.7705056002
0.8726677333 -2.6743597879e-04 1.0191799942
0.8926920447 -2.1178854303e-04 1.0212816766
0.8824891636 0.2486045255 0.2688664176
0.8724862665 0.2504932649 0.5132791181
0.8924253995 0.2533823489 0.5180842862
0.8825224943 0.2489848921 0.7697445505
0.8724751563 0.250810128 1.0162635626
0.8923772553 0.2504677326 1.0164672499
0.9026653146 -0.0018426512 0.2726605561
0.922534083 7.7343294022e-04 0.2801951338
0.9125793301 -0.0017364628 0.5258392165
0.9025282886 0.9998383615 0.7760551528
0.9225970409 1.0013048351 0.7798779927
0.9125571096 1.002306489 1.0250221157
0.9024542205 0.2505187973 0.2704283287
0.922434091 0.252933896 0.2749316693
0.9125571096 0.2488323527 0.5287945338
0.9024579239 0.2505849195 0.770245436
0.9225303796 0.2522779109 0.7777929756
0.9123830496 0.2524455079 1.0227815556
0.9425287671 0.9991444053 0.2875297276
0.9326925232 2.8681248139e-04 0.5359615485
0.942573208 1.0019791511 0.7840017343
0.9327258538 1.0005715983 1.0348731733
0.9426509795 0.2525057381 0.2866834995
0.932562904 0.2510962213 0.531289703
0.9425954284 0.2526975581 0.7845044715
0.9326628959 0.2513574369 1.0342806285
0.9626864011 0.0014156698 0.2871519803
0.9527020209 1.0008662024 0.5376910387
0.9725596791 0.9997532537 0.5353958534
0.9626345534 1.0019202303 0.7849664713
0.9526242494 1.0006239724 1.0374100058
0.9725707893 -1.7388281914e-04 1.0355675617
0.9626345534 0.2513011348 0.2834013568
0.9525205541 0.2520363356 0.5358791477
0.9725152382 0.2520553212 0.5351847593
0.9625197478 0.2510477753 0.7867200336
0.9525057405 0.2531348815 1.0343546966
0.9725300518 0.2510150415 1.036474896
0.9827662635 -6.5284357211e-04 0.2851141816
0.9925136257 1.0006959867 0.5359032199
0.9826625682 1.0013637559 0.7861645229
0.9924580747 2.0621335736e-05 1.0377433122
0.982377406 0.2494117407 0.2867659003
0.9924284474 0.2488140217 0.5372003375
0.982377406 0.2474175984 0.7883337924
0.9924914053 0.2490176259 1.0351694457
0.0123274356 0.7484232467 1.0326418717
0.0225597217 0.4990474468 0.7833545642
0.0025334845 0.4989499002 0.7845128042
0.0123728023 0.4982716561 1.0350953776
0.0224493972 0.7496540371 0.2819311049
0.0023777193 0.7494707279 0.2875417637
0.0124338714 0.7496082098 0.532627558
0.0224396573 0.7515264096 0.7811556675
0.0024315668 0.7521156178 0.7826342519
0.0225121329 0.4990579216 0.2813728166
0.0023770897 0.4992864035 0.2835624549
0.0124193911 0.5000864172 0.5343431605
0.0325913943 0.7489797211 1.0280403909
0.0425320743 0.4974015921 0.7777244626
0.0323462289 0.5000144029 1.0305216723
0.0425587388 0.7489404406 0.2758815927
0.0325776917 0.749091016 0.5288519365
0.0425587388 0.7499159074 0.7750413456
0.0426624341 0.4989551376 0.2777110748
0.0324428878 0.4991443388 0.5311619355
0.0724770672 0.7521418048 1.0216057245
0.0525653394 0.7483446857 1.0237074069
0.062456764 0.4987528428 0.7690288675
0.0724755859 0.5017440561 1.0186522589
0.0524401643 0.5006559851 1.0200965869
0.062489354 0.7511728848 0.2729957143
0.0724789189 0.7519192151 0.5173565671
0.0525420079 0.7505705831 0.5256105312
0.0624993532 0.7510943237 0.7711120328
0.0623949172 0.4993420509 0.2718050695
0.0724518841 0.5009964164 0.5179000418
0.0524046116 0.4999934532 0.5233051616
0.0925154515 0.7508848274 1.0142266898
0.1025146453 0.5009636827 0.7651458472
0.0824207099 0.5003908414 0.7658328289
0.0925395237 0.4992294467 1.0159580317
0.1024716858 0.7493921668 0.2668767632
0.0825029255 0.7500010152 0.2655592768
0.0924743437 0.749791519 0.5143975464
0.1025279776 0.7503087128 0.7657717227
0.0825455147 0.7505705831 0.7678937738
0.1024357628 0.4998199642 0.2655490925
0.082564402 0.4982644547 0.2634835183
0.0926369232 0.4983475985 0.5160918543
0.1123790351 0.7505967701 1.0132452875
0.1223926722 0.500581352 0.7662003918
0.11240607 0.4999443526 1.0185318983
0.1223030498 0.7514609421 0.2666554848
0.1123216323 0.751356194 0.5152771052
0.1224241511 0.7510354029 0.7662235381
0.1223574898 0.5010016538 0.2643982593
0.1124568066 0.5003437048 0.5169593769
0.1525420931 0.7509830288 1.0097455697
0.1323311301 0.749981375 1.0131156683
0.1423395824 0.5008078698 0.757048352
0.1525350566 0.5002507408 1.0095141069
0.1323155758 0.4988765765 1.0169116585
0.1425043839 0.7509633885 0.2623382403
0.1524383977 0.7509830288 0.5083535893
0.1323837184 0.7515198629 0.5128930381
0.1424940144 0.7505051155 0.761729456
0.1424721643 0.5001865826 0.2590301737
0.1525035777 0.5019509336 0.5097673642
0.132462601 0.5006271793 0.5142031177
0.1724641905 0.7487309443 1.0078475746
0.1624912909 0.5011947832 0.758374171
0.1725349255 0.501857315 1.0052644495
0.1624749959 0.7484036065 0.2563840907
0.172493077 0.7495296487 0.5055390014
0.1623994464 0.7514543953 0.7587074774
0.1624661077 0.4980582318 0.2591431275
0.1723119805 0.5027169042 0.5052260637
0.1923799921 0.7471269888 1.0057921847
0.2025454687 0.4986696989 0.7517534085
0.1824193137 0.501184963 0.7551077677
0.1924159151 0.4998088347 1.0020610041
0.2023454849 0.7493201525 0.2537852262
0.1823459863 0.7479125997 0.2553480631
0.1925229435 0.7496343968 0.5066148406
0.2024517726 0.7485345416 0.7560873183
0.1823930195 0.7516835318 0.7564882119
0.2024476988 0.4999142375 0.2515502212
0.1824211654 0.499927331 0.255467498
0.1924229516 0.5010435531 0.5040483809
0.2123743059 0.7496147566 1.0053940687
0.2225364495 0.4994075185 0.749970219
0.2124961479 0.498453656 1.0003666963
0.2224912679 0.7499617347 0.2567127679
0.2125654016 0.748874973 0.5058315704
0.2225127477 0.7499617347 0.7533032836
0.2225190435 0.4992170078 0.2495253845
0.212550588 0.4981714907 0.5032290025
0.2527210527 0.750249792 1.0001259749
0.2324441691 0.7528357611 1.0040886184
0.2425781668 0.4995508925 0.7513006673
0.2526269862 0.4988962167 1.001968419
0.2324871286 0.4996739715 1.0035238491
0.2426029797 0.7479649737 0.2526816115
0.252547363 0.7497129579 0.5048168374
0.2325000905 0.7495885695 0.5045298236
0.2426126085 0.74890116 0.7562873022
0.2425192827 0.497082765 0.251539111
0.2526040251 0.4995188133 0.5023781452
0.2326271173 0.4982742748 0.5037669221
0.2726157449 0.7499290009 0.9997000833
0.2625650738 0.4981642893 0.7508071885
0.2724879774 0.5003862587 1.0029127873
0.2625980341 0.7481679232 0.2521131388
0.2726746291 0.7505443961 0.4998940862
0.2625598891 0.7474019526 0.7523376207
0.2625524822 0.4988536628 0.2523973751
0.2725313073 0.4998481152 0.4998968638
0.2925300652 0.7496474903 0.9958578005
0.3024311187 0.4975292539 0.7402969248
0.2824164362 0.4969053479 0.7477916909
0.2925215473 0.4994782235 0.995450426
0.3024274153 0.7474608734 0.2418843339
0.2825242053 0.7489404406 0.249484647
0.2924819209 0.7487833184 0.496776745
0.3025537014 0.7493266992 0.7395377268
0.2824031039 0.7471008018 0.7511460501
0.302411861 0.496741679 0.243035167
0.2824797644 0.4975750812 0.24774775
0.2924915498 0.4986048861 0.4993459823
0.3324372178 0.7483512324 0.9840254213
0.312459199 0.7478209451 0.9900434545
0.3224269139 0.4984405624 0.7374906696
0.3325101749 0.4988111089 0.9855067833
0.3125232679 0.4979849081 0.9879788062
0.3224380241 0.7464199391 0.2305185836
0.3325198038 0.7508193599 0.4836685426
0.312508084 0.7487505846 0.4860757559
0.3225150549 0.7484232467 0.7363148385
0.3224454309 0.4977466062 0.2347089865
0.332413516 0.5012268623 0.4812224436
0.3125306747 0.499036972 0.4880635586
0.3524974522 0.7487440378 0.9847105512
0.3425227009 0.499277238 0.7360787464
0.352708176 0.4998847771 0.9848216534
0.3425038136 0.7489469873 0.2357246454
0.3524963412 0.7494969149 0.4865840483
0.3425012212 0.7515329564 0.7335641344
0.3425738079 0.4999797051 0.2328156207
0.3524681953 0.5017859554 0.4849591793
0.372489544 0.7491630303 0.9854512322
0.3825516956 0.4982284475 0.7311032217
0.3625162741 0.4981420303 0.7359620892
0.3724376963 0.5005276686 0.9857475046
0.3823702288 0.7495034617 0.230423221
0.3625755285 0.7498962671 0.236144056
0.3725969427 0.7489338938 0.484089805
0.3823961526 0.7479715205 0.7316781753
0.3624570196 0.7486916638 0.7346159014
0.3824813309 0.498817001 0.2332646585
0.362597749 0.4984065193 0.23269526
0.3725525019 0.5014841498 0.484743456
0.3925064485 0.7516638915 0.9808775269
0.4024352776 0.4995934464 0.7250416734
0.3924175668 0.5008373302 0.9780536805
0.4025871172 0.749817706 0.2246172076
0.392510152 0.751893028 0.4813872451
0.4024167606 0.7501843244 0.7270563258
0.4024612015 0.4996202881 0.2254245499
0.3923472021 0.500551237 0.4807909969
0.4327476484 0.7492939654 0.9641566529
0.4125566838 0.750924108 0.9728874304
0.4227447512 0.5011430638 0.7159951806
0.4326958007 0.5016144303 0.9650362116
0.4126714893 0.5027823718 0.9697950872
0.4226225388 0.7503807271 0.2192241239
0.4327291313 0.7500730296 0.4646265595
0.4124789123 0.7491630303 0.4699511301
0.4226484627 0.7531630989 0.7174543222
0.4227558614 0.50038364 0.2155040535
0.4327587586 0.500845841 0.463646083
0.4126196416 0.5013584521 0.4728897821
0.4525534588 0.7500206555 0.962388277
0.4427468421 0.499444835 0.7123056633
0.452509018 0.4989741232 0.9613976161
0.4426505536 0.7501908712 0.2119941513
0.452646044 0.7481941102 0.4606435473
0.4425431548 0.7528750416 0.7137722117
0.4427246217 0.4984922818 0.2120996984
0.4526682644 0.4994978637 0.4628230012
0.4726148043 0.749307059 0.957731245
0.4824695652 0.4994166839 0.7040452182
0.4626674582 0.4986664256 0.7102012033
0.4725444396 0.5009708841 0.958814491
0.4826028878 0.748848786 0.2093425133
0.4625637628 0.7488618795 0.2096943368
0.4726370247 0.7500533893 0.4596408503
0.4825991844 0.7503676336 0.7076671484
0.4625785764 0.7515067694 0.7119556915
0.4825510401 0.5006232513 0.2044540186
0.4625970935 0.49932372 0.207838005
0.4726555417 0.4993230653 0.4573826991
0.5123819682 0.7474674202 0.9553980998
0.4925020896 0.5004968989 0.9553425488
0.5024679528 0.7491302965 0.2045771568
0.4924946828 0.7486720235 0.4557282029
0.5024309187 0.7482464843 0.7051256866
0.4924280215 0.7491302965 0.9547314869
0.5025086902 0.5002389566 0.199825688
0.5124782567 0.4980667426 0.9556573382
0.4923872841 0.4994297775 0.4561448359
0.5024086983 0.5014134449 0.7033878638
0.5124634431 0.7508913742 0.4532200718
0.5124856636 0.4989243678 0.4538042839
0.5325729328 0.7498242528 0.9615457523
0.5223774586 0.5008877403 0.7050969852
0.5325581192 0.5003869133 0.9619809024
0.5224885607 0.7481024556 0.2073639691
0.5324951613 0.7508586404 0.4600510025
0.5224367131 0.499275274 0.207296382
0.5224737471 0.7478929594 0.7081458135
0.5325210851 0.5000491007 0.4587946223
0.552586134 0.7495361955 0.9633233867
0.5424758381 0.499303425 0.7120186494
0.5623853439 0.4998723382 0.7178959533
0.5525268795 0.5003849493 0.9626012228
0.5426610083 0.7501843244 0.21394492
0.5625631073 0.7497064112 0.2175288903
0.5524898454 0.7512776329 0.4680836881
0.5424276938 0.5006409275 0.2155975645
0.5623853439 0.5000124388 0.2169946741
0.542438804 0.74914339 0.7132055907
0.5524379978 0.5019090344 0.4651385552
0.562496446 0.7504003674 0.7164627355
0.57250675 0.7495165552 0.9708412991
0.5825392744 0.5006455103 0.7260036329
0.5726178522 0.5003941148 0.9723319197
0.5825281642 0.751408568 0.2228080942
0.5724845296 0.7487440378 0.4716287726
0.5826096391 0.5004838054 0.2275178997
0.5825207574 0.7519650424 0.7251212966
0.5725363772 0.5016537109 0.4710278952
0.5926236465 0.7514871291 0.9789610148
0.6124850081 0.7498831736 0.9839976457
0.6025598824 0.4999908345 0.7323984876
0.5925606886 0.5004281579 0.9782388508
0.6125442625 0.5016196677 0.9805997715
0.6025524756 0.7497195047 0.2285539272
0.5925940193 0.7509961223 0.4793920356
0.6124146434 0.7515198629 0.4800086525
0.6025858062 0.750033749 0.7309948971
0.6024710007 0.500623906 0.2303223032
0.5926384601 0.5027777891 0.479153166
0.6125035251 0.5018252359 0.4837611278
0.6324278445 0.7532023795 0.983840251
0.6225249393 0.4999220936 0.7340890921
0.6323722934 0.5009381503 0.9835532371
0.6224101337 0.7496474903 0.2329702378
0.6324833956 0.7504723817 0.482620479
0.6224619814 0.7506622377 0.7321623955
0.6224656848 0.4991011302 0.2323860257
0.6322760049 0.5017911928 0.4815094575
0.6525595546 0.7522334594 0.980553479
0.6424640723 0.5004504169 0.7327114254
0.662436536 0.4997060506 0.7344668394
0.6525003002 0.5023948038 0.9822570453
0.6424307417 0.7513431004 0.2333868709
0.6624846803 0.7530452573 0.233479456
0.6525225206 0.750033749 0.4843110834
0.6425233268 0.4993774034 0.2337553597
0.6423937076 0.7510812302 0.7331604632
0.6625031973 0.5027509474 0.2299954777
0.6524447491 0.5015123009 0.4843221936
0.6625994859 0.751814467 0.736019492
0.6724690604 0.7518013734 0.9868400091
0.6823682623 0.5015483081 0.7375156676
0.6725283149 0.5019862861 0.9872103496
0.6825312121 0.7499355477 0.2378300312
0.6724023992 0.7509175612 0.4847314199
0.682457144 0.5004137551 0.2378846564
0.682475661 0.7525084232 0.7343399977
0.6724616536 0.5025506166 0.4861007539
0.6924748548 0.7512448991 0.9898212502
0.7125917513 0.7499028139 0.9935061383
0.7025295996 0.5009512438 0.7466964089
0.6923970833 0.5019496243 0.9928024913
0.7125621241 0.5020831781 0.99909828
0.7025703371 0.7519192151 0.2433425497
0.6925304059 0.750439648 0.4883811256
0.7024592349 0.4988595549 0.2456581037
0.7126102683 0.7521876321 0.4937232875
0.6924156003 0.5022200053 0.4925409754
0.7124362083 0.4984084833 0.4965332461
0.7025110826 0.7499551879 0.7430698494
0.7325160707 0.7513300069 0.9961818485
0.7225650212 0.4996287989 0.7486240312
0.7423819419 0.4985845911 0.7452650428
0.7325160707 0.5014121355 0.9991075385
0.7226242757 0.7497587852 0.2460664041
0.7424411964 0.7488095054 0.2477144194
0.7224983599 0.4989963821 0.2474625878
0.7325012571 0.748010801 0.4984858664
0.7424597134 0.5014776031 0.2495818614
0.7326716137 0.5001099855 0.5023327785
0.7225465042 0.7483119519 0.7470482323
0.74245601 0.7494903682 0.7483953459
0.7523848391 0.7498766268 0.9967929103
0.7524811276 0.4985250156 0.4972442999
0.7624618044 0.4999711943 0.7488730852
0.7525181617 0.4993466336 0.9993575184
0.7623358886 0.7496278501 0.2470394738
0.7623247784 0.4999770863 0.2477310847
0.7522774403 0.7526000778 0.5002820179
0.7623136682 0.7502628855 0.7483657187
0.7723647096 0.7536213719 0.9982835309
0.7925223436 0.7497195047 1.003412747
0.7724647015 0.5000851078 0.4986497421
0.7923408767 0.4987777204 0.5020272476
0.7823231659 0.4992844394 0.7496285798
0.7724054471 0.500530942 1.0002093015
0.7924593857 0.5010887257 1.0037830875
0.7824898191 0.7505247558 0.2517242812
0.7824305647 0.5021401349 0.2520298122
0.7724128539 0.7493921668 0.5010051078
0.7924927163 0.7484625273 0.5057000996
0.7824379715 0.7488422392 0.7513821422
0.8125133243 0.7521352581 1.0059218039
0.8124318494 0.4977898148 0.5064555942
0.8023363671 0.4990657778 0.7534819729
0.8124355528 0.5009715388 1.0066254509
0.8023882147 0.750033749 0.2568729402
0.8024252488 0.4987672456 0.2519057481
0.8124133323 0.7504527415 0.5070323995
0.8025770884 0.7517882799 0.7580714176
0.8323339484 0.7490713757 1.0086160311
0.8323376518 0.4989197851 0.5095803423
0.822301424 0.4985832818 0.757658488
0.8423035149 0.4980929296 0.7582936219
0.8323561688 0.4975862106 1.0103566315
0.8225125181 0.751382381 0.2615003449
0.842340549 0.7501908712 0.2606494875
0.8222051354 0.5001787265 0.2590635043
0.8323598722 0.7521679918 0.5095331238
0.8423923966 0.4979547931 0.261698477
0.8223791955 0.7504134609 0.7582815859
0.8423664728 0.7501123101 0.7625645739
0.8623944876 0.7495689293 0.7626562331
0.8524693619 0.7511532445 1.0145970304
0.8523138189 0.5001322445 0.5146104922
0.8624796659 0.5005702225 0.7623442213
0.8522582678 0.4993080078 1.0110417615
0.8624055978 0.7501057633 0.2626437712
0.8623722671 0.4983286129 0.2611531506
0.8524841755 0.7497522385 0.511829235
0.8825706386 0.7487636781 0.767120688
0.8725936652 0.7482072038 1.0157543444
0.8925587221 0.7482595778 1.0184856057
0.8723529439 0.500530942 0.5112533555
0.892347628 0.5017925021 0.5163538702
0.8823262138 0.497639894 0.7598194248
0.872408495 0.5002350286 1.0135508184
0.8924587302 0.5001243884 1.0190133409
0.8825261977 0.7505967701 0.2642982674
0.8823410274 0.4987561161 0.2633603801
0.8725492244 0.7500664828 0.5136855668
0.8925253915 0.749981375 0.5174435971
0.9024838478 0.7494510876 0.7703250592
0.9224377944 0.7490648289 0.7807492187
0.9123386087 0.7492284979 1.0254665243
0.9123608292 0.4995777342 0.5247106038