POSCAR file written by Ovito 3.7.11
1
269.9756515462 0.0 0.0
0.0 15.2721291171 0.0
0.0 0.0 10.7990260618
Sr Ti O 
800 800 2400 
Direct
0.0123986246 0.2501121179 0.5067187576
0.0223372245 -7.4720697862e-04 0.2591593958
0.0024775447 0.9996814748 0.260847511
0.0224111942 0.251735991 0.7578830742
0.0024627286 0.2519710598 0.7654791296
0.0124546296 -0.0010901192 0.5146768827
0.0123648437 0.2506916049 1.0085732739
0.0224418636 -3.1910687876e-04 0.7578932603
0.002442912 0.0013598339 0.7595906356
0.0123928092 -0.0020338645 1.0148979183
0.0223744872 0.2508775646 0.2604215467
0.0024089089 0.2509528651 0.2637681448
0.0323104202 0.2513588334 0.5047074652
0.0423861436 1.0023333643 0.2587649158
0.0422605768 0.2511276934 0.7578451078
0.032334126 -2.1957917124e-04 0.5106422596
0.0322974561 0.2507361304 1.0103604721
0.0423428064 1.0012660606 0.7577376907
0.0323241251 0.0015201913 1.0071286992
0.0424417042 0.2529630629 0.2603187597
0.07246293 0.2496753746 0.509400481
0.0525215021 0.2524582217 0.507148426
0.0624953645 1.0010106935 0.2579250253
0.062431655 0.2505704692 0.7619695538
0.0723373631 1.0002904272 0.5074956796
0.0523907496 2.2620019245e-04 0.5121896214
0.0725773848 0.2516069979 1.0109160777
0.0523744518 0.2516901559 1.0078232062
0.0624116532 1.0008993796 0.7595850795
0.0724540403 0.0014447598 1.0095733641
0.0523144464 1.0005196028 1.0091659199
0.0624405447 0.2505351107 0.2593547838
0.0924506584 0.2498534768 0.5037518234
0.1024326697 0.9989612085 0.2510623694
0.082438274 0.9996356396 0.2559155848
0.1023748867 0.2492294643 0.7535187917
0.0824971682 0.2494664974 0.7587905634
0.0924369535 -2.7634925178e-04 0.5049584137
0.0924110252 0.2486873002 1.004758115
0.1023948885 -5.0297122266e-04 0.7518862371
0.0824586462 1.0010499807 0.7556717637
0.0925584459 0.999773145 1.0046284737
0.1023822948 0.2499222295 0.2538570658
0.0825156884 0.2493853037 0.2573407133
0.1124287563 0.2493944708 0.5006719161
0.1223574295 8.1367558185e-04 0.2468795848
0.1221774133 0.2491731526 0.7529761502
0.1123576388 0.9997927886 0.4993403145
0.1122868917 0.2482865702 1.0035543028
0.1224448448 0.9995243258 0.750598158
0.1123913456 -9.3310116391e-04 1.0027764548
0.1222011191 0.2506771996 0.2516790916
0.1524586625 0.2488719503 0.499786651
0.1322120219 0.2491122573 0.5025609753
0.1422492233 -6.9881817871e-04 0.2467934659
0.142235148 0.2513437733 0.7492146999
0.1524686634 0.9984373784 0.4973493942
0.1321786855 -0.0018188323 0.4983485584
0.1522404947 0.250022412 0.9977760039
0.132284621 0.2490644578 0.9988223945
0.1424059041 8.8170977018e-05 0.7452736037
0.1521745628 0.9993802725 0.9947849934
0.1323942605 -0.0013905357 0.9947757333
0.1422510753 0.2490991616 0.2473555536
0.1725389919 0.2500446748 0.4969086137
0.1624110415 -4.1385463717e-04 0.2432449977
0.1624406738 0.2497879981 0.7469793131
0.1725375103 -0.0016020321 0.4953343977
0.1725149156 0.2515978309 0.9978686048
0.162405115 0.9996029003 0.7455764088
0.1724063873 -9.368989317e-04 0.9992205786
0.1623984478 0.249236667 0.2483491617
0.1925459813 0.2506588655 0.499292162
0.2025561432 3.5414567962e-04 0.2527856729
0.1825713781 6.9601025921e-04 0.2507966047
0.2026142966 0.2492111302 0.7457032721
0.1823687672 0.2517425389 0.7469996853
0.1925441293 -8.5040149641e-04 0.5003385527
0.1926596952 0.2485609262 0.9995909824
0.2025928132 1.0004934113 0.7496786306
0.1825184103 1.001089268 0.7487618813
0.192621914 -1.6424962331e-04 0.998470511
0.202551328 0.2502404563 0.251817067
0.1826569413 0.2494547112 0.2470610826
0.2125722317 0.2491600568 0.4959242657
0.2225360932 1.0000939909 0.2503928645
0.2224912743 0.2492274999 0.7508213262
0.2125492666 1.0004999592 0.5009858332
0.2125800102 0.2498063321 1.0018504454
0.2225301667 1.0002576878 0.7535243478
0.2124596289 1.0000416079 1.002693114
0.222534982 0.2482400803 0.249257577
0.2525910257 0.2504427856 0.5001876131
0.2324025385 0.2497068044 0.5031138029
0.2424293686 0.999301698 0.2505512122
0.2424812251 0.2483369889 0.7506694607
0.2524106391 0.2496825773 1.001026297
0.2525791728 -4.5432050773e-04 0.501357163
0.2324695816 -6.3995277801e-04 0.5011099185
0.2325481072 0.2512926999 0.9986186725
0.2424345543 0.9992100277 0.7498082719
0.2523910077 5.5202247707e-04 1.0022949299
0.2325177341 4.6513216926e-04 0.9979889861
0.2424197381 0.247479872 0.2510021787
0.2725787541 0.2507813108 0.5011469589
0.2625148836 0.9998713632 0.2465962259
0.2626182263 0.249171843 0.7529354058
0.2726687623 0.2497519848 1.0020634276
0.2725394913 5.8181531057e-04 0.497227161
0.2625911868 0.9979135484 0.7499388393
0.2726117201 -0.0011224002 0.9999613862
0.2625915572 0.2496170985 0.2515327822
0.2925631489 0.2511898982 0.5000070413
0.3026425764 -2.3861410758e-06 0.2456442882
0.2826359574 0.9990332351 0.2473361074
0.3025581243 0.250580291 0.7479812553
0.2826059547 0.2488045072 0.7483220268
0.2927198297 0.2516692027 1.0013318801
0.2925950036 -4.4908220733e-04 0.4999866691
0.3025470122 9.7501523404e-04 0.7460662678
0.282575952 0.999354081 0.7459690368
0.2926368593 6.6235417916e-04 0.997692663
0.3026748015 0.2502142648 0.2495307498
0.2826581816 0.2484070511 0.2519291142
0.3326256506 0.2508317294 0.4981689126
0.3125268011 0.2506189235 0.4990041731
0.3226925326 -5.8364104875e-04 0.2465999299
0.3226110438 0.2498109156 0.7496258481
0.3325726829 0.2494809027 0.9964518104
0.3125519885 0.2496511475 0.9978037842
0.3326256506 2.6116584759e-04 0.4975633024
0.3126905195 2.5900504868e-04 0.4960900214
0.3225232581 -0.0017684791 0.7473450868
0.3325700901 -0.0010383255 0.9980538067
0.312719411 0.9997600493 0.9976093222
0.3225469639 0.2507688698 0.2481685899
0.3525911548 0.250161227 0.4931240132
0.3425295067 4.5544307547e-05 0.2451757274
0.3426039579 0.2496275751 0.7481562711
0.3526126382 0.2502476589 0.9968592546
0.3527604293 -0.0015945021 0.493404594
0.3425461749 0.9988237031 0.7466598399
0.3525870804 -0.0011987485 0.9972759588
0.3425784 0.2506424958 0.2482417446
0.3726270357 0.2483867527 0.4934536725
0.3824464397 0.2483029399 0.742551136
0.3825353366 0.998509405 0.2400669334
0.3625372369 0.9999695813 0.2449821914
0.3626076136 0.2488922487 0.7439466322
0.3727085245 0.2492654776 0.9935256206
0.3725122105 3.6835633138e-05 0.4960890954
0.3823649509 -0.0010990898 0.7434669593
0.3626594702 0.9996029003 0.7451439624
0.3726974124 -8.2335700868e-05 0.9950627963
0.3826279376 0.2470765228 0.2410540594
0.3626150217 0.2486119996 0.2473703698
0.3925362385 0.2489727876 0.4876753737
0.4026186292 0.2478891142 0.738039618
0.4024852839 0.9991118096 0.2415485484
0.392488086 1.0004344804 0.4930249302
0.3924806779 0.2474399299 0.9876639809
0.4025556606 -8.4175830076e-04 0.7392554684
0.3925066062 1.0005850816 0.9929514947
0.4024074991 0.2492589297 0.2397456081
0.4325991106 0.2489649301 0.4811877516
0.4125898988 0.247572197 0.4855048075
0.4226167289 0.9990987138 0.2354498503
0.422524128 0.2494750096 0.7371839853
0.4324620612 0.9975468674 0.4866595413
0.4325805904 0.2473685581 0.9826450098
0.412608419 -4.6748173748e-04 0.4912599562
0.4125824907 0.2479493546 0.9868213123
0.422527832 0.9982867773 0.7345281903
0.432632447 0.9989153733 0.9882844072
0.4125047059 -0.0024600003 0.9895993406
0.4225870966 0.2491869031 0.2364388284
0.4526305467 0.2484686012 0.4826360303
0.4425851963 0.2491672595 0.7334558713
0.4426333488 0.998882634 0.2313828169
0.4525749861 -0.0014526096 0.4843769281
0.45256017 0.2483906814 0.9828394717
0.4425926044 -0.0012488397 0.7336605194
0.4524490488 0.9995767088 0.9833209966
0.4424888914 0.2510569763 0.2337228427
0.4725582697 0.2500119354 0.4842611769
0.4825739877 0.2497454369 0.7345346723
0.4825369473 -5.3197654916e-05 0.2296900716
0.4625499597 0.2497991295 0.7333003018
0.462579592 -3.6022753687e-04 0.2320208374
0.4726397585 0.2481706728 0.9805800087
0.4725767899 0.9987123892 0.4840102283
0.4825258352 0.9991903841 0.7312269666
0.4625462557 -0.0010856667 0.7334327211
0.4725804939 -7.9225636202e-04 0.9843303469
0.4825517635 0.2498443098 0.2374685509
0.4624721749 0.2497755571 0.2295715424
0.512450756 8.1727691337e-04 0.4837222394
0.5122803703 9.8424773849e-04 0.984043284
0.5124803883 0.2504421308 0.4818794806
0.492523033 0.2490795179 0.4795366768
0.5025054147 0.2508382773 0.734402253
0.5023831815 5.0108000572e-04 0.2286575711
0.4924859927 -0.0011661401 0.483982448
0.492523033 0.250654282 0.9814689778
0.5124729803 0.2503740329 0.9829228126
0.5023794774 -2.3850253142e-04 0.7283461513
0.4923526473 -9.3729180423e-04 0.9851081948
0.502527639 0.2507400592 0.2346895966
0.5222294156 1.0001005388 0.2297150739
0.5323969992 0.001427277 0.48103033
0.5224146175 1.0005719858 0.7323770704
0.53247108 0.9999761292 0.9815152782
0.5223294247 0.2509011369 0.2332663201
0.5323414387 0.2510884062 0.4836564927
0.5224183216 0.249708114 0.7351347264
0.5323821831 0.2497231741 0.9808763317
0.5424016051 -8.648068225e-04 0.2289557462
0.5624552654 0.002720155 0.2320338015
0.5524099151 0.0019435115 0.4834444366
0.5423015961 0.9999368419 0.7299388875
0.5622885837 1.0009517626 0.7320094446
0.552502516 0.0020775465 0.9819134623
0.5424127172 0.2507060102 0.2320504697
0.562418225 0.2526631702 0.2356832047
0.5523654666 0.2510609051 0.4828675327
0.5424460536 0.251051738 0.7359023883
0.5625923148 0.2508926247 0.7350310134
0.5524247312 0.2507132129 0.9829505929
0.5824570692 0.0019917693 0.2377833941
0.5723894946 0.0011609749 0.4836240824
0.5824163248 1.0017898907 0.7348606277
0.5725635844 0.0017413131 0.9838951225
0.5824459571 0.252506676 0.2365267993
0.5724043108 0.2512193637 0.4814072158
0.5824089167 0.2518198038 0.736369097
0.5723228219 0.2509941167 0.9844044277
0.6023625679 1.0011547467 0.2422347214
0.5923801863 1.0018357258 0.4895477647
0.612385694 0.001986793 0.49045618
0.6024070164 0.0013245408 0.7379247929
0.5925468679 5.1175480472e-05 0.9877843621
0.6123597658 1.4225642861e-04 0.9931552168
0.6024959133 0.2491345201 0.2393983545
0.5925024195 0.2505855293 0.4894903521
0.6124671829 0.2502738504 0.4955297857
0.6024922093 0.2516986681 0.7412649089
0.5924727872 0.2506988076 0.9848859526
0.61238199 0.2513332967 0.9932848581
0.6224088201 6.1357250672e-04 0.2441923054
0.632313417 -0.0011399486 0.4971660443
0.6222532506 0.0013937519 0.7449522785
0.6323467534 1.00003506 0.993858984
0.6224162282 0.2503930218 0.2458656044
0.6323837938 0.250457191 0.4969206518
0.6224680847 0.2514852074 0.7448939399
0.6322948969 0.2512933547 0.9966925729
0.6422402382 1.0018357258 0.2453859315
0.6624272438 2.1271156893e-04 0.246802726
0.6523485571 0.0011870354 0.4964131987
0.6423698795 8.2179494746e-04 0.7465413106
0.6623568671 1.0001529218 0.7481146007
0.65243375 1.0004279326 0.9964795907
0.6423439512 0.2520502891 0.247690769
0.6625161407 0.252266369 0.2488223525
0.6524115258 0.2514393723 0.4982670696
0.6423624714 0.2501834898 0.7463431446
0.6624124276 0.2513149626 0.7480238517
0.6524263419 0.2501618818 0.9999891664
0.6824179354 1.0005981773 0.2491862742
0.672457778 1.0019208482 0.4996699738
0.6825253525 0.0022050336 0.7487591032
0.672461482 1.3603594689e-04 0.9976463626
0.6824957202 0.2510065577 0.2498381849
0.6725133385 0.25056785 0.4996921981
0.6824586799 0.2512809137 0.7497619715
0.6724466659 0.2509089944 0.9995354218
0.7026345734 0.0012828309 0.2498252208
0.6925410706 1.0004606719 0.4995032921
0.712513242 0.9976909206 0.5010015754
0.7025197482 1.0012529649 0.7503814718
0.6924299494 1.0011547467 0.9982945692
0.7125947308 4.4954822558e-04 1.0005447721
0.702497524 0.2489989791 0.2498668912
0.6925929271 0.2500152094 0.5000718619
0.7125910268 0.2489479057 0.5003228105
0.702693838 0.249569299 0.7523455378
0.6926299675 0.2490212419 1.0000817674
0.7125613945 0.2511872791 0.9990909373
0.7225956327 -8.6205671479e-04 0.2499900504
0.7425307638 1.0006309167 0.2500909855
0.7325150458 -7.0700302308e-04 0.5007117345
0.7225734085 1.0000154164 0.7527252016
0.7426270688 -4.0861633678e-04 0.749722153
0.7326224629 0.9990790702 1.0020171271
0.722621561 0.2508166693 0.2475351994
0.742552988 0.2497971651 0.2454007477
0.7325483821 0.2494357224 0.4988134151
0.72252896 0.2493820298 0.7475775152
0.7425381719 0.2480717999 0.745688456
0.7326113507 0.2504257612 1.0002854895
0.7625547918 -9.0108205274e-04 0.2520531995
0.7526687151 -2.4583439003e-05 0.5021276029
0.7624140383 4.6061413517e-04 0.7506518665
0.7524946253 0.9990135915 0.9998132246
0.7623436616 0.250004078 0.2484445407
0.7525575939 0.2497611518 0.5002302096
0.7624288545 0.2500197929 0.7480275558
0.7524501768 0.2486545608 0.9987575739
0.7823676896 -1.4866567963e-04 0.2506688154
0.7724667967 1.0008011615 0.4998394336
0.7925463853 0.9989546606 0.5001459427
0.7825417794 -4.1673570239e-04 0.7498869827
0.772592734 1.001403566 1.0019708266
0.7924389682 -2.2193640642e-04 0.9977297034
0.7824676986 0.2508160145 0.2491112675
0.7724371644 0.249822047 0.4988384174
0.7924871207 0.2506287453 0.5010228736
0.7824676986 0.2493479808 0.7495832516
0.7725112452 0.2501959307 1.0008225749
0.792424152 0.2483782405 0.9982945692
0.8024065337 0.9974879365 0.2502622972
0.8126222698 -9.4056398004e-05 0.5004024473
0.8025806235 -4.8516100131e-04 0.7492637784
0.8125741173 0.9983980912 1.0002947495
0.8024880226 0.2486912289 0.2486890072
0.8126000456 0.2495378692 0.4973743965
0.8023806055 0.2496151342 0.7479034705
0.8125518931 0.2490173131 0.9965166311
0.8225935394 1.0006047252 0.2495603821
0.8425694148 0.9996618311 0.2518828137
0.8326018493 -5.062451604e-04 0.5011136226
0.8226046515 -7.357481965e-04 0.7511528376
0.8426249754 0.0015229415 0.7493156349
0.8326240735 6.9450424784e-04 0.9984056903
0.8225898353 0.2506516629 0.2487316036
0.8426397916 0.2501789062 0.2465925218
0.8326537058 0.25143086 0.4968456451
0.8227194766 0.249791272 0.7486507601
0.8425768229 0.2499818152 0.7450735857
0.8326092574 0.2485537235 1.0007114538
0.8626230751 -0.0011529788 0.2493325837
0.8526221733 0.998509405 0.5006756201
0.8624860257 0.9985683359 0.7452689737
0.8525703167 3.1531677793e-04 0.9978593447
0.8626971559 0.2493964351 0.252696776
0.8526481015 0.2493479808 0.49693732
0.8626860438 0.2488595093 0.7475117685
0.85269255 0.2496164437 0.9988594349
0.8825211658 0.99824749 0.248276007
0.8725758245 9.1169727801e-04 0.4972984637
0.8924924354 -2.3319875227e-04 0.4996107092
0.8825952466 0.999144549 0.7484248138
0.8725350801 -0.0015918174 0.9973407795
0.8924479869 -0.0020267273 1.0002484491
0.8826508071 0.2488431396 0.2493233236
0.8726313851 0.2489819546 0.4993551306
0.8926183727 0.2512501387 0.50301935
0.8825989506 0.2473521884 0.7482525761
0.8726017528 0.2495437623 0.9982667889
0.8925961485 0.2488804625 1.0025079121
0.9023822161 -1.3262338467e-04 0.251522596
0.922591446 0.0017447835 0.2597214836
0.9123608938 2.9325043752e-04 0.5043852139
0.9023859202 1.0004148368 0.7519343896
0.9224469885 1.0010630765 0.756682966
0.9124979432 1.0008142572 1.0074435424
0.9025563059 0.2506902953 0.2527560406
0.922587742 0.2502555164 0.2581194872
0.9124609028 0.2492739899 0.5080216529
0.9025896423 0.2508382773 0.7562477415
0.9225358854 0.2495129873 0.7604629365
0.9125164634 0.2500512227 1.0044710521
0.9424117519 0.9999237462 0.2603863583
0.9324960429 -3.6697008669e-05 0.5107228224
0.9425525053 1.0009255711 0.7609259412
0.9324515944 1.0002576878 1.0064341921
0.9425043529 0.2502384919 0.2649358427
0.9325664196 0.2491829744 0.5114571479
0.9426006578 0.2503943313 0.7622584687
0.9324515944 0.2508900055 1.0112679613
0.9624654122 -6.1402319105e-04 0.2634616357
0.9524830305 1.0016000023 0.5096236492
0.972562619 1.0022285983 0.5139916357
0.9624209637 0.9990004957 0.7624112603
0.9525682234 0.9998189801 1.0138144873
0.9725181706 0.0022195699 1.011730966
0.9625024526 0.2498921093 0.2645496968
0.9525015507 0.2499674099 0.5128304199
0.972562619 0.2498259758 0.5137388352
0.9625320849 0.2493492904 0.7652152169
0.9524052457 0.2496092411 1.0117402261
0.9725292827 0.2495398336 1.0141756309
0.9825968573 2.1526524037e-04 0.2619605744
0.9925199743 1.0004737677 0.5139527433
0.9825598169 1.0000939909 0.7617019371
0.9925940551 6.3590076216e-04 1.0152498019
0.9825968573 0.2507760725 0.2663924555
0.9924347815 0.2502830175 0.5103487146
0.9825524088 0.2504198681 0.7662523474
0.9924533017 0.2518734964 1.0113883426
0.0123300258 0.7494544127 1.0087399556
0.0223141854 0.5026158763 0.7564338694
0.0024641731 0.501648755 0.7614630266
0.0123345818 0.4993943215 1.0125180741
0.022239475 0.747758513 0.2614049687
0.0024643954 0.7498931204 0.2654034774
0.0124371095 0.7494937 0.5080799915
0.0223355207 0.7520211799 0.7612537485
0.0024524684 0.7505217164 0.7655717305
0.0221984713 0.5004229928 0.2585954561
0.0023856846 0.5009703951 0.258290799
0.0124028472 0.5009638473 0.5099838669
0.0323556095 0.7511699561 1.0107771763
0.0422694665 0.5008571169 0.7588285298
0.032324866 0.5012833836 1.0098419068
0.0422342781 0.7510913816 0.2626523034
0.0323374597 0.7502859929 0.5076253209
0.0422498351 0.7499389555 0.7619019551
0.0424261473 0.5019093605 0.2554729523
0.0323233843 0.5006711572 0.5070021165
0.0725292323 0.7511634082 1.0099715481
0.052340745 0.7503449238 1.0103789923
0.0625316641 0.5004753758 0.7581840272
0.0725955346 0.5016173252 1.0074805827
0.0523907496 0.5022956851 1.0093789021
0.0624642506 0.7505544558 0.2615420181
0.0724721901 0.7499258598 0.5087689425
0.0524766832 0.7514580626 0.5109682149
0.0624498048 0.7505937431 0.7629890902
0.0626013 0.5016166705 0.2561554212
0.0724432986 0.4992712215 0.5072771413
0.052458163 0.5030565483 0.5095403084
0.0925173311 0.7501812269 1.003869146
0.1026482447 0.4998716616 0.7502370143
0.0826445889 0.4988718011 0.7550578194
0.092546593 0.5012971341 1.0009522162
0.1024348921 0.7488912954 0.2483056393
0.0825279118 0.748649024 0.254754369
0.0925306656 0.7505610037 0.5037203391
0.1024737845 0.7497490671 0.7495350991
0.0825579145 0.7484525878 0.7567616768
0.1025452725 0.4999292829 0.2513799906
0.0825627297 0.4981829646 0.2555340689
0.0925414074 0.5000006548 0.5016155197
0.1124450541 0.7492776201 0.9999706462
0.1223555775 0.5002671533 0.7505222252
0.1123806039 0.4993700944 1.0006836735
0.1224352143 0.7491335668 0.2445543751
0.1124594999 0.7492645243 0.4973697664
0.1223440949 0.7487275985 0.7474830622
0.1223589111 0.5017561402 0.2481028432
0.1124846873 0.5002625698 0.4970419591
0.1523849522 0.7493692903 0.9943127286
0.1324524139 0.7483543696 0.9950164958
0.1422629283 0.499916842 0.7497916038
0.1522464212 0.4992895555 0.9952850385
0.1324012982 0.4997066552 0.9948683343
0.1423221929 0.7512354349 0.2439293187
0.1525082966 0.7505151686 0.4955251556
0.1322520255 0.7496050139 0.4977670245
0.1424029409 0.7498996683 0.7427418939
0.142300339 0.5003365608 0.2491538639
0.1523397629 0.4996136753 0.4997023842
0.1322553591 0.4994604551 0.4987143321
0.1725964045 0.7486948592 0.9959147249
0.1624932711 0.5000484543 0.7491859936
0.1726004789 0.4984088663 0.9971185372
0.1624028926 0.7501615833 0.2459970978
0.1724645407 0.7512092434 0.4976994258
0.1624195608 0.7499455034 0.74569679
0.1625717967 0.4998480893 0.2504919475
0.1725123228 0.4989418633 0.5001848351
0.1927074773 0.7488061731 1.0002669693
0.2026680052 0.4995475418 0.7447291102
0.1825961951 0.4996313546 0.7486989126
0.1927034029 0.4975118073 0.9956369221
0.2025694778 0.7512354349 0.2509466182
0.1826173081 0.7496443011 0.2487241955
0.1925359804 0.7508294666 0.502234094
0.202607259 0.7507639878 0.747556217
0.1825232256 0.7490091572 0.7484053676
0.2026150374 0.5014025549 0.2491751621
0.1826195306 0.4977841989 0.2509679164
0.1925841329 0.4998029089 0.4997570187
0.2125292648 0.7498014501 1.0012300191
0.2225638735 0.4989601974 0.7499851397
0.2125003733 0.4998939244 0.9997947045
0.2224953488 0.749336551 0.2457804116
0.2126903905 0.7503580195 0.4973864346
0.2224108967 0.749703232 0.7511204273
0.2226209156 0.4995678402 0.2461258131
0.2125829734 0.4994375375 0.4981976188
0.2524373082 0.7501288439 0.9994335608
0.232708492 0.7484067526 0.9968777747
0.2425623436 0.4988305494 0.7462736939
0.2524506427 0.5001918528 0.9999706462
0.2325695906 0.5018412626 0.9914420994
0.2424467776 0.7476602948 0.2498178127
0.2524895351 0.7497949023 0.4999051802
0.2323880927 0.7480924546 0.5001524248
0.2424145525 0.7478567311 0.7452319333
0.2425671588 0.4973697184 0.2458869026
0.2526276957 0.5016205992 0.4972966117
0.2325258829 0.4990400815 0.4953038394
0.2725772725 0.7499389555 0.9978223044
0.2625763706 0.4997066552 0.7502481264
0.272660243 0.5002173895 0.999655803
0.2625359966 0.748491875 0.2506725194
0.272625425 0.7510979295 0.4991893749
0.2626834173 0.74875379 0.7490896886
0.2625189581 0.499482063 0.2495751982
0.2726109793 0.5018812046 0.4982068789
0.2926587131 0.7514777063 0.996016586
0.3026636894 0.501238858 0.749909207
0.2825959538 0.5001322671 0.7491369151
0.292647601 0.5005159726 0.9951739174
0.3027066562 0.7500764609 0.2494409268
0.2827118902 0.7491597583 0.2473435155
0.2926287104 0.7504431419 0.4963354139
0.3026303531 0.7520408235 0.7486878005
0.2825674327 0.7485835453 0.7470395037
0.3026129441 0.5008695579 0.2506539992
0.2826329942 0.5000327394 0.2482389666
0.2926561203 0.4999122585 0.497823511
0.3327052874 0.7496181096 0.9952757784
0.312633107 0.750914589 0.9946183117
0.3226058581 0.4996673679 0.7482766523
0.3325293456 0.4987617967 0.9995632021
0.3124434602 0.499864459 1.0012577994
0.3226532698 0.7495067957 0.2473777778
0.3325315681 0.7507377963 0.4982726256
0.3126082899 0.7517920043 0.4972762395
0.3226436393 0.7497490671 0.7489517132
0.3225051083 0.5004851976 0.2495131556
0.3326008336 0.4998140403 0.4997514627
0.3125605078 0.4994702769 0.4997264604
0.3525670786 0.7497490671 0.998868695
0.3425865489 0.4990688921 0.7458190233
0.3525967109 0.498434403 0.9981186274
0.3426284045 0.7491073753 0.2472536926
0.3525852283 0.7501419397 0.4930851208
0.3426950772 0.7485900932 0.7457736488
0.3425335811 0.4992784241 0.2420717438
0.3525870804 0.4988587053 0.4947686059
0.3726048115 0.7487603379 0.9893678382
0.3825464487 0.4976381813 0.7406694848
0.3625853894 0.4996379025 0.7431002596
0.3726381478 0.498653102 0.9896549012
0.3826909062 0.7482365079 0.2398409871
0.3625965015 0.7484329442 0.2478324485
0.3724714661 0.7484984229 0.4929221431
0.3825316326 0.7491008275 0.7442272131
0.362644654 0.7484525878 0.7435919706
0.3827094264 0.4985555387 0.2383778921
0.3626224298 0.4993209853 0.2447321689
0.3725936994 0.4982595747 0.4930517844
0.3925029022 0.7483412739 0.9877565818
0.4024926919 0.4976552058 0.7345531925
0.3924177093 0.4999836303 0.9900530852
0.4024371314 0.748544258 0.2387103295
0.3925288304 0.74822996 0.4872938578
0.4026075171 0.7485115187 0.7369663731
0.4024889879 0.4993458672 0.2388446009
0.3924510456 0.5001748283 0.4895811011
0.4326731914 0.7493300031 0.9804966679
0.4126047149 0.7492121413 0.9862379264
0.4226019128 0.5005938923 0.7352921481
0.4324620612 0.5003136432 0.9857656615
0.4124676655 0.4981390938 0.9879140034
0.4225870966 0.7485115187 0.2341904775
0.4326731914 0.7487734337 0.4825258352
0.4126232351 0.7481972206 0.4853205317
0.4226389532 0.749598466 0.734205013
0.422724146 0.4988004292 0.2351090788
0.432443541 0.5002750108 0.4830666247
0.4126380513 0.4992273507 0.4893431166
0.4525194255 0.7486621198 0.9799873627
0.442555564 0.4981030805 0.73214742
0.4524231206 0.4992463395 0.9836821403
0.4425296358 0.7488258167 0.2344136458
0.4526527709 0.7481513855 0.4805006526
0.4425037075 0.7494216733 0.7309297176
0.4424962994 0.4985437525 0.2341015806
0.452563874 0.5001224453 0.4854835093
0.4724582606 0.7487668858 0.9813300764
0.4825628756 0.5003555496 0.7333586404
0.4625129193 0.4988037031 0.7324733753
0.4725434535 0.4984972626 0.9851174549
0.4825295392 0.7494282212 0.2333496609
0.4625721839 0.7487275985 0.2323051223
0.4724804849 0.7498669289 0.4832823849
0.4824517544 0.7483085345 0.7328826715
0.4624981032 0.7503645674 0.7344476274
0.4825221312 0.5006135359 0.2309855588
0.4625721839 0.4985601222 0.2327616449
0.4725619737 0.4982209422 0.4830536606
0.5123174107 0.7485639017 0.979524358
0.4923748715 0.4991337161 0.9847655714
0.5024831905 0.7505086207 0.2366332904
0.4925600734 0.748439492 0.4800052375
0.5024091097 0.7499978864 0.7340299972
0.4923970958 0.7491008275 0.9800799636
0.5024017017 0.4988999569 0.2289464861
0.5123248188 0.4997819557 0.9834321178
0.4924748805 0.498203263 0.4831694118
0.5024980067 0.4999679154 0.7300676028
0.5124359399 0.7505479079 0.4810710744
0.5124581641 0.5006187742 0.4865984247
0.5323081023 0.7505217164 0.9811356144
0.5224146175 0.4993183662 0.7323724403
0.5324303356 0.5027212971 0.9833950774
0.5223183126 0.7512550785 0.2303586505
0.5322377256 0.7495198915 0.4815442652
0.5223034964 0.5000202984 0.2316291354
0.5223109045 0.7514449669 0.7335938468
0.5323969992 0.5009592638 0.4815664894
0.5525210362 0.7501419397 0.9786631692
0.5423164123 0.5006777051 0.7323298439
0.5623552564 0.5027101657 0.732150198
0.5524247312 0.5027874306 0.9840618042
0.5425164303 0.7506788654 0.2301345562
0.5624848977 0.7529902655 0.2353313211
0.5523469464 0.7518051 0.4823517454
0.5423534526 0.5000746458 0.2322625259
0.5625182341 0.5017639977 0.2311281643
0.5423941971 0.7515693765 0.7340235151
0.5524432514 0.5037584805 0.4828721627
0.5623885927 0.75254501 0.7344865198
0.572422831 0.7518836745 0.9835432389
0.5824348449 0.5020468659 0.7333132659
0.5724709834 0.5024240235 0.9840247638
0.5823718763 0.7516872383 0.2343525291
0.5724820956 0.7517199776 0.4835407415
0.5825200378 0.5011183771 0.2353665095
0.5825015176 0.7510324507 0.7361866732
0.5723783825 0.502946544 0.4835425936
0.5925209397 0.7507247006 0.9869324334
0.6124375506 0.7500830088 0.9946646122
0.6024292406 0.4995226599 0.7386618964
0.5923875943 0.5020331153 0.9871083752
0.6123116133 0.5014549379 0.9922292074
0.6025070254 0.7506526739 0.2416791158
0.5926135406 0.7517854564 0.4908580681
0.6123153173 0.7522372598 0.4924424702
0.6026477788 0.7501877748 0.7422409228
0.602273671 0.4999770824 0.2388084865
0.5924653791 0.5031063121 0.4888032531
0.6123745819 0.5009684308 0.4929628875
0.6322874888 0.7505413601 0.995525801
0.6223532596 0.5006462753 0.7451624826
0.6322763767 0.4994440854 0.9978500846
0.6223421475 0.7495526309 0.2478250404
0.6323800897 0.7492579765 0.4971521542
0.6223532596 0.7511044774 0.7456680837
0.6222902909 0.5005074604 0.243076464
0.6323467534 0.4989732931 0.495559418
0.6523226289 0.7510259028 0.9952572582
0.6422772785 0.5014588667 0.7473858312
0.6624087236 0.5002547124 0.7494332381
0.6523967096 0.5005840705 0.9978315645
0.6423995118 0.7506002909 0.2448173617
0.662349459 0.7507116048 0.2467360533
0.6523818935 0.7510979295 0.4987930429
0.642418032 0.5015361316 0.2460424722
0.6423995118 0.7505020728 0.7481340469
0.6623976115 0.5014235081 0.2474611187
0.6523559652 0.5002900709 0.497815177
0.6624161317 0.749703232 0.7486859485
0.6724281457 0.7499455034 0.9991835382
0.6823179264 0.5009618829 0.7471478468
0.6724651861 0.501648755 0.9987760941
0.6824846081 0.7493430988 0.2481093253
0.6723874013 0.7494871521 0.4950130724
0.6824475677 0.5002108416 0.2504706493
0.6823957112 0.7511503125 0.744515202
0.6724318497 0.5005952019 0.497528114
0.6924299494 0.7501550354 0.9986001523
0.7124687936 0.7501550354 1.0002021486
0.7025827168 0.5013999358 0.7512324744
0.6925299584 0.5005015673 0.9978223044
0.7125391703 0.5023009234 0.9975167212
0.7024641876 0.7513009136 0.2467193851
0.6925077342 0.7498472853 0.497230865
0.7023678827 0.5006554423 0.2464841787
0.7124502734 0.7493169073 0.5005543129
0.6925447746 0.5008132461 0.4982383633
0.7125836187 0.4997020717 0.4969132438
0.702593829 0.7486752155 0.7496915947
0.73253727 0.7502336099 0.9991094575
0.7225363681 0.5006082976 0.7476775242
0.7424714992 0.499525279 0.747358051
0.7324965256 0.4988606697 0.9976648828
0.7225919287 0.7496573969 0.2476166883
0.7425418759 0.751490802 0.249262207
0.7225622964 0.501430056 0.2488482808
0.7324891175 0.7505610037 0.4989495385
0.7426196607 0.5013272544 0.2502363689
0.7325854225 0.5006416918 0.5004042993
0.7224622874 0.7514842541 0.749521209
0.7426122526 0.7509800677 0.7508435505
0.7524983293 0.7493496467 0.99837791
0.7525909303 0.4999417239 0.498994913
0.7625584958 0.4994611098 0.7520251385
0.7524798091 0.5002029841 0.9975259813
0.7624695989 0.7512550785 0.2492010904
0.7625547918 0.4994519428 0.250144694
0.7525057374 0.7505610037 0.4983568925
0.7624658949 0.7515562808 0.7510435685
0.772392716 0.7497359714 0.9985816321
0.7923871117 0.7512092434 0.9981464077
0.7724742048 0.4996359381 0.5006783981
0.7924982328 0.4980677219 0.5005867232
0.7825973399 0.5006292508 0.7542132988
0.7725075412 0.4986635786 1.0033505807
0.7926241701 0.5000838128 1.0048229357
0.7824973309 0.7495198915 0.2489871822
0.7825565955 0.5004590061 0.2521874708
0.7724038281 0.7494020297 0.4981985449
0.7924908247 0.7493954818 0.503023054
0.7825195551 0.750331828 0.7482636882
0.812548189 0.7494740564 1.001220759
0.8125852294 0.5004969838 0.4987587806
0.8024769104 0.499861185 0.7503351713
0.8125889334 0.5001034564 0.9981927081
0.8025102468 0.7469924115 0.2477759619
0.802628776 0.5000045835 0.2532023772
0.8124815164 0.7492579765 0.4986634016
0.802528767 0.7492186892 0.7499193931
0.8326351857 0.751333653 0.9993872603
0.8325833291 0.5002468549 0.4948260185
0.8226750282 0.4988580505 0.7500638505
0.8425953431 0.4993144374 0.7481358989
0.8327166745 0.4989608522 0.9979334255
0.8226231717 0.7491924977 0.2488880992
0.8424916301 0.749127019 0.2468582865
0.822652804 0.4996654036 0.2469388494
0.8325907372 0.7510979295 0.5006459878
0.8426360875 0.4988920995 0.2478324485
0.8225527949 0.7493430988 0.7500962609
0.8427323925 0.749179402 0.7493786035
0.8625749226 0.747548981 0.7493091528
0.8525369804 0.7496835884 1.0000539871
0.852599949 0.4983656503 0.4996153393
0.862611963 0.4988652532 0.7496749266
0.8526332854 0.5004465651 0.9989149955
0.8626786357 0.7480597152 0.2520254192
0.8626675236 0.4996228424 0.2497816983
0.8526332854 0.749388934 0.4979513003
0.8825989506 0.7484329442 0.7525177755
0.8725980487 0.7504496898 0.9979612058
0.8926628211 0.7499455034 1.0029523966
0.8726387932 0.5007471126 0.5014229097
0.8926072606 0.5002029841 0.501158071
0.8826878475 0.4993059252 0.7506213082
0.8726313851 0.4999502361 0.9975815419
0.8925665162 0.5005126987 1.0044247516
0.882435973 0.7479811407 0.2490353347
0.8826174708 0.4989601974 0.2512809076
0.8726387932 0.7509276847 0.4990041731
0.892455395 0.7504562377 0.5019322149
0.90256001 0.7473852841 0.7518103043
0.922495141 0.7501484875 0.7584822023
0.9124868311 0.7480662631 1.00426733