POSCAR file written by Ovito 3.7.11
1
270.0296167082 0.0 0.0
0.0 15.2751818476 0.0
0.0 0.0 10.8011846683
Sr Ti O 
800 800 2400 
Direct
0.0227840909 0.501773465 0.7789736618
0.0124998486 0.5004497491 0.0321137342
0.01239249 0.2507230986 0.5277808452
0.0225267858 0.2528271652 0.7787968294
0.0027568062 0.2516167049 0.7759341804
0.012535104 0.2535793657 0.0276562601
0.0024725411 3.1599779779e-04 0.2762612125
0.0226841759 0.5001675921 0.2784702295
0.0126181319 0.001768681 0.5319359449
0.0027326607 -1.2694291921e-04 0.7723493885
0.0125930236 0.0026137773 0.0281026927
0.0224099838 0.2507944561 0.2780462019
0.00258364 0.2492651781 0.2751122645
0.0425409237 0.5015665935 0.2847787967
0.0324638809 0.2518425615 0.5320868543
0.0423002094 0.2521613793 0.7831546847
0.052530939 0.502538104 0.0348941699
0.0324327732 0.2511086913 0.030451972
0.032453882 0.0021234395 0.5320498213
0.032420182 0.0023322749 0.0332165762
0.042371683 0.2510019823 0.281361579
0.0524316906 0.2518995166 0.5324895879
0.0525416786 0.2534431971 0.0349788828
0.0625987236 0.2533882059 0.2861332778
0.0626409411 0.501090658 0.7831019127
0.0624268905 0.4989898647 0.2832021178
0.0725898498 0.5012641421 0.5331441458
0.0722824761 0.2514752991 0.5344745554
0.0625772444 0.2525646478 0.78329541
0.0724017223 0.2489339218 0.0355654852
0.0622654268 0.0014060012 0.2843640274
0.062348751 -5.6006378586e-04 0.7838147975
0.0924184155 0.2527387865 0.527402183
0.1023432528 0.2455971367 0.7809540002
0.0823584079 0.2513980496 0.7819862943
0.0922932441 0.250432431 0.0301220082
0.1024421308 4.3678195725e-04 0.2790877543
0.0823598893 -9.8729274228e-04 0.280581109
0.0823087837 8.1982158705e-04 0.7830250693
0.0922439902 -0.002201419 0.0303120799
0.1024258363 0.2483912114 0.2762825065
0.0822224969 0.2522130972 0.2808153426
0.1024976803 0.4989846275 0.2823531369
0.0923513859 0.4999666125 0.5321211098
0.1125306539 -0.0015962544 0.0276949596
0.122358835 0.2479971081 0.2765722895
0.1123236395 0.2475984222 0.5265726444
0.1223525394 0.4978664738 0.7783496562
0.1125376901 0.5003410761 0.0265864701
0.1222195911 0.247282223 0.7753259138
0.1123269725 0.2471381985 0.0255197352
0.112444367 0.4983109857 0.5269059411
0.152426648 0.2506137709 0.521750951
0.1323262602 0.2515054133 0.5252227924
0.1424692217 0.248596119 0.7747741225
0.1522985139 0.2486308158 0.021956515
0.1323681075 0.2490648532 0.0247120461
0.1423329403 0.2467584976 0.2737374153
0.1424229305 0.4972779375 0.7771590461
0.152391837 0.4979050986 0.0238088118
0.1324747624 0.5004124337 0.0236234618
0.1324658745 0.4994854398 0.5247848775
0.1525499678 -5.8127466264e-04 0.5233405915
0.1825414928 0.2497051074 0.7674739973
0.1824378004 0.2477777981 0.2689296093
0.1624740644 0.4979502699 0.7726762045
0.1623622248 0.4980733454 0.271514511
0.1724081599 0.2478301706 0.5183550273
0.1823289235 0.4991306159 0.7705949513
0.1625514633 0.2507721978 0.7680211595
0.1723714972 0.2501397994 0.0139558185
0.1624885072 -0.003916816 0.2702748321
0.1724411192 0.0017912667 0.5201900112
0.1824144697 -4.2540090456e-04 0.2710932609
0.1625633138 0.2475316472 0.266316933
0.2024289409 0.2499545316 0.266553944
0.1922993113 0.4999522101 0.0142177342
0.2024752321 0.4990153963 0.2641736495
0.1924533685 0.2499512583 0.519779871
0.2025033772 0.2484887553 0.76754436
0.1925211388 0.2478170775 0.0154897243
0.1924389256 2.2434586108e-04 0.5158867795
0.2023552453 -0.0022883574 0.7670027527
0.1923130135 -0.0042662062 0.0193971661
0.2025326333 -0.0023613517 0.2668983507
0.2124682101 0.2484082325 0.5146711721
0.2223315726 0.246448845 0.7615950126
0.2123915518 0.2450793032 0.0149548756
0.2222675055 4.4267386747e-04 0.2606582944
0.2122845265 -0.0021482609 0.5169903621
0.2222989836 -0.0014547831 0.7616301939
0.2123241518 -0.0034011429 0.0126059666
0.2324182439 0.0013409938 0.5113891247
0.2225282177 0.2484560224 0.2606629235
0.2322938131 0.247497605 0.5108438141
0.2323830626 0.2478655221 0.0116903263
0.2324130593 -0.0020552342 1.011702763
0.2524675262 0.2497411135 0.5078635855
0.2424493658 0.2503420884 0.7563566983
0.2625886382 0.2470956458 0.2542645513
0.2524049405 0.2485843351 1.0097214989
0.2423297493 0.0035062708 0.2605184949
0.2523582789 0.4990265255 1.0022593545
0.2523856833 -0.0022946422 0.5051657333
0.2425300977 0.2492684514 0.252732312
0.2624471722 0.2467689721 0.7542522995
0.2426063856 -0.0012028057 0.758292597
0.2625112393 -6.3377812924e-04 0.2586214808
0.2523964229 -0.0019445972 1.0056108387
0.2622920041 -0.004359102 0.751308178
0.2725534711 0.2476953114 0.4989349352
0.2724327436 0.2473594725 1.0011576235
0.27259717 -8.5007669989e-04 0.5080237531
0.2725197711 0.498055015 1.006647762
0.2823901699 0.249187274 0.7554540195
0.2822664797 -0.0018009001 0.7525617442
0.2824472006 0.2487499633 0.252853595
0.3024131587 0.2511892141 0.2495280338
0.3122817058 0.2496736839 0.4954075444
0.3122880014 0.2489424324 0.9947138858
0.2925694236 0.5008720027 0.5006560428
0.3124128026 -0.0030773497 0.999315233
0.2923635203 0.2499034684 0.5055240273
0.2924923951 -2.3201531809e-04 0.5051638816
0.302447229 0.249293983 0.7473373172
0.3023598312 0.5009158647 0.2460237886
0.2924098115 0.2453084331 1.0013150136
0.312367252 0.4958259089 0.9982412767
0.2925460929 -0.0013381233 1.0031944371
0.3024035301 -2.6717038239e-04 0.7500870156
0.3223805981 0.2514360197 0.2418168426
0.3325817013 0.2499669701 0.4972184569
0.3224698475 0.2501129585 0.7446311326
0.3324676397 0.2472992441 0.9942417154
0.3225128058 0.0024840244 0.2519027733
0.3324628255 9.7477882576e-04 0.4982970423
0.3224561453 6.4797420571e-04 0.7496333617
0.3323739463 7.8649956148e-04 0.9984634745
0.3622980713 0.2493915268 0.2445767251
0.3523884176 4.0097223626e-04 0.9929455613
0.3525895066 0.2481738654 0.491593148
0.3423132264 0.2498013419 0.7447811162
0.3524347088 0.250497242 0.993047402
0.3424732089 -0.0021753637 0.2494011959
0.3424454342 -0.0020312738 0.7460541247
0.3426220814 0.2490982406 0.2432287248
0.3625647087 0.2482216553 0.7467244215
0.3625239724 -6.3600396199e-04 0.2415946448
0.3724710295 0.2508376635 0.4922828871
0.38239957 0.2477575037 0.7448681437
0.3723895569 0.2476900741 0.9939176769
0.3825291855 -0.0022165416 0.738682711
0.3824032733 0.2479460449 0.2390615893
0.3924688359 -0.0043019505 0.4911950435
0.392320704 -0.001006867 0.9899736651
0.3725191724 -0.0021284248 0.4894165349
0.3724710295 -0.0045793285 0.9908624565
0.3923281106 0.2475611067 0.4904562357
0.3923614403 0.2485496383 0.9909365224
0.4124481258 -0.0046804075 0.4901683043
0.4023270138 0.2449320055 0.7414675907
0.4023196072 -0.0024816776 0.2409595293
0.4025751347 -0.0025934275 0.7386660462
0.4024158929 0.498096913 0.2378283912
0.4024640358 0.2457293773 0.2433444528
0.4125110819 0.2478458824 0.4891517491
0.4124481258 0.2475584881 0.9909457807
0.4122962906 1.9962042206e-05 0.9882886647
0.4121740818 0.4974658239 0.9881960823
0.4125036753 0.4998880537 0.4952677449
0.4225544247 0.2505764555 0.2374978719
0.442489275 0.2527584262 0.7362348314
0.4326273938 0.5019017777 0.9851316036
0.4323385366 0.4970344052 0.4883527627
0.4424633519 0.2500252345 0.2344852394
0.4224322158 0.4987175275 0.2409391611
0.4426374069 0.4991463277 0.7392437606
0.4325533279 0.2497470054 0.4878093038
0.4227062598 0.2495610829 0.7318779019
0.4323940861 0.2528055615 0.984613142
0.4423670662 0.4952262434 0.2384996139
0.4324940751 -3.1554951184e-04 0.983437345
0.4526437167 -8.3364481695e-04 0.9851408618
0.4722563802 0.2486249239 0.4803851182
0.4623611693 0.2500560034 0.7321908305
0.4723230395 0.2499460211 0.9785582506
0.4625093012 0.2500893909 0.233243709
0.4524844749 0.4988766091 0.9829466581
0.462705576 0.4969335881 0.7320399212
0.4723896989 0.4978959334 0.4804008572
0.4524289255 0.2510386431 0.4844967042
0.4525252112 0.2500867723 0.9818449271
0.472415622 -0.0010241499 0.9786230583
0.4824404483 -0.0030509016 0.2296098483
0.482399712 0.248180412 0.723426977
0.4824589647 0.2489790931 0.2272906582
0.4922541866 0.2493529021 0.4764855459
0.4923282525 0.2527080176 0.9730033043
0.4824515581 0.4988733358 0.2265462955
0.5022864195 0.0014456079 0.723849153
0.5022493865 0.2519211203 0.2234188607
0.5124186414 -4.8936086325e-04 0.9735865737
0.5224953138 0.0019703807 0.2219532807
0.5024641778 0.4968085486 0.7248749664
0.5026752657 0.2495663202 0.718598803
0.5224212479 0.4982762889 0.7217512349
0.5125667733 0.2493457009 0.4707796903
0.5226434457 0.2497483147 0.2188860246
0.512526037 0.2504946234 0.9740865189
0.5225730831 0.2456521278 0.7301290197
0.5127186085 0.4983856166 0.4695603796
0.5224397644 0.5022624935 0.2158483948
0.5525697927 0.2477339361 0.4637471284
0.5526401554 -0.0027421655 0.963948742
0.5325349533 0.5010343576 0.9738365463
0.5325719863 -4.9407439142e-04 0.4750523698
0.5326941951 0.5018552971 0.467470794
0.5325497665 0.2500422556 0.4682207117
0.5324571841 0.2510805411 0.9698277268
0.5426042192 0.0042738558 0.7176739044
0.5426782851 0.2488265581 0.2194017088
0.5425042301 0.2456200496 0.7183534595
0.5525697927 0.2496082182 0.9686519298
0.5626909047 0.4972046159 0.714086335
0.5627279377 0.5015168396 0.2164159252
0.5624761135 0.0016005652 0.2155993481
0.5624316739 0.2518982073 0.2134569905
0.5626501685 0.2496546988 0.7134021508
0.5726231486 0.0040831543 0.4634934525
0.5726268519 -5.114882594e-04 0.9642635223
0.5726268519 0.2496206567 0.4665357114
0.5725490826 0.2499977389 0.9614304997
0.5924246802 0.4995293018 0.9633284397
0.5825813155 0.2507702338 0.712125439
0.602642078 0.2462917274 0.2108146877
0.5925431857 0.2515407648 0.4617121664
0.602468023 0.2478419545 0.7111820239
0.5925987352 0.2521129347 0.9589400322
0.5825924254 0.2520821658 0.2134681004
0.602530979 0.5001531897 0.7047512478
0.592520966 0.4999024562 0.459942916
0.5827405573 0.4978592726 0.2117136632
0.6124706295 -1.5716747444e-05 0.9645968191
0.6125298823 0.5000680843 0.458419935
0.6224584228 0.502122397 0.2112831549
0.6224102799 0.250346671 0.7142344669
0.6122743547 0.4987561523 0.9598380818
0.6226139613 0.5027423569 0.7106728205
0.6126557944 0.2482504602 0.4592189214
0.6125706185 0.250167295 0.9597825323
0.6224843459 0.2464841965 0.2105850833
0.6326721173 0.498077928 0.9612453348
0.6426265809 0.2487552005 0.2187665933
0.6526032643 0.2505240829 0.4710574376
0.6425932512 0.2479702672 0.7184599293
0.6524958687 0.2516618762 0.9674946493
0.6425265919 0.5004202896 0.7158028134
0.6525217918 0.5006271611 0.9772898712
0.6425562182 0.500678879 0.2147596254
0.6525921544 0.5029145316 0.4676383682
0.6326091612 0.2535682365 0.4698899731
0.6327128535 0.2480665017 0.9643098135
0.662657717 0.0013999129 0.7212735096
0.6726269938 0.5020471115 0.4753977023
0.682425919 0.4996831462 0.7261063128
0.6724640487 0.5015685574 0.9737439638
0.682525908 0.5006900082 0.2296792851
0.6624614422 0.2516998463 0.2249668391
0.6625799477 0.2505764555 0.7191931822
0.6824777651 0.0015574887 0.230944887
0.6826592267 -0.001733274 0.7265562634
0.6624503323 0.5005774072 0.720354166
0.6624503323 0.5028667416 0.2224069347
0.6824703585 0.2541803405 0.2244650423
0.6725566312 0.2553056954 0.4700918028
0.682425919 0.2506929843 0.7236834304
0.672604774 0.2511499347 0.9719848975
0.7026977694 0.2514000136 0.231572596
0.6924692617 0.2506903657 0.4734886524
0.7025644507 0.2528520421 0.7246777658
0.692509998 0.2534366505 0.974586464
0.7025200111 0.5026762366 0.7263035134
0.7024348353 -0.0010471284 0.7266608816
0.7026533298 9.8586310773e-05 0.2282729579
0.6925285145 0.5024988246 0.9761603655
0.6923951958 0.5005603861 0.4782483155
0.7124189253 0.2489103542 0.4823747147
0.7123374527 0.2498995404 0.9813912731
0.7223548724 0.5023194487 0.7353182653
0.7224252351 0.2516068851 0.2289654745
0.7324056218 0.2527865764 0.4796620493
0.7223882021 0.2524376444 0.7326833691
0.7324648746 0.503785225 0.9804284158
0.7225622571 0.5041420129 0.2340454729
0.7323352591 0.5014736322 0.4824043411
0.7324389515 0.2552775452 0.9822893228
0.712378189 0.5012418837 0.9829466581
0.7623504852 0.5039868592 0.7387715902
0.7424489646 9.8008154496e-04 0.7368208782
0.7523108458 0.5024595452 0.9868536369
0.7624875072 0.5027613419 0.2381385424
0.7624615842 0.2551250101 0.2425482439
0.7525367469 0.2528900122 0.4857012017
0.7625134303 0.2511374962 0.7408556208
0.7525663733 0.2507702338 0.9861963016
0.7424452613 0.5045210591 0.7344507678
0.7526034063 0.5033335119 0.4877824549
0.7424267448 0.2527459877 0.2350536956
0.7424637778 0.2538589041 0.7350053366
0.7823408851 0.5023102835 0.239157875
0.7824223576 0.4999620299 0.7442246957
0.7824853137 0.2522720163 0.2408336171
0.7725789929 0.2489974235 0.4903969829
0.7825704895 0.2521358477 0.7456226905
0.77253085 0.2488265581 -0.0078140528
0.7924323707 0.5001558083 0.4915681507
0.8123450013 0.5002068715 0.4972064211
0.8026238454 0.5013780523 0.7429276158
0.8025719992 0.5002291298 0.2409724908
0.7924508872 0.2516527111 0.4940650991
0.7924582938 0.2514432209 0.9936769625
0.8125968255 1.8303702389e-04 0.4923430657
0.8024757135 0.2534981883 0.2420751476
0.812678298 0.2522006587 0.4943983958
0.8023386915 0.2516540204 0.7401742141
0.8125968255 0.251984622 0.9927974294
0.8325057528 0.0047890706 0.4941058353
0.8225401792 0.2480789402 0.2460404534
0.8324502033 -5.3531776294e-04 0.9959637487
0.8326872143 0.2534320679 0.4911376424
0.8227216408 0.2510929796 0.7446598332
0.8325946319 0.5033989775 0.4991571331
0.8325687088 0.5019233814 0.9957600674
0.8324687198 0.2527963963 -0.0067982846
0.8225957287 0.4986199837 0.2457182665
0.8425083593 0.4997381373 0.7473984217
0.8424861395 0.5032765567 0.2499492839
0.8424898428 6.9432389942e-04 0.241609458
0.8425120626 0.2523211155 0.2440064173
0.8425565021 0.2511964153 0.7409139478
0.8626024514 0.250975796 0.2537340539
0.8526109548 0.252377416 0.5011059934
0.8625209789 0.2530693881 0.7520840188
0.8527590867 0.2514988667 -0.0017226469
0.872530992 6.7219650327e-04 0.4994987623
0.8826076644 0.251307707 0.2508121522
0.8724606293 0.2510032916 0.5052499833
0.8926065676 0.2518471441 0.507238654
0.8824706424 0.2480383515 0.7554169865
0.8924658423 0.4970808858 0.0058926289
0.8724865524 0.248115601 0.0027294574
0.8926917435 0.2494543739 0.0039450648
0.8927509962 0.0019521813 0.5047204117
0.8725050689 0.0038779849 0.0014360807
0.8725717282 0.4984353705 0.5050148239
0.892425106 0.4993106465 0.5012587544
0.9126451103 5.5992288079e-04 0.5063961539
0.9026610203 0.2527342039 0.2551061256
0.9125562312 8.2612687517e-05 0.0053863881
0.9126377037 0.2526890326 0.5081265196
0.9025943609 0.2537567777 0.757470465
0.9125636378 0.5016039089 0.512721386
0.9026610203 0.5016785398 0.7561307971
0.912715473 0.2487139572 0.0079162032
0.9124155059 0.5007816601 0.0071336039
0.902583251 0.5015135663 0.2585048269
0.9426010837 0.2504854582 0.7619097928
0.9324799716 0.2500206519 0.0097429473
0.9325355211 0.4999364983 0.5115733637
0.9325947739 0.5011921298 0.0126194836
0.9227402992 0.5010775649 0.7607164052
0.9228180685 0.5008654561 0.2608934538
0.9428455013 0.5012346825 0.7609580454
0.9226217937 0.2490589612 0.2565587441
0.9225662443 0.2499152522 0.7562807807
0.9425566441 0.2498078885 0.2621516491
0.9326503233 0.2513135989 0.5086755335
0.9728199911 3.0035150288e-04 0.5215269015
0.9625655604 3.722982732e-04 0.7656167936
0.9625581538 0.2516193236 0.2692517962
0.9525999869 0.0026124025 0.0141944035
0.9727570351 2.6225048348e-04 0.0178084515
0.9526407231 0.253931571 0.5116548363
0.9725311339 0.2536900027 0.5185420438
0.9626396263 0.2513908484 0.7656408651
0.9525666572 0.2507028042 0.0100370817
0.9726644526 0.2489319578 0.0200742215
0.972731112 0.5007914799 0.517913409
0.9527962616 0.0031507267 0.5149683617
0.9627618352 1.6765259165e-04 0.2672427573
0.9526444264 0.5033171455 0.5146184001
0.9627396154 0.4995679266 0.7618496143
0.9826485426 0.2489574895 0.2690064527
0.9828040811 -2.6236136274e-06 0.7704060831
0.9926289294 -9.4775147816e-04 0.0208680233
0.9926585557 0.249620002 0.5261023256
0.9824893008 0.2515492753 0.7717948197
0.9925659733 0.2510314419 0.0263841775
0.9927289184 0.5004432026 0.0249925709
0.0226037773 0.7507793386 0.7804429451
0.0026443 0.5016386057 0.2749835749
0.0027661756 0.7484880401 0.7773942054
0.0126854949 0.5036202515 0.5276938177
0.0026264131 0.4996792182 0.7742741773
0.0226412177 1.0007534494 0.2799672875
0.022565263 1.0051396492 0.7773377302
0.0126751997 0.7505567553 0.0260632867
0.0225071953 0.7520886519 0.2846177033
0.0027561396 0.7519446275 0.2743308687
0.0125694706 0.751754777 0.5305425793
0.0524565027 1.001846726 0.5317498543
0.0524313203 1.0032738776 0.0352916263
0.0324520304 0.7523767009 0.0321441012
0.0425546259 0.7509299096 0.2825345985
0.0325053579 0.7504061842 0.5298917247
0.0424631545 0.7533390462 0.7839166381
0.0426057314 0.5042755628 0.782103874
0.0325401689 0.5042624697 0.0296939996
0.0326127535 0.5021714962 0.5286289003
0.0422709533 1.0011396968 0.2828012359
0.0524483555 0.5011037512 0.5342292119
0.0525879698 0.7519708137 0.036441315
0.0524935357 0.751951174 0.5353818633
0.0423579808 1.0015717702 0.7813558079
0.0725668894 0.498337172 0.0348720427
0.0723895014 0.9977158423 0.5312962003
0.072335063 0.998370499 0.0356251083
0.0722687739 0.7506680469 0.0306147319
0.0624417037 0.7525207253 0.2848260138
0.0723598751 0.7539740632 0.535145778
0.0624620719 0.7526909361 0.7882846775
0.0923106496 1.0012248022 0.5268457626
0.092201032 0.7486124249 0.0313320606
0.1025665616 0.9994965085 0.7756314358
0.1023832484 0.7482392706 0.2790970126
0.082246198 0.7497384344 0.2812264086
0.1024762012 0.4996144072 0.7815196788
0.0925376617 0.7502032407 0.5294936203
0.1024384275 0.749502758 0.7805633023
0.0825169091 0.4991803698 0.7832444896
0.0824421025 0.7489790327 0.7817789097
0.0923199078 0.4991620394 0.0316733195
0.0824995036 0.4999947627 0.2825429309
0.1124939912 0.7471459939 0.0275170162
0.1224514175 0.7478792094 0.2786211388
0.112309567 0.7470674351 0.5247469187
0.1223469845 0.7485665989 0.7747037598
0.1224917834 1.0000595133 0.2787701966
0.1224177175 0.997630737 0.7766091064
0.1224221614 0.4972916853 0.2804589002
0.1123995571 0.9978402271 0.5283733728
0.1425658778 0.7477417315 0.2751687398
0.1523003655 0.7481738049 0.5223684759
0.1324029185 0.7507204194 0.5236238937
0.1424107096 0.7476959055 0.777201634
0.1524807161 0.4972321115 0.5236007481
0.132587713 1.0002886431 0.0282282344
0.1424195975 0.5000216037 0.2736744592
0.1424488536 0.9976503767 0.2786553943
0.1324321745 0.9996732658 0.5268290977
0.1422855381 0.9993001115 0.7790588377
0.1524551634 1.0000922461 0.0227896643
0.1524736798 0.7464716975 0.0243474564
0.1324614306 0.752147571 0.02656388
0.172495928 0.7486517043 0.0205454661
0.1623922215 0.7481934446 0.2712450961
0.1723666829 0.7496140496 0.5211584234
0.1623070457 0.7504454636 0.771070825
0.1825118664 0.9972379429 0.7682785387
0.1722744708 0.4993695656 0.0197115761
0.172322984 0.499193463 0.523396141
0.1825522323 0.7459545187 0.2666798561
0.1823685488 0.7457908546 0.7681479975
0.1724788929 0.9975652713 0.0202678113
0.1623596325 0.9996274399 0.7712171052
0.1824440961 0.497837669 0.2648291332
0.2025981816 0.5002330578 0.7691562202
0.1924429993 0.4990939551 0.5174782716
0.1922352443 0.7497842604 0.0183382082
0.2024948596 0.7470216091 0.2690666313
0.1924766993 0.7487826356 0.5206223711
0.2024574563 0.7504912896 0.7674869589
0.232482311 0.4981715439 0.0140746018
0.2323797296 0.7471001679 0.0082697756
0.2323938022 0.7476108002 0.5125010398
0.2125500529 0.7494896649 0.0116525527
0.222425266 0.7476631727 0.2654985042
0.212374887 0.7517220442 0.5125556634
0.2325256396 0.5000759402 0.5090116077
0.2222119561 0.7442000388 0.7667333378
0.2223963803 0.5012124242 0.7657473349
0.2124226595 0.4994239021 0.0157783964
0.2225022946 0.4953774691 0.2595510084
0.2124741353 0.502600951 0.5130889382
0.2522512536 0.7465502563 0.0051863175
0.242291235 0.7504192774 0.2573818019
0.2523605009 0.7501901475 0.5068877666
0.2426560098 0.7485404127 0.760169243
0.2424334417 0.4961159219 0.7586981081
0.2424823252 0.4958259089 0.2595519343
0.262398659 0.4977381611 0.7532051921
0.252417902 0.4985780857 0.506448
0.262300892 0.7492474419 0.2603249976
0.2624112503 0.7460854501 0.7549651842
0.2624782799 0.4971620632 0.2539442161
0.2722746128 1.0012378953 1.0029907557
0.2724853304 0.4977820231 0.5071164452
0.2823953545 0.5002703732 0.2503696082
0.2823801709 0.5009878769 0.7522691837
0.2822920325 0.7479708613 0.2535924028
0.2824183149 0.7514339952 0.7541624945
0.2724638513 0.7509757356 1.0021297391
0.2723712688 0.7486582509 0.5039612358
0.2823423973 0.9988222121 0.251092677
0.3125879685 0.9986389083 0.4969166381
0.2924386972 0.7507138729 1.0025371018
0.3024120477 0.7499544711 0.2511130451
0.2923657423 0.749456932 0.4973110393
0.3024039004 0.7504912896 0.7466642429
0.3123857685 0.748324376 0.9995652055
0.3125220498 0.7507793386 0.4994543227
0.3123513278 0.4971037988 0.4976961822
0.3022850246 0.4991581115 0.7493176556
0.2925090599 0.5011436852 1.0029722392
0.3024161213 0.9979907981 0.2459163929
0.3325594815 0.4980399579 0.4960093302
0.3223643035 0.4971614086 0.7487853066
0.3323228408 0.7488153685 0.9978894634
0.332438754 0.4995240646 0.9961211389
0.3223683772 0.7473816703 0.2515222595
0.3323095089 0.7475191482 0.4965435309
0.3223328255 0.7476566261 0.75006387
0.3224709585 0.4984307879 0.2453423818
0.3524391527 0.5000163664 0.4945141239
0.3523917505 1.0003410157 0.4943169233
0.3624610164 0.7479774079 0.2469718327
0.3623128845 0.7460854501 0.7402269861
0.352513589 0.7483505622 0.9929270448
0.3624906428 0.4977486356 0.7421295552
0.3423480374 0.7493129076 0.2452164697
0.3625276757 0.4967083862 0.2422177246
0.3523313868 0.7498497261 0.4935836704
0.3425243144 0.7480035942 0.7428859537
0.3624536098 0.9973754208 0.7476308036
0.3425724573 0.4989171978 0.7475039656
0.352551733 0.4988903569 0.9913161104
0.3424898737 0.4957264011 0.2443934118
0.3725562053 0.4984190041 0.9859092961
0.3825439986 0.4984674487 0.2422593867
0.3722599415 0.496718206 0.4875472955
0.3924169897 0.4969074018 0.994186166
0.3826328778 0.4986847947 0.7399751619
0.3723710405 0.7487368097 0.991112429
0.3823921634 0.7487957288 0.2382950067
0.3724673262 0.7466026289 0.4893637629
0.3824217898 0.9993459375 0.2400124109
0.3823329107 0.7490706846 0.7447163085
0.3924169897 0.7458235874 0.9924919074
0.3925354953 0.7492474419 0.4926698817
0.3924021765 0.4968871074 0.4910746863
0.4024751457 0.4995031156 0.7433960829
0.4025306952 0.7476500796 0.238662559
0.4024936622 0.7455813644 0.7435238467
0.4125221918 0.7512768776 0.9896125936
0.4123370269 0.7500526696 0.4903710598
0.4222507543 0.9979056928 0.737396741
0.4424929783 1.0000071407 0.2400707379
0.432368163 0.9979973447 0.4879092928
0.4425040882 1.0014604786 0.736494988
0.4223988862 0.5007122665 0.7379651971
0.4324200091 0.7501508681 0.9900755057
0.4223322268 0.7503603583 0.2315263047
0.4324348223 0.7475518811 0.4893415431
0.4225470181 0.7478595697 0.737175469
0.4425114948 0.7506549538 0.2384635068
0.4423966926 0.7489070204 0.7379457548
0.4223692598 1.0013688267 0.2391162129
0.4726341165 0.7515387403 0.9797710805
0.4625204111 0.7499544711 0.2311356069
0.4726193033 0.7493325473 0.4777280022
0.4624833781 0.7481148858 0.7334156962
0.4525289145 0.9974474331 0.4840513827
0.4725267209 1.000864741 0.4805323242
0.4724378418 0.5014448273 0.9790767122
0.4624426418 0.49746386 0.2321919725
0.4624278287 0.9998107437 0.234439874
0.4623389495 0.9982330211 0.7284782748
0.452610387 0.7482720034 0.984539076
0.4523289364 0.7501639613 0.4841319294
0.4524770683 0.4984334065 0.4861243034
0.4825219208 0.9961446663 0.7290883931
0.4924541647 1.0014473855 0.4764864717
0.4924060218 0.9974147002 0.9758363269
0.4925541537 0.7489986724 0.475836543
0.4924171317 0.750530569 0.9782434703
0.4825145142 0.7486517043 0.2268879246
0.4824145252 0.7491885228 0.7251814142
0.4925097141 0.4987116356 0.9716330843
0.4925060108 0.4999672672 0.4725980094
0.4825256241 0.4992248865 0.7281033159
0.512600103 0.9993001115 0.4707343249
0.5226397424 0.9999940476 0.7169249125
0.5024715843 1.0015652237 0.2207654481
0.5226878853 0.7489921258 0.7198190395
0.5024789909 0.749548584 0.2195831704
0.5024604745 0.7492736282 0.7232649578
0.5124482678 0.7510215615 0.9722719031
0.512489004 0.5001394419 0.9735402825
0.5024345514 0.4999888708 0.2252806935
0.5124741908 0.7480035942 0.4734627293
0.5225545666 0.7508120714 0.221983833
0.5526438587 0.9975980041 0.4722424928
0.5426968016 0.5000923066 0.7197246054
0.5426449554 0.7480428736 0.2194276319
0.5526438587 0.5000903426 0.4667255054
0.5526364521 0.749109964 0.4711407618
0.5424709005 0.749941378 0.7165786542
0.5326793819 0.7505960347 0.9710683314
0.5325201401 1.0004064813 0.9707350346
0.5425745928 0.4993302862 0.2201747721
0.5527290345 0.4990481292 0.9666799239
0.5325979094 0.7503603583 0.4704723166
0.5424709005 1.000229724 0.2222125116
0.5727601706 0.5010369762 0.9645042366
0.5626205421 0.9987567465 0.7185691766
0.5526179356 0.7482654569 0.967216902
0.562457597 0.7501181353 0.208667701
0.5625649926 0.7486647974 0.7145233241
0.5726120387 0.7513750761 0.9668836053
0.5725231595 0.5002605534 0.4628342656
0.5726824013 0.7518857084 0.4591355972
0.6025272758 0.4983443732 0.2073187749
0.6027346604 0.997146291 0.2117127374
0.6025531988 1.0021544147 0.7092396444
0.5926431748 0.7474078566 0.9597454994
0.5925579989 1.0024948362 0.4586226905
0.592620955 0.9993917635 0.9629210769
0.6024976494 0.7507531523 0.2096046353
0.5926172517 0.7520231863 0.4588430367
0.6024346933 0.7517089511 0.7094664714
0.5826331617 1.0008909273 0.2119377127
0.582699821 1.0001773515 0.7123420819
0.5824517001 0.5027181346 0.7111431393
0.5825516891 0.7533521393 0.2098684952
0.5827479639 0.749941378 0.7134002991
0.6125558053 0.7508578974 0.9615138239
0.6125298823 1.0017223413 0.4607159794
0.6124002668 0.7491950694 0.4606298777
0.6227139503 1.0022722529 0.7120152659
0.622573225 0.7502687063 0.2118840149
0.6225473019 0.7509430027 0.7124346643
0.6227657965 0.9996994521 0.2109405999
0.6427228666 0.999791104 0.7171165581
0.642515482 1.0011331503 0.2143633726
0.6525440116 1.0007469028 0.4691446845
0.6525847478 0.9995685208 0.9714849524
0.6325017656 1.0029400027 0.4642424444
0.6325684249 0.9972248498 0.9657448413
0.6325387986 0.5033708273 0.4603734244
0.6324758425 0.7510019218 0.9652448961
0.6325832381 0.7538955044 0.4699131187
0.6525662313 0.7492801747 0.9700221499
0.6423340204 0.7500264834 0.2158437657
0.6525106819 0.7483832951 0.4674994946
0.6424599325 0.75111976 0.7164462613
0.6723973894 0.7497580741 0.9733828923
0.662520695 1.0011658831 0.2217588576
0.6726529169 1.0026715935 0.9776879757
0.6825555344 0.7504651033 0.2234984816
0.6724455322 0.7497973535 0.4736034546
0.6824851717 0.7525141788 0.7282023792
0.6625318049 0.7521999436 0.223185553
0.6625132884 0.7507007797 0.7218604822
0.6725973674 1.0024490102 0.4735182788
0.7026607364 0.498815726 0.2270156884
0.6925285145 1.0010349517 0.474360779
0.6924285255 1.0012771747 0.9808080038
0.6924914815 0.7502490666 0.9770676733
0.7024866814 0.7488350082 0.2347028082
0.6924507452 0.7506156744 0.477022524
0.7024681649 0.7512899708 0.7316557041
0.7125337275 0.4984772685 0.4797601867
0.7124707714 0.7516565785 0.4808739534
0.7225955868 0.9999220354 0.7331166549
0.732457468 1.0024097308 0.9784008604
0.7324389515 0.7511393997 0.9847242409
0.722536334 0.7507531523 0.232995588
0.7324945009 0.7521868504 0.4787177085
0.7225659604 0.7499217383 0.729890157
0.722536334 1.0008778341 0.2281331584
0.7323871053 0.9992542856 0.4797861098
0.7123485626 0.7524290734 0.979789597
0.7125448374 1.0031756791 0.4813646403
0.7124337385 0.9992804718 0.9794655585
0.7423489755 0.5010382855 0.2357276957
0.7425970965 0.7516958579 0.2348166846
0.7425156239 0.7518333358 0.732525979
0.7524589777 0.7529200659 0.9850297629
0.7624208479 1.0000595133 0.7400566344
0.7524293513 1.0024686499 0.9900384728
0.7624504743 0.749653329 0.239922606
0.7525330436 0.7520821054 0.4836514265
0.7624801007 0.7526582033 0.7385530956
0.7525848898 1.0056895608 0.488098161
0.742541547 1.0022787995 0.2350296242
0.7626060128 1.0004915867 0.238177427
0.7826001159 0.9976110973 0.2387847678
0.7725715863 1.0019711108 0.4907265764
0.7825038301 1.0004654004 0.7416277584
0.7725234434 1.0014408389 0.989362621
0.7822371927 0.7477875575 0.2412317216
0.772393828 0.752042826 0.4868186717
0.7823816213 0.7540264357 0.738856766
0.772356795 0.7508251645 0.9860111368
0.7725012236 0.5004412386 0.4926097031
0.7724197511 0.5005512209 0.9902699289
0.792536063 0.7503930911 0.9887238022
0.8124598035 0.7510870272 0.9902236376
0.7924323707 0.5017787022 0.9915568247
0.8123968474 0.5001767573 0.993695479
0.8023275816 0.7508840836 0.2454757005
0.8124561002 0.751407809 0.4891341585
0.8025349662 0.7521999436 0.7395465052
0.79216203 0.7505894881 0.489110087
0.7926138323 1.0004588539 0.4941641623
0.7924916235 1.0003802951 0.9914364676
0.8024646036 1.002180601 0.2419159058
0.8023460981 1.0006159715 0.7415212885
0.8123894408 1.0001773515 0.9908902312
0.8225068496 1.0005439592 0.7446459458
0.8223809374 1.001257535 0.2399679714
0.8324502033 0.7525076322 0.9944361385
0.8225216628 0.5026978402 0.7414046347
0.8225327726 0.753902051 0.2421306971
0.8324057637 0.751951174 0.4961769044
0.8225549924 0.7535354432 0.7446950145
0.8425305791 0.7505174759 0.2437425573
0.8424898428 0.7506745935 0.7451912564
0.8627061437 0.500894261 0.7509054444
0.8426083483 0.9999940476 0.7474947074
0.8625802316 1.0022395201 0.2492456574
0.8626950339 0.9988287587 0.7491843369
0.85241468 1.0008058219 -0.0014375855
0.8624543195 0.7503734514 0.7451653333
0.852662801 0.499912276 0.4975323113
0.8526739109 0.7527694949 -0.0049296377
0.8526702076 0.4997983657 -1.6818774579e-04
0.8624691327 0.5028366274 0.2560773154
0.8625024624 0.749502758 0.2481531846
0.8525220757 0.7514929143 0.4962454155
0.8526220647 1.0027370591 0.4979443032
0.8826224776 1.0012313488 0.754386544
0.8926065676 1.0019645643 0.0069601044
0.8826224776 0.7511132135 0.7552364508
0.8725754315 0.7524421665 -0.0028888523
0.8926324907 0.751211412 0.0061807455
0.8824817523 0.4999888708 0.757713031
0.8825261919 0.4982016581 0.2519898008
0.8823262138 0.7520035466 0.2528767406
0.8724532227 0.7546679993 0.4991876853
0.8926806336 0.7513685296 0.5008051005
0.8726235744 0.5016877049 0.0032934696
0.8825891479 1.0033393433 0.2539016281
0.9025425148 1.0019580177 0.7531339036
0.9125747477 0.7491230571 0.5072997584
0.9025758445 0.9996274399 0.2535257434