POSCAR file written by Ovito 3.7.11
1
270.0304127051 0.0 0.0
0.0 15.275226876 0.0
0.0 0.0 10.8012165082
Sr Ti O 
800 800 2400 
Direct
0.0226339221 0.4987941259 0.7664881346
0.0123567464 0.5014841023 0.0175736032
0.0126863389 0.2489071664 0.5156404641
0.0224930491 0.2494524938 0.7684045854
0.0024811921 0.2520593291 0.7650475562
0.0125107661 0.2500927462 0.0144525659
0.002436012 -0.0021070431 0.2631633475
0.0226779912 0.4977021618 0.2680063205
0.0123413777 -0.0030898109 0.5169940153
0.0024747484 5.3625638967e-04 0.7644244782
0.0127125952 -0.0036345491 0.0176356333
0.0224594973 0.2479585717 0.2678443017
0.0025339269 0.2505765361 0.264339141
0.0425163492 0.5018094658 0.266139864
0.0324426691 0.2519637495 0.5144618931
0.0426985509 0.2475801812 0.7657234059
0.0525459602 0.4982874231 0.0149004784
0.032715231 0.2478165116 0.0169587651
0.0326278334 -4.5672395184e-04 0.5187734445
0.0324911822 -0.0011732436 0.0192115669
0.0425648623 0.2503847222 0.2682238886
0.0525111493 0.2504357853 0.5165431402
0.052513001 0.2505719535 0.0152582159
0.0625677943 0.2500122236 0.2664592725
0.0625863108 0.5019521805 0.7709996635
0.0625863108 0.5011515377 0.268481267
0.0724644574 0.5003535136 0.5151081166
0.0728451552 0.2493726259 0.5139360264
0.0625844591 0.2513647404 0.7671139901
0.0724222399 0.2488652685 0.016787488
0.0625129857 0.0014309076 0.268055389
0.0624996539 0.0024591084 0.7683453328
0.0926288527 0.2472882052 0.5140776772
0.102579954 0.2509005902 0.7703525142
0.0824211136 0.2485660913 0.7626904143
0.092557009 0.2488639592 0.0171826287
0.1024033073 3.6814104704e-04 0.2636595879
0.0825677638 -0.0019230197 0.2647400217
0.0826677525 0.0014698595 0.7693729949
0.0926151506 9.1938415742e-06 0.0137675504
0.1024410808 0.2484692024 0.2668027523
0.082605167 0.247227977 0.2640771334
0.1023133174 0.4996464864 0.2647187278
0.0924066555 0.4948537589 0.5160117186
0.1125236488 0.0025123973 0.0157824161
0.1225817751 0.2501483918 0.2659278509
0.1125421652 0.2505411847 0.5142017373
0.1224925259 0.4987293151 0.7601721794
0.1123899602 0.500494919 0.0171105072
0.1224714172 0.2500652507 0.7625163598
0.112428104 0.2506681877 0.0151662818
0.1125414246 0.4994743122 0.5160904134
0.1523347201 0.2507100856 0.5125426649
0.1323984472 0.2510910947 0.5104780826
0.142334365 0.2511912569 0.7601768085
0.1524832218 0.2541863024 0.0122505917
0.132513249 0.2493143617 0.0120359862
0.1425487853 0.249552656 0.2618949718
0.1423358463 0.5018153577 0.7605415822
0.1525028493 0.5055187396 0.0091512186
0.1323791901 0.5032202468 0.0068448117
0.1323684505 0.5012372975 0.508721799
0.1524036012 0.0012816463 0.5113400226
0.1823468951 0.2529084163 0.7579076197
0.1824576233 0.2526242961 0.2561150673
0.1623639607 0.5043109016 0.7626533814
0.1625161658 0.5009355017 0.2596239313
0.1724950418 0.2521830588 0.50831166
0.1823842982 0.5003384565 0.7570058694
0.1625032043 0.2520580198 0.7612683522
0.1723472807 0.2480135627 0.0111680284
0.1626494841 0.0012194541 0.2559150898
0.1726950193 0.001116215 0.5052166382
0.1824709552 0.0026773703 0.2540495592
0.1625113515 0.2524004042 0.2594322863
0.2023220525 0.2532776416 0.2515831704
0.1924664959 0.5006710211 0.0050139994
0.2024983289 0.501135826 0.2504332999
0.1922983667 0.2500259714 0.5024188052
0.2023946369 0.252027251 0.7517731255
0.1923428062 0.2471998268 0.0032266081
0.192409095 0.0018323419 0.5016013047
0.2024994399 7.9241901003e-05 0.744326742
0.192357249 2.7851881026e-04 9.1705346601e-04
0.2022961295 0.0029725541 0.2492973167
0.2123231482 0.2506092688 0.4992034267
0.2225086675 0.2507015751 0.7510232099
0.2124123974 0.2515755392 -4.6029139035e-04
0.222343501 0.0049913784 0.2472077373
0.2124972026 -4.9993116607e-04 0.4979646773
0.2222975802 0.0032369037 0.7482688905
0.2123498118 4.9514407068e-04 -0.0036808823
0.2324616205 -0.002168057 0.500577346
0.222316467 0.253494987 0.2491306688
0.2322316464 0.2492646079 0.4954075579
0.2323790372 0.2528822301 -0.0048287901
0.2324593985 0.0010304553 0.9948975919
0.2524956602 0.2503637733 0.4928865456
0.242372356 0.2511480497 0.7419446029
0.2626326665 0.2492907941 0.2434850085
0.2523675265 0.2497438152 0.9956012163
0.2422471849 0.0028216562 0.2471484847
0.252297164 0.4963352426 0.9966751694
0.2524319637 2.6267616504e-04 0.4969305345
0.2425834434 0.248579839 0.2466328021
0.2623930639 0.2535558699 0.7416372301
0.2424671602 0.001260501 0.7475143459
0.2623138135 0.0014487797 0.2408649332
0.2523164211 -0.0023312624 1.0017671884
0.2624549087 -6.3629575279e-04 0.7445609749
0.2724793352 0.2498125539 0.4938790264
0.2722963928 0.2500357912 0.9994248597
0.2724311924 -0.002611782 0.4933596405
0.2724619297 0.4960740354 0.9934440519
0.282440065 0.2492024157 0.7452858932
0.2822793424 0.001281319 0.7412400526
0.2823289664 0.2492488962 0.2389216336
0.3023852258 0.2491205839 0.244660802
0.3123741007 0.2464718507 0.4888157078
0.3124066896 0.2497889864 0.9924256481
0.2922485898 0.5001852673 0.4952760913
0.3123441041 -7.8287295378e-04 0.9929070753
0.2922974732 0.2483317249 0.4967796256
0.2923707983 -0.0015401121 0.495402003
0.3024903992 0.2492691905 0.7476735872
0.3023585622 0.4994134293 0.2449431776
0.2924378278 0.250212548 0.9952956952
0.3122630021 0.501262829 0.9930922396
0.2924593068 -0.0037138932 0.9907313945
0.3024278136 0.0023728903 0.7421492095
0.3225407333 0.2490885058 0.2422638497
0.3323903646 0.2500868543 0.4948391034
0.3222900208 0.2494734428 0.7439443777
0.3323296307 0.2481333645 0.9940550942
0.3223751964 1.9563951751e-04 0.2442904733
0.3324140656 0.001040406 0.4949122434
0.3222470627 0.0010936295 0.7460793224
0.332386291 -0.0027174432 0.9956382492
0.3625132678 0.2549024947 0.2367728016
0.352444402 0.001392152 0.9928700425
0.3525136535 0.2491939052 0.4898359633
0.3423429472 0.2499801456 0.7435397936
0.3524373657 0.2512318455 0.9962863243
0.3422292563 0.0034213854 0.2415592995
0.3421907421 -5.7502006716e-04 0.7445943044
0.3424966336 0.2508200676 0.2390447679
0.3626428829 0.2502747402 0.7405068019
0.362476235 0.0019531912 0.2383892862
0.3725084383 0.2524318276 0.4942502809
0.3824776857 0.2475841091 0.7417168508
0.3724121528 0.2503336591 0.992166418
0.3824443561 0.0012041352 0.7382977915
0.3825554547 0.2514236593 0.2419999906
0.3925839548 3.1740530306e-04 0.4867316833
0.3924654496 6.2096871574e-04 0.9902221926
0.3723936364 0.0014037394 0.4871668195
0.372426966 0.0021851353 0.9922775166
0.3925209989 0.2523788006 0.4915366977
0.3924432299 0.2503388964 0.9942310003
0.4125483726 0.0042829111 0.4916144667
0.4023606313 0.2507002658 0.7427556227
0.4024791365 0.0019860548 0.2419907323
0.4027161468 0.0043709621 0.734334349
0.4024013675 0.4997571231 0.2389531115
0.4024643233 0.2513719416 0.2489667984
0.4126779877 0.2525058036 0.4927189719
0.4125854055 0.2509942058 0.9941476763
0.4124483839 0.0030938616 0.9905462301
0.4125705924 0.5017269793 0.9927589439
0.4127298337 0.5003214355 0.4865696645
0.4224546642 0.2508318514 0.2417657577
0.442559807 0.2526550649 0.7387245952
0.4325757464 0.503282439 0.9893796949
0.4327164713 0.5050356044 0.4979396801
0.4424450051 0.2518675152 0.2369153781
0.4226287187 0.5031816221 0.2441062348
0.4426449826 0.4999116216 0.745489574
0.4326201858 0.2533444164 0.4871723744
0.4225324332 0.2506321817 0.7378978365
0.4323831755 0.2508586923 0.9918794133
0.44258573 0.505078157 0.2402214872
0.4324424281 0.0047542625 0.9880835446
0.452432769 0.0027887925 0.9842599012
0.4727267794 0.2501123858 0.4808045732
0.4627612352 0.2518027044 0.7305273704
0.472567538 0.2495055209 0.9801122202
0.4625760709 0.2521215213 0.2336962963
0.4524957248 0.504526283 0.9859911877
0.4625982906 0.5018939162 0.7323197611
0.4724231099 0.5025518443 0.4783881787
0.4526031202 0.2544167409 0.4881954073
0.4527068122 0.2515519716 0.9853153379
0.472463846 0.0023815972 0.9804825489
0.4825923348 -2.3610529738e-04 0.2292893852
0.482570115 0.252154254 0.7241364236
0.4825849282 0.2507290706 0.2305225797
0.4926578677 0.246308187 0.4759069767
0.4925171428 0.2490813046 0.9739184734
0.4825627085 0.5009675797 0.2297448895
0.5025752691 -0.0023467122 0.7252251899
0.5024419508 0.2479467879 0.2263017588
0.5125778461 -0.0030682073 0.9778069243
0.5225026541 -0.0024310972 0.2229401004
0.5027493236 0.4958900774 0.7248085701
0.5026085987 0.2505968304 0.7275573346
0.5225989395 0.4965702637 0.7269759186
0.5125445165 0.2527696295 0.4734942855
0.5225322804 0.2478675747 0.2174434973
0.5124630442 0.2469052322 0.9753257223
0.5223952588 0.2506557493 0.7233513269
0.5124556376 0.5003017958 0.4757838424
0.5225470935 0.4991430569 0.2261693663
0.5524252096 0.2496927521 0.4768596472
0.552340034 -0.0032025424 0.9799085395
0.5324459785 0.4999234054 0.9773903046
0.5324719015 -0.0049066611 0.4767355871
0.5323163635 0.4970108464 0.4740766273
0.5324311654 0.2493739353 0.471898169
0.5324681983 0.2505470766 0.9732611401
0.5424818851 -0.0018522515 0.7273675412
0.5425226213 0.2516056533 0.2248621062
0.542337457 0.2481019411 0.7234216893
0.5524066931 0.2474597247 0.9772051403
0.5624944457 0.4990337296 0.7321808879
0.5624907424 0.5000955796 0.2292903111
0.5623389077 -0.0016381139 0.233324116
0.5622722485 0.2506976472 0.2335296484
0.562316688 0.2483703495 0.732315132
0.5723488913 -0.0019770287 0.4819609244
0.5725044293 -0.0014147457 0.9825286147
0.5723933307 0.2493529863 0.4841699348
0.5723155617 0.2491559352 0.9834174035
0.5925206932 0.4966023418 0.9806954879
0.5825329293 0.2505549324 0.7360869294
0.6023714355 0.2475271542 0.2433146573
0.5923614519 0.2478492443 0.4867964908
0.6024529078 0.2507886442 0.7394106291
0.5923614519 0.2502839054 0.9875373098
0.582451457 0.248175917 0.2337453648
0.602649182 0.4995325765 0.7338010757
0.5924762538 0.4966396571 0.4840245808
0.5824181275 0.4973846542 0.2323112671
0.6123925289 4.9750082782e-04 0.9894815352
0.6123443862 0.4971267203 0.4836625846
0.6222914139 0.49886221 0.2354646156
0.6224136224 0.2467592441 0.7431629842
0.6122592106 0.4971725461 0.986305967
0.6223321501 0.4979528946 0.7389875286
0.6122925402 0.2454296403 0.4863789453
0.6124591881 0.2436849854 0.9912405964
0.6223914027 0.2498014248 0.2440886442
0.6324643421 0.4993374894 0.985620859
0.6423558205 0.2477490821 0.2400826139
0.6522658154 0.2498387401 0.4921671822
0.6422262055 0.2505555871 0.7410261878
0.6523287713 0.2471749499 0.983352596
0.6423336008 0.4981695853 0.7334390795
0.6523176614 0.4978461858 0.9850468496
0.6421854694 0.4975326062 0.2347869142
0.6524880126 0.5000582643 0.4843189921
0.632475452 0.2448345591 0.4904682995
0.6323347271 0.2480633164 0.9931477889
0.6625054028 7.8535252624e-04 0.7409021277
0.6723746615 0.5026853938 0.4885157416
0.6824846338 0.4983155733 0.7421538386
0.6725042765 0.501427802 0.9887223615
0.6823994582 0.4987587746 0.2373699565
0.6623609746 0.248304884 0.2397798703
0.662353568 0.2495284338 0.7342075114
0.682384645 -2.7911611518e-04 0.2404622008
0.6823253925 -7.5118766335e-04 0.7423093766
0.6623461614 0.4998481201 0.7375228787
0.6623906009 0.4997728348 0.2372829293
0.682332799 0.2491651004 0.2450431663
0.672433914 0.2513928905 0.4903923821
0.6824624141 0.2469013042 0.7356138345
0.6723265187 0.250358536 0.9913054039
0.7025786667 0.2494374368 0.239340105
0.6924390681 0.2481857369 0.4908775126
0.7026786554 0.2482531663 0.7427917297
0.692631639 0.2504652447 0.994175451
0.7025379305 0.4953578431 0.7406845596
0.7024120188 -8.9154564411e-04 0.7438592021
0.70258237 -0.0019255728 0.2427276864
0.6924723977 0.4986383181 0.9947864933
0.6924835075 0.4981460177 0.4924023409
0.7125442108 0.248363803 0.491602431
0.712584947 0.2504076351 0.9908702677
0.7225690076 0.4987790689 0.7403225634
0.7226282602 0.2456915022 0.241400984
0.7326974963 0.248617809 0.4913515333
0.7225727109 0.2504573889 0.7394180356
0.7327011996 0.5008327209 0.993962512
0.7225578977 0.4967208343 0.2381661631
0.7325938043 0.4999273333 0.4896341342
0.7325826945 0.2496233587 0.989814831
0.7125960569 0.4985433932 0.9931663054
0.7625719091 0.5014474417 0.746252451
0.7427926555 -5.4549513743e-04 0.7434138818
0.7526396945 0.499484132 0.9945272632
0.7626015354 0.5004942643 0.2452394405
0.7622793494 0.2510046803 0.243918293
0.7526433978 0.2517608065 0.4932457644
0.7625348762 0.2498943858 0.745489574
0.7524767499 0.2505490406 0.9950920144
0.7423445579 0.5019705108 0.7442498988
0.752865595 0.4995712011 0.4920847841
0.7426519306 0.2488796709 0.2452838799
0.7426037879 0.2478898329 0.7422760471
0.7826733486 0.5004458199 0.2508489938
0.7826029861 0.5000445165 0.7489077075
0.7825400302 0.2483127399 0.2484881486
0.7726004091 0.2486295928 0.4968046228
0.78256225 0.2485726378 0.7522721433
0.7725522664 0.2507375811 -0.0034364747
0.7926870354 0.4976674651 0.5001459131
0.8125403547 0.4997401021 0.4971934679
0.8026525796 0.4986507565 0.7487993863
0.8028007111 0.501133862 0.2502388774
0.7925352007 0.2504122177 0.502835425
0.7925796401 0.2497981515 0.9990730475
0.8124329594 7.5458375247e-04 0.5011300615
0.8024933383 0.2514727584 0.2481678143
0.8127032993 0.2515238215 0.5009893366
0.8024822284 0.2468142351 0.7440147401
0.812544058 0.2533038278 1.0019245781
0.8324010806 6.1651706337e-04 0.5043398851
0.8226947665 0.2513477194 0.249565805
0.8325306956 -0.0018072767 1.0047761088
0.8323566411 0.2511487043 0.4986553403
0.8222911083 0.2487500493 0.7504084644
0.8326825304 0.5000157117 0.5050286964
0.8326566074 0.4991018137 1.0018412542
0.8325084759 0.2471166856 -9.5171751777e-04
0.8227132829 0.5012883606 0.2494658163
0.8424258773 0.4980779336 0.7570142018
0.8425628989 0.4991626966 0.2502259158
0.8425740088 -6.546260861e-04 0.256178949
0.8425184595 0.2485523435 0.2510739685
0.8424703168 0.2490413706 0.7527433865
0.8625754595 0.2477170041 0.2516137225
0.8524284543 0.2491624818 0.5042074926
0.8624902839 0.2475435205 0.7486568098
0.8522469933 0.2479134005 0.0057974297
0.8725484103 -0.001248267 0.505581412
0.88259913 0.2498321936 0.2597776177
0.8723706525 0.2474499049 0.5036844034
0.8926461465 0.2514786503 0.5061285725
0.8824287788 0.2495461095 0.7545792908
0.8927350253 0.5018860604 0.0042128859
0.8725261905 0.2487880192 -4.4788538035e-04
0.8925128281 0.2504043619 0.0044302688
0.8927942779 -4.4435097686e-04 0.5040676936
0.8726706187 2.6588397337e-04 0.0038451496
0.8726669154 0.4999744685 0.5017753592
0.8924017295 0.5005211052 0.5046342964
0.9125439052 0.003609926 0.5061915284
0.9025857676 0.2512652329 0.2573408552
0.9125439052 7.3016512988e-04 0.0086939553
0.9127401794 0.2510655632 0.5065192693
0.9025857676 0.2531021941 0.7562096628
0.9125105756 0.4986199878 0.5081450121
0.9025376249 0.4998932913 0.7549968364
0.9125920479 0.2512717794 0.0051404666
0.9126253775 0.5020052075 0.00860915
0.9026190972 0.4995613813 0.2571399519
0.9425627461 0.2524678337 0.7550227594
0.9325453559 0.2527794493 0.0078742328
0.9325897954 0.5012536639 0.5051018363
0.9323675982 0.5008726548 0.0049807624
0.9226649874 0.5009289551 0.757921507
0.9227057235 0.4999142402 0.2612061605
0.9425109001 0.4981996994 0.7608322902
0.9225501855 0.2489032385 0.2579361585
0.9225724052 0.2490852325 0.7546690955
0.9425071968 0.2503493709 0.2595887501
0.9326712677 0.2475546497 0.5101892263
0.972555664 0.0016511334 0.5093745032
0.9626789987 -0.0035360236 0.7553486486
0.9625567903 0.2504482237 0.2607062168
0.9524542245 -0.0010076814 0.0053313711
0.9725630706 2.781260174e-04 0.012577129
0.952654202 0.2514884701 0.5068451585
0.9726630593 0.250343479 0.5150784904
0.962604933 0.2475958929 0.7618460649
0.9525208837 0.2484750943 0.0080345851
0.9727741579 0.2476600491 0.01118673
0.97260751 0.498316228 0.5123750912
0.952576433 0.0014527731 0.508124644
0.9624716147 -5.0379741678e-05 0.262397693
0.9525616198 0.497489399 0.5071793801
0.9624419884 0.497214444 0.759385231
0.9826137903 0.250176542 0.2619551502
0.9825249114 -0.0034032596 0.7648336914
0.9926496969 -6.8185972415e-04 0.0190699161
0.9926015542 0.2488822895 0.5119631005
0.9825545377 0.2488894907 0.7630885176
0.9924941589 0.2496017551 0.0165796411
0.992638587 0.499342072 0.0138680021
0.0225557087 0.7481992595 0.7698710869
0.0025462588 0.4982186844 0.2695394811
0.0024394931 0.747714815 0.7675519037
0.0124752886 0.5005040842 0.5191585863
0.0027759737 0.4973067503 0.763766219
0.022539155 0.9980417025 0.2692395149
0.0225501167 0.9995801412 0.7690008146
0.0125139139 0.7458032231 0.0182110314
0.0226034441 0.7489062867 0.2671638228
0.0024513436 0.7480028631 0.2700412764
0.012536615 0.7502745151 0.5204714014
0.0525559591 1.0040907125 0.5177522633
0.0524644879 0.999062964 0.0148345599
0.0325622853 0.7493907312 0.0219169103
0.04256227 0.750536377 0.266846266
0.0324041549 0.7491812417 0.5193743028
0.0425385689 0.7499340947 0.7676778154
0.0425237558 0.5006900061 0.7665594229
0.0325882083 0.4998821621 0.0159984103
0.0324815536 0.5002297838 0.5232747893
0.0425178305 0.9990956967 0.2650131391
0.0526781676 0.4978448765 0.5169171721
0.0526137304 0.7485134938 0.0206632552
0.0525485525 0.7503072479 0.5184318163
0.0425222745 0.9977994803 0.7693322587
0.0723911323 0.4997309369 0.0169416374
0.0725825922 0.9995670481 0.513736049
0.0726018493 1.0017208623 0.0122713301
0.0725640758 0.7488931936 0.0162842114
0.0624689166 0.7516100108 0.267505451
0.0726233283 0.7498228034 0.5121408583
0.0624722495 0.7513677886 0.7684425441
0.0925921902 0.9997961773 0.5178707684
0.0925418255 0.7467328329 0.0144602502
0.1025703255 1.0000122134 0.768240715
0.1025151465 0.7499210016 0.2666675824
0.0823837104 0.7488997401 0.2624384291
0.1026380956 0.4981342339 0.7633283054
0.0926555164 0.7490044849 0.5133453522
0.1024588566 0.7475642444 0.7644466979
0.082575911 0.4987594292 0.7628866884
0.0825225837 0.7500650256 0.7645161345
0.092477018 0.4971103539 0.0160976583
0.0824388894 0.499359093 0.2636188517
0.1124521754 0.7514267075 0.0109879561
0.1225014138 0.7478195598 0.2618820103
0.1125425356 0.7479832235 0.5104716019
0.1225062281 0.7486771575 0.7636060519
0.1225321511 1.0002086098 0.2648289006
0.1226195486 0.9997765377 0.7630042678
0.1225091907 0.5005643124 0.266591665
0.1124899489 0.9990498709 0.5187651121
0.1424610174 0.7495413018 0.2618236836
0.1524635944 0.7520748157 0.5116835024
0.1324984359 0.7534430442 0.5150507157
0.1425480446 0.7508178786 0.7601184817
0.1524561879 0.5016759162 0.5131213034
0.1323943735 1.0006341354 0.0155416099
0.1426117412 0.502182619 0.2635457118
0.1425276766 0.9998027238 0.262491201
0.1324254811 0.9990302312 0.5113196545
0.1425317502 1.0004311924 0.7607091559
0.1525143295 1.001537559 0.0104195942
0.152633205 0.75238905 0.0110931295
0.1326995243 0.7519897106 0.0095683012
0.1726342854 0.7528014825 0.0085954478
0.1625909722 0.7522515725 0.2567325903
0.1726390996 0.7505232839 0.5052425612
0.1625587536 0.7500846653 0.7581381492
0.1825994592 1.0031152769 0.7519842128
0.1725513318 0.5028110875 0.0139850259
0.1724335672 0.5011967089 0.5086755079
0.182586868 0.752245026 0.2595396816
0.1826753766 0.7525592603 0.7597740761
0.1725709592 1.0007388802 0.0061800718
0.162580603 1.001956538 0.7563216872
0.1824983595 0.5018363066 0.2561678391
0.2025409167 0.5017688772 0.7520397621
0.1923205864 0.5026284389 0.5064803848
0.1925098244 0.7549160174 0.0037140532
0.2024390763 0.7493252657 0.2497194914
0.1924787168 0.7521075485 0.5039797405
0.2023935259 0.7505101909 0.750804716
0.2323842218 0.5026160004 -9.1246268016e-04
0.2324412524 0.7486837041 -0.0040340555
0.2324705084 0.749161602 0.4996154173
0.2124460973 0.7544839452 0.0015455938
0.2224849665 0.752461062 0.2496306125
0.2122790791 0.7495085691 0.500826392
0.2323260802 0.4969997172 0.4994682117
0.2222498078 0.7499799205 0.7467959083
0.2221509301 0.5002664445 0.7508602653
0.2123427756 0.5000504084 0.0032566048
0.2223186889 0.5007070271 0.24870942
0.2124057315 0.5016510393 0.4952834978
0.2522671674 0.7495347553 -0.0037121103
0.2423242133 0.7483760163 0.2509212079
0.2525330634 0.7509880888 0.4952335035
0.2422582948 0.7480552355 0.7452257148
0.2423379155 0.5000752853 0.7436305241
0.2422494069 0.4991980479 0.2478511833
0.262359364 0.5009832915 0.7420084846
0.2524352966 0.4999718498 0.4943548987
0.2621771623 0.7520879088 0.2448589278
0.2623034443 0.7496656862 0.7459052679
0.2624030627 0.5019698562 0.2426591756
0.2723541641 1.0000711323 0.9996748315
0.2724534122 0.4998402642 0.4900998225
0.2825267219 0.4983875853 0.246716126
0.2823315587 0.5009721623 0.7441026932
0.2823345214 0.7520944554 0.2421397896
0.2822556414 0.7497966172 0.7439351194
0.2722678775 0.7532073685 0.9939162209
0.272307873 0.7527163774 0.4954732913
0.28244562 0.9982446455 0.2438868151
0.3123741007 0.9961497503 0.491311723
0.2923196929 0.7510666474 0.9898888968
0.302316715 0.7489259263 0.2381819021
0.292206002 0.7501501307 0.4933642696
0.3024659575 0.7495740345 0.7417427738
0.3122567065 0.7521468278 0.9926108124
0.3124552027 0.7514070679 0.4895609943
0.3124215028 0.4988838136 0.4907117906
0.3025411342 0.4998435375 0.7406614141
0.2925322616 0.4996805285 0.9906665869
0.3023104194 0.9976227235 0.2421971906
0.3325892311 0.5015102885 0.4908636253
0.3223266833 0.5035717964 0.748006883
0.332354813 0.7539471283 0.9989526906
0.3324481358 0.5032647633 0.9878150563
0.3224114886 0.7486378782 0.2441840038
0.332304078 0.7509029837 0.4960435974
0.3223081669 0.7507065873 0.7459191552
0.3223481624 0.4985879097 0.2433322479
0.3524655107 0.5022389193 0.4922477287
0.3525980884 0.9998420031 0.491721862
0.3624206857 0.7505756563 0.2449857654
0.3626910256 0.7515183592 0.7435333128
0.3524895821 0.7506542149 0.9971010474
0.3624169824 0.5041249796 0.7433805523
0.3424055328 0.7498555361 0.2446265466
0.3624799383 0.5028006131 0.2416889145
0.3523684846 0.7522122932 0.4921875503
0.3423388736 0.7503007013 0.7425130574
0.3623873561 1.0012298712 0.7405799418
0.3423599823 0.5024268052 0.7437499551
0.3523377473 0.5016215798 0.9895833756
0.3425255193 0.501353826 0.2479021035
0.3724306693 0.5053995925 0.9940643524
0.3826258172 0.5045020608 0.2399418891
0.3723936364 0.5010814897 0.491182108
0.3923358346 0.5037079646 0.9908517513
0.3825813777 0.4997747988 0.7339418006
0.3725417679 0.7524086897 0.9888982676
0.3824702791 0.7515249057 0.2442099268
0.372556581 0.7500977584 0.4910099051
0.3822517852 1.0029712529 0.2372347866
0.3822036425 0.7517147556 0.7394272939
0.3926617238 0.7499799205 0.9848987181
0.3925950646 0.7528276687 0.485783642
0.3925432186 0.5029060125 0.4912969098
0.4025346858 0.5028019224 0.7361258139
0.402434697 0.7502745151 0.2389623698
0.4025532022 0.7517802211 0.7394235906
0.4124224609 0.7502025031 0.9902314508
0.4125742957 0.7528014825 0.4858151199
0.4225250267 1.0040383401 0.7387764412
0.4424598182 1.001956538 0.2375301237
0.432505384 1.0026439255 0.4883814975
0.4427116417 1.0038026644 0.7363183848
0.422606499 0.5031665651 0.7417344414
0.4324831642 0.7515707316 0.9875928591
0.4225953891 0.7513677886 0.2401066853
0.4324905708 0.7544512125 0.4883065059
0.4226768614 0.7527294705 0.734324165
0.4424487084 0.7541631644 0.2353257423
0.4424857413 0.7521795605 0.7356249444
0.4223768952 1.0010007421 0.2379356336
0.4725082854 0.7505560167 0.9800659292
0.462487192 0.7505822029 0.2296097195
0.4727415925 0.7516165574 0.4771549843
0.4627204991 0.7511255663 0.7339529105
0.4525068347 1.0029516132 0.4854364589
0.4724860657 1.0005228441 0.4778512021
0.4725119887 0.5017760784 0.9753257223
0.462564961 0.5017970273 0.2330722925
0.4626760596 0.9993051862 0.2310308558
0.4625760709 1.0026046462 0.731552255
0.4525920103 0.7523301311 0.9811028494
0.4524179558 0.7524086897 0.4832320775
0.4525253511 0.5027155079 0.4870335012
0.4826108512 1.0011447661 0.7246956199
0.4925763954 1.0004442855 0.4816989169
0.4925541756 1.0004050062 0.9777421168
0.4927578564 0.7497442448 0.4765633842
0.4926467578 0.750320341 0.9758626989
0.4826330709 0.7480225028 0.2254990714
0.4825627085 0.7516427436 0.7244391673
0.4925060329 0.5015744447 0.9762237693
0.4925097362 0.5010710152 0.4795778595
0.4825553019 0.5001237297 0.7309143639
0.5124815606 0.998238099 0.4706547905
0.5225507968 1.0012167781 0.7229550752
0.5025123132 1.0017012227 0.2258916198
0.5225730165 0.7537769181 0.720147984
0.5027641367 0.74908959 0.2263730471
0.5027085874 0.7502352359 0.729122899
0.5127296808 0.748467668 0.9732241072
0.5125334067 0.499759087 0.9748998444
0.5025493461 0.4975188585 0.2253731597
0.5125371099 0.7501239445 0.477716958
0.522669302 0.7517933142 0.2221225999
0.5523289241 0.9981988197 0.4817081751
0.5423226438 0.5005453274 0.7250900199
0.5421115565 0.7500650256 0.2276099448
0.5523474405 0.4991725164 0.4772929317
0.55239188 0.748467668 0.4789307102
0.542518918 0.7485331335 0.7258704876
0.5326163297 0.74853968 0.9731037504
0.5323941325 0.9992135346 0.9767051966
0.5424855884 0.5015358201 0.2280052706
0.5523622537 0.4956151224 0.9757330839
0.5323867259 0.7492990795 0.4759856715
0.542544841 0.9961759365 0.227312756
0.5724451767 0.4988425704 0.9812972719
0.5622204025 0.998513054 0.7289655093
0.5523548471 0.7488473678 0.9819268307
0.5623981603 0.7479439442 0.2286496425
0.5624685227 0.7458228628 0.7304060878
0.572215573 0.749914455 0.9846302298
0.5725155392 0.4979980657 0.4810647291
0.5725044293 0.7498228034 0.4813415497
0.6023195895 0.5000654655 0.2361034325
0.6023455125 0.9981726335 0.2388355322
0.6024417979 0.9976554562 0.7323234644
0.5925614294 0.7513285093 0.9848153942
0.5924058913 0.9974656063 0.4850124325
0.5925466162 0.9982511921 0.9879354131
0.6025232702 0.7499013619 0.237305149
0.5926910444 0.7474922324 0.485767903
0.6023714355 0.7496002207 0.73319744
0.5823514683 0.996110471 0.2355497912
0.5822292598 0.9998158169 0.7357406721
0.5824625669 0.4989152371 0.73392421
0.5824181275 0.748611692 0.2315428351
0.5822848091 0.7500977584 0.7335131452
0.6124814078 0.746961962 0.9878613474
0.6123332764 0.9982446455 0.4940882621
0.6122592106 0.7490110314 0.4859975068
0.6222691942 0.9937733535 0.7392013934
0.6224358421 0.7522188398 0.2415935549
0.6224506553 0.7474464066 0.7422769729
0.6224654684 0.9963526933 0.2390762458
0.642503952 1.0006930543 0.7401901709
0.6424076666 0.9979827836 0.2390225482
0.6522324858 0.999062964 0.4904053436
0.652350991 0.9989451261 0.9903332912
0.6324124961 0.997688189 0.490403492
0.6325347046 0.9996979791 0.9908610095
0.6323532435 0.4999535195 0.4894730412
0.6322273318 0.7506149356 0.9891667559
0.6321791891 0.7508767975 0.4872899538
0.6524509797 0.7503596203 0.9866022299
0.64240026 0.7499995601 0.2332074624
0.6524694962 0.7520158968 0.4888166337
0.6426113473 0.7502155962 0.7392902723
0.6724191009 0.7480945148 0.9870373661
0.6624646666 1.0032134752 0.2390984655
0.6723894746 1.0010007421 0.9875002769
0.6825809192 0.7482843647 0.2388679359
0.6724302108 0.7489259263 0.4885055576
0.6826105455 0.7487164368 0.7381459567
0.6624868863 0.7478915718 0.2368839002
0.6623943042 0.7485920524 0.7363905989
0.6725561225 1.0001431443 0.4906821643
0.7026490291 0.4964432607 0.243430385
0.6924798042 0.9980547956 0.4921894019
0.6924761009 0.9988207417 0.9887686526
0.6924909141 0.7473613015 0.9890556573
0.7024453484 0.7481992595 0.2417092826
0.692657562 0.7503596203 0.4911580366
0.7027305014 0.7476231634 0.741082663
0.712584947 0.5004268349 0.4920995972
0.7125812437 0.7500846653 0.4907673399
0.7226801062 0.9985523333 0.747186605
0.7326752766 0.9974394202 0.9918979297
0.7326456503 0.7487491695 0.9918146058
0.722509755 0.7465626226 0.2444154592
0.7326567602 0.7487622626 0.4921597756
0.7225578977 0.7512041249 0.740698447
0.7227652818 0.9984868678 0.2405140468
0.7328345179 0.9996717929 0.493538324
0.7126404963 0.7490044849 0.9936847655
0.712559024 0.9973870478 0.4944687748
0.7125405076 0.9982708317 0.9967307187
0.7427074799 0.4980288345 0.2443034348
0.7426371175 0.7510011819 0.2423036601
0.7426815569 0.7505756563 0.744123987
0.7527063537 0.7482450854 0.9954530848
0.7624497006 0.9980417025 0.7482827779
0.752761903 0.9979565974 0.9954438266
0.7625126565 0.7507589597 0.2467818593
0.7527063537 0.7490503107 0.4930272705
0.7625274696 0.7508244251 0.7456589993
0.7527248701 1.0006406819 0.4951992481
0.7426371175 0.9988403813 0.2427563868
0.7625645025 0.9987421831 0.2429711775
0.7826103927 0.9997438049 0.2503925637
0.7728040899 1.0005293906 0.5012254211
0.7826289091 0.9976227235 0.7496317
0.772585596 1.0022249465 0.9991563714
0.7825696565 0.7496525931 0.2477456397
0.7724819039 0.7474856859 0.4959500894
0.782614096 0.7509684492 0.749221561
0.7725596729 0.749220521 0.9949346247
0.772663365 0.4990422401 0.5020706963
0.7727559471 0.5000765946 1.0006006532
0.7926462993 0.7490634038 1.0034336674
0.8126884862 0.7494889294 1.0015172166
0.7926759256 0.501871658 0.9969714323
0.8125329482 0.4998428829 0.9986564277
0.8027340519 0.7495020225 0.2464605992
0.8125403547 0.7502352359 0.4989654905
0.8025229646 0.7517933142 0.7502066352
0.7926462993 0.7481337941 0.4953705251
0.7924648382 1.0010923937 0.4987118154
0.7927388815 1.0018452467 1.0024152636
0.8027525683 1.0025326342 0.2531903967
0.8026007336 1.0022118534 0.75075287
0.8124292561 1.000103865 0.9966936858
0.8226577336 0.9985457867 0.7482994427
0.8225688547 0.9999794806 0.2527969225
0.8325529153 0.7520158968 1.0009709818
0.8226021843 0.5019063547 0.7499048174
0.8224540529 0.7520813623 0.2455995851
0.8324936627 0.7463204004 0.4993747037
0.8225244153 0.7502745151 0.7494067253
0.8425999318 0.7507589597 0.2552762729
0.8425480858 0.7511648456 0.7581279652
0.8624717675 0.4988248947 0.7539302899
0.8425517891 1.0004901113 0.7521841903
0.8625273168 1.0002413425 0.2525978709
0.8625828661 1.0007912525 0.7495631892
0.8525062234 0.9994361172 0.0015155972
0.862593976 0.7524937948 0.7537543838
0.8524506741 0.4962651946 0.5013522587
0.8524062346 0.7469423224 0.0014315326
0.8525395529 0.4973015131 0.0042617693
0.8625050971 0.498754192 0.2530006033
0.8626310088 0.7483236439 0.2512869074
0.8525728825 0.7484152956 0.5018790512
0.8525358496 1.0005948561 0.5014216953
0.8826176464 1.0029908925 0.755938397
0.8925943004 1.0021005621 0.006279505
0.8825509873 0.7525134344 0.7575382168
0.8725669267 0.7488670074 0.0036411911
0.8926868826 0.7494823829 0.0086822899
0.8824324821 0.5013885227 0.7537256833
0.8826472727 0.5032667273 0.2507138239
0.8826806023 0.7526116326 0.2581148421
0.8725817398 0.7484087491 0.5033344428
0.8927868713 0.7482712716 0.505362918
0.8725298938 0.4993329068 0.0042449194
0.88259913 0.9991742553 0.2564252176
0.9025894709 1.0005032044 0.756784598
0.9126179709 0.7487819023 0.5067238759
0.9027672286 0.998107168 0.2559086091
0.9024894821 0.7534954166 0.7583455333