POSCAR file written by Ovito 3.7.11
1
270.0860535629 0.0 0.0
0.0 15.2783743983 0.0
0.0 0.0 10.8034421425
Sr Ti O 
800 800 2400 
Direct
0.0225925318 0.5025185926 0.7779758524
0.0127955802 0.5007782242 0.024333551
0.0125699854 0.2531471673 0.5244187024
0.0224833074 0.2519114337 0.7801325725
0.0025197071 0.2469678449 0.7777935032
0.0125086346 0.2503039328 0.0259479439
0.0026665492 -0.002477672 0.27743816
0.0224807156 0.5023444903 0.2784785692
0.0127247879 6.7344855296e-04 0.5281434412
0.0027507816 -2.7913970157e-04 0.7779314222
0.0125455858 2.8944173083e-04 0.0315715219
0.0226145988 0.2543737375 0.2850338873
0.0025585096 0.2495669434 0.2786951668
0.0424454636 0.5003665311 0.2797457579
0.0324575358 0.2505683589 0.5288358131
0.0425095173 0.2538736843 0.780861044
0.0525004071 0.5001970105 0.0341769878
0.0324760484 0.2490341642 0.0249380805
0.0325530609 0.0015876165 0.5277944784
0.0326522886 -7.9352688669e-04 0.0262793197
0.0426094854 0.2516103545 0.2775057311
0.0525033691 0.2539482996 0.5314044389
0.052448942 0.2515953006 0.0316916688
0.0626697585 0.2507182439 0.2872757654
0.0626493946 0.4998016805 0.785513265
0.0626034833 0.5016088099 0.2873211213
0.0725177309 0.5022738021 0.5426212343
0.0725192119 0.2527132206 0.5385688222
0.0626020023 0.2520992809 0.7877153409
0.0724492342 0.2523997055 0.0388653084
0.0626575402 1.6429752699e-04 0.2841313972
0.0626697585 0.0012482479 0.7861260326
0.0925317225 0.2482624853 0.5341396783
0.1025640806 0.2475333501 0.7811924199
0.0824345702 0.2492508103 0.7909485697
0.0923306754 0.2498994395 0.0332484874
0.1025437167 -4.2413458581e-06 0.2787136794
0.0823775514 -1.7004483802e-05 0.2859261955
0.0823860672 -0.0010309213 0.786634204
0.092541349 0.0039305359 0.0336782579
0.1025511217 0.2499164571 0.2833214701
0.0824575259 0.2519461232 0.2891122171
0.1024548561 0.5017855303 0.2821903491
0.0924310138 0.499555581 0.5352328484
0.1124072397 -8.9929730165e-04 0.0311271265
0.1224088668 0.2468271231 0.2760987721
0.1123787302 0.2474142275 0.5278925952
0.1224988381 0.5016853887 0.7810406164
0.1123276354 0.5009726166 0.0265609892
0.1225043919 0.2468081421 0.7753257711
0.112415015 0.2504282916 0.0291588649
0.1125753342 0.4961527321 0.5326179411
0.1522260302 0.2476917439 0.5145496257
0.1323864275 0.2471151119 0.5249222457
0.1426035415 0.2485989085 0.7725090763
0.1523715394 0.2498503505 0.0152855088
0.1325178671 0.2467957062 0.027383042
0.1423528807 0.2504492362 0.2701812137
0.1424235989 0.4977648146 0.7733912025
0.1524396658 0.4970350249 0.0231003329
0.1324341901 0.4987773568 0.0252875988
0.1324049401 0.4979461166 0.5259191501
0.1523674666 -7.3979080335e-04 0.5176245715
0.1823042216 0.2497148649 0.7616088467
0.1823194019 0.2509368536 0.2601436721
0.1621817461 0.5004221653 0.7673921886
0.1624072298 0.5043499392 0.2653799662
0.1724932744 0.2489032603 0.5108582096
0.1823490221 0.4999607288 0.7594900775
0.1622598693 0.2489732939 0.7633342227
0.1724047841 0.2503549854 0.0116487975
0.1625164542 -9.1238769954e-04 0.2639276513
0.1725576983 -0.003179841 0.5104990648
0.1824189998 0.001633891 0.2579647369
0.1623820526 0.250851766 0.2624290548
0.202287112 0.2486021811 0.260931384
0.1924595034 0.5008476033 0.0112427233
0.2024937128 0.5016997882 0.259068089
0.1923906365 0.249732537 0.5130963851
0.202410406 0.2499347836 0.7577128662
0.1923813802 0.2524298134 0.0101403894
0.1923643486 1.1540489087e-04 0.5153465939
0.202404482 -7.0385766114e-04 0.7620124217
0.1923358392 5.6820175391e-04 0.011587891
0.2024437287 4.2158929753e-04 0.2614201171
0.2124664602 0.2485157845 0.5061735915
0.2221381925 0.2502430625 0.7589809805
0.2124164761 0.2472257258 0.0094900411
0.2224921537 2.7699224996e-05 0.2662574643
0.2122583784 -6.730952261e-04 0.5118856599
0.2223681192 6.3875899854e-04 0.7633231151
0.21267158 -0.001860787 0.0084148283
0.232439724 -2.3777404423e-04 0.5104287168
0.2223995907 0.2515776285 0.2607342246
0.2322316422 0.2536504931 0.5127353891
0.2323330914 0.2539424089 0.009357861
0.2324460183 -5.3461241928e-05 1.0122252673
0.2524355732 0.2553810437 0.5050804214
0.2425883413 0.2495741431 0.7640765787
0.2624860737 0.2516430805 0.2523387522
0.2526014463 0.25249592 1.005329317
0.2424198765 0.0014154778 0.2589921872
0.2524570479 0.50195636 1.0015527429
0.2525377629 0.0020529801 0.5053710695
0.2424824492 0.2480432211 0.2579082734
0.2627048928 0.2481086731 0.7542593372
0.2422303073 0.0013226668 0.7551766375
0.2623198304 0.0011398594 0.2531597869
0.2523226463 0.0036794621 1.0053478296
0.262534947 0.0016480941 0.7484574827
0.2725769316 0.2520109207 0.5006697901
0.2724303117 0.2498542777 1.0066622255
0.2724706692 8.4957985658e-04 0.5057218836
0.2726124759 0.5009588716 1.0013953856
0.2824800716 0.2493175713 0.7515916689
0.2824223123 -5.4173308326e-04 0.7554839469
0.2827244382 0.2510324135 0.2537993978
0.3025107246 0.2492004123 0.2465628154
0.3125308643 0.2496559581 0.4908108953
0.3124990226 0.2490466001 0.9914911349
0.2925242778 0.4999410932 0.4974856198
0.3123986842 -0.0011447423 0.9969338446
0.2925194645 0.2521725871 0.4979734273
0.2924420817 3.9226680626e-04 0.5009447025
0.3024177912 0.2506514829 0.7465229141
0.3025636706 0.497104404 0.2415172013
0.2924502273 0.2535208981 0.9976836057
0.3125419719 0.5028314531 0.9920835386
0.2924802177 9.2962763968e-04 1.0023765544
0.3025507118 0.0023520303 0.747706796
0.3224388176 0.2485275658 0.2370565859
0.332490799 0.249323462 0.4891243958
0.3225354534 0.2538965925 0.7435794078
0.3323845366 0.2511750988 0.988260683
0.3224954662 0.0021320461 0.2420688773
0.3323963847 -0.0048749231 0.4944810219
0.3225380452 -0.0012665484 0.7414893332
0.3324178593 0.0016609882 0.994101414
0.3625489967 0.2532512359 0.2330421246
0.3524766514 1.970889737e-04 0.991046832
0.3524629521 0.2492684824 0.4857134459
0.3425461127 0.250868129 0.7397426676
0.3522415412 0.2505271241 0.9831512003
0.3425246381 -0.0013452872 0.2396751957
0.3423139645 -0.0010562512 0.7389262612
0.34246873 0.2490845623 0.2415190525
0.3624601362 0.2491892854 0.73610031
0.3625823195 -0.0015862814 0.2328273783
0.372301444 0.2458381436 0.4857338097
0.3823871184 0.2490531453 0.72954962
0.372371792 0.2473180131 0.9830864062
0.3825093017 -0.0019868476 0.731440684
0.3825352194 0.2475896388 0.2307474856
0.3925838686 -0.0019067343 0.4824931759
0.392580166 -0.0030169964 0.9834844275
0.3726235636 -0.0015212221 0.4842092956
0.3725791333 -7.6642976306e-04 0.9793746262
0.3926616216 0.2461359501 0.4818128372
0.3925320332 0.2479103536 0.9777455158
0.412462718 -0.0037746032 0.4719095121
0.4024955244 0.2482507039 0.7243373924
0.4024584991 -7.6099724793e-04 0.2279363445
0.4026732455 -0.0042192186 0.727212402
0.4024325815 0.4976679456 0.2311566145
0.4024288789 0.247431245 0.2247160746
0.4125737937 0.2466602206 0.4738450063
0.412462718 0.2480975463 0.9780787429
0.41237756 -0.0033512597 0.9725619827
0.4125108508 0.499227012 0.9747094464
0.4125552811 0.500757934 0.4777826402
0.4224336142 0.2486191986 0.2216809308
0.4426345832 0.2491185973 0.7152439943
0.4324082129 0.4973773388 0.974727959
0.4324526432 0.4966907474 0.4670601317
0.4423161662 0.2476747264 0.2186624484
0.4221744376 0.4984226071 0.2242153083
0.4422680334 0.4994449671 0.7174488471
0.4323526751 0.24767669 0.4695796991
0.4225113672 0.2514486881 0.7194824582
0.4326747946 0.2467027644 0.9689242532
0.4422273056 0.4975894032 0.2217799733
0.4322712195 -0.0024075729 0.9708588218
0.4524129482 0.0013476695 0.9696184764
0.4723584431 0.2505696679 0.4623819931
0.4623764393 0.2495819974 0.7186503161
0.4723917658 0.2497822805 0.9624078116
0.4624690024 0.2487271944 0.215626379
0.4523648154 0.5002048647 0.9696184764
0.4623801418 0.5010740671 0.7185022151
0.4724176834 0.4996439412 0.4629392229
0.4523796255 0.2458590882 0.4683041797
0.4524351633 0.2481400901 0.9690816105
0.4724769238 3.1765153828e-04 0.9614266428
0.4824441175 -8.5708076845e-04 0.2094783385
0.482525573 0.2494268762 0.7123439927
0.4823663645 0.2496821389 0.2136464545
0.4923557733 0.2518754351 0.4580407841
0.4922817228 0.2497783534 0.9585849559
0.4823478519 0.5001655935 0.213883416
0.5024636628 -8.6696401886e-04 0.7097651849
0.502571036 0.2494628748 0.2141499977
0.5123753186 0.0015039034 0.9607879575
0.5224869107 0.0030743584 0.2106538898
0.5024303401 0.5020813733 0.7074224131
0.5023673972 0.2500872867 0.7107389487
0.5224572905 0.5030166822 0.7097068702
0.5124826918 0.2500041627 0.4602169424
0.5224609931 0.2539685897 0.2069448867
0.5126011726 0.2526804946 0.956400467
0.5224017527 0.2517523854 0.7094513961
0.5126159827 0.499211958 0.4609935467
0.5225609612 0.5001315585 0.2108343878
0.5525625103 0.2529226669 0.4648062205
0.5524107068 0.0011509208 0.962389299
0.5323615413 0.5022443487 0.9633612114
0.532394864 0.0036998831 0.4615915043
0.5324985347 0.5012776228 0.4640786746
0.5325762877 0.2532695625 0.4567810005
0.5325281549 0.2501926644 0.9609638274
0.5424694308 0.0030430724 0.7057414674
0.5424101905 0.2505644317 0.2094505696
0.5425101586 0.2519421961 0.7118561852
0.5525477002 0.2510422313 0.9653605742
0.5623149576 0.5024472499 0.7117414069
0.562451951 0.5016690257 0.2142388583
0.5623297677 2.9736142155e-04 0.2071911045
0.5626703999 0.252596716 0.2163641069
0.5625185964 0.2532813438 0.7153837646
0.5724339547 6.8339725535e-04 0.4645090929
0.5723599042 8.4866352873e-04 0.966193642
0.5725857582 0.2532774167 0.4635853133
0.5723450941 0.2525770804 0.9622967359
0.5922942916 0.5018568729 0.9727841341
0.5825011165 0.2520593552 0.7166852016
0.6024095862 0.2499033667 0.2206868032
0.592523848 0.2471458743 0.4683643457
0.6022799978 0.2511875347 0.7194426561
0.5923720446 0.2496585762 0.9684521815
0.5823456105 0.2491159792 0.2192696623
0.6025095543 0.4994037324 0.7270402346
0.5923720446 0.5034316478 0.468942865
0.5823122878 0.5009922522 0.2216198392
0.6126914943 6.2272326113e-04 0.9718770158
0.6124582353 0.4996747036 0.4759276759
0.6224587517 0.4990450555 0.2257768476
0.6224846694 0.2512929124 0.7254638852
0.6124138051 0.5044337178 0.9713216373
0.6224550492 0.4992145761 0.7239106765
0.6123878874 0.247495388 0.4725333873
0.6127285196 0.2498418418 0.9720436294
0.6225735299 0.2491820857 0.2254612075
0.6324814832 0.5032339828 0.9755517706
0.6424005441 0.2523970875 0.2265043935
0.652645427 0.2474240453 0.4812407973
0.642704151 0.2496782118 0.726445054
0.6524306806 0.2507562061 0.9800225679
0.6424597844 0.5020152668 0.7301438751
0.652652832 0.5021350439 0.9772919567
0.6423450062 0.5036554936 0.227275444
0.6524491932 0.5018385464 0.4812519049
0.632522211 0.2484437873 0.4748909692
0.6325111034 0.248795919 0.9724138818
0.6625570828 -0.0014564246 0.7338973084
0.6725390866 0.5015597209 0.4865252242
0.68247666 0.4991235979 0.7337149591
0.6725094664 0.4978564473 0.9821792879
0.6825729256 0.5018895989 0.2375962287
0.6624719248 0.2491415055 0.2323006943
0.6624645197 0.2506626097 0.7340176405
0.68247666 0.0029978451 0.2386023895
0.6824063121 -1.1177896453e-04 0.7371490498
0.6624571147 0.501843128 0.732897627
0.6624163869 0.5026134979 0.2334855018
0.6825729256 0.2505755586 0.2357375618
0.672457631 0.254257233 0.4872860928
0.6825321979 0.2524016691 0.7372943739
0.6725057638 0.2506475558 0.9864001648
0.702514718 0.2503202958 0.243050046
0.6924290436 0.2520521555 0.4934998531
0.7025369331 0.2523002185 0.7377451561
0.6924734739 0.2492475377 0.9931757831
0.7025961735 0.4996681584 0.7398074618
0.7025517432 0.001059288 0.7408071432
0.702514718 0.0026188126 0.239082792
0.6926586001 0.4992414114 0.9878071238
0.6927326505 0.501201044 0.4884468339
0.7126226076 0.2507581696 0.4921576883
0.7124448864 0.2473409213 0.9917688241
0.7224639154 0.4991674507 0.7384949172
0.7223343271 0.2504407275 0.2403536832
0.732494052 0.2508301668 0.4900953826
0.7226120164 0.2476243284 0.7444513521
0.7324644318 0.4975697676 0.9873720773
0.7225935037 0.4982210149 0.2404508744
0.7326088302 0.5000562887 0.49585003
0.7324977545 0.2488993331 0.991046832
0.7124485889 0.5002892978 0.9914263407
0.7625696516 0.4953803986 0.7425547344
0.7423983027 -0.0024984858 0.7452085182
0.752624673 0.4990378558 0.9924352784
0.7624918986 0.4992669377 0.2419457684
0.7624770885 0.2489091509 0.2426992319
0.7525284074 0.2482867025 0.4937451453
0.7623882279 0.2476662177 0.7444180294
0.7527098311 0.2506246476 0.9911301388
0.7426167516 0.4991360337 0.7409145164
0.7526061604 0.5018405099 0.4945948745
0.7424575431 0.2485360746 0.23750274
0.742357575 0.2487193402 0.739561244
0.7825336591 0.5013934729 0.2486584437
0.7825447666 0.4991039623 0.7494053287
0.782526254 0.2476524727 0.2468636454
0.7725368452 0.2510206321 0.498084503
0.7825040389 0.2477931945 0.7462026458
0.7723295039 0.2512562593 -0.0069876423
0.792623036 0.499308827 0.4987148576
0.8125315056 0.4985895096 0.5056034029
0.8025013691 0.5013077307 0.7497894656
0.8026235524 0.4990928354 0.2526192184
0.7926156309 0.2496749392 0.4988537023
0.7924379098 0.2504603631 0.9978502192
0.8124870754 2.9153619449e-04 0.5028700148
0.8025346918 0.2495780703 0.2511085888
0.812583341 0.249553853 0.502365546
0.8024902615 0.2503641487 0.7569066416
0.8125648284 0.2488993331 1.0036168998
0.8326102914 0.0015789768 0.5068974349
0.8223394908 0.2474849156 0.2561042188
0.8326251015 0.0029538613 1.009402093
0.8325806712 0.2482801573 0.5077314284
0.822765281 0.2477519598 0.7534114593
0.8325843737 0.4975782764 0.5050174785
0.8327361772 0.4982759946 1.0092725047
0.8325954813 0.247973842 0.0053193334
0.8225542372 0.4993035908 0.252121229
0.8424404917 0.49983637 0.7560041515
0.842499732 0.4989841851 0.2590477251
0.842647833 -0.0047739307 0.2580952509
0.8427403961 0.2504734535 0.2533347311
0.8425219472 0.2478521013 0.7540297808
0.8626044354 0.2463499781 0.2525303578
0.8524817358 0.2492115391 0.505402541
0.8625859228 0.2490119106 0.7557431236
0.852518761 0.2510088508 0.0079998679
0.8725234963 0.0011292562 0.5133314954
0.8827017338 0.2469521364 0.2580804408
0.8726234644 0.250936199 0.5045990934
0.8925319341 0.2492540829 0.5152151543
0.8824721773 0.24863098 0.7652058484
0.892524529 0.5006473202 0.0132030244
0.8724346357 0.2498267878 0.0104303896
0.8925504467 0.2498555867 0.0124231804
0.8925874719 0.0011553716 0.5141830758
0.8726975149 -9.2541264544e-04 0.0102262879
0.872393908 0.4988558992 0.5079998613
0.8926911426 0.4996779762 0.5117949481
0.9125736946 -0.0036437647 0.5150744584
0.9025842858 0.2471157664 0.2617227984
0.9126921753 0.0011413648 0.0136009531
0.9124589163 0.2487474845 0.513590672
0.9025287479 0.2499171116 0.764248746
0.9125403719 0.4992577744 0.5110313026
0.9026398236 0.5000445074 0.7642820687
0.9125440744 0.2493162623 0.0123600523
0.9127217955 0.5000418893 0.015120006
0.9026287161 0.4999129489 0.2608471516
0.9425271109 0.2473127769 0.7677735485
0.9326672904 0.2501003771 0.0144879852
0.9324118163 0.4969649912 0.515386396
0.9326969106 0.4977772504 0.0117447855
0.922574211 0.5006852823 0.7608729701
0.9226519639 0.5007533524 0.2647153632
0.9425715412 0.5015512122 0.761116411
0.922659369 0.2511188101 0.268472499
0.9224705403 0.2487703927 0.7663415975
0.942549326 0.247498006 0.2609545248
0.9324895693 0.2532662899 0.5144274424
0.972613818 -0.0022431575 0.5230191485
0.9624022578 -4.1809427518e-04 0.7720897655
0.962579979 0.2490564179 0.2723027597
0.9526164878 1.0827062401e-04 0.0234071796
0.9725841978 -2.4183206758e-04 0.0273510152
0.9525979752 0.249552544 0.5166137826
0.9726656534 0.2501763015 0.5228469811
0.9624948209 0.2488273359 0.7702181398
0.9526201903 0.2511410638 0.0189387889
0.972606413 0.2504989798 0.0237283735
0.9726989761 0.4975383507 0.5194128905
0.9526053803 -0.0011777301 0.5191398293
0.9626170042 2.4048364271e-04 0.2701886187
0.9525979752 0.500952981 0.5164925249
0.9626466244 0.4995647443 0.7666868579
0.9825736066 0.2503438585 0.272477704
0.9825439865 -0.0013609302 0.7699321198
0.9926926038 -4.5887086461e-04 0.026409556
0.9926814962 0.250047361 0.5255266826
0.9824958537 0.2487219582 0.7718222581
0.992651876 0.2504472727 0.0233883893
0.9925445028 0.5032941986 0.0241629572
0.0226621763 0.7515581763 0.7725461015
0.0025930911 0.5007540069 0.2759478943
0.0026679192 0.7517087158 0.7778694049
0.012515077 0.5024191055 0.527752825
0.0024734996 0.500001309 0.774016929
0.0225230725 1.000432821 0.2787007206
0.0226191159 1.0030639909 0.7840155941
0.012584055 0.7505240348 0.0278577981
0.0224970067 0.7512374615 0.2781851442
0.0025786143 0.7512243711 0.274952841
0.0123911535 0.7504389473 0.5257099576
0.0525959322 1.0019251263 0.5330298468
0.052569274 1.001748406 0.0286120947
0.032651548 0.7505371252 0.0226350183
0.0427198206 0.750661484 0.276999411
0.0326004532 0.7525268657 0.5259663573
0.042933086 0.7497255206 0.7758894804
0.0425202546 0.5022332219 0.7789227729
0.0325156654 0.5022364945 0.0278486344
0.0326352569 0.5019301792 0.5259200758
0.0426613207 1.0036465137 0.2747584586
0.05249004 0.5047917401 0.5333510407
0.0526244416 0.7500069641 0.0302979463
0.0525155874 0.7537115467 0.5325096422
0.0427038997 1.0038755956 0.7734134177
0.0725192119 0.5006335753 0.0431417232
0.0726902685 1.0043206691 0.5374414037
0.0725206929 1.0034959741 0.0372674843
0.0725769713 0.7535937331 0.0334801728
0.0625790467 0.7512636423 0.2871600615
0.0726047402 0.7510738315 0.5377551926
0.0625794169 0.749738611 0.78444231
0.0925265389 0.9997324847 0.5339480727
0.0924806277 0.750497854 0.0297709847
0.1026062893 1.0005506346 0.779032923
0.1023704386 0.7487437407 0.2809777727
0.0825404624 0.7524810493 0.2864787972
0.1025122452 0.5002434814 0.7816339458
0.0925317225 0.7501444133 0.535000515
0.102554454 0.7490382747 0.7826243709
0.0826530191 0.500344932 0.7903950424
0.0824653012 0.7498171534 0.7876866463
0.0924173145 0.4999489474 0.0354568577
0.0825682313 0.4994358039 0.2898027378
0.1125916253 0.7501247777 0.0279989568
0.122362215 0.7511458287 0.2757183378
0.1124923977 0.7486782887 0.5297281213
0.1224943951 0.7499022409 0.7731283234
0.1225340121 0.9987441596 0.2718047703
0.1224192339 0.9990386936 0.7776889069
0.1223470347 0.4998154254 0.2781194244
0.1126449417 0.9998830243 0.5282952447
0.1425113487 0.7505567608 0.2707078977
0.1524089349 0.7506025772 0.5139211223
0.1322779436 0.7486651983 0.5229052959
0.1422777194 0.7534301032 0.77162695
0.1523763527 0.4995915796 0.5166295183
0.1325478576 0.9980830946 0.0222758735
0.1423058586 0.5000870511 0.271155903
0.1424820988 1.0009302561 0.2695416027
0.1324264148 0.9967675096 0.523860547
0.1424191558 0.9963682524 0.7712492926
0.1524459601 0.9985805297 0.0169555321
0.1525814725 0.7496207974 0.014880175
0.1324797311 0.7511916451 0.0227386889
0.1725040117 0.7484164808 0.011812264
0.1624801695 0.750661484 0.2666480805
0.1725817647 0.7522977838 0.5112451233
0.1623705748 0.7503931309 0.7637016982
0.1822401679 0.9997586655 0.7595493179
0.1723588728 0.4996380505 0.011435347
0.1725114168 0.5007657883 0.5135517955
0.1824819427 0.7518723458 0.260043704
0.1823797531 0.7504324021 0.7612506275
0.1724525467 0.9995164931 0.0142525047
0.162439812 0.9987048885 0.7630019212
0.1824049302 0.4985921277 0.2607138607
0.2025477696 0.498092729 0.7591263046
0.1923039974 0.5002690077 0.5094901271
0.1923621271 0.7489924583 0.0096610977
0.2023034031 0.750596032 0.2609767399
0.1923332474 0.7511916451 0.5084293541
0.2024374344 0.7459489408 0.7603509143
0.232442686 0.4995529629 0.0137871901
0.2325559833 0.7512767327 0.0106368978
0.2324563854 0.7524614137 0.5099214711
0.212469052 0.7510345604 0.0107435305
0.2223422015 0.7486390175 0.2576389148
0.2124360995 0.7514927243 0.5098224286
0.2325474675 0.5024623038 0.5103602201
0.222448464 0.7512505519 0.7609858971
0.2223662679 0.500032726 0.7634647366
0.212555691 0.5028491251 0.0119636972
0.2222766669 0.5019930131 0.2626039991
0.2125612448 0.4996432867 0.5142867465
0.25243076 0.7539733547 0.0043958314
0.2424295031 0.7496142522 0.2583072204
0.2523341241 0.7512636423 0.5031902831
0.2424487562 0.7517414418 0.7577295275
0.2424850409 0.496644931 0.7590031957
0.2424824492 0.5015832836 0.2565966544
0.2627371048 0.5018784721 0.751443568
0.2525118452 0.4990228018 0.5046666644
0.2623438968 0.7513290943 0.2559450103
0.2622617007 0.7501182325 0.7527413025
0.2624671908 0.5010073061 0.2519092595
0.2722325969 0.9993855891 1.0063104858
0.2725798936 0.5045443316 0.5003032403
0.2824149072 0.4987865201 0.2466849986
0.2825911473 0.5000575978 0.7522266517
0.2824563755 0.7502949529 0.2508262713
0.2822875404 0.7533842868 0.7544564966
0.2723788466 0.7514338175 1.0032188785
0.2723703308 0.7521276086 0.4995488511
0.2824137964 1.0018596743 0.2497358781
0.3125327156 1.0006095413 0.4963785652
0.292520205 0.7531159336 0.9995163549
0.302348554 0.7515058147 0.251990715
0.2922539935 0.7553020301 0.4994257422
0.3024151994 0.7537769987 0.7475401824
0.312398314 0.7535479167 0.9938700063
0.3124290449 0.7529392132 0.4945310059
0.3125449339 0.49944104 0.4902073839
0.3025207214 0.5026717502 0.7424714276
0.2925401986 0.4982838488 0.9944161285
0.3024911012 1.0018727647 0.2449623995
0.3325222705 0.500576632 0.4880219694
0.3225176813 0.5007526979 0.7354810629
0.3323145589 0.75348901 0.989010444
0.3325404128 0.5006846278 0.9859188368
0.322470289 0.7514076367 0.2414051999
0.3324619193 0.7505502156 0.4906313229
0.3223725424 0.7501836845 0.7421196878
0.3225872888 0.5005288521 0.2402305743
0.3524225946 0.5016402269 0.4854514923
0.3524014902 1.0021738439 0.48655577
0.3623638706 0.7491495431 0.2358134636
0.3623046302 0.7483117576 0.7351756047
0.3523089271 0.7516956254 0.9857707358
0.3624453261 0.5012036621 0.7373934164
0.342311743 0.7495880714 0.2430296822
0.3625786169 0.5030055554 0.2379303815
0.3524903508 0.7492869922 0.4818822595
0.3423980118 0.7503538597 0.7379228773
0.3624712438 0.9985150777 0.7353635078
0.3424317048 0.501989086 0.735478286
0.3524103762 0.5010707945 0.9878996869
0.3424287427 0.5025388827 0.2388439792
0.3723125516 0.5012638779 0.9782638691
0.382468574 0.4967849983 0.2316462732
0.37245695 0.5016873523 0.4840130619
0.3925912736 0.4984409336 0.9834474022
0.3823760109 0.5004908899 0.7310204476
0.3725384055 0.7468914494 0.9805872027
0.3824278462 0.7448689829 0.2323173556
0.3723680895 0.750726936 0.4853274578
0.3826722128 0.9990059676 0.2389050708
0.3824796815 0.7450980649 0.7323089258
0.3924542802 0.746747455 0.9779028731
0.3925283307 0.7472579806 0.4810167946
0.3923913373 0.4970245526 0.4799967494
0.4026028976 0.4955041028 0.7225333377
0.4025621698 0.7499153313 0.2316110992
0.4024696067 0.7469176302 0.7264987406
0.4123664524 0.7470027178 0.9764959141
0.4125478761 0.7479321361 0.4772707663
0.4225039622 1.0009040753 0.7172609441
0.4422606283 0.9982205437 0.2170324124
0.4325155861 1.001813858 0.4686059354
0.4421791728 1.0016960444 0.7202997903
0.4224410193 0.4977811776 0.7245623207
0.4323008397 0.7493262634 0.9721084236
0.422552095 0.7494833482 0.2207256797
0.4323674852 0.749313173 0.4708598466
0.422474342 0.7465445539 0.7224361465
0.442364299 0.7495946166 0.2166936315
0.4424716722 0.7510018344 0.7194296973
0.4223373486 0.9976576566 0.2215078378
0.4724065759 0.7497189754 0.9609175458
0.4623171989 0.7508774756 0.2189966012
0.4723473355 0.7472972518 0.4661789311
0.4622912813 0.7510738315 0.7173470277
0.4524647835 1.004248672 0.4673424492
0.4725361642 1.0021476631 0.4652375645
0.4723991708 0.5004470371 0.9644441996
0.4624393822 0.5005864498 0.2140935342
0.4624578948 1.0014146008 0.2113740306
0.4624764075 0.9988161568 0.719515781
0.4522833599 0.7494702578 0.9640184094
0.4525203214 0.7528213997 0.4687919872
0.4523092775 0.4993107906 0.4684624626
0.4823367443 0.9965253372 0.7127707085
0.4924150137 0.9986459817 0.4611212838
0.4924409313 0.9972453091 0.9636203881
0.4926964055 0.7473757941 0.4640953359
0.4926149499 0.7502687721 0.9609638274
0.4823663645 0.7521145182 0.2126208555
0.4825366806 0.7495291646 0.7140147565
0.4925371969 0.4983794087 0.9627873203
0.4925890323 0.4984055895 0.4615711404
0.4824144973 0.4987145229 0.7118274906
0.5124678817 1.001519324 0.4660780373
0.5225498536 1.000498273 0.7126670378
0.5023525871 0.995399563 0.2083703583
0.5224498855 0.7523436001 0.7125152344
0.5025895486 0.7515843571 0.213815845
0.5024969856 0.7517218062 0.7102446617
0.5123049707 0.7496797042 0.9622041728
0.5124567742 0.5012082437 0.9587608258
0.5023933149 0.4975187151 0.2096838286
0.5125678499 0.7486259271 0.4611231351
0.5224424804 0.7521014278 0.2141629566
0.5524773523 1.0029396322 0.4620570967
0.5426286394 0.5017063334 0.7137000419
0.5425879116 0.7504716732 0.2119525499
0.5524588396 0.5009627988 0.4614100806
0.5524662447 0.7513814559 0.4624051339
0.5425212662 0.7513421847 0.7175071619
0.5324244842 0.7525661369 0.9620838408
0.5324170791 1.0002888266 0.9616302816
0.5424324056 0.5032634362 0.2113138646
0.5524995674 0.5049769693 0.9674247312
0.5325096422 0.7542417078 0.4609463396
0.5423176274 1.0015127788 0.2106992457
0.5724820875 0.4967077649 0.9700720356
0.5624334383 1.001584776 0.7100947095
0.5526032381 0.7538751767 0.9631760853
0.5623593879 0.7527232217 0.2132687971
0.5625519191 0.7535610071 0.7156688589
0.5726227834 0.7497844274 0.9662121547
0.5725006001 0.4993336987 0.4673757719
0.57248579 0.752009795 0.464428563
0.6026613578 0.4992198123 0.225161303
0.602613225 0.9983252669 0.2154042276
0.6025984149 0.9990125128 0.72190576
0.5924572026 0.7474477913 0.9728304157
0.5925090379 0.9990321484 0.4685911253
0.5925904935 1.0020429399 0.9652587548
0.6025761997 0.7521145182 0.2226176693
0.5924646076 0.7534301032 0.4731692957
0.6025206619 0.7510476508 0.7184809256
0.5823085853 1.0011920641 0.21499695
0.5823085853 0.9998764791 0.7157197686
0.5824455787 0.5024832485 0.7192084715
0.5824937115 0.75085784 0.2187994418
0.5825307367 0.7474085201 0.7169906598
0.6125804186 0.7514207271 0.9698406278
0.6125582035 0.9999615666 0.4675757081
0.6124471278 0.7511261931 0.4759036095
0.6224735618 1.0027760022 0.7211958011
0.6224069164 0.7503276789 0.2192372652
0.6225142896 0.7509363824 0.7205108342
0.6225365047 0.99924814 0.2224121792
0.6425967778 0.9997063039 0.7273984538
0.6424042466 1.0010742505 0.2252186922
0.652645427 0.998789976 0.4815888345
0.6526158068 0.9967609644 0.9765884772
0.6326369892 1.0003542786 0.4735210355
0.6325888564 0.9994248603 0.9760516112
0.6326147741 0.5006486292 0.4728212585
0.632451863 0.7489924583 0.9735986893
0.6326962296 0.7511458287 0.475726814
0.6524010604 0.7506156676 0.9815220899
0.6424560819 0.7490251843 0.2301717432
0.6524343832 0.7486848339 0.4808881319
0.6424301643 0.7505567608 0.7249881109
0.6726279471 0.7496993398 0.9855856096
0.6626866711 0.9995557643 0.2316805216
0.6725724093 0.9994183151 0.9856318912
0.6825433055 0.7521996058 0.235017421
0.6726427572 0.7504520376 0.4889216826
0.6827321342 0.75053058 0.7400166544
0.6625348677 0.7519967046 0.2347869389
0.6626385383 0.7526839505 0.7316970838
0.6723428528 0.9989797868 0.4874897316
0.7026813316 0.4987040506 0.2399195623
0.6925919546 0.9998110271 0.4859013489
0.692566037 1.0024552874 0.9889826751
0.6924253411 0.75102147 0.9879274558
0.702585066 0.7519967046 0.2425798255
0.6925623344 0.7495029838 0.4904684119
0.7025184205 0.7504847636 0.7432906109
0.7124152662 0.4982164333 0.4919235036
0.7126152025 0.7486782887 0.4935017044
0.7226157189 1.0016567732 0.7399490833
0.7325569949 0.997899829 0.9943235654
0.7325051595 0.7485408396 0.9910931136
0.7224305927 0.7514272723 0.2397251798
0.7324607293 0.7508447496 0.487375879
0.7225898012 0.7498956957 0.7408599042
0.7225712886 0.9977558346 0.2460222469
0.7325829125 0.9984234449 0.495514026
0.7124819117 0.7509625632 0.9945919984
0.7126152025 1.0014996884 0.4905646775
0.7125522596 0.9987965212 0.993592317
0.7425760239 0.4980822567 0.242586305
0.7424760557 0.7469896274 0.2399029009
0.7424649482 0.7494375318 0.7412838431
0.7525098948 0.7475656049 0.9907783991
0.7623993355 0.9997390299 0.7462461504
0.7525061923 1.0002299198 0.9936108296
0.7625178162 0.7492739018 0.2403370218
0.7524469519 0.7453860537 0.488298733
0.7626844298 0.7504127665 0.742011389
0.7524765721 0.9998110271 0.493036112
0.7427426374 0.9990125128 0.2442468868
0.7624956011 0.998822702 0.2437220541
0.7825040389 1.0006619029 0.2458260132
0.7726331108 0.9994183151 0.4979502865
0.7824151783 1.0003280978 0.7468913152
0.7726220033 0.9979718262 0.9968042563
0.7825854944 0.751977069 0.2468516122
0.7724442821 0.7503080433 0.4892558354
0.7825336591 0.7495291646 0.7467746857
0.7723258014 0.7478208677 0.9936663675
0.7726405159 0.4982406505 0.4935470603
0.7725701679 0.499622342 0.9942310024
0.7926859789 0.7490644555 0.998442623
0.812505588 0.7497124302 1.0074675244
0.7925193653 0.4963268344 1.0039964085
0.8124981829 0.4977458335 1.003922358
0.8025346918 0.7516432639 0.2574223172
0.8125500183 0.7498302437 0.5082210871
0.8024643438 0.7505829416 0.7499866249
0.7924193972 0.7514338175 0.4982418603
0.7925304729 0.9998437531 0.500715146
0.7924082896 1.0001317418 1.0001457839
0.8025087741 1.0002299198 0.2533745332
0.8024976666 1.0005768153 0.7580183244
0.8124722653 1.0007862617 1.0111422791
0.8226060725 1.0006029961 0.7587181013
0.8225690473 0.9998764791 0.2536725864
0.8327398797 0.7451504265 1.0042926104
0.8225949649 0.4968419415 0.7515342798
0.8225209144 0.7477488705 0.2577120397
0.8326251015 0.7486259271 0.5028663123
0.8224098387 0.7485932011 0.7567733508
0.8426811557 0.7477423253 0.2545269437
0.842647833 0.7497844274 0.7547795418
0.8625488976 0.4991209798 0.7576295594
0.8425293522 0.9969376847 0.7599130908
0.8624896572 0.9961718965 0.2579249348
0.8625600052 0.9992743208 0.7590133776
0.8526187292 0.9991761428 0.0101401117
0.8626007329 0.7473430681 0.7563049815
0.8526335393 0.4977307795 0.5042094027
0.8525335711 0.7490382747 0.0112077344
0.8526298367 0.4997931717 0.0041375804
0.8624859547 0.4976083843 0.2541391044
0.8625674102 0.7504716732 0.2577435111
0.8524373055 0.7479517717 0.5048971465
0.8527557225 1.0011069765 0.5058014879
0.8825277152 0.9965646084 0.7681049244
0.8927614905 1.0003150074 0.0121730749
0.882575848 0.7524090521 0.7646421392
0.8724827685 0.7488353735 0.01057775
0.892750383 0.7512309163 0.014497982
0.8824240445 0.5000346896 0.7625131881
0.8824610698 0.497351158 0.2672191948
0.882575848 0.7469896274 0.2632426844
0.8725679266 0.7473692489 0.5074898387
0.8927837057 0.7457002232 0.5164730867
0.8726086543 0.5002565718 0.0085950486
0.8827535691 0.9952948398 0.2651716992
0.9025287479 0.9985936201 0.7627853236
0.9127440107 0.748521204 0.5133962895
0.9025472605 0.9992285044 0.2659695931
0.9027471968 0.7491364527 0.7589513603