POSCAR file written by Ovito 3.7.11
1
270.0454168392 0.0 0.0
0.0 15.276075638 0.0
0.0 0.0 10.8018166735
Sr Ti O 
800 800 2400 
Direct
0.0224699218 0.5010297147 0.7790638029
0.0125430731 0.4979890123 0.0319852101
0.0125715498 0.2489741416 0.5335384362
0.0226050472 0.2503030169 0.7833917786
0.0025944873 0.2507998723 0.7780769318
0.012677643 0.2476721056 0.0319845621
0.0027585708 0.0014216884 0.2823121765
0.0225333185 0.4989585021 0.2804708196
0.0127206358 0.0015064614 0.5308564799
0.0026308515 5.0319330672e-04 0.7788823519
0.0128229519 -0.0023398143 0.0327765585
0.0226095279 0.2515965429 0.2850487533
0.0025540866 0.2544676991 0.2794246993
0.0425339912 0.5010100762 0.285356109
0.0327463784 0.248652724 0.5344040313
0.0424947386 0.2504725631 0.7873522235
0.0526619172 0.502250578 0.0386178907
0.0326400999 0.2508993743 0.0312976406
0.0325264154 -9.4109124141e-04 0.5358723028
0.0326082534 -1.5731664617e-04 0.0328736718
0.0423736478 0.2519624745 0.2853283359
0.0524930568 0.2485636959 0.5372100408
0.0524912052 0.2469376238 0.0391247499
0.0623984276 0.2490742982 0.2934464148
0.0624232382 0.496790406 0.7959942883
0.0624054635 0.4997381526 0.291463415
0.0723700836 0.4995443856 0.5450318732
0.0724437749 0.248810487 0.5443079209
0.0623980573 0.2496176315 0.7905961223
0.0723919318 0.2479843586 0.0494309792
0.0626443122 6.8714107358e-04 0.2917152245
0.0625709912 -0.0029874283 0.794799119
0.0924700359 0.2484439007 0.5482924359
0.1024242874 0.2499848724 0.8005148242
0.0823387771 0.2493073424 0.7937511471
0.0924070835 0.2508221293 0.0483991158
0.1024205843 -0.0012188458 0.3009516338
0.0824980096 0.001080043 0.3014265539
0.0825679978 -2.64150367e-04 0.8004777934
0.092586683 -0.0023830846 0.0496028948
0.1024390998 0.2470397443 0.2967458598
0.0823354444 0.2490932821 0.2960543094
0.1024279905 0.4989643937 0.3020042345
0.0925252118 0.4967131611 0.542740592
0.1125896146 0.0017397674 0.0517291112
0.1222542851 0.2521379123 0.3021977205
0.1124055714 0.2504935109 0.5480721026
0.1224401798 0.4993002129 0.8018099767
0.1123744656 0.4974319321 0.0528358695
0.1222942784 0.2507056072 0.8048483545
0.1123959434 0.2496097761 0.0498596108
0.1123952028 0.5004857268 0.5514928235
0.1523484822 0.2523500086 0.5544247377
0.1322959294 0.2496523263 0.5563031254
0.1423005428 0.2497577198 0.8040799653
0.1523058968 0.251152057 0.0553953463
0.1323851736 0.2508790811 0.0542251728
0.1423142442 0.2518773741 0.3041742399
0.1424490363 0.4997132771 0.8025774402
0.1524410593 0.4994566667 0.0565525591
0.1324125764 0.4999476305 0.0554395056
0.1325184845 0.4985460926 0.5530388597
0.1526095494 -0.0018705184 0.5532314199
0.1825608076 0.2499370852 0.7929707229
0.1825085942 0.2518603541 0.2923530801
0.1624234542 0.5018695901 0.8049585212
0.1623856828 0.5002683935 0.3006683481
0.1723691886 0.251992587 0.5467667666
0.1824349029 0.4993486547 0.7959766987
0.162548248 0.2463366841 0.8025987329
0.1724343628 0.2518138762 0.0461422732
0.1623882749 -0.0010748298 0.2994787334
0.1723717808 0.0010628266 0.5491978391
0.1823119606 0.0014144876 0.2927983756
0.162411234 0.2487895392 0.3028698296
0.2025374473 0.2494081536 0.2866845892
0.1925361667 0.5017949636 0.0397231677
0.2026718692 0.50133804 0.2881954462
0.1925109857 0.2498611495 0.5379617662
0.2027107515 0.2495547881 0.7787240452
0.1925839364 0.2501380531 0.0391808516
0.1924554395 -0.0021986132 0.5390513977
0.2025389286 0.002377824 0.789997149
0.1925150591 0.0011989217 0.0406816176
0.2024496843 0.0031396689 0.2871141466
0.2126672249 0.2509857839 0.5316896731
0.2225163089 0.2511180168 0.7770761743
0.2125968664 0.2514636553 0.0327203642
0.2225337134 0.0014095125 0.2820038951
0.2123843095 -1.2942990287e-04 0.5327876365
0.222574077 -4.4246841572e-04 0.7796951782
0.2125646495 -0.001536794 0.0334791255
0.2326260898 0.0025704127 0.5284476258
0.2226903537 0.2524115428 0.281049426
0.2326679346 0.2514145589 0.5277329312
0.2327438478 0.2555019962 0.0262590437
0.2326323851 0.0026589171 1.0261796428
0.2524757139 0.2499344668 0.5287114703
0.2425236842 0.2516613501 0.7737480304
0.2624903256 0.2480720775 0.2729776356
0.252664571 0.250754049 1.0251057494
0.24250665 0.0020877626 0.2748597264
0.2525253351 0.4971556831 1.0267351049
0.2526697553 1.0047207479e-04 0.5209961015
0.2426232971 0.2487096758 0.2738719296
0.2626465956 0.2500326595 0.7732981061
0.2424899862 2.3663269937e-04 0.7779723198
0.2625862354 0.0023821445 0.2696124609
0.2525020057 -8.8682337709e-04 1.0254945729
0.2625654981 4.6398166531e-04 0.7720075824
0.2724286539 0.2492045673 0.5246084568
0.2726693541 0.2481984188 1.0185327809
0.2726767603 -0.0012842422 0.5152776189
0.2725889973 0.4975261971 1.0134873333
0.2824743715 0.249186238 0.7638635819
0.2824517827 0.0014606382 0.7680536179
0.2825232521 0.2512836353 0.2654594558
0.302419535 0.251915342 0.2573774819
0.3123004655 0.2521274384 0.5016947185
0.312416372 0.2532291611 1.0000173769
0.2925071283 0.5026302567 0.5086676197
0.3125700498 0.0017238602 0.9976288898
0.292423809 0.2502401736 0.5092193787
0.2925982241 9.72751076e-04 0.5119800255
0.3026739367 0.2508116554 0.7524867919
0.3024324958 0.4977926268 0.2582384482
0.2925174969 0.2508902096 1.0097472217
0.3124267406 0.5020188431 1.0013875168
0.292604149 -0.0016124024 1.0075438886
0.3024987809 0.0024484573 0.7544781236
0.322436168 0.2529476752 0.2510091087
0.3324370783 0.2539322213 0.4982841811
0.3225754038 0.2500706274 0.7462554327
0.3326492649 0.2538975265 0.9944072095
0.3225891052 0.0022548866 0.245226748
0.3324604077 0.0013192406 0.4963956099
0.3224880111 9.7667878633e-04 0.7498659365
0.3325155837 0.0027915428 0.9965642541
0.3626134838 0.2525228279 0.2339573474
0.3523004038 0.0017090004 0.9900468318
0.3524666721 0.2515075148 0.4942644869
0.3424316934 0.2511304546 0.7433151865
0.3525673959 0.2515114425 0.9928241424
0.3424598369 0.00146941 0.2429289864
0.3426705421 0.0056879673 0.7392343915
0.3424809444 0.2498853704 0.2428567763
0.3623172374 0.2530085547 0.7388252011
0.3625727499 4.541623895e-04 0.2334065141
0.3724377572 0.2532920045 0.4886996822
0.3824545908 0.2530930005 0.7308330269
0.3724673819 0.2548480324 0.9879268181
0.382373123 -6.2333947616e-04 0.7322855604
0.3823805292 0.2520259725 0.23284272
0.3923973628 0.0040736784 0.4758111095
0.392360332 8.5550892282e-04 0.9800207406
0.3725599589 0.0018273554 0.4895356527
0.3725599589 0.0017349233 0.9856586811
0.3923270042 0.2535479603 0.4807880501
0.3922048026 0.2504437599 0.9781877156
0.4123310467 0.0049497542 0.4729995454
0.4022919947 0.2513130931 0.7283251154
0.4025104764 0.0031542014 0.2231684214
0.4022734793 0.003416507 0.7285861826
0.4023216193 0.5012064617 0.2275102837
0.402306807 0.2525025347 0.2312124387
0.4123606714 0.2543465947 0.4786050839
0.4123162344 0.2555543656 0.9722350132
0.4123273437 0.0015414181 0.9730496909
0.4125124977 0.503375867 0.9737440186
0.4124828731 0.5018970841 0.471220215
0.4223626926 0.2509327598 0.2262864155
0.4422297212 0.2504162659 0.7133711494
0.4324054478 0.4991725624 0.9641993278
0.4323313862 0.5026322205 0.469685288
0.4424074691 0.2490310934 0.2157020848
0.4223441772 0.5018643532 0.2175721406
0.4423371105 0.5008562409 0.7181481236
0.432279543 0.2528907234 0.4703194406
0.4224515666 0.2510342257 0.7247386817
0.4324498848 0.2527905668 0.9694206717
0.4423519228 0.5010166224 0.2166371127
0.4324239632 0.0010276736 0.9688466942
0.4524020841 -5.9244148828e-04 0.963977143
0.4724505636 0.250328547 0.4555589605
0.4624337301 0.2512731614 0.706161251
0.4726431238 0.2522334866 0.9454709966
0.4625374163 0.2517490689 0.204977037
0.452531692 0.5005361325 0.9610794822
0.4624226208 0.4994488113 0.7092598039
0.4724912975 0.5035467224 0.4519188321
0.4525279889 0.2513255308 0.4596203144
0.4525465043 0.2520632858 0.9599130118
0.4725357345 -1.5168692804e-04 0.9571634743
0.4825229434 6.2004268887e-04 0.201460036
0.4825155373 0.2508515871 0.7019452935
0.4825636773 0.2505380249 0.2013600528
0.4923694353 0.2483175594 0.4452514351
0.4925694017 0.2464682624 0.9435453946
0.4825451619 0.5007357911 0.2002083947
0.5024936582 -3.6345597636e-04 0.7003631523
0.5024232997 0.2498663865 0.1974986653
0.512429024 -0.0015907345 0.9472484754
0.5223310621 -0.0028883191 0.19204125
0.502389972 0.4987784821 0.6969627983
0.5022899888 0.2500614627 0.6966461849
0.5224569668 0.4997335703 0.6908304965
0.5124216179 0.2502251173 0.4383127875
0.5224828884 0.2464204753 0.1919940357
0.5125697411 0.2483849851 0.9477854221
0.5225754654 0.2478390333 0.688548473
0.5123919932 0.5006749116 0.4464827095
0.5225199192 0.494879575 0.1950648154
0.5524408121 0.249352511 0.4378156489
0.5525111707 -0.0012247374 0.9407217955
0.5322590217 0.4991548877 0.9461653243
0.5325367528 -0.0036044062 0.4369926391
0.5322516156 0.4972394743 0.4387451221
0.5322331002 0.2492647922 0.4390497005
0.5324960189 0.2460853107 0.9414716694
0.5425387741 0.0018737678 0.6882475976
0.5426683819 0.2452794754 0.1840694427
0.5423832447 0.2502794507 0.6870885333
0.5522704704 0.2488870774 0.9380000311
0.5623539595 0.5005243493 0.6924431882
0.5623502564 0.5005001284 0.1916413172
0.5624650519 -9.6112256406e-04 0.1910284573
0.5623946933 0.2497897961 0.1910062389
0.5624502396 0.2507422659 0.6886447531
0.5723300592 -0.0029131291 0.4423871021
0.5724004177 -3.4218087877e-04 0.9419623276
0.5724929947 0.2478894389 0.4440812616
0.5723633869 0.2479018767 0.945396935
0.5923859448 0.5003718232 0.9449710807
0.5823987359 0.248738479 0.6969896457
0.6025323862 0.2490716797 0.1980522759
0.592578505 0.2509275229 0.4481879782
0.6024879492 0.250483037 0.7003557461
0.592393351 0.2448729574 0.9500443014
0.5825690776 0.2474161498 0.1956526795
0.6025138708 0.4993126507 0.6970081611
0.5924266787 0.4993480001 0.4460401913
0.5825061252 0.4963236631 0.1937483702
0.612419612 0.0025846834 0.9497758281
0.612556626 0.4958366271 0.4517938531
0.6225845688 0.499037711 0.2064703043
0.6224808825 0.2499711254 0.7085839917
0.6125344075 0.5039872806 0.951951388
0.6225771626 0.499101209 0.7061057048
0.6123270349 0.2482743545 0.4509125199
0.6124085027 0.2500346234 0.9523031807
0.6224068209 0.2504529245 0.21008914
0.6325199346 0.5003796787 0.9603758969
0.6425552836 0.2509039566 0.2104946274
0.6525165709 0.2466076961 0.4611820887
0.642484925 0.2491469609 0.7114224031
0.6525943356 0.2466116238 0.9631254344
0.6424219727 0.4981533215 0.7095264257
0.652472134 0.4991247752 0.963912339
0.6424108634 0.4986004259 0.2108214243
0.6525610079 0.4975497634 0.4656822577
0.6325310438 0.2468158648 0.4532149104
0.6326199178 0.249366258 0.9610887399
0.6624778583 -6.5535031531e-04 0.7079396556
0.6724650672 0.4997211326 0.4674930642
0.6823782146 0.5021798792 0.7222603948
0.672498395 0.4977035987 0.9690688791
0.6824041361 0.4996550161 0.2185136489
0.6625889507 0.2500424788 0.2062370102
0.6625741384 0.2474770293 0.7134072544
0.6824152454 2.7220277237e-05 0.2213344707
0.6826189148 -0.0017509196 0.7219345237
0.6624223121 0.4997885583 0.7117001342
0.6625334045 0.4983673817 0.2144504435
0.6823782146 0.248060949 0.2204966486
0.6726205966 0.2501053222 0.4645565211
0.6825744778 0.2501328161 0.7233574325
0.6724761765 0.2502729045 0.9671340193
0.7025451926 0.2504725631 0.2217075561
0.6923506112 0.2500117117 0.4737420131
0.7025266772 0.24928574 0.7219206372
0.6923469081 0.249144997 0.9712814698
0.702422991 0.4986763616 0.7263504476
0.7025414896 -7.0051898404e-04 0.7175991419
0.7024637249 -0.0013012623 0.2234748514
0.6925209529 0.499723751 0.9687448595
0.6925764991 0.5003194538 0.4738586601
0.7125361046 0.2520999444 0.4781153515
0.7124361215 0.2479765032 0.9785580236
0.7224677674 0.4969809 0.7321568783
0.7226232968 0.2506080691 0.2240932659
0.7326364273 0.2479869771 0.483705152
0.7226269998 0.2446615157 0.7307913673
0.7324327578 0.4986377391 0.9831220707
0.7226084844 0.4981048798 0.2274547375
0.7325993965 0.5005741003 0.4787032156
0.7325438502 0.2501537639 0.9802151523
0.7125286985 0.498440699 0.9741883883
0.7625128832 0.4964545868 0.7342157912
0.7424866222 -0.0011047458 0.7280751575
0.7524627219 0.4959898078 0.9817611885
0.7623536507 0.4974208036 0.2315179429
0.762638788 0.2480707682 0.2337527522
0.7524553157 0.2460643629 0.4847049838
0.7626610064 0.2518322055 0.7360886244
0.7526849068 0.2486507601 0.9823629392
0.7424125606 0.4975615465 0.7305775143
0.7524108788 0.4974836469 0.4825433104
0.7423977483 0.2484583023 0.233712944
0.7425421684 0.2474246599 0.7304367973
0.7824539734 0.4987320042 0.2419124907
0.7824169425 0.5011239798 0.7365644702
0.782483598 0.2505570089 0.2397017515
0.7724519521 0.2512273381 0.4864296937
0.7824465672 0.2505347518 0.7391519979
0.7726185907 0.2496313785 -0.0121726889
0.7924559946 0.4989454098 0.4910520643
0.8122674769 0.4996078836 0.4981814206
0.8023395173 0.4982305665 0.7452287536
0.8024283912 0.5002690482 0.2431993113
0.7925596809 0.2489531938 0.4980166335
0.7925152439 0.2496084668 0.9928889464
0.8124822556 -0.0018547421 0.4983017707
0.8026320607 0.2492674106 0.2456609343
0.8127414713 0.2473238486 0.4987905774
0.8026505761 0.2515553019 0.7437030843
0.8123859755 0.2476302101 1.0029057799
0.8325381413 -0.0011195402 0.5036110629
0.8226583217 0.2468263387 0.2478401973
0.8325677659 -2.0012868871e-04 1.0013875168
0.8324418612 0.2501518001 0.4967862849
0.8225546354 0.2489433745 0.7470590012
0.8325011105 0.4986750524 0.4955688971
0.8324862981 0.4990926989 0.9998692537
0.8327714354 0.2502303543 8.0869505395e-04
0.8225916662 0.5013026906 0.2477624326
0.8424735071 0.4956906472 0.7500955275
0.8424586947 0.4997859398 0.2525801407
0.842699395 -0.0012749466 0.2524394237
0.8425808964 0.2509923301 0.2508943132
0.8425660841 0.2484569931 0.7523932891
0.8626182667 0.2509654907 0.2543594711
0.8525829177 0.2489963986 0.5016549104
0.8625553143 0.248597736 0.7561963531
0.852553293 0.2493584026 0.0071847522
0.8726425064 -0.0025632356 0.5070012333
0.8826778554 0.2465193226 0.2535883045
0.8724795708 0.2464538608 0.5077261114
0.8924354733 0.2525804343 0.5049043638
0.8826815585 0.2513464786 0.754722527
0.8925539719 0.4997892129 0.0068418469
0.8726647249 0.2494801616 0.0071558681
0.8925984089 0.2510198241 0.0123623997
0.892742829 0.0014269908 0.50968967
0.8726165848 -0.0022909798 0.0103152441
0.8724832739 0.5019736744 0.5010244609
0.8924317702 0.4997865944 0.5104571335
0.9126579976 0.0020173911 0.5129132018
0.9024374946 0.2498068162 0.2605843499
0.912495062 7.2956034508e-04 0.0098610612
0.9125432021 0.2507841614 0.5105997021
0.9025633993 0.2511350369 0.7627082207
0.9125543113 0.5026989916 0.5097007792
0.9025078531 0.4992845021 0.7609288904
0.9127283561 0.2517988199 0.010159437
0.9126468884 0.5003554578 0.0115847528
0.9025411808 0.5016182167 0.256946073
0.9424455796 0.2511068883 0.768435961
0.9327435079 0.2473853828 0.0147336675
0.9326213062 0.4988622732 0.5184854127
0.9326805555 0.4994101888 0.0135766399
0.922711862 0.5015187147 0.7629322571
0.9225378172 0.4986848717 0.2611657336
0.9424492827 0.4990455664 0.7650096855
0.9225785511 0.2508692618 0.2611888779
0.922667425 0.2494310652 0.7614371382
0.9424863135 0.25063229 0.2703910337
0.9324954015 0.249018001 0.5137612073
0.9727738114 0.0010697655 0.5250213503
0.9625384961 0.0011987908 0.7671852454
0.9624125913 0.2496686917 0.2680229135
0.9526438641 1.1042227428e-04 0.0193914952
0.9726256882 8.3822699739e-04 0.0258022686
0.952455007 0.2495966837 0.5172541383
0.9724849711 0.2483313063 0.5202591884
0.9624237006 0.2524311813 0.7669176978
0.9526290518 0.2485898806 0.0195038837
0.972799733 0.2484308083 0.0217271208
0.9724775649 0.4976695585 0.5211201547
0.9526253487 -0.0049764601 0.5209507387
0.9626903224 0.0026034055 0.2702605001
0.952547584 0.500370514 0.5162811538
0.9625940423 0.5022315941 0.7707263164
0.9825462417 0.247992214 0.2751402348
0.9825647571 -0.0022301658 0.7750043005
0.9926408399 -9.8724183772e-04 0.0266996177
0.9926001061 0.2503527679 0.5254638685
0.9826166002 0.2475876599 0.7733314338
0.9924964198 0.2477375675 0.0266557362
0.9924779044 0.4975137594 0.0263500469
0.0224964358 0.7503718946 0.7776029375
0.0025236103 0.5021824977 0.2801662412
0.0026363321 0.7495863526 0.7791924849
0.0125169293 0.5005701726 0.5272256092
0.0025363859 0.4980250163 0.7775742386
0.02263245 0.999486922 0.2846173443
0.0226950691 1.0008943515 0.7831316371
0.0123746199 0.7509021355 0.0313190259
0.0225629061 0.7501296858 0.2796820634
0.002561715 0.7498612923 0.2840674368
0.0124967105 0.7474784814 0.5316646773
0.0527630113 0.9959388903 0.5421601341
0.0525704511 0.9974968821 0.0394253475
0.0326497279 0.7482247463 0.0385935429
0.0424610405 0.7502147862 0.2904126658
0.0324786456 0.7523357498 0.5332755174
0.0425488036 0.7497172762 0.7877003131
0.0425391755 0.50201557 0.7871152263
0.032487533 0.4983798195 0.0354023205
0.0324879033 0.5010997589 0.5353223953
0.0425680596 1.0002593717 0.2881371227
0.05240085 0.4996268675 0.5392411806
0.0526030383 0.7476879592 0.0432004532
0.0526037789 0.7483294853 0.5354992175
0.0427391419 1.0021315802 0.7915218925
0.0724437749 0.4991791085 0.0465059157
0.0726155979 1.0005997732 0.5458863591
0.0725222802 0.9984788096 0.0472890247
0.072637446 0.7501886015 0.0477131201
0.0625846926 0.7502147862 0.2910449669
0.0726507771 0.7508170351 0.5455169768
0.0626520886 0.7479825375 0.7921134596
0.0926214919 1.0010383675 0.5469195187
0.0925559474 0.7493310514 0.0464712919
0.1025850011 1.0019286485 0.8010619544
0.1025650045 0.7488597262 0.2995240961
0.0825480012 0.7507843042 0.3016626253
0.1024042908 0.4992779559 0.8026292834
0.0923848651 0.7496976377 0.5504726247
0.1025387126 0.7480152684 0.8013480174
0.0824691256 0.5019514174 0.7936317228
0.0825276343 0.7527743441 0.7992141171
0.0922893256 0.5023088391 0.0478379139
0.0823547004 0.4998880603 0.2964061021
0.112514442 0.7502867942 0.0549483845
0.1225857109 0.7474915737 0.303174408
0.112651456 0.7510526978 0.5523213878
0.1226020044 0.750882497 0.8077710111
0.1224338846 0.9982104161 0.3052351725
0.1224405501 1.0012020221 0.8044447187
0.1226345915 0.5000392771 0.3066016093
0.112358172 0.9985508177 0.5492644946
0.1424312615 0.7529183602 0.3062674063
0.1525088256 0.7514651073 0.5484275983
0.1325307047 0.7487418948 0.5560096563
0.1425234682 0.7510526978 0.8046002481
0.1523203388 0.5008562409 0.5577621393
0.1324977473 1.0004557572 0.0526072042
0.1425145809 0.4996995302 0.3030957176
0.1424875484 1.0005408576 0.3056665814
0.1325895837 1.0003051949 0.5567262024
0.142634931 1.0022952348 0.8048353938
0.1524232845 0.9969470026 0.0528903973
0.1523695898 0.7520542639 0.053611202
0.1325892134 0.748676433 0.0490270657
0.1725506396 0.7492655896 0.0510608903
0.1626448984 0.7538217335 0.3009423761
0.17249102 0.7476290436 0.5456660258
0.1623827203 0.7494096056 0.8016970328
0.1823867628 1.0023672429 0.7918505409
0.1725358273 0.5010847027 0.048510023
0.1725050917 0.5008084537 0.552066801
0.1825641404 0.7517204085 0.2937047046
0.18262376 0.7477337825 0.7945658249
0.1725410116 0.9972612194 0.051631535
0.1625323248 1.0038466804 0.7964118107
0.1826626423 0.5041404613 0.2929427958
0.2025978076 0.5007181164 0.7851053792
0.1924817314 0.5009472328 0.5428877894
0.1925135779 0.7530885609 0.04360233
0.2023000799 0.7515305692 0.2842711063
0.1925035796 0.7520608101 0.5404613457
0.2025452238 0.7500904087 0.7865218076
0.2323513212 0.4985094339 0.0295465462
0.2325320316 0.7495077984 0.0294145314
0.232603501 0.7515043844 0.5299908848
0.2124868849 0.7510396054 0.0337524128
0.2225014966 0.7517335009 0.2799153575
0.2126761123 0.7516484005 0.5334486365
0.232643124 0.5004320481 0.5275588864
0.2225259369 0.7522244647 0.7807625912
0.222735161 0.5022453411 0.7829298192
0.2125083627 0.501089285 0.0309361273
0.2226518417 0.5002670843 0.2818150379
0.2126983308 0.4960755628 0.5330079698
0.2524653452 0.7539068339 0.0217560048
0.2424366618 0.7478057906 0.2789275607
0.2524338691 0.7503915332 0.5265433165
0.2426344063 0.7507908504 0.7793137608
0.2424944299 0.5031637707 0.7804228335
0.2425266467 0.4995568234 0.2716972954
0.2625155065 0.5008326746 0.7686127831
0.2523435139 0.4994972531 0.5269543585
0.262470329 0.7507712118 0.2695735786
0.2625954931 0.7505093645 0.7706550321
0.2624351497 0.5003541485 0.2731035403
0.2726515793 1.0004623034 1.0184772347
0.2723982886 0.4982096187 0.5184687488
0.2825291771 0.4995888997 0.2660741672
0.2824591888 0.5012077709 0.7644255245
0.2827313653 0.7486306097 0.2592780882
0.2825562096 0.7468107706 0.7628896717
0.2725175278 0.7475635817 1.0162924171
0.2724345788 0.7503718946 0.5138991471
0.2824469687 0.9993690906 0.2619276425
0.3124626605 1.0010449137 0.5032435321
0.2925137939 0.7522964727 1.0120801626
0.3024369395 0.7508955893 0.2532494726
0.2925000925 0.7540050267 0.5076233509
0.302649126 0.7527874365 0.7604215683
0.3126074509 0.7550720547 1.0021096176
0.3124996913 0.7519757097 0.4951800736
0.3124970991 0.4981592131 0.5008374553
0.3025191479 0.4994108435 0.7553464961
0.2924893535 0.5019206503 1.009645387
0.3025658067 1.00190901 0.2570377243
0.3324255988 0.5019704013 0.4959142094
0.3225024532 0.5005930843 0.7476403849
0.3325411349 0.7516942238 0.9994063686
0.3325444677 0.5022466503 0.9952033719
0.322461349 0.7535729785 0.2485363765
0.3324485579 0.752983822 0.496608537
0.3224954173 0.7518513322 0.7521822135
0.3224520913 0.5012149717 0.243619611
0.3525299948 0.5022911644 0.4899328081
0.3526325701 1.000449211 0.4932507685
0.3624209236 0.7488466338 0.2330260225
0.3622394727 0.7512949066 0.7430828182
0.352394462 0.7530361915 0.9896024621
0.3624653606 0.5020646664 0.7370903077
0.3423809612 0.7526761514 0.2454822606
0.3624024082 0.5033784855 0.2393407011
0.3524177914 0.7506861115 0.4941385822
0.3423709629 0.7532522155 0.739385292
0.3625135007 1.0001088094 0.7434188728
0.3423713332 0.4998566386 0.7419876321
0.3523626155 0.5006408714 0.9919446608
0.3426368441 0.5014656906 0.2423522316
0.3723599925 0.502463329 0.9849273226
0.38241756 0.5027493972 0.2361319816
0.3723340709 0.5041673007 0.4898494888
0.3921825841 0.5042111601 0.9819278272
0.3823175768 0.5031022365 0.7359043961
0.3723488833 0.752807075 0.9890747731
0.382602714 0.7505420954 0.2314966502
0.3724229449 0.7546269141 0.4884330604
0.3823657169 1.0042983671 0.2277167304
0.3822287029 0.7507515733 0.7303988407
0.3925269706 0.752839806 0.9800577714
0.3925306737 0.7507515733 0.4816823441
0.3923270042 0.5009066465 0.4840467612
0.4024216025 0.5023743009 0.7266503971
0.4024586333 0.7495863526 0.2276843285
0.402488258 0.751916794 0.7304932693
0.4122680944 0.7546334603 0.9725127442
0.4126013716 0.7541752275 0.4776996807
0.4223071464 1.003440817 0.7223613038
0.4424111721 1.0001022632 0.2110824915
0.432279543 1.0013853153 0.4689418946
0.4423482198 0.9990221429 0.7129758455
0.4223997235 0.5014401605 0.7220446904
0.4323461985 0.7519757097 0.9731330103
0.4222701156 0.7526434204 0.2248672098
0.4322610276 0.7507908504 0.4690779828
0.4223145526 0.7519953482 0.7220844985
0.4422741581 0.7527416132 0.2145559813
0.4424259845 0.75170077 0.7216743823
0.4222590064 1.0018828253 0.2194551572
0.4725209222 0.7484735013 0.9577744826
0.4623115284 0.7528005288 0.2057306139
0.472328362 0.7492328586 0.4531371457
0.4623929962 0.751131252 0.7062991908
0.4523169133 1.0026029055 0.4612237484
0.4723209558 0.9992447132 0.4537555602
0.4723024404 0.5018296584 0.9518958418
0.462478167 0.5002834498 0.2056917316
0.4624596516 1.0016013393 0.2045585888
0.462341153 1.0036961182 0.7068611333
0.4523687564 0.7480087223 0.9606258548
0.452442818 0.7500707702 0.4565282419
0.452394678 0.502562831 0.459360173
0.4824266633 1.0006325041 0.6977210041
0.4923916538 1.0028516605 0.454090689
0.4924509031 1.0012085683 0.9472392177
0.4924249815 0.7522571956 0.450609793
0.4923731384 0.7467256702 0.9483686574
0.482367414 0.7480872765 0.2022747138
0.4825155373 0.7508563122 0.6996466061
0.4923027798 0.497251912 0.9498036012
0.4924434969 0.4978685625 0.4480741085
0.4824822095 0.4976695585 0.699445714
0.5124808672 0.9969339102 0.4477047261
0.5223680929 0.9964429465 0.6932171321
0.502345535 0.998347886 0.1978523095
0.5224051237 0.7499202079 0.6931264066
0.5023788627 0.7508366737 0.1975255126
0.5024232997 0.7511901676 0.7007760458
0.5123142285 0.7465031 0.9483131111
0.5123142285 0.5005066746 0.9426381398
0.5022603641 0.5013714255 0.198035612
0.5125475226 0.7493048667 0.4493877764
0.5223569837 0.7493114128 0.1922523256
0.5525926385 1.0000040705 0.4397588405
0.5424499001 0.4990861527 0.6880309674
0.5422795584 0.7498940232 0.1917848116
0.5524963584 0.4980531649 0.4404994567
0.5522482519 0.748106915 0.4405985141
0.5424276816 0.749069204 0.6898806563
0.5324589881 0.7459401281 0.9368891069
0.5325034251 0.9978765607 0.9393516556
0.5424869309 0.4954831331 0.1910330862
0.5522408458 0.4983732733 0.9364910257
0.5323775203 0.7485651479 0.4384710942
0.5423684323 0.9980598539 0.1879752672
0.5724411516 0.4990292009 0.9473595678
0.5624428334 0.9995982071 0.6877282406
0.5523667505 0.7477272363 0.9402126219
0.5623946933 0.7513734608 0.191021977
0.5621910239 0.7526172357 0.6920247401
0.5723189499 0.7515371154 0.9438508988
0.5723189499 0.5000013092 0.442323224
0.5724041208 0.7487811719 0.4452727278
0.6024286999 0.4998553293 0.2015100276
0.6025990417 0.9978045527 0.2004379857
0.6023768568 0.9946623844 0.698309794
0.5925710988 0.7483753085 0.9499424667
0.5923785386 0.9994410987 0.4473918158
0.5924711157 0.999702946 0.9491463043
0.6022102182 0.7469286019 0.2008768008
0.5924155694 0.7473148268 0.448913782
0.6026656971 0.7456979193 0.7034728144
0.5824913129 0.9969797335 0.2008499534
0.5823172681 0.9988519421 0.6971609131
0.5824616882 0.4996982209 0.6926542638
0.5823913297 0.7489775575 0.1977838025
0.5825098283 0.749638722 0.6962786541
0.6125307044 0.7497172762 0.9554693148
0.6124862674 0.9931371236 0.4519762299
0.6125010797 0.7461234213 0.4545572772
0.6225068041 0.996783348 0.7084821569
0.6224845856 0.7467714935 0.2150401591
0.6226771458 0.751275268 0.7052863982
0.6225438349 1.0002070022 0.2045817331
0.6423034741 0.9993690906 0.7062788239
0.6426071267 0.9988388498 0.2096151457
0.6523277138 0.9987013799 0.460415551
0.6525943356 0.9984526249 0.9580707291
0.6323495929 1.0010318213 0.4567143217
0.6324643884 0.9987013799 0.9576356171
0.6326199178 0.5006840762 0.4611774599
0.6325236377 0.7507122962 0.960838782
0.6323977329 0.7509217741 0.457837281
0.6526054449 0.7502737019 0.9634124231
0.6425515805 0.746149606 0.2150512683
0.6524573216 0.7485062322 0.4642158377
0.642529362 0.7468631401 0.7124796327
0.6724354426 0.7468107706 0.9683375206
0.6624445306 0.9969404564 0.2111843262
0.6726872521 0.9977194523 0.9600796504
0.6824411669 0.7495863526 0.2194644149
0.6727057675 0.7508039428 0.4664478696
0.6824485731 0.7494161518 0.7176926447
0.6623852813 0.7477075978 0.212172123
0.6626037631 0.7506926576 0.7091524146
0.6725243165 1.0007961587 0.4661210728
0.7024637249 0.4998428916 0.2232943262
0.6925172498 0.9994345525 0.4701194743
0.6925505775 1.0002070022 0.9706704615
0.6923839389 0.7508235813 0.9726145789
0.7025266772 0.7517793242 0.2219167801
0.6924431882 0.7518709707 0.4703092572
0.7023859602 0.751668039 0.7283306701
0.7124916677 0.4976963979 0.4745594682
0.7125731355 0.7501100473 0.4744631881
0.7224640643 0.9989239501 0.7251849029
0.7326364273 0.9998927854 0.9838349138
0.7325290379 0.7492852281 0.9770953067
0.7226307029 0.7492590434 0.2230054859
0.7324771948 0.7488008105 0.481267599
0.7224825797 0.7471053489 0.726836477
0.7225233136 1.0005277652 0.2270631367
0.7325512564 0.9965869625 0.4828571465
0.7123509506 0.748283662 0.9714388508
0.7125435108 1.0006783274 0.4763897158
0.7124990738 0.9969208179 0.9749567776
0.742382936 0.4975635104 0.2302561181
0.7425754962 0.7473148268 0.2296043759
0.7425606838 0.7480676379 0.7314866207
0.7526886098 0.7497892843 0.9842700258
0.7624721493 0.9972284885 0.733966759
0.7525997359 0.9992250746 0.9817241577
0.7624647432 0.7504046255 0.23246408
0.7524256911 0.7506730191 0.4853233983
0.7624351185 0.7468631401 0.7331020897
0.7523886603 0.9970975648 0.4828136353
0.7423977483 0.9977587294 0.232520552
0.762642491 0.9988061188 0.237226242
0.7824428641 1.0007830664 0.2386056396
0.7724667644 1.0000760785 0.4869249807
0.7824502703 0.9971892114 0.7389057431
0.7724149213 1.0004623034 0.9810205724
0.7824650826 0.7516942238 0.2405080973
0.772537123 0.7484473166 0.4906289873
0.7827094859 0.7498547461 0.741182212
0.7724667644 0.7478254291 0.9855105578
0.772540826 0.4996386507 0.482298907
0.7723815936 0.4995260563 0.9847143955
0.79247451 0.7492328586 0.9921020417
0.8124044909 0.7533896854 0.9987768448
0.7924856193 0.4979922854 0.9942313131
0.8123711632 0.5009243212 0.9944997865
0.8024543128 0.7506664729 0.2463126765
0.812360054 0.7487026177 0.5003042117
0.802372845 0.7502147862 0.7433087062
0.7923893392 0.7492721357 0.4944015009
0.7925522747 1.0044816603 0.4948292067
0.7924300731 1.0019482871 0.9925371537
0.8025024528 1.0013198534 0.2469301652
0.8024395005 1.0003902953 0.7468025629
0.8125970511 0.9976801752 0.9976751783
0.8226324001 1.0002986488 0.7499659197
0.8225546354 0.9991727051 0.2545011139
0.8326418275 0.7464507305 0.9998785114
0.8225620416 0.5017059355 0.7466266666
0.8225176046 0.7494161518 0.251193337
0.8324603766 0.7496845453 0.4991099681
0.8223398567 0.7511443443 0.7526775006
0.8426808796 0.7501951477 0.2507248973
0.8426512549 0.7462805297 0.7498622334
0.8626145636 0.5024502366 0.7507093131
0.8424216639 0.9986031871 0.7516054587
0.8624553311 0.9964036694 0.2533355692
0.8625701266 1.0005801347 0.7539976489
0.8526273546 0.9975557977 7.2204296307e-04
0.8624923619 0.7506206496 0.7529783759
0.8526569793 0.4978672533 0.5006180478
0.852553293 0.7503260713 0.0055865025
0.8526014331 0.4992465342 0.0029900874
0.862540502 0.4985048516 0.2584708165
0.8625738297 0.7499136618 0.2562887762
0.8524199821 0.7464049072 0.5046201524
0.8524718252 1.0005277652 0.5047682756
0.8825556537 0.9986555566 0.7576405546
0.8925391596 1.0008157973 0.0124187792
0.8825112168 0.7491281197 0.7566684959
0.8726165848 0.7505093645 0.0020770002
0.8926539551 0.7484735013 0.0087278259
0.8825149198 0.4997126225 0.7571563768
0.8825408414 0.4969560245 0.2582347451
0.8828519002 0.7495143445 0.2582060463
0.8725721479 0.747642136 0.5044636972
0.8926132212 0.7470529794 0.5091536491
0.8723092291 0.4988171046 0.0032711512
0.8826704492 0.9985508177 0.2572034371
0.9025819147 0.9984591711 0.7611177475
0.9126802161 0.7527285208 0.5136491892
0.9027115226 0.9979551149 0.26321076
0.9026374609 0.7498416537 0.7572017396