POSCAR file written by Ovito 3.7.11
1
269.9978878299 0.0 0.0
0.0 15.2733869912 0.0
0.0 0.0 10.7999155132
Sr Ti O 
800 800 2400 
Direct
0.0224770828 0.4965547917 0.8274197872
0.0125226716 0.4997996515 0.0777654042
0.0124595971 0.2522049299 0.5734418744
0.0225304536 0.2506054157 0.8298299912
0.002471556 0.2533147034 0.821616964
0.0125221901 0.2531772093 0.0752109398
0.0024886672 6.7008683991e-04 0.3225695415
0.0226144172 0.4984672686 0.3259279011
0.0123311146 5.853643091e-04 0.5774641281
0.0026078533 0.0011263052 0.8224753041
0.0126087464 0.0024509623 0.0771991035
0.0225018978 0.2497247989 0.3292121861
0.0024860376 0.2537042699 0.3234973266
0.0422553116 0.4982760864 0.3281677335
0.0323159746 0.250651247 0.5793530318
0.0422986453 0.2483688456 0.8263457047
0.0524257616 0.4981824595 0.074465934
0.0324781981 0.2507180299 0.0812695057
0.0324300496 -0.0012041536 0.578227097
0.0324415311 -0.0028290715 0.0816704348
0.0423849423 0.2470227133 0.3297936721
0.0524690952 0.2484821145 0.5770835696
0.0522127969 0.2491833342 0.0777146631
0.0623958396 0.2499087791 0.3217852761
0.0625239887 0.4933878451 0.8193243535
0.0624710253 0.4977987856 0.3216463861
0.0722888799 0.4993125297 0.5694122133
0.0724203624 0.2472132408 0.5692001746
0.0624962107 0.2464694634 0.8250243981
0.0725862896 0.2492802348 0.0711809083
0.0624780624 -0.0018440903 0.3243686297
0.0624547289 -0.0023303609 0.8241929101
0.0924164448 0.2476322703 0.5646464353
0.1025268942 0.2482293874 0.8157280291
0.0824771078 0.2470678899 0.8188891649
0.0923612592 0.2508385008 0.0653979001
0.1023717078 -0.0021413393 0.3155074492
0.0826600721 -0.0049082305 0.3181065436
0.0825048858 -0.00287451 0.816781741
0.0922982957 7.5212496287e-04 0.0672129143
0.1023909672 0.2458697274 0.3134991002
0.0825082191 0.2480192179 0.3182621004
0.1024305972 0.4970857806 0.3142241059
0.0925716312 0.4957645282 0.565966816
0.1123377117 -0.005098889 0.0649594707
0.1223759384 0.2486202633 0.3040768043
0.1124588238 0.2488003151 0.5618954878
0.1224277907 0.4994879983 0.8088659383
0.1123751194 0.4964611648 0.0613149052
0.1223659383 0.2493790996 0.8093539051
0.1123351191 0.2487230565 0.0586995143
0.1124654905 0.4979087808 0.5581908292
0.1525017296 0.2475268582 0.5517639271
0.1321856448 0.2495702818 0.5569843383
0.1424216508 0.2488140645 0.8063399927
0.1524983963 0.2503232255 0.0521122406
0.1324512024 0.2491964289 0.0608546238
0.1423220204 0.2506892216 0.3038990251
0.1422990572 0.4986892233 0.8039233071
0.1526117305 0.4976809335 0.0498131485
0.1324712026 0.4986054174 0.0568037588
0.1324397208 0.4963550979 0.5563028515
0.1521817271 -7.535659499e-04 0.5557528472
0.1825741871 0.2486418695 0.7834138874
0.1825645574 0.2477389919 0.2877794545
0.1625377341 0.4958155974 0.7973677002
0.1625792159 0.4972822007 0.2920220803
0.1724752192 0.2496128395 0.542190704
0.1826075207 0.4953402608 0.785815758
0.1625062523 0.2488631695 0.7981954845
0.1724485523 0.2481868297 0.0391897321
0.1623625475 -0.0027114159 0.2987610219
0.1725233677 -0.0016452477 0.5435555295
0.1823178888 -2.7325336408e-04 0.2855173998
0.162546623 0.2491925005 0.2976489762
0.2023687864 0.2462180457 0.2797312434
0.1926724142 0.4997872116 0.0333267233
0.2023550826 0.4972154179 0.2767673314
0.1925661171 0.2486006213 0.5298720891
0.2025191579 0.2494288593 0.777905511
0.1924957462 0.2497876534 0.0264107432
0.1925798209 -0.0043454346 0.533172115
0.2025154542 0.0019115273 0.7774647668
0.1926338954 -0.0014120316 0.0315815244
0.202460639 -0.0027979717 0.278753458
0.2124844211 0.247782859 0.5294257894
0.2225793149 0.2468066512 0.7723276895
0.2123981241 0.2482306968 0.0277029756
0.2225719074 1.4695467515e-04 0.2709728416
0.2123555312 -0.0019590615 0.5239275982
0.2224700548 5.039154464e-04 0.7730665842
0.2126436816 -0.0039332798 0.0236769255
0.2325775412 -0.0016786391 0.5216266543
0.2225544999 0.2484002728 0.2701922799
0.2322790204 0.2523214725 0.5199497893
0.2324916146 0.2488035887 0.0191034638
0.2326149489 8.1677732935e-05 1.0173740509
0.2524921415 0.2474600753 0.5123238037
0.2424720631 0.2489220955 0.7665387554
0.2625218496 0.2453976644 0.2587533016
0.2525573272 0.2481881391 1.0118184519
0.242631694 -0.0010474759 0.2684607849
0.2526269573 0.499159322 1.0128647564
0.2526132535 -1.5546678531e-04 0.5106876798
0.2425813232 0.247433886 0.2683126356
0.2624977753 0.2495905786 0.7600137043
0.2425376191 -6.6995646625e-04 0.7646229996
0.2626385171 4.2953770683e-04 0.2593505284
0.2524606597 -0.0018008124 1.0183833181
0.2625285163 1.3978276319e-05 0.7578923914
0.2725256315 0.2506977331 0.5036015133
0.272437853 0.2476545312 1.0048832125
0.2726667437 -0.0015154795 0.5044598533
0.2725834097 0.4979755636 0.9995776154
0.2825960807 0.2468485541 0.7495747338
0.2826823776 -0.0028519217 0.7505062225
0.2824323757 0.248835016 0.2512412058
0.3025536442 0.2492926748 0.2455143091
0.3125515002 0.2489685816 0.4871356437
0.3124885367 0.248773471 0.9849200934
0.2926217146 0.4982872168 0.4987033268
0.3126585381 -0.0017715458 0.9899479105
0.2925324547 0.2482431368 0.4906458564
0.2924713431 4.448886315e-05 0.4972060929
0.3024288284 0.2500777004 0.7414755963
0.3026643858 0.4990460531 0.2400364885
0.2923998611 0.2518598853 0.9946146136
0.312515574 0.5006409842 0.9877719675
0.2924887506 0.0010142148 1.0001424347
0.3025436441 -0.0024364278 0.7462376706
0.3224426887 0.2500364522 0.2341919983
0.3327035097 0.2506420808 0.4795272509
0.3226919499 0.2504417323 0.7383227939
0.3325072119 0.2492795801 0.981197842
0.322698987 0.0017840506 0.2361438654
0.3324761005 0.0034403303 0.4806818895
0.3225597266 1.9769653093e-04 0.737046858
0.3324957303 0.0028519212 0.9802996868
0.3624337423 0.2523450429 0.2213141198
0.3527210737 -0.0015370202 0.9721051783
0.3524962571 0.251192057 0.4740003558
0.3425809944 0.2492808896 0.7312634794
0.3524999608 0.2496364099 0.9725496262
0.3425743276 0.0013845976 0.2273132408
0.3424035856 0.0036846114 0.7295579105
0.3423687705 0.2504089956 0.2313225314
0.3625522617 0.2481743897 0.7232448982
0.3624485572 -1.8093592324e-04 0.221713197
0.3724930802 0.2510087316 0.4677604921
0.3826116779 0.2502990003 0.71562632
0.372426413 0.2491499428 0.9674199565
0.3824190838 -1.4387800018e-04 0.7159244705
0.3824450099 0.2503003098 0.214743698
0.3924450881 8.0171845602e-05 0.4621863745
0.3926524972 6.7814006347e-04 0.9627347346
0.3724338205 6.0094696932e-04 0.4709123687
0.3723227085 0.0014234888 0.9719755477
0.3923821247 0.2491859532 0.4606465476
0.3925969412 0.2531778641 0.9607810156
0.4125119118 -0.0019608948 0.4571918909
0.4024007216 0.2512326505 0.711290175
0.4025044261 0.0013804728 0.2086529096
0.4025377597 -0.001537413 0.7084401527
0.4025303522 0.5001656476 0.2108186673
0.4026340567 0.2490484591 0.2116881186
0.4125711715 0.2503337012 0.4559844741
0.4126008014 0.253180483 0.958475442
0.4123711699 -8.6434687891e-04 0.9594569312
0.4124822819 0.5011549501 0.9591235953
0.4125748752 0.4988195153 0.4542224233
0.4226527319 0.2477226235 0.20116674
0.442449183 0.2494092173 0.6950280108
0.4325379944 0.49956984 0.9506327881
0.4323565115 0.4972979143 0.449488127
0.4425639987 0.2504594101 0.1995658015
0.4224231004 0.4986708907 0.2050501037
0.4424973315 0.4957985743 0.7011002805
0.4324120675 0.2474541827 0.4518418491
0.4224860639 0.2474312671 0.7038410427
0.4325120682 0.2472898446 0.9522346525
0.4423639972 0.4984358414 0.2026963815
0.4324861421 -0.0015286396 0.950938346
0.4523159269 -0.001074189 0.9427438375
0.4725642334 0.2514388916 0.4438177122
0.4624493395 0.2516176339 0.6967372834
0.4725605297 0.249491059 0.9428827275
0.4624604507 0.2479439235 0.1951231742
0.4524233351 0.5013219072 0.9446790378
0.4625382291 0.4986433919 0.691283537
0.4724420102 0.4989295105 0.4434390056
0.4523714829 0.248753829 0.4439408614
0.4525159284 0.2488579316 0.9483457332
0.472390158 0.0014308218 0.9393086254
0.4824235698 0.0016866917 0.1876684862
0.4824717183 0.249464215 0.6907872368
0.4826939423 0.2497156327 0.1876999679
0.4923717958 0.251831077 0.4306879799
0.4925273526 0.2517210818 0.9329474646
0.4824494959 0.4990735519 0.1834480828
0.5025237271 2.4005779633e-04 0.6758111938
0.5025311345 0.2483118838 0.1748637564
0.5126756583 -4.9363670158e-04 0.9221233058
0.5226312918 -9.2916550759e-04 0.1720859569
0.5024089113 0.5024788215 0.6764445321
0.5024607636 0.2508254062 0.6742787744
0.5225238835 0.496580981 0.6678759465
0.5124682493 0.2473828168 0.4214823523
0.5223831417 0.2475392981 0.1679627765
0.5123941746 0.2488592411 0.9239844315
0.5226905515 0.2486798441 0.670335225
0.5125089903 0.4952754422 0.4262481304
0.5225349947 0.4982747769 0.1697414941
0.5524315249 0.2503697116 0.4199730813
0.5524130062 -0.0010859087 0.9179103099
0.5325795177 0.500199039 0.9150676951
0.5324869244 -2.219877214e-04 0.4135415495
0.532575814 0.4985844659 0.4117322761
0.5325128505 0.2497981291 0.4167323152
0.5324906281 0.2469873577 0.9155028837
0.5424870026 1.246282586e-04 0.6635759129
0.5424351504 0.250752076 0.1644710825
0.5425684848 0.2483583699 0.6679953919
0.5524500435 0.2498040217 0.9163454828
0.5626019748 0.4989727229 0.6679472434
0.562461233 0.5006966366 0.173677636
0.5624316031 -0.0015078846 0.1710415043
0.5624241956 0.2482595051 0.1683627796
0.5624834554 0.2480264199 0.6730269127
0.5725724232 0.0012105694 0.4222712474
0.5725094597 0.0012886792 0.921123298
0.5722798283 0.2492154162 0.4162471262
0.5723687179 0.2500790098 0.9204658854
0.5925614684 0.5002592745 0.926873343
0.582383611 0.2527830597 0.6709222666
0.6022504331 0.2473860904 0.1749137568
0.5925985058 0.2489489396 0.4235981096
0.6024578422 0.2521571344 0.6789584406
0.5924244303 0.2512084253 0.9205862568
0.5823058327 0.2503310823 0.1711053937
0.6026245101 0.4977031945 0.6790047373
0.592539246 0.5027813084 0.4222443953
0.582550279 0.4986761286 0.1757619116
0.6126282921 -7.8924893236e-04 0.9262159304
0.6125949585 0.4967374624 0.4254953467
0.6227098524 0.4975676646 0.1763804349
0.6225542957 0.2495126653 0.681848278
0.612698663 0.4991134907 0.9270307516
0.6226431852 0.4970052484 0.6817232771
0.6124542167 0.2503598906 0.4259638689
0.6125394025 0.2503409033 0.9256048145
0.62268763 0.2479393404 0.1788684174
0.6326617821 0.5020002112 0.9319011601
0.6425063036 0.2481927223 0.1869203322
0.6525397154 0.2499788356 0.4400158307
0.6425137111 0.2486300843 0.6888233326
0.652628605 0.2496953359 0.9426882815
0.6427322313 0.5007287185 0.6859825696
0.6524989744 0.5011339986 0.9383641736
0.6425137111 0.5016158826 0.1852971714
0.6525137893 0.5003804002 0.4413584338
0.6324580768 0.2465755302 0.4320916946
0.6323210387 0.2486582379 0.9341696963
0.662632387 0.0015186871 0.6943696723
0.6727065398 0.5006246159 0.4450519812
0.6825880986 0.4999528592 0.6998039741
0.6726250577 0.5004177201 0.9468086841
0.6825992098 0.4984554834 0.199502838
0.6625286825 0.2499755619 0.1941611296
0.662465719 0.2518716705 0.6923974346
0.6826177285 0.0025489759 0.1990157972
0.6825103202 0.0019356869 0.702243808
0.6626027571 0.4982381118 0.6932326263
0.6627509064 0.5006494958 0.1942981677
0.6825621725 0.2514847229 0.2046269522
0.672454686 0.2495486756 0.4503872081
0.682514024 0.2527535967 0.7003382375
0.6726435764 0.2494216573 0.9502253775
0.7024178834 0.250090795 0.2113047822
0.6924992873 0.250243348 0.4571178163
0.7025993663 0.2514703188 0.7119772174
0.6925363246 0.2476663164 0.955206898
0.7023215863 0.5019399757 0.7102188703
0.7024808468 9.1685594241e-04 0.7076855172
0.7024549207 0.0022676369 0.2094223601
0.6926585478 0.5019609272 0.9578643262
0.6924955835 0.5013598817 0.4528251901
0.712399443 0.2532263144 0.4654910299
0.7123253683 0.2485266364 0.9638458544
0.722484707 0.4985897038 0.7251634317
0.7224772996 0.2529107328 0.2227437606
0.7324477479 0.2513433005 0.4754568486
0.7225476705 0.2522461781 0.7202763564
0.7324403405 0.5012367918 0.9769385494
0.7225217444 0.5007516342 0.2212076375
0.7324958965 0.5018109932 0.4751874021
0.7325773786 0.2519751184 0.9752163137
0.7126216669 0.4958967844 0.9689199682
0.7624368714 0.499651027 0.7340209084
0.7424626411 9.6327655628e-04 0.7266680731
0.7525590164 0.4997924494 0.9804663548
0.7624516864 0.5021272295 0.2351123759
0.7623998341 0.2497856892 0.2329706925
0.7524738305 0.252802047 0.480689297
0.7623331669 0.2506898763 0.7324320071
0.7525590164 0.2524419435 0.9851700953
0.742588568 0.5057400497 0.7292967974
0.7523330887 0.5021069328 0.4825356077
0.7424107888 0.2541521077 0.2284438052
0.7425256046 0.2525604503 0.7264495529
0.7824518428 0.4993426474 0.2420587265
0.7824333242 0.5001139237 0.7417191168
0.782422213 0.2492409508 0.2424976188
0.7726110251 0.2492828538 0.4873856457
0.7824962876 0.2510506345 0.7450191426
0.7725591728 0.2528387121 -0.015296009
0.7923963651 0.5012145309 0.489181956
0.812459485 0.5037044828 0.5031829915
0.8023964433 0.5010259676 0.7439635788
0.8025260739 0.4995102593 0.2479791432
0.7924741434 0.2532760741 0.4926912427
0.7924889584 0.2501929335 0.9934109005
0.8125780044 2.790144469e-04 0.5046570771
0.8024408881 0.2500508563 0.2533106664
0.8125817081 0.2512843744 0.5031644728
0.8023816284 0.2488179929 0.748559911
0.8125261522 0.2520242234 1.0079573106
0.8325448273 4.5631631201e-04 0.5151803075
0.8225669714 0.2500868666 0.2626014798
0.8326077907 0.0037815774 1.0108369628
0.8324114929 0.2503369749 0.5143599308
0.8225817864 0.2532453016 0.7599525927
0.8323003809 0.4999888695 0.5145997474
0.8324300116 0.498119605 1.0159851512
0.8324707526 0.2501680536 0.0131006391
0.8225558602 0.4993635989 0.2553356822
0.8424893495 0.5007843709 0.7643294788
0.8423819413 0.5031957548 0.2634468568
0.8425967578 0.0020974061 0.2702404285
0.8425300906 0.2539877696 0.2670311441
0.8424930532 0.2515194238 0.7654452283
0.8626043217 0.2514074644 0.2721904437
0.8525672061 0.254770831 0.5204683119
0.862489506 0.2557778113 0.7737239968
0.8524523904 0.2516981661 0.0222470995
0.8724747693 0.0039822533 0.5309211714
0.8824489214 0.2517322122 0.2838766462
0.8724006946 0.252251416 0.5296748654
0.8925786302 0.253561538 0.5412656968
0.8825118848 0.2504672669 0.7820518397
0.892415666 0.5039814352 0.032546069
0.8726636596 0.2517701868 0.0292993769
0.8926156676 0.2511861644 0.0399352935
0.8925045556 0.0017435226 0.5390110495
0.872422917 0.0017201486 0.0288173361
0.8725043991 0.5032343841 0.5256989083
0.8925082593 0.5014266646 0.5384666008
0.9126639726 9.5954457463e-04 0.5442222014
0.902737969 0.2493417798 0.292012821
0.912504712 0.0037830833 0.0440938445
0.9124936009 0.2526363994 0.5400517984
0.9024935226 0.2511874739 0.7921713633
0.9125158232 0.5036756746 0.5454046181
0.9027046354 0.5027583928 0.7891491174
0.9125269344 0.2531353064 0.0441779193
0.9125491568 0.5051782882 0.0477153543
0.9023342621 0.5041614869 0.2938517243
0.9427271707 0.2514670451 0.8094603874
0.9325826469 0.2513446099 0.0495189796
0.9325382021 0.5052863193 0.5543296879
0.9325011648 0.5018587888 0.0550931898
0.9226603471 0.5041438091 0.7975945539
0.9224825679 0.5031433761 0.2961785943
0.9424567982 0.5015615397 0.8030992266
0.9226159023 0.2537160551 0.2988888007
0.9225344201 0.2518513738 0.7950241634
0.9426419848 0.2526887781 0.3103814832
0.9325937581 0.2536702238 0.5510176249
0.9725829598 0.0010369341 0.5644455078
0.9626236226 8.4378767009e-04 0.806488142
0.9625717704 0.2498694951 0.3100768512
0.9525531735 0.0015306032 0.0617640754
0.9725496262 -6.8927110813e-04 0.0619968549
0.9526828041 0.2505595843 0.5588380565
0.9726199971 0.2530593573 0.5614093729
0.9626199189 0.2535995125 0.8099076132
0.9526976191 0.2506473186 0.0608134198
0.9725644411 0.251521388 0.0627898241
0.9725088852 0.500720207 0.5653557001
0.9524976175 0.0030641858 0.5599575097
0.9625939928 0.0027384558 0.3104638913
0.952712434 0.5044836159 0.5600278806
0.9624791771 0.5045287925 0.8105066919
0.9825126671 0.2506460092 0.32109453
0.9824497037 0.0028861637 0.8139437558
0.9923682998 0.0016815193 0.0686743146
0.9927238581 0.2512457452 0.5713650063
0.9825904455 0.2518336959 0.8165085907
0.9926090424 0.2516700125 0.0700546032
0.9923720035 0.5030425471 0.0697943234
0.0225558983 0.7487529454 0.8324226041
0.0024263334 0.5012459581 0.3187537709
0.0023936294 0.7490344808 0.8230780866
0.0124355228 0.4981752574 0.5753215188
0.0024848524 0.4990584931 0.826729041
0.0225901207 0.9976630268 0.327551062
0.0225904541 1.0014342925 0.8261262585
0.0124927825 0.7504618001 0.0761599287
0.0223846377 0.7510707024 0.3297344124
0.0023561847 0.7502981167 0.3214047176
0.0125911536 0.7498267085 0.5759539311
0.0524350209 0.9968315151 0.580265076
0.0524324283 1.0005307601 0.0766184508
0.0325233836 0.7485172413 0.0787295784
0.0424856838 0.7495189837 0.3280501399
0.0325222725 0.7477512029 0.5790141402
0.0424742022 0.7491457856 0.8294716551
0.0425227211 0.5014666033 0.8263632974
0.0324307903 0.5013291093 0.079699586
0.0324507905 0.4980894873 0.5795900707
0.0426130922 0.9985403699 0.3266973516
0.0523265015 0.4964611648 0.5734085408
0.0524457617 0.7486350933 0.0787396711
0.0525350217 0.7486940194 0.5793446984
0.0424793875 1.0015128605 0.8314263
0.0724659183 0.4978917577 0.0711709082
0.0724918445 1.0005242128 0.5721807535
0.0725236966 0.9953714591 0.0700671033
0.0725974008 0.7452501205 0.0706866452
0.0624869514 0.7472208687 0.3280177323
0.0726366604 0.7452828572 0.5721918646
0.0625547297 0.7482226111 0.8265244098
0.0925331123 0.9978136156 0.5655103309
0.0926549652 0.7445168188 0.0668663375
0.1024217082 0.997394586 0.8126955979
0.1024213379 0.7457870021 0.3156537467
0.0826922946 0.7518825721 0.3188565495
0.1023846709 0.4975794498 0.8141928319
0.0926057055 0.7490803122 0.5644019889
0.1025031903 0.7458590228 0.8115076257
0.0824778485 0.4963446222 0.8159076601
0.0826748871 0.7478232236 0.8182530488
0.0924323708 0.4973745182 0.0669573567
0.0825115525 0.4978164634 0.3160491201
0.1125299354 0.7455185613 0.0594838723
0.1225337174 0.7462976943 0.3084972092
0.1125680839 0.7457608127 0.5626353084
0.1226070513 0.7457804547 0.8101640966
0.1223618642 0.9975910061 0.3115398256
0.122331864 0.9971719766 0.8124659665
0.1224703836 0.4984692328 0.3112926014
0.1124240087 0.9987826213 0.5611510375
0.1424442435 0.747927981 0.3023990134
0.1523987659 0.7506909569 0.5513741092
0.1323512016 0.7495451731 0.5604630692
0.1424016506 0.7490410282 0.8053473923
0.1524665442 0.4997020962 0.5526296746
0.132317868 0.999535565 0.0535183627
0.1425057255 0.4976907545 0.3039018029
0.142540911 1.0005700441 0.305369407
0.1323274977 0.9982130031 0.5557491434
0.142334613 0.9974338701 0.8031603381
0.1524283957 0.9969362725 0.051161122
0.152415803 0.7480654751 0.0493525894
0.1325023139 0.7474958568 0.0604555466
0.1722078097 0.7474238361 0.0407522443
0.1624499556 0.7462715049 0.295573034
0.1724726266 0.7492112589 0.5402860595
0.1623006952 0.7473125314 0.7942695279
0.1825960391 0.9960392874 0.7872481766
0.1723129957 0.4969168594 0.0410982655
0.1725489235 0.496939775 0.5376286313
0.1825112236 0.7459244961 0.2895572462
0.1825038162 0.7444120615 0.7854953851
0.1721504018 1.0006158755 0.0436174519
0.162366992 1.0013033458 0.794655642
0.182406408 0.4986519035 0.2826127475
0.2025639731 0.4964768784 0.7757841981
0.1925783394 0.5001440414 0.5366814017
0.192518339 0.7477446556 0.030462812
0.2025128616 0.7476464456 0.2753497277
0.1924075974 0.751005229 0.5321832183
0.2025654546 0.7456626027 0.7784092186
0.2324834664 0.4982629917 0.0156891779
0.2322930946 0.7490017442 0.0168751131
0.232405688 0.7495713624 0.5229090717
0.212357383 0.7498267085 0.0250371214
0.2224396841 0.7474369308 0.2744404613
0.2124033093 0.7507498829 0.525551685
0.232563467 0.5006364011 0.5172016197
0.2224074617 0.7460554429 0.771892501
0.2225196848 0.4989792703 0.7744147429
0.2126366445 0.4962071281 0.0282581651
0.2226493154 0.4974976081 0.2698061658
0.2125066435 0.4978210465 0.523888709
0.2524591782 0.7484386732 0.010214598
0.2424994707 0.7491523329 0.2698283882
0.2525876978 0.7472732474 0.5165414293
0.2424591 0.7482880845 0.764341516
0.242523545 0.4990375416 0.7607479693
0.2425953974 0.5007778235 0.262031105
0.2624870345 0.5009146629 0.7568933095
0.2526862171 0.4984410792 0.5117367621
0.262584813 0.7496302884 0.2605718343
0.2626570358 0.7478559603 0.7613748261
0.2625644425 0.5010364433 0.2523208438
0.2726619289 0.9977808789 1.00394802
0.2725922987 0.5022837109 0.5062209782
0.2826727479 0.5012060193 0.2488717428
0.2826590441 0.5006305085 0.7532071696
0.2824886724 0.751587942 0.2508486101
0.2825538581 0.7483011792 0.7540145833
0.2726982255 0.748608904 1.0100314009
0.2726041506 0.7494600577 0.5092756317
0.2825694138 0.9982719291 0.2495967484
0.3124989072 1.003411588 0.4904412251
0.2925165286 0.7460488955 0.9999387294
0.3025651258 0.7475416882 0.2447078213
0.2926754188 0.7495910044 0.4990264775
0.302622904 0.7455447506 0.7413792993
0.3125152036 0.7479148863 0.9842811995
0.3126163155 0.7481374958 0.4878013897
0.3125618706 0.4968998363 0.4924227221
0.3025306811 0.5006717567 0.7435006122
0.292630974 0.4993256244 0.9997257647
0.3025529034 0.9974731541 0.2403976024
0.3325179527 0.4991468821 0.4832328354
0.3225519488 0.499798342 0.7376450108
0.3324861006 0.7496761198 0.9842719401
0.3325512863 0.4987199958 0.9839941602
0.3224156514 0.751005229 0.2379966577
0.3325927681 0.749348753 0.4791994705
0.3225797268 0.749329111 0.7367792633
0.3226167641 0.4988024922 0.2376660996
0.3526421842 0.5004098632 0.4790022468
0.3523777377 1.0044133305 0.4717077452
0.362285593 0.7512016491 0.2177159435
0.3625522617 0.7527861045 0.719575425
0.3524888496 0.7503374007 0.9726977755
0.3624337423 0.5027191087 0.7291375369
0.342533957 0.7500362233 0.2316429043
0.3624967057 0.5038452506 0.2241261788
0.3524610717 0.7537943943 0.472736457
0.3424102523 0.7510968918 0.7254708415
0.3624152236 1.0029794638 0.7252134321
0.3427417364 0.5008550821 0.7257449177
0.352644036 0.4986374993 0.9798274609
0.3426513653 0.4997263213 0.2300558548
0.3726930818 0.5003790908 0.9717533237
0.3826968637 0.5001034479 0.2169520486
0.372744934 0.49956984 0.4677716033
0.392419162 0.5020611014 0.9617995421
0.3826301965 0.5025645916 0.7163068809
0.3725634511 0.7505207262 0.9647717876
0.3825042696 0.7517581727 0.2158696327
0.3722819674 0.7515028266 0.4680493833
0.382541307 1.0018402273 0.2149548108
0.3825116771 0.7524718324 0.7146550162
0.3924636068 0.750926661 0.9625032513
0.3924006434 0.7490803122 0.4665391863
0.3925599039 0.4991010507 0.4667521509
0.4026229455 0.5003273668 0.7056882793
0.4025007224 0.7504748948 0.2130547959
0.4024785 0.7508546403 0.7111670259
0.4123748737 0.7469917119 0.9583550707
0.4126008014 0.7497481405 0.459560428
0.4223897668 1.0020562894 0.7100901656
0.4424195532 0.9964845063 0.1984519039
0.432308363 0.9998563845 0.4491316427
0.4425491838 0.998036225 0.6949206025
0.4224193967 0.4967741274 0.7057651318
0.4324935496 0.7481178538 0.9517902046
0.4225231012 0.7493749423 0.2014389643
0.4323898451 0.7461863896 0.4505890615
0.4224823602 0.7484452206 0.7026873299
0.4424602942 0.7489886495 0.1991722799
0.4424417756 0.7463828097 0.6996187874
0.4222119877 0.9970999559 0.2077908658
0.4724827513 0.7505600102 0.9364474919
0.4622826715 0.7498201612 0.1932639004
0.4725160849 0.7499380132 0.4387121168
0.4623604499 0.7502522854 0.6926789183
0.4523640754 0.9990117781 0.4496723877
0.4723642319 0.9994700916 0.4404732416
0.4723531207 0.4989943292 0.9414567904
0.4625456365 0.4987815407 0.1923694489
0.4625382291 1.0005307601 0.1920694466
0.4624123022 0.9996468697 0.6939872619
0.4525122247 0.7480785697 0.9453086724
0.4523714829 0.7483470105 0.4466649567
0.4524307426 0.4965089603 0.4516399957
0.4825161631 0.9975058908 0.6863251649
0.4924014256 1.0003277927 0.4297129723
0.4924643891 1.0005962335 0.9289752113
0.4925014264 0.7489755548 0.4296287124
0.492494019 0.7499052766 0.9259381505
0.4824124586 0.7527730098 0.1851712445
0.4822865317 0.7550318408 0.6853760834
0.4924532779 0.5006658641 0.9332715412
0.4923199435 0.5010632874 0.4322157696
0.4824124586 0.4985294683 0.6879529554
0.5125571389 0.9989201154 0.4246444141
0.5226683291 0.9970934086 0.6725352422
0.5024607636 1.0005896861 0.1787832315
0.5225016611 0.7471030166 0.6676481669
0.5024607636 0.7504356108 0.1768202532
0.5025866905 0.7516141313 0.6724380192
0.5125571389 0.7503570428 0.9232251663
0.5123238037 0.5002684408 0.922882571
0.5023607628 0.5015576113 0.1814212151
0.5126349173 0.7501540753 0.4215805013
0.5224831425 0.7468804072 0.1675609215
0.5524796734 0.9992409349 0.4174406541
0.5425684848 0.5000405935 0.6626416463
0.5424573728 0.7483077265 0.1649238638
0.5523537465 0.4987828502 0.4232166252
0.5526722675 0.7482880845 0.4163971274
0.5426870042 0.7449358484 0.6622009021
0.5326128513 0.7471553953 0.9139380566
0.5325943327 0.9976171955 0.9166325221
0.5425203362 0.4990139712 0.1633571849
0.5524981921 0.5020722319 0.9182066085
0.5325609991 0.7499511079 0.4139989605
0.5424425578 0.9992147455 0.1624747706
0.5724539037 0.4984469718 0.9221140465
0.5625612338 0.9974862488 0.6717019024
0.5524241174 0.7504814421 0.9149751017
0.5625390114 0.7484255786 0.1755295024
0.5624908628 0.7499903919 0.673646362
0.5726909426 0.7472405107 0.9245029541
0.5725650157 0.4999253604 0.4218814295
0.5727316837 0.7481571378 0.4201304899
0.6025689541 0.5002415967 0.1782424865
0.6025171019 0.9999480472 0.1768850685
0.602280063 1.000255772 0.6778038019
0.5926985065 0.7463566203 0.9255307399
0.592609617 1.0012640618 0.4253573827
0.5925318386 1.0020235528 0.9260307438
0.6027356221 0.7505731049 0.1785656372
0.5925688759 0.7508415456 0.4260342398
0.6026393251 0.747129206 0.6742232184
0.5824650932 0.9994700916 0.1742767148
0.5825539827 1.001113473 0.6737565481
0.5824799081 0.5037110302 0.6691981791
0.5827947254 0.7496892145 0.173691525
0.582494723 0.7477773923 0.6743509972
0.6125134764 0.7495582677 0.9278826101
0.6123431047 0.9997581744 0.4259842394
0.6125023652 0.7528057465 0.4318065072
0.6223394792 0.999653417 0.6758760091
0.6224839247 0.7515028266 0.1790313816
0.6224431837 0.7506516729 0.6838094045
0.6226542964 1.0016241652 0.1831101172
0.6425803782 0.9991689142 0.6925344727
0.642624823 0.9973618494 0.1864675509
0.6525211968 1.0034443247 0.4439991951
0.6526471237 1.0015586919 0.9426790222
0.6325136328 1.0013819138 0.4345694918
0.6324506694 1.0021806888 0.9344289576
0.6326840045 0.499491272 0.4342139334
0.6323914097 0.7489690075 0.9317159735
0.6325173366 0.7493160163 0.4347787526
0.6524582333 0.7493356583 0.9431049514
0.6425470447 0.749289827 0.1874897811
0.6526693461 0.7517909094 0.4393213808
0.642624823 0.7517123414 0.6904492712
0.6726583913 0.7516403207 0.9440494033
0.6625397936 1.001814038 0.1960342924
0.6723657964 0.998854642 0.9478086919
0.6827806927 0.7518629301 0.201748226
0.6724435748 0.7503897794 0.4494344229
0.6824436531 0.7501802647 0.7026382555
0.6626138683 0.7490606702 0.1937944601
0.6625916459 0.7507236936 0.6959039435
0.6725509831 0.9988415474 0.4474844076
0.7023993647 0.4998225672 0.2134316507
0.6924733611 0.999633775 0.4579456005
0.6925918806 1.0005896861 0.9591050766
0.692614103 0.7536307109 0.9571698763
0.7025660327 0.7508939243 0.2118510828
0.6926437329 0.7496761198 0.4564604037
0.7025882551 0.7487136614 0.7112522118
0.7125698147 0.4984207825 0.4690910581
0.7125846296 0.7484386732 0.4676947509
0.7225810041 1.0031431473 0.7225198925
0.7326996018 0.9993129556 0.9711885045
0.7325921935 0.753964625 0.975670021
0.7223810025 0.7505469155 0.2243280322
0.7325329338 0.7528777672 0.4759614822
0.7225328556 0.7515813946 0.7212772902
0.7224069286 1.0024818663 0.2172529769
0.732488489 1.0001182779 0.4701262514
0.7123698131 0.7509397557 0.9686977442
0.7125475923 1.0015979759 0.4625817479
0.7125327773 0.999496281 0.966012538
0.7425181971 0.5025803052 0.2267993479
0.7424885672 0.7515028266 0.2257187839
0.7425144934 0.7528843145 0.7301995822
0.7524701268 0.7490213862 0.9786885631
0.762262796 0.9993849763 0.7302699531
0.7524330895 0.9989593994 0.9764200269
0.7625109461 0.7519087614 0.2285817692
0.7525812388 0.7510641551 0.4764559305
0.7623776117 0.7512933118 0.7378737163
0.7525701276 1.0007206328 0.4811411524
0.7425256046 1.0017027333 0.2274650938
0.7624220565 1.0005373074 0.2335438451
0.7823073972 1.003254452 0.2400753777
0.7723554675 1.002612813 0.4914921593
0.7823999906 1.0011265677 0.7433237589
0.772307319 0.9982195504 0.9896516119
0.7824333242 0.7510183237 0.2426003974
0.7723258377 0.7516010366 0.4856652618
0.7825444361 0.7505207262 0.7398329909
0.7725962102 0.7516992467 0.9842071248
0.7724480609 0.5032160516 0.4915541968
0.7723739862 0.5024388827 0.9917812581
0.7925667368 0.7509528504 0.9959201794
0.8127261537 0.7507040516 1.0007165132
0.792507477 0.499631385 0.9950960989
0.8123224469 0.5003967686 1.0032350515
0.8027445942 0.7507433356 0.247912476
0.8124076327 0.7492570903 0.5045348539
0.8024779254 0.7512081965 0.746260819
0.7924926621 0.752465285 0.4939551415
0.7924334024 1.0017420173 0.494876445
0.7924593285 1.0035818188 0.9937627551
0.8024260731 0.9991820088 0.2498569357
0.8024594067 1.0001772039 0.7488034314
0.8124631887 1.0021414048 1.0055869217
0.8225188229 0.9999087632 0.7541506955
0.822504008 0.9968707991 0.2606088716
0.8322633436 0.7529170512 1.0131147584
0.8225114155 0.5026032209 0.7613831595
0.8224706744 0.7501737173 0.2564653207
0.832437419 0.7518236461 0.5124691752
0.8225262304 0.7493029216 0.759519256
0.8424560159 0.749466605 0.2616394352
0.8425708316 0.7521575602 0.7664091247
0.8623561716 0.5004052801 0.7720878729
0.8423597189 1.0016176179 0.7662563458
0.8623746903 1.0030056532 0.2725941506
0.8624635798 1.0021348575 0.7718175004
0.8524560942 1.0021741415 0.0208912556
0.8624228388 0.7543181812 0.7724295422
0.852444983 0.5036887692 0.5194257111
0.8525301688 0.7535325008 0.0185493854
0.8524005382 0.5009690058 0.018957259
0.8623598753 0.5032906912 0.2727941521
0.8624450612 0.7537289209 0.268763565
0.8523560934 0.7529235986 0.5235035208
0.8524968352 1.0043936885 0.5220470279
0.8826192931 1.0027830438 0.7837351862
0.8923564063 1.0031824313 0.0382071318
0.8824229952 0.7523343383 0.7799740457
0.8722599528 0.7537289209 0.0253886056
0.8924527033 0.7547961367 0.0329718131
0.8824229952 0.5007647289 0.7828111049
0.8825600334 0.5018325994 0.2836331258
0.8823785505 0.7548092314 0.2857535128
0.8723451386 0.7541086664 0.5243646387
0.8925045556 0.7531200186 0.5364925113
0.8724525469 0.5034871113 0.0254512913
0.8825600334 0.9996599644 0.284919247
0.9025342637 1.0025080556 0.792563033
0.9126491576 0.7499249186 0.542509225
0.9024898189 1.0023574669 0.2902229922
0.9025009301 0.751705794 0.7881046648