POSCAR file written by Ovito 3.7.11
1
270.0406211617 0.0 0.0
0.0 15.2758043535 0.0
0.0 0.0 10.8016248464
Sr Ti O 
800 800 2400 
Direct
0.0226103448 0.4992039699 0.7954635145
0.0124142121 0.498857016 0.0378870279
0.0126178482 0.2498809286 0.5402991258
0.02245285 0.2495176089 0.794701592
0.0026029104 0.252926922 0.7934249323
0.0124798689 0.2509361922 0.0412095836
0.0023968674 9.1852294306e-04 0.2941778211
0.0225026203 0.4990540596 0.2943555722
0.0124708332 4.6368601014e-04 0.53892711
0.0024499705 0.004673808 0.7895801403
0.0123113757 0.0030075782 0.0417536684
0.022494103 0.2518827872 0.2941278287
0.0025908012 0.2496177673 0.2942546614
0.0426873242 0.5007017634 0.3027857853
0.032336289 0.2470188862 0.5440892964
0.0424718011 0.250648155 0.8005840404
0.0526087945 0.5013000952 0.0501730499
0.0326740159 0.2504759873 0.044241072
0.0323799861 -0.0020394228 0.5491292788
0.0325099665 5.4158698167e-04 0.0434647999
0.0426262223 0.2517688815 0.2973847461
0.0526136086 0.2471203538 0.5502411486
0.0525680599 0.2489814669 0.0524035476
0.0626876486 0.24884334 0.3030459314
0.0627757834 0.4993735191 0.8007580883
0.0628065196 0.5015436176 0.3010406775
0.0724395147 0.5024149301 0.5501069095
0.0725502388 0.2486862288 0.5482210821
0.062691722 0.2511581117 0.8048213658
0.0724839525 0.2504864613 0.0509153456
0.0625276726 -0.0016730264 0.3061954576
0.0625891449 -0.0010889 0.8067414473
0.0926001853 0.2483202906 0.5491422398
0.1026009029 0.2509106616 0.7951126413
0.0824909655 0.2495352839 0.797517835
0.0924053998 0.2496923951 0.0471395248
0.1026153452 -7.8805881492e-05 0.2968061294
0.0824887436 -0.0022625861 0.2995288679
0.0824743013 -0.0011409431 0.7986861778
0.0926960968 0.0012445942 0.0477712816
0.1026653377 0.2502651964 0.2965209871
0.0825676206 0.2491968402 0.2960090271
0.1026009029 0.502839785 0.2898830969
0.0925531553 0.5002625066 0.5434060658
0.1126653147 -9.6242547281e-04 0.0431051318
0.1225453097 0.248707177 0.292759516
0.1124457181 0.2521105984 0.5427904177
0.1226560338 0.5043539442 0.794107237
0.112566811 0.5014342944 0.0380615387
0.1224619889 0.2496976322 0.7935841676
0.1125260763 0.2508098486 0.0427502777
0.1125331123 0.5003973604 0.542450654
0.1524085946 0.2474928383 0.534037105
0.1326052777 0.2508530542 0.5400028741
0.1426596909 0.2513597378 0.7928028036
0.1525285765 0.2506435726 0.0364335429
0.132578615 0.251569874 0.0421639771
0.1424226896 0.2489736114 0.2893378086
0.1426556175 0.5004143808 0.790102284
0.1526729993 0.4992157532 0.0402481542
0.1325171428 0.4993047829 0.0401875152
0.1326063886 0.50185784 0.5432477563
0.1525815315 -3.1349074109e-04 0.5362913955
0.182505548 0.2522912763 0.7758470213
0.1822792858 0.2510311135 0.2780635788
0.1626555715 0.5008569107 0.7847882687
0.1625459583 0.5007416958 0.2835229427
0.1725411212 0.2499149693 0.5321003593
0.1826110877 0.5022362161 0.7779392991
0.162598543 0.2526022256 0.7804685482
0.1725829668 0.2493519875 0.0319727325
0.1623289539 -8.7666894113e-04 0.2862660485
0.1725966684 -0.0018042797 0.5264900923
0.1825710937 -6.250946272e-04 0.2751519799
0.1625311457 0.2504223076 0.2803049083
0.2025110567 0.2489323697 0.2729291661
0.1923714711 0.4999895259 0.0260002052
0.2025680852 0.5004818077 0.2733152192
0.1926062506 0.2485906528 0.5240534218
0.202392556 0.2514926277 0.7719642721
0.1925288548 0.249034492 0.0267600908
0.1924481263 -0.0012709526 0.5237849437
0.2024955035 0.0018650525 0.7745472168
0.1924710858 -1.7418547436e-04 0.024026428
0.2027010282 -1.8564149959e-04 0.2698138941
0.2126143515 0.2462536237 0.5218593075
0.2224095445 0.2504308178 0.7662799421
0.2123577235 0.2479864293 0.0202036698
0.2224643511 -2.016799349e-04 0.2728041849
0.2125373261 6.3762120455e-04 0.5198290574
0.2225443391 0.0018354632 0.7643691185
0.2126317563 0.0010054578 0.0206062945
0.2326720746 -0.0011328911 0.5088603372
0.2224280603 0.2519417039 0.2688353376
0.2323939683 0.2512765998 0.5098518547
0.2325302441 0.2505244299 0.0113581488
0.2325532036 -3.3136214044e-04 1.0155794724
0.2523620752 0.2494154866 0.5096139276
0.2424409753 0.2518225612 0.7649671767
0.2623453881 0.2489736114 0.2547772674
0.2526072235 0.2489454623 1.0123207034
0.24244653 9.5570592779e-04 0.260862463
0.2524531726 0.5021360577 0.9991652752
0.2523450408 -0.0010415702 0.5070032092
0.2423658014 0.2486711723 0.2562918544
0.2623620522 0.2509584496 0.7550955137
0.2424417159 3.2857037549e-04 0.7579228661
0.2625016609 -6.9330707454e-04 0.2552531218
0.2524750212 0.0014248793 1.0093026389
0.2625464689 -1.7012676828e-04 0.7501268168
0.2725353365 0.2475013485 0.5001496107
0.2722350113 0.2490934087 1.0061364486
0.2727634503 -0.0010304415 0.4990442215
0.2724886768 0.5013825786 0.996406431
0.2824290332 0.2499418092 0.7500073903
0.2825005039 -0.0014340864 0.7486974022
0.2826367797 0.2515613638 0.2501270411
0.3022878973 0.2496321692 0.2460841309
0.3124137813 0.2483805166 0.4952179453
0.3126389326 0.2451571184 0.9954713865
0.2925408452 0.4963694219 0.4959993092
0.3123893405 -0.0030156725 0.9927773474
0.2924864089 0.2480748044 0.4992228983
0.292538253 -0.0023287038 0.4940005358
0.3024604639 0.2489709929 0.746259806
0.302524158 0.4994841515 0.2445945401
0.2925004809 0.252344956 0.9963231102
0.3123982281 0.5005269772 0.9929069575
0.2924997403 4.3501321558e-04 0.9957398646
0.3024889782 -0.0035373472 0.7442165949
0.3223907988 0.2477965866 0.2390138983
0.3323526333 0.2495601599 0.4872515512
0.3224241271 0.2496387155 0.740670832
0.3324696528 0.2483778981 0.9885094709
0.3224822665 -6.0624128283e-04 0.2389564995
0.3324578027 -6.5298186575e-04 0.4886791142
0.3226192829 -0.0034159133 0.7418030691
0.3326718446 -1.504224049e-04 0.9901481133
0.3625073559 0.2513643202 0.2285728765
0.3526843893 -0.0025982149 0.9797885608
0.3524940475 0.2498455786 0.4792397936
0.3424596313 0.2498161202 0.7361918762
0.3524277612 0.2485271537 0.9754188478
0.3425610975 -0.0012532121 0.238425098
0.3425270285 -6.7530474919e-04 0.7339227732
0.3423433525 0.2474090457 0.2332193997
0.3624888401 0.2493821005 0.7283949011
0.3625888251 -0.0037232621 0.2318344229
0.3725502894 0.2498279036 0.4746154893
0.3825561914 0.2507417671 0.7179603599
0.372465117 0.2506468457 0.9739005577
0.382419175 7.4085635758e-04 0.7220365985
0.3822784554 0.2500799361 0.2232190524
0.3925991249 2.1885438534e-04 0.4676609801
0.3926065312 2.878523887e-04 0.9712435501
0.372465117 -1.7863695845e-04 0.4780214584
0.3724688201 8.3453391241e-04 0.9727248087
0.3925917186 0.2487798409 0.4695958742
0.3925176557 0.2482306063 0.9727155508
0.4122480206 -0.0030285687 0.4633051539
0.4024124633 0.2483785527 0.7171817733
0.4026716836 -1.0112876493e-04 0.2138797167
0.4024865262 -0.0011550831 0.714709923
0.4025087451 0.4971294474 0.2212702715
0.4023865413 0.2496223497 0.2176772935
0.4125590849 0.2471930178 0.4635560421
0.4127590548 0.2475609198 0.9676792715
0.4124442874 -0.0049949987 0.9608006767
0.4125738975 0.4981879841 0.9626152185
0.4125924132 0.4996013303 0.4682044168
0.4227353317 0.2464172812 0.2097599662
0.4424323683 0.2491667272 0.7057205347
0.4325375607 0.4993911941 0.9585047258
0.4325301544 0.4972669197 0.4601139674
0.4424434777 0.2498521249 0.2062521606
0.4225538775 0.4970777316 0.2076936104
0.4425064312 0.5005754198 0.7040235678
0.4325227481 0.2485860704 0.457837458
0.4223946422 0.2501735482 0.7129018617
0.4327856715 0.2500256018 0.9585973045
0.442602713 0.5003901595 0.2064910135
0.4324597946 -2.2557393037e-04 0.9567827627
0.4524456766 -0.0031517046 0.9518205463
0.472542653 0.2492734319 0.4493915065
0.4625256416 0.2485755963 0.699418705
0.4725463562 0.2517106195 0.9528018801
0.4624700944 0.2484355055 0.2007992772
0.4525715836 0.4996543554 0.9595138333
0.4626811737 0.4980400377 0.7048317795
0.4724685901 0.4953337973 0.448651803
0.4525975056 0.2496622822 0.4518374348
0.4525123333 0.2499431184 0.9529962953
0.472516731 1.2124905043e-04 0.9455437129
0.4824485701 -0.0015278949 0.1923783219
0.4826929778 0.2495176089 0.6954183809
0.4824930079 0.2469724074 0.1952334479
0.4925433477 0.2527069664 0.4404280402
0.4924100344 0.2502632325 0.9405537229
0.4825596645 0.4981814378 0.1989680713
0.5026233126 -6.1442415799e-04 0.6900997367
0.5026233126 0.2477206495 0.1922700049
0.5127180902 -4.4441674366e-04 0.935554475
0.5225610538 0.0032552248 0.1889695755
0.5022900294 0.5025209802 0.6947268183
0.5024714836 0.2474398133 0.6919568647
0.5223499744 0.503328139 0.692905796
0.5124255416 0.2490600226 0.4432924241
0.5225499443 0.2515548175 0.1920848476
0.512562558 0.2504085604 0.9369894443
0.5224240373 0.2485801788 0.6930104099
0.5125403391 0.4971412307 0.4423083129
0.5224943971 0.5018303455 0.1903443687
0.5525454315 0.2497303637 0.4490887742
0.5526157913 -0.0011859162 0.9445994105
0.5325262212 0.5025910256 0.9449326937
0.5324817834 0.0014451728 0.4427887961
0.5324040174 0.5010703201 0.442620303
0.5325706589 0.2529537619 0.4379136037
0.5326928628 0.2493532968 0.9478304059
0.5425987799 0.0022416611 0.6955248464
0.5425802641 0.2521943911 0.192972677
0.542550639 0.2506370263 0.6940491425
0.5524972906 0.2495509951 0.9513483951
0.5623328479 0.5007443143 0.6966413451
0.5624846769 0.4994985534 0.2008974106
0.5625846619 -9.4069175639e-04 0.2018991118
0.5625513336 0.2527678469 0.1968989381
0.5623365511 0.2523547754 0.6992965012
0.5723091248 0.0012614181 0.4504200554
0.5722943122 0.0033087735 0.9530611004
0.572568345 0.2542093422 0.4549008628
0.5723942972 0.2526860182 0.9509780804
0.5924912736 0.5042531312 0.9610691548
0.5825594345 0.2536352317 0.7082266391
0.6022897994 0.252773084 0.2099543813
0.5923801792 0.2487857326 0.4594353658
0.6023527529 0.2524948662 0.7121917833
0.5923912886 0.2545968832 0.9599211794
0.5823779803 0.250094338 0.2071316579
0.6024749567 0.5041045302 0.713321243
0.5924023981 0.5048593186 0.4583531212
0.5823002142 0.5021098725 0.2096525749
0.6122475605 8.8153634733e-04 0.9650685531
0.6124216084 0.5034544826 0.4621979131
0.6223312287 0.5033752723 0.2123521688
0.6223978853 0.2524064912 0.7120232902
0.6124290147 0.5064991668 0.9645871441
0.6223016035 0.5015730759 0.7169151468
0.6122808889 0.2534971048 0.4634467993
0.6124290147 0.2534853214 0.9634576844
0.622364557 0.2519286113 0.2198482632
0.6324297094 0.5034296066 0.9622726775
0.6425244869 0.2515593999 0.2201602533
0.6524378103 0.2495562321 0.4696153157
0.6422393446 0.2497729146 0.7165124296
0.6525155763 0.2527246414 0.9716879276
0.6425392995 0.5032371454 0.7189685415
0.6525414984 0.4999744694 0.9698456122
0.6423171107 0.506233387 0.2153378307
0.6523896694 0.5001276529 0.4733323491
0.6324260062 0.2527940321 0.4663389568
0.63221863 0.2509054246 0.9677348187
0.6624659312 -4.1940987717e-04 0.721930133
0.6723681451 0.5011279275 0.4766392589
0.6823184999 0.4991974236 0.7245464061
0.6726014433 0.4988936753 0.973882042
0.6824518132 0.5008071588 0.2242800039
0.6622141172 0.2484067018 0.2255409253
0.6623955714 0.2508818579 0.7237752258
0.6824592195 5.1808576421e-04 0.2298717552
0.6823184999 -0.0021793827 0.7234521263
0.6624918532 0.5001224158 0.7243584714
0.6626214633 0.5005754198 0.2251465401
0.6826184548 0.2482954147 0.2272434469
0.6723311136 0.252581932 0.4739007821
0.6825740171 0.2517158565 0.729428079
0.6725310836 0.2503149483 0.9751040803
0.7025413834 0.2515659462 0.2330092461
0.6924280901 0.2517688815 0.4825976218
0.7026191494 0.2536404688 0.7294530753
0.6923132925 0.2488845817 0.9764927603
0.7024265858 0.502804435 0.7297252565
0.7024636173 0.001548277 0.7296697093
0.7024228827 0.001618126 0.2290228088
0.6923318083 0.5028227646 0.98191787
0.6925058562 0.5021694439 0.4781297754
0.7125769106 0.2521832623 0.4879736648
0.7124398941 0.2519515233 0.9845378462
0.7224272804 0.4993735191 0.7373352227
0.7224494993 0.2531494962 0.2402183467
0.7324405888 0.2491850569 0.4869701121
0.7225235623 0.2507659884 0.7389581267
0.732573902 0.4996759581 0.9862320358
0.7226457661 0.5000680815 0.2371678797
0.7325331674 0.500118488 0.4891114566
0.7326146367 0.2480911701 0.9941475116
0.7123991595 0.5038295856 0.982195606
0.7623694193 0.4978253191 0.7451470104
0.7424576002 1.7231019143e-04 0.7413920198
0.7524486897 0.4977572376 0.9919441394
0.7624027477 0.497671481 0.2443269878
0.7624138571 0.2478973996 0.2442575538
0.7526153313 0.2485854158 0.4932950864
0.7624212634 0.247063401 0.7430112207
0.7526190344 0.2494043579 0.9922774226
0.7425649915 0.4998369971 0.7395182276
0.7525301589 0.5002075177 0.4941792127
0.7424464908 0.2493068181 0.2420745489
0.74252796 0.2479916664 0.7423289159
0.7824812084 0.5005492346 0.2540357123
0.7824293643 0.4992628866 0.7539132842
0.7826552563 0.2471930178 0.2479745872
0.7724790095 0.2488145363 0.4990108932
0.7825552713 0.2490979911 0.7473003902
0.7725715881 0.2507123087 -3.1666882343e-04
0.7926204237 0.4982874879 0.5031537884
0.8125988994 0.4976158375 0.5053488285
0.8025226376 0.4992295005 0.7544928266
0.8027263107 0.497530081 0.2561918694
0.7926241268 0.2463275969 0.5047229967
0.7925611733 0.2519567604 1.003062837
0.8126581498 -0.0017306338 0.5076457052
0.8026374351 0.2491850569 0.2528127482
0.8125914931 0.2500917195 0.5069254432
0.8027003886 0.2487746039 0.7559203896
0.8124211484 0.248193947 1.0079972798
0.8325107185 -9.2356722757e-05 0.5100046095
0.8225344417 0.2493408588 0.2592043792
0.8324181399 0.0034736748 1.0069603987
0.832599594 0.2489997966 0.5081085985
0.8226233172 0.2513636656 0.755141803
0.8324884996 0.4976106005 0.5036259396
0.8325847815 0.4985768344 1.0102747149
0.8325884846 0.2486181473 0.0081889034
0.8225973952 0.5020496466 0.2588803538
0.8424906985 0.4993303135 0.7558639166
0.8424795891 0.4997034526 0.2562992607
0.8427128873 -0.001954059 0.2575805494
0.8425055111 0.2494658932 0.2577694099
0.8424906985 0.2488937465 0.7561018438
0.8624913932 0.2484309231 0.260615278
0.8526002887 0.2480054136 0.506157966
0.8625913781 0.247712794 0.762783246
0.8525299289 0.2489094576 0.0125341756
0.8724121228 8.7086587813e-04 0.5090167952
0.8826105885 0.2491660726 0.264481363
0.8727379997 0.2513839591 0.5088307121
0.8925128024 0.2494757126 0.5174460826
0.8823735871 0.2468296981 0.7653782259
0.8925165055 0.4975143698 0.0165233902
0.8724343417 0.2486305853 0.0150951792
0.8925313181 0.2479628626 0.0148617883
0.8925202087 0.0014965612 0.5174294184
0.8725380298 -0.0019139957 0.0131693578
0.8724787795 0.4965815221 0.5114414304
0.8925498339 0.4969121102 0.5169655993
0.9123172303 -0.003318308 0.5183746466
0.9024298289 0.2490907902 0.268113224
0.912361668 -5.9232444108e-05 0.0190386599
0.9126282946 0.2499352629 0.5196290875
0.9024372352 0.2479203117 0.7663780755
0.9124505435 0.4984413259 0.5164999286
0.9025150013 0.4990213281 0.7696572118
0.9123653712 0.2478718691 0.0178637441
0.9124246215 0.5000890297 0.0199673165
0.9024594541 0.5021576605 0.2670217216
0.9425423126 0.2514330563 0.7741694959
0.9326178797 0.2506101864 0.0205193631
0.9325104885 0.4979909405 0.5246144485
0.9324808633 0.4998023017 0.0209185623
0.9225156959 0.50182249 0.7704154311
0.922341648 0.5011298914 0.2726449496
0.9425052811 0.5032417278 0.7785605019
0.9226008683 0.250099575 0.2674809117
0.9224305235 0.2523181161 0.7648042382
0.942553422 0.2486351677 0.2756176505
0.9324253161 0.2501925325 0.5194541138
0.9726044564 0.0019474704 0.530817219
0.9624319128 -0.0013035532 0.7804648451
0.9625763355 0.2544391174 0.2767276687
0.9524667454 0.0021437939 0.027183916
0.97246744 0.0010109567 0.0309898249
0.9525926523 0.2486953936 0.5286027374
0.9724711431 0.2552685336 0.532527147
0.9624430222 0.2493487144 0.7764626694
0.9525556209 0.2519417039 0.0290341932
0.9724081896 0.2488151909 0.0307437508
0.9726340816 0.5007272939 0.528712906
0.952633387 0.0010810676 0.5264734281
0.9625170852 1.7663074952e-04 0.2778432416
0.9526074649 0.5009898006 0.5278815496
0.9624208033 0.5003940873 0.7815693085
0.9824103885 0.2501748575 0.2869094702
0.9827029371 -3.5584530292e-04 0.783003352
0.9926162605 0.0022266701 0.0383886191
0.9923644465 0.2536745095 0.541660958
0.9824881546 0.2500170916 0.7863167424
0.9926125573 0.2519194464 0.0418283794
0.9924866503 0.5019691271 0.0363990111
0.0224045609 0.7475941635 0.7933101347
0.0022850694 0.4991411254 0.2904089437
0.0024132353 0.7525169812 0.7926648614
0.0125060872 0.499058642 0.5422266136
0.0024229375 0.5023880903 0.7918131377
0.0224362228 1.0013091175 0.2944851823
0.02232224 1.002474359 0.7967818346
0.0123518511 0.7501406742 0.0424710605
0.022414004 0.7496169702 0.2968838955
0.0025161828 0.7512208137 0.2910699554
0.0124009919 0.7492372848 0.5437143528
0.0524628906 0.9988608013 0.551753884
0.0524303029 1.0022779699 0.052810616
0.0323033309 0.7495318683 0.0451301975
0.0425354952 0.7499181 0.2977532092
0.0322548197 0.7511684433 0.5517825834
0.0425354952 0.7468740704 0.7974446979
0.0426354802 0.5026414321 0.7976594804
0.032566995 0.5023383384 0.0442204269
0.0324744163 0.5000621899 0.5489228284
0.042474023 1.0001373298 0.2980790861
0.052625829 0.4984360889 0.5516372348
0.0525380644 0.7510702488 0.0558328465
0.0523966042 0.7508280357 0.5488348787
0.0423962569 0.998592403 0.7986759941
0.0725320934 0.4996753035 0.0505835437
0.0724565492 0.9994892461 0.5524315598
0.0724920994 0.9976824673 0.0529707771
0.0726091188 0.7508018505 0.0486707759
0.0623799171 0.751620138 0.3040198589
0.0724561789 0.7494336738 0.5512993227
0.0625261914 0.7502716002 0.8011561765
0.09254686 0.9997969222 0.5437837868
0.0924802033 0.7504025262 0.0451346412
0.1025442448 1.0013942194 0.7944275592
0.102586831 0.7498853685 0.2953137614
0.082415051 0.7504025262 0.2999389914
0.1024901788 0.5015645657 0.7990000194
0.0925053847 0.7523467773 0.5459232797
0.1024961039 0.752012916 0.7945858687
0.082632796 0.4992903811 0.7952755798
0.0824298635 0.7507887579 0.7969743983
0.0926012962 0.4982082777 0.0441901537
0.0824702278 0.4972629919 0.3001519224
0.1125271873 0.7493092941 0.045644009
0.1226152992 0.7532959909 0.2940769104
0.1125549609 0.753341815 0.5449400943
0.1224979094 0.7507494801 0.7943470158
0.1226660323 0.9999409408 0.2925530656
0.1224182918 1.0023172477 0.7952255873
0.1226689948 0.5011580405 0.2903765412
0.1126545755 1.0046477306 0.5488321013
0.1426730223 0.7482226083 0.2933399842
0.1525422782 0.7504287114 0.5365830183
0.132605648 0.7518950826 0.5438134119
0.142492679 0.7516332306 0.7904568603
0.1526259693 0.5003305882 0.5374671445
0.1324823332 1.0004515522 0.0440344364
0.1426333986 0.499005617 0.2884416471
0.1424819399 1.0004515522 0.2919031634
0.1325552852 1.000687219 0.5452456039
0.1425208229 0.9979770508 0.7913956079
0.1524130384 0.999967126 0.0374491308
0.1526359678 0.7508738598 0.039273486
0.1326045371 0.7508542209 0.0428584096
0.1726333296 0.7491456366 0.0320080976
0.1624778204 0.7495515072 0.2878593273
0.1725448244 0.7533221761 0.5326502766
0.1624770798 0.7533287224 0.7837828644
0.1824770338 1.0009097932 0.7756646413
0.1725559338 0.4994540386 0.0291158475
0.1726270342 0.501774702 0.5304913421
0.1825299888 0.7520194623 0.2788504975
0.1825647984 0.7523664162 0.7788437926
0.1726211092 1.0021797754 0.0280386022
0.1626207619 1.0029784241 0.7820738622
0.1824637025 0.4986278955 0.2802178844
0.2025762321 0.4995607433 0.7763987901
0.1924814546 0.5008804774 0.5234238869
0.1925410752 0.7486612104 0.0280341584
0.2024625455 0.7507756653 0.2716608384
0.1925803286 0.7502388687 0.5249755053
0.2025140193 0.7498657296 0.770597811
0.2325243191 0.5015652204 0.0143650112
0.2324887689 0.7498199055 0.0154259627
0.2324684015 0.7510833414 0.5132207923
0.212499554 0.7502650539 0.0197732716
0.2222988204 0.7498264518 0.265106269
0.2126724909 0.7507232949 0.5217537678
0.2324991377 0.5029569638 0.5088131221
0.2223913991 0.7515415824 0.7671057438
0.2226209942 0.4970921335 0.7678093417
0.2125202916 0.5023488125 0.0242330636
0.2225021232 0.4986475344 0.2679447308
0.2126839707 0.4983811 0.5227101054
0.25275609 0.7503894336 0.0058141681
0.2424498628 0.7505923689 0.259738558
0.2523157859 0.7493092941 0.5079484374
0.2425161491 0.7514433879 0.7630359857
0.242551329 0.4990462041 0.7601577151
0.2426587203 0.4999718509 0.2571620938
0.2626160881 0.4970129233 0.7543687712
0.2523324501 0.4997086896 0.5107378326
0.2625001796 0.7493223867 0.253737609
0.2625620221 0.7476661728 0.7526440307
0.262518325 0.4975693588 0.2539042506
0.2724620142 0.9985989493 0.9999892253
0.2723916544 0.503690804 0.5007976614
0.2824605099 0.4992759792 0.2471904459
0.282353489 0.4967425611 0.7498277877
0.2826445563 0.7492569237 0.2422171201
0.2824101471 0.7503043317 0.74839467
0.2724197983 0.747626895 0.9998781309
0.2725038597 0.7486415715 0.4988673962
0.2824953195 1.0006086634 0.247819055
0.3125304304 1.0009818025 0.4921110053
0.2923823505 0.7482553398 0.9978043688
0.3024856453 0.7488968772 0.2443066205
0.29228755 0.7481440527 0.4926359263
0.3025685958 0.7481571453 0.7439749645
0.3124011906 0.7464485609 0.9908424533
0.3125319116 0.7473781355 0.4949494672
0.3125245054 0.4968073694 0.4922183966
0.3026785793 0.5008785135 0.7450146229
0.2924749292 0.4997852814 0.9938605177
0.3024112121 0.9984156529 0.2441473852
0.3325066842 0.4994566571 0.4859184185
0.3226255783 0.4968440287 0.7425001864
0.3324455823 0.7490801736 0.9907776482
0.3326081505 0.4987457289 0.9881206405
0.322611136 0.7498460907 0.2380510802
0.3324578027 0.7512142674 0.48849766
0.3224067223 0.7476203487 0.7420280352
0.322511151 0.4990704254 0.2436854177
0.3523574014 0.4993735191 0.4854175679
0.3525573713 1.0002158854 0.4821726857
0.362459215 0.7487659512 0.2301207918
0.362536981 0.7484189973 0.7299437422
0.3525869965 0.7485761085 0.9808069261
0.3626962163 0.4988818919 0.7288318724
0.3425236957 0.7517837955 0.2364170667
0.3625406842 0.501213684 0.2311734112
0.3524233174 0.7479149322 0.4828448068
0.3426047946 0.7506578319 0.7369537986
0.3625036527 0.9986447734 0.7324628076
0.3426007212 0.499506409 0.7336163378
0.3525010835 0.4953887862 0.9794460197
0.342637012 0.4993434061 0.2365170517
0.372616946 0.4987169252 0.9748911494
0.3825043473 0.496928476 0.2255075969
0.3727354467 0.4992589588 0.4748987801
0.3924621085 0.4991083939 0.9758169361
0.3826339575 0.4996334072 0.7225096755
0.3724799296 0.7487659512 0.9739931364
0.3825524883 0.746232533 0.220608334
0.372439195 0.7492569237 0.470178194
0.3825784103 1.0015906084 0.2238430326
0.382622848 0.7483011639 0.7168031266
0.3923843424 0.7505792763 0.9671145416
0.3925657966 0.7502126835 0.4681266508
0.3924621085 0.4975876884 0.4728796394
0.4024680105 0.4974430152 0.715139488
0.4026235427 0.7530865093 0.2154952144
0.4024717137 0.7498657296 0.7157060694
0.4124516937 0.7485761085 0.9640131564
0.4124998346 0.7479803952 0.4606740683
0.422365017 1.0002355243 0.708747857
0.4425841973 0.9991291996 0.206566928
0.4326449519 0.9983632825 0.4603028278
0.4423953368 0.9985400326 0.7037671249
0.4225538775 0.4986848483 0.7055437094
0.4324857166 0.7527002776 0.9562272907
0.4225686901 0.750049026 0.2092081973
0.4322301995 0.7515677676 0.4578911536
0.4224501894 0.7506840171 0.708261819
0.4423620085 0.7496889795 0.2075103046
0.4424582903 0.7465271165 0.7077193081
0.4224538925 0.9997183666 0.2054782029
0.4724759964 0.7482095157 0.9494597904
0.4624367661 0.7479280248 0.2050162354
0.4724426681 0.7476138024 0.4488795465
0.4624997195 0.7471752002 0.7004824339
0.4524715986 0.9987495142 0.4503996881
0.4724982153 1.0026118313 0.4464132509
0.4725537625 0.4970004853 0.9462473107
0.4626145171 0.4995044451 0.1992291431
0.4624071409 0.9998034685 0.1954723009
0.4624145472 0.9973616986 0.7012101022
0.452304957 0.7482029694 0.9509040175
0.4526086151 0.7515153972 0.4553369083
0.4524456766 0.5007953755 0.4514208308
0.4824818984 0.9985400326 0.6939195324
0.4926692547 0.9988869865 0.4390384345
0.4925433477 0.9964190313 0.9419794343
0.4925211288 0.7490147106 0.4450551218
0.4924396596 0.7503697947 0.9450345302
0.4823004443 0.7507822116 0.1954204568
0.482496711 0.7498329981 0.6931937156
0.4926174106 0.4975673949 0.9472379024
0.4925951917 0.4968217713 0.4416621138
0.4824633827 0.4999666139 0.6972394033
0.5125551517 1.0004515522 0.4401651168
0.5225758664 0.9958167717 0.6936927146
0.5024344522 0.996608874 0.184628562
0.5226906639 0.7479934878 0.6914032443
0.5025640623 0.7503174243 0.191501602
0.5023863113 0.748085136 0.690549669
0.5124440573 0.7503239706 0.9355822486
0.5124959014 0.4995738359 0.9435162401
0.5022381854 0.4992772885 0.1898925848
0.5123625881 0.7509916932 0.442316645
0.5224832877 0.7499246463 0.1880169411
0.5525935724 0.9999605797 0.4450227193
0.5425617484 0.5020398271 0.6869298432
0.5425543421 0.7504221651 0.1906443236
0.5525380253 0.5026944571 0.4456892857
0.5525343221 0.7460034125 0.4455661561
0.5425617484 0.7525038886 0.6922346007
0.5325743621 0.7497806277 0.9446271841
0.5327150817 1.0001176909 0.9462565686
0.5425284201 0.5028299655 0.1938475453
0.5525084001 0.5046125231 0.9444975739
0.532292923 0.7486284789 0.4373164713
0.5426135924 1.0011912841 0.1949918176
0.5726090797 0.4993905395 0.9555607243
0.562384692 0.9991291996 0.7010379059
0.5525713536 0.7492110996 0.9468398142
0.562436536 0.7515874065 0.1997253647
0.5624254266 0.7500686649 0.6956072414
0.5724720632 0.7488968772 0.9533851257
0.5725609388 0.5010022385 0.4533057324
0.572490579 0.7512404526 0.4528493196
0.602456441 0.5016706158 0.2098423612
0.6023564561 1.003063526 0.2077389739
0.6025786449 1.0036723319 0.7101346854
0.5924172107 0.7505203596 0.9572734296
0.5922838974 0.999901663 0.4610230899
0.5924912736 1.0034039336 0.9571160459
0.6024749567 0.7551355012 0.2162580626
0.5923616635 0.7537149541 0.4585197628
0.6023083152 0.7510244247 0.7112872898
0.5822483702 1.0043596934 0.2055754105
0.5823298394 1.0017673585 0.70812758
0.5823409488 0.5046171055 0.7058297775
0.5824298244 0.7493158404 0.207608438
0.5825186999 0.7481113212 0.7050373041
0.6124771556 0.7531912501 0.9642260873
0.6124030927 1.0027754888 0.4654076154
0.6123290298 0.7562287333 0.4652030165
0.6221905091 1.0053874625 0.7151126402
0.6224608388 0.7561305388 0.2168709334
0.6225015734 0.7516725084 0.7132203323
0.6224126979 1.0072269728 0.2196205197
0.6424430177 1.0041436655 0.7197267608
0.6424319082 1.002736211 0.2158192397
0.6523600442 1.0028605907 0.4711826725
0.6526192645 1.0004580985 0.9724378148
0.6325556163 1.0044578879 0.46888487
0.6325074754 0.9992143015 0.9679014603
0.6326074604 0.5025438922 0.4644012853
0.6323852716 0.750769119 0.9676792715
0.6326185698 0.7541601025 0.4665454072
0.6524637323 0.7515284898 0.9675681771
0.6423837673 0.750245415 0.2201472923
0.6524415134 0.7496431554 0.4719427433
0.6424133925 0.7523991477 0.7196249243
0.6724533175 0.7512404526 0.9747245078
0.6625511036 0.9988346161 0.2209629103
0.6725236773 1.0015775158 0.9719564058
0.6822851716 0.7515284898 0.2255038938
0.6724496143 0.7507625727 0.4755986748
0.6824407038 0.7483928121 0.7277042643
0.6623659462 0.7518427122 0.2209675392
0.6625177752 0.7521634809 0.7215625957
0.6723311136 1.0014858676 0.4801396582
0.7025524928 0.5016909093 0.2283997544
0.6925577002 0.9973027818 0.4759356611
0.6925428876 1.0010865433 0.9789460949
0.6923466209 0.7526413609 0.9765668232
0.7024191795 0.7496169702 0.2300532094
0.6924169806 0.7494664053 0.4783297454
0.702430289 0.7489688865 0.7302085172
0.7123880501 0.5002651252 0.4822411939
0.7123473155 0.7503370632 0.4834789707
0.7224383899 1.0032140909 0.7360030158
0.7324554014 1.0013614879 0.9897222514
0.73254798 0.7545005101 0.990444365
0.7224272804 0.7517837955 0.233873005
0.7325664957 0.7511749896 0.4874978105
0.7225272654 0.7508476746 0.7348115284
0.7225050465 0.9992797645 0.2386259937
0.7324776202 0.9993452275 0.4913351961
0.7124065658 0.7542452044 0.9863709038
0.7124287847 1.0047393788 0.4781547717
0.7125065508 1.0040651099 0.9823992791
0.7423798342 0.4989938337 0.2403627694
0.7425316632 0.747888747 0.2399572749
0.7426094292 0.7517052399 0.7430667678
0.7526227376 0.7486481178 0.9946474364
0.7624953263 0.999705274 0.7450747991
0.752482018 1.0007134042 0.9936753604
0.7625693893 0.7495384146 0.2406053255
0.7525634872 0.7485040992 0.4931515895
0.7624212634 0.7518034344 0.742975115
0.7524486897 1.0011389137 0.4917749448
0.742502038 0.9990310051 0.2385482276
0.7625175452 1.0005235615 0.245827688
0.7823886297 1.0004122744 0.2501113028
0.7725826976 0.9960131607 0.4987525987
0.7824923178 0.9980228749 0.7521700279
0.7725567756 0.99787231 0.9964897518
0.7825293493 0.7511749896 0.2493382709
0.7723568056 0.748019673 0.4991682769
0.7824886147 0.7515481287 0.7532735656
0.7725864007 0.7491849144 0.9963601417
0.7725123378 0.4981631082 0.4972648595
0.7726419479 0.5012503433 0.9990634387
0.7927167055 0.747083552 0.9965267833
0.8125211333 0.7489623402 1.0066456313
0.7925389544 0.4984596556 1.0060438699
0.8128062756 0.4986350964 1.0071825875
0.8026300289 0.7501734057 0.2540357123
0.8124544767 0.7480916823 0.5068430482
0.802633732 0.747018089 0.7491630729
0.792401938 0.7471948391 0.4983767293
0.7924945167 0.9965565036 0.5023150257
0.7926093142 0.997414069 1.0047385108
0.8025522628 0.9970409298 0.2554336502
0.8025448565 0.9985007548 0.7548307387
0.812561868 0.9986709586 1.0038034663
0.8225788794 1.0011978304 0.7534198399
0.8225159259 1.0001766076 0.2565418168
0.8326884696 0.7468937093 1.0054606244
0.8225159259 0.4983437861 0.7614325233
0.8225751763 0.7466711351 0.2567658571
0.8326292192 0.7503370632 0.5059839181
0.8224233473 0.7466842277 0.7603502787
0.8425129174 0.7503370632 0.2567964081
0.8425758709 0.7495973313 0.7560759218
0.8627320977 0.4994245802 0.7599586709
0.842401823 0.9992863108 0.7548464771
0.8624987994 1.0003206262 0.2534682051
0.8624654711 0.9984483844 0.7601503088
0.852255896 0.9990702829 0.0065362816
0.8624284397 0.7463961905 0.7604076775
0.8525114131 0.4983143277 0.5065005071
0.8524706785 0.7487986827 0.0078244212
0.8524595691 0.4966443666 0.0066866294
0.8625395341 0.4990363846 0.2568343653
0.8625469404 0.7512077211 0.2575703657
0.8526928673 0.7477709136 0.5061311182
0.8525114131 0.9995481628 0.5080752702
0.8823365556 0.9977479303 0.7631100487
0.892527615 0.9988346161 0.0130883514
0.8825846664 0.74926347 0.7634331482
0.8724306385 0.7481702379 0.0073584728
0.8923313482 0.7510244247 0.0113252834
0.8824106186 0.4980158164 0.7619713311
0.8824846815 0.5009865274 0.2649488853
0.8824661658 0.7494533127 0.2655960101
0.8727083745 0.7488183216 0.5083705961
0.8924831772 0.7483208028 0.5163758732
0.8725972801 0.4979667192 0.013823426
0.8824180248 1.0000194964 0.2629491861
0.9023631723 0.9991291996 0.7699654987
0.9124727624 0.7494860442 0.5202058526
0.9022150464 1.0012502008 0.2690760421