POSCAR file written by Ovito 3.7.11
1
270.0327769535 0.0 0.0
0.0 15.2753606181 0.0
0.0 0.0 10.8013110781
Sr Ti O 
800 800 2400 
Direct
0.0225488532 0.5030833969 0.8211365744
0.0124690398 0.5022866891 0.0691548065
0.0124819642 0.2500536913 0.5671238921
0.0224510873 0.250858255 0.8216466977
0.0026008304 0.2524189383 0.8145484853
0.0125781007 0.2516988243 0.0673334536
0.0025085083 9.4782109716e-04 0.3105652225
0.0222707759 0.5001335484 0.3209306308
0.0125705831 -0.0013262332 0.5672840578
0.0024125569 4.6762173306e-05 0.8107980147
0.0124691139 -0.0019262191 0.0675798126
0.022449606 0.2492563288 0.3258587363
0.0025620943 0.249162714 0.3140833139
0.042645895 0.5042833686 0.3241108003
0.0326019291 0.248235731 0.572069588
0.0424407347 0.2504707028 0.8277811382
0.0524743315 0.5015652658 0.076405593
0.0325067555 0.2528051812 0.0709223697
0.0323071501 -0.0024138671 0.573355543
0.0324438002 0.0015792301 0.0772318816
0.0423900001 0.2532811111 0.3268919442
0.0525235848 0.2508909874 0.5766264422
0.0527102288 0.251996035 0.0761469207
0.0625442202 0.2489820309 0.3275872301
0.062628284 0.5039069454 0.8261702226
0.0624653408 0.5012719831 0.3230849989
0.0726870629 0.5006140608 0.5807194638
0.072634847 0.2509741279 0.5738712211
0.0623872022 0.2501368318 0.8221827437
0.0724570908 0.2498743175 0.0686310738
0.0624875604 0.0014500678 0.3261485159
0.062553108 -5.8890203409e-04 0.8240621452
0.0925231734 0.2518120786 0.5678775043
0.1025630657 0.2491777709 0.8194127096
0.0824917986 0.2498762814 0.8215226387
0.0925631686 0.2489067462 0.0682008483
0.1024819645 -7.6343146529e-04 0.3177560162
0.0824366201 0.0012468648 0.321024138
0.0825843799 -0.0030133947 0.8226447247
0.0925683531 -0.0013213234 0.0699226763
0.1025908401 0.2494383212 0.3186549812
0.0825436442 0.2507240519 0.3209528503
0.1028359956 0.499158776 0.3153461236
0.0924968803 0.5017839186 0.5701920381
0.11255963 -3.0975968802e-04 0.0655372827
0.1226058178 0.2501931316 0.3147415673
0.1125999954 0.2485519265 0.5647001122
0.1225754511 0.4991928177 0.8133069694
0.1126940581 0.4995489468 0.0636227003
0.1225573052 0.249546993 0.8116784633
0.1127099821 0.2476419643 0.0619644757
0.1125911076 0.5012065182 0.5659953254
0.1525136686 0.2487921827 0.551960918
0.1326597825 0.248679583 0.5637400436
0.1424908112 0.2478180649 0.8040849407
0.1526266178 0.2458410248 0.0505882642
0.1325627572 0.2466737384 0.0589016068
0.1426626422 0.2484720593 0.3080349741
0.1426678268 0.496747049 0.8026230812
0.1524910787 0.4957179407 0.0493020314
0.1326338597 0.4976373717 0.0595052372
0.1325268356 0.4988641839 0.557760214
0.1526584658 -0.0018333898 0.549895428
0.1825985349 0.2467725904 0.7902782835
0.1825033613 0.2458115656 0.290741703
0.1624794958 0.4991607399 0.79336402
0.1627287248 0.4971607872 0.2900510462
0.1727234374 0.2481028372 0.5404771269
0.1824978064 0.4992969069 0.7853853589
0.1624420929 0.2500045927 0.7963405105
0.1725208694 0.2509420501 0.043693453
0.1624106153 0.0020386628 0.2991434609
0.1726001191 -6.3629862381e-04 0.5439942925
0.1824115206 -0.0039885599 0.2924822325
0.1624772739 0.2468989377 0.2949763742
0.2024750109 0.2502599058 0.2790746009
0.1925288109 0.4981100283 0.0341730347
0.2025209312 0.5000582638 0.2810095512
0.1925491788 0.2496739949 0.5324419912
0.2027612724 0.2468792982 0.7799536109
0.1926047276 0.2485309777 0.0336093994
0.1923921608 4.4863691122e-05 0.5373765773
0.202468345 -0.0028290455 0.7825255209
0.1924095661 -0.0034153492 0.0384663098
0.2023842811 0.0013084018 0.2817011339
0.2123312218 0.251477553 0.5252391619
0.2225407231 0.2489244218 0.7733220086
0.2124712048 0.24639093 0.0284490999
0.2223988885 -0.0027522552 0.2724318888
0.2125641565 -9.1033470745e-04 0.5292284924
0.2224151828 -0.0017704781 0.7779973669
0.212384919 -6.7361361847e-04 0.0267618973
0.2323391633 7.3584574149e-04 0.5190426919
0.222578126 0.2475640611 0.2747899358
0.2326343126 0.2473113666 0.5210507815
0.2324813682 0.2511253518 0.0193769605
0.232431004 -0.0031792173 1.0192514129
0.2524785703 0.2508183214 0.5139970081
0.2424894125 0.2485198487 0.7704954998
0.2625521622 0.2515417086 0.2625904909
0.252490791 0.2510985112 1.0123263277
0.2424142365 -0.0020847751 0.2677602337
0.2527655725 0.4998671062 1.0164832305
0.2524319093 -0.0045390543 0.5201036742
0.2425475536 0.2482664995 0.2733577023
0.2623540381 0.2477519453 0.7634232102
0.2425168166 -6.4029198288e-04 0.7665941216
0.2624388426 -0.0036026443 0.25838452
0.2524704231 -0.0062947313 1.017955274
0.2625706785 -0.0036768815 0.7628788319
0.2725483561 0.2488078942 0.5045898168
0.2725350244 0.2520038908 1.0078176158
0.2726209399 -0.0015833794 0.503387185
0.2725716866 0.4992353699 1.0101136333
0.2824560422 0.2516647826 0.7517792534
0.282500111 -0.0016115947 0.7550871852
0.2825693618 0.2491103421 0.2546868207
0.3022906714 0.2476452376 0.2468072217
0.3126338602 0.2473532641 0.4888380253
0.3125853476 0.2505675908 0.9866350021
0.2925337077 0.499270721 0.4984433407
0.3124298109 -4.7885553227e-04 0.9899771889
0.2924796402 0.2516169932 0.4988414405
0.2925251902 -0.0025971034 0.4979174786
0.3024295434 0.2458436434 0.7463539861
0.3025391598 0.4997950949 0.2415291587
0.2926770237 0.2479300099 0.9989483221
0.3124324032 0.4965696391 0.9900882866
0.2924551987 -0.0025040778 0.9975318274
0.3025050898 -6.4618382415e-04 0.7406713426
0.3224982183 0.2475915563 0.2380332868
0.3326958692 0.2502684162 0.4827795015
0.3224919228 0.2466658826 0.7342656387
0.3327510477 0.2483804084 0.9800339516
0.3226289432 -0.0034303407 0.2342633741
0.3325129285 3.6773659234e-04 0.4802825824
0.3224730362 -8.1221711911e-05 0.7341462088
0.3323970166 -0.0020780322 0.9813300905
0.3627144473 0.2482697727 0.2206974284
0.3526923306 -0.0011698376 0.9758307581
0.3525830846 0.2516058642 0.4734611883
0.3427198375 0.2469048295 0.7253389446
0.3526997371 0.2471293741 0.9726459596
0.3424098752 -0.0029824953 0.2244247537
0.3425672635 -0.0030600712 0.7264138141
0.3426831753 0.2509577616 0.2288010743
0.3627440733 0.2522238529 0.7186582742
0.3626292725 0.0031118289 0.2194318413
0.3727428595 0.2521236916 0.4627995196
0.382512044 0.2483869549 0.7082150975
0.3727132335 0.250906699 0.9654523884
0.3825157472 4.7084381445e-04 0.7071124536
0.3826379546 0.2494684351 0.2138639987
0.3925848952 -0.0022843121 0.45872594
0.3925848952 -1.861619513e-04 0.9562220274
0.372442896 -5.0379766029e-04 0.4698782899
0.3726206521 -0.0010417882 0.9664615251
0.3926478506 0.248110693 0.4583306177
0.3926959929 0.2487096969 0.9487414541
0.4126676425 -2.8494848981e-04 0.4415845024
0.4026614498 0.2479431029 0.6995059695
0.4027244051 -0.0025313112 0.20328195
0.4026281205 5.2275748247e-04 0.7038017443
0.4025503521 0.4988307968 0.202233929
0.4026318237 0.2498874105 0.2015469754
0.412689862 0.2469081028 0.4456247527
0.4125972806 0.2479188809 0.9428347637
0.4125343253 8.6433904479e-05 0.9484729681
0.4127676303 0.497562087 0.9482044822
0.4126935652 0.4959647434 0.4466487025
0.4225923636 0.2494429038 0.1895197317
0.4427306596 0.2514133974 0.6868880569
0.4326726213 0.5000674289 0.9422329849
0.4325578205 0.4996039373 0.4405809206
0.4424492123 0.2511463006 0.1888040779
0.4228219653 0.4986651706 0.1949635153
0.442430696 0.5016909584 0.6923466535
0.4327318734 0.2483025052 0.4453349731
0.422584957 0.2490821922 0.691753207
0.4325763367 0.2502284826 0.9403535834
0.4425306839 0.5014166605 0.1920120218
0.4327170604 -0.0010055861 0.9412979132
0.4526516774 0.0040617247 0.9360300342
0.4726677661 0.250179384 0.4321263913
0.4626097278 0.251501775 0.6810878351
0.4726492498 0.2519174771 0.92890127
0.4627504515 0.2554080657 0.1796949985
0.4526479742 0.5010225618 0.9381501472
0.4626430571 0.4998553226 0.6855289626
0.4725307457 0.501794393 0.4339446891
0.4526998197 0.2509250292 0.4364730859
0.452733149 0.2530009213 0.937585401
0.4725825912 0.0016439749 0.9374743033
0.4827813531 -0.0011453537 0.1830529242
0.4827739466 0.2504517179 0.6780428343
0.4827035848 0.2504779039 0.182175253
0.492717184 0.2500307786 0.4260993452
0.4927801393 0.2500209589 0.9263089921
0.4826702555 0.5014016036 0.1801653118
0.5024900717 0.0025732492 0.6757329296
0.5025789498 0.2518238623 0.1745215525
0.5126629108 8.6553171418e-04 0.9243925581
0.5225283799 2.8937510354e-04 0.1708284823
0.5024530391 0.5011685485 0.6788362565
0.5026344986 0.2513466232 0.6765680134
0.5225839287 0.4999705408 0.6758125495
0.5125258904 0.2509021165 0.4272908673
0.522632071 0.2492543649 0.1710469743
0.5125407034 0.2496334067 0.9230408703
0.5225654124 0.245984393 0.67329804
0.512418496 0.5026978086 0.4233552339
0.5225543026 0.5001427135 0.1733550274
0.5524062343 0.2508412341 0.4272834607
0.5523321692 1.2682574958e-04 0.9274384846
0.532527166 0.4970913944 0.9211244363
0.532512353 -5.8047136275e-05 0.4196195763
0.5324382879 0.4985316222 0.4271427371
0.5324568042 0.24817223 0.4196482765
0.5326641864 0.2511050577 0.9193561324
0.5425407652 -0.0023669288 0.6718639548
0.5425481718 0.2517773822 0.1771888213
0.5425296555 0.2494140992 0.6699956631
0.5525025189 0.2487568316 0.924318493
0.5623420651 0.4983653414 0.6759005018
0.5625050083 0.5006965466 0.1791858011
0.5624161302 -0.0014414515 0.1750733373
0.5623902075 0.2506147256 0.1807337613
0.5625864799 0.2516516896 0.6825959853
0.5724556522 -0.0023247694 0.4309228338
0.572466762 -0.0020566906 0.9366688456
0.572496388 0.2500851145 0.4319847419
0.5723889936 0.2504438622 0.9307251227
0.5923976758 0.5001204554 0.9355763856
0.5824840644 0.2530434735 0.6858428134
0.6025482954 0.2507639855 0.1887568614
0.5924050823 0.2535704659 0.439054254
0.6025853279 0.2499005035 0.6881045758
0.592575432 0.2499404371 0.9396869977
0.5824025928 0.25297539 0.1845397807
0.6024890433 0.4999574478 0.6898497344
0.5923643465 0.5006945826 0.4391144319
0.5822137269 0.4998513947 0.1810235409
0.6123434026 0.0015182168 0.9407887158
0.6124767197 0.5013957117 0.4424964288
0.622316266 0.5015240229 0.191385246
0.6222496074 0.2464590135 0.6903718932
0.6124841262 0.4981061004 0.9431587984
0.6225310547 0.5001204554 0.6952166754
0.6124100612 0.2456825998 0.4397134333
0.6125026425 0.2477892603 0.9377983381
0.6224532864 0.246627913 0.1902131661
0.632340975 0.4984465179 0.9467139224
0.6422323668 0.2502474674 0.197373408
0.6524829742 0.2500779134 0.4489308328
0.6423879035 0.2494658165 0.6959425132
0.6522348562 0.2490488051 0.9510282135
0.6422545863 0.496338548 0.7010474491
0.6524237222 0.4998481214 0.9511856018
0.6424656718 0.497166679 0.1981584978
0.6523755799 0.5019534727 0.4470958704
0.6325113247 0.2465873247 0.4436379569
0.6323928205 0.2474874671 0.9366410711
0.6624928702 0.0018279967 0.7060042547
0.6723472295 0.5 0.4560614487
0.6823645319 0.5021740894 0.7122701608
0.6723620425 0.4997944402 0.9549351466
0.6823163896 0.5010022677 0.2077989942
0.6624743539 0.2532850389 0.2019774787
0.6622225326 0.2522958643 0.7013520417
0.6824571133 -1.8864961761e-04 0.2116957434
0.6822608408 0.0013034919 0.7088178021
0.6625113865 0.5020627991 0.704135963
0.6626521101 0.498032125 0.205337256
0.6824126742 0.2496517368 0.2052391198
0.6725212824 0.2497721923 0.4540913175
0.6825533979 0.2492340708 0.7106036964
0.6724435141 0.2503044219 0.9522410292
0.7023398848 0.2532529611 0.2103709042
0.6923892409 0.2506644789 0.4576223703
0.7024620922 0.249707382 0.7140032837
0.6924077572 0.2531318511 0.9606844487
0.7023843238 0.4976334438 0.711673011
0.7023102587 0.0020482207 0.7138320082
0.7023658076 0.0031177208 0.2118818319
0.6924707125 0.4999574478 0.9604529953
0.6923892409 0.4984530643 0.4626032471
0.7124423621 0.2482291845 0.4648372352
0.7124571751 0.2509950766 0.9652764838
0.7223078311 0.5025308731 0.7152790547
0.7226152012 0.2488635394 0.2191587263
0.7323954954 0.2519705037 0.4713651464
0.7224337418 0.2499266894 0.717209376
0.7323732759 0.4993440417 0.9753215607
0.722407819 0.4998343738 0.2239275918
0.7323621661 0.5016137099 0.4759145941
0.7324399344 0.2500628564 0.9690630612
0.7123720002 0.5003855883 0.9656190348
0.7624474028 0.5033190706 0.7324982607
0.7424979727 0.0017326144 0.7253380188
0.7524004743 0.503044118 0.9825429063
0.7625177646 0.5024071445 0.2328690989
0.7624474028 0.2548260828 0.2369000911
0.7524375068 0.2537982838 0.4823795501
0.7624177767 0.2529727714 0.7365412884
0.7525634175 0.2504746307 0.9830613618
0.7424090946 0.5004490892 0.7270507739
0.7524189905 0.5040797728 0.480716789
0.7424757532 0.2501813479 0.2292612036
0.7426461029 0.253419242 0.7312622996
0.7826338411 0.5038873059 0.2398950979
0.7825412597 0.5020804746 0.7411888724
0.7823968328 0.2542061301 0.2446611859
0.7724721117 0.2541897639 0.4877733397
0.7824375686 0.2512372968 0.7425572248
0.7725091443 0.2496039475 -0.0081101194
0.7924733874 0.5003188141 0.4982174422
0.8124228174 0.50128704 0.5037797299
0.802449954 0.5020680363 0.7513802278
0.8025129093 0.5001878843 0.2503817878
0.7925770785 0.2516202665 0.4954659244
0.7925215297 0.2513904847 0.9944581265
0.8125450248 0.004996498 0.5031918384
0.8025314256 0.2513250198 0.2467276017
0.8124709597 0.2525171356 0.5073950318
0.8025166126 0.2544902478 0.7486388939
0.8126301997 0.2518965284 1.0060122794
0.8325907395 0.0043733376 0.5127953022
0.8226437989 0.2530513292 0.2600685748
0.8324277963 0.0018754588 1.008650848
0.8325092679 0.2545491662 0.5078773807
0.8225067785 0.2518755796 0.7590765157
0.8324759386 0.5043651997 0.5085948861
0.8324685321 0.5045982548 1.0129929134
0.8325574102 0.2527881603 0.0145856903
0.8224475264 0.5017426757 0.2609499493
0.8423525174 0.5021819452 0.7687012732
0.8422969686 0.502387505 0.2649078021
0.8423006719 0.0032584048 0.2634227972
0.8425969322 0.2501126097 0.267306585
0.8424784281 0.2534480466 0.7648896989
0.8624574842 0.2514232171 0.2738317188
0.8525549826 0.2508870596 0.520323092
0.8626352404 0.2483391655 0.7743144807
0.8525438728 0.2519914525 0.0218684173
0.8724784899 0.0014882339 0.5236106559
0.8825402314 0.2499031221 0.2793523449
0.872567368 0.2524202476 0.5239522811
0.8926353022 0.2517191185 0.5329382273
0.882636516 0.2497590993 0.7774446562
0.8923094158 0.5008693739 0.0303380373
0.872363689 0.2509178281 0.0299431778
0.8923760744 0.2538644033 0.0304739467
0.892487172 0.0019155233 0.5265862206
0.8724673801 0.0012447699 0.0276891922
0.8722933272 0.5008608635 0.5255918968
0.8923279321 0.501027799 0.5290155553
0.9123736467 3.7873469604e-04 0.5445960713
0.9023156085 0.252255276 0.2854701208
0.9123958663 -4.0867715634e-04 0.0390680886
0.912406976 0.2483208354 0.5416816103
0.902541507 0.2503476288 0.7865241096
0.9124403053 0.4970586619 0.5445497806
0.902293389 0.502288653 0.7867759309
0.912406976 0.2505394409 0.0440863683
0.9123995695 0.4989669638 0.0386033302
0.9024637387 0.5014395732 0.2837777336
0.9424699932 0.2501479608 0.8009797621
0.9323638126 0.2494271922 0.0491577897
0.9325563818 0.5007417174 0.5457079734
0.9323601094 0.4992085293 0.0449392277
0.9224131687 0.4973650377 0.7944796253
0.9225464859 0.5018696776 0.2935765441
0.9424922127 0.4999188235 0.799728988
0.9222724451 0.2494789095 0.2967668975
0.9223391036 0.249869735 0.7975699909
0.9424107411 0.2494769455 0.3026819202
0.9324415809 0.2507528565 0.5452071082
0.9724404289 -0.0019529942 0.5610959201
0.962460159 4.4158100284e-04 0.8018389171
0.9624416428 0.2474763381 0.3056435977
0.9524095273 -0.0013467892 0.053524204
0.9722256402 2.9088079631e-04 0.0572531032
0.9523650882 0.2531102477 0.5473068533
0.9724070997 0.2499063953 0.5499306089
0.962693464 0.2489591182 0.8038710778
0.9523058362 0.2487882548 0.0528699316
0.972251563 0.2517989856 0.0549518085
0.9724182094 0.5035789662 0.5550373964
0.952361385 -1.8244475297e-05 0.5525247384
0.9623675777 -0.0019133225 0.3032716634
0.9524317468 0.4994016508 0.555575294
0.9625231144 0.5004890228 0.8040006917
0.9824318086 0.2509283024 0.3086821177
0.9824466216 0.0011101741 0.8103156658
0.9924120785 -5.6410513702e-05 0.0591665746
0.9924602208 0.2510310823 0.5577185524
0.9824873574 0.2511148774 0.8079298443
0.9924305948 0.2513590615 0.0586257144
0.9924491111 0.4985060909 0.0650927997
0.0223952422 0.7510448097 0.8181554548
0.0024993982 0.4999358444 0.3101939712
0.0024719942 0.7512542974 0.810617481
0.0125794709 0.5009322202 0.5656638841
0.0026291232 0.5017289281 0.8109081865
0.0222541482 1.0001453119 0.31769769
0.022396131 0.9984301314 0.8176842158
0.0124600039 0.7507436712 0.0640728309
0.0224766398 0.7489433864 0.3197187409
0.0024242592 0.7490808626 0.3091255824
0.0123192062 0.7485505969 0.5647723257
0.0525365462 1.0011272854 0.5768301212
0.0525835775 0.9995103023 0.0750824203
0.0326082246 0.7525112236 0.0722651697
0.0424803595 0.7507764036 0.3235442024
0.0325897084 0.7500039178 0.5750858885
0.0424318469 0.7503901607 0.8263007623
0.0426114547 0.500507353 0.8269664223
0.0323923249 0.4999207875 0.0728230649
0.0325467506 0.499084146 0.572342703
0.0424973945 1.0016313651 0.3254319362
0.0525717271 0.5014880172 0.5768384535
0.0527105991 0.751208472 0.0721042633
0.052619499 0.7494671056 0.573742533
0.04253776 0.9982271902 0.8238769825
0.0725774466 0.5014251709 0.0758368657
0.0725689291 0.9989538506 0.5740230545
0.0724285758 1.0043743446 0.0729097211
0.0726618808 0.7507240317 0.0705544514
0.0626579101 0.7508156826 0.3275835269
0.072575595 0.7520202368 0.5730463213
0.062660132 0.7492183389 0.8266322036
0.0927179646 1.0008196004 0.5709252824
0.0925939056 0.7514965176 0.0695920683
0.1027241573 0.999359733 0.817797165
0.1026337979 0.7538598006 0.317156089
0.0826939963 0.7462658718 0.3225045138
0.1025812117 0.5001145636 0.8148965912
0.0928168415 0.7489695723 0.57212884
0.1026849028 0.7510317168 0.8200580017
0.0825506803 0.4998422296 0.8262359554
0.0825077226 0.7495980354 0.822062388
0.0925850178 0.4992242409 0.0722403579
0.0826077104 0.4994396204 0.3222730604
0.1125251897 0.7499646388 0.0658591881
0.1225306417 0.7507436712 0.310383763
0.1125981438 0.750887694 0.5627864556
0.1224702787 0.7518369351 0.8061819084
0.122520643 0.9994775698 0.3134732028
0.1224799072 1.000066754 0.8141337208
0.1226080397 0.5001872296 0.309793094
0.1125851824 0.999012769 0.565083399
0.1425748751 0.7489106539 0.3045483603
0.1524973743 0.7458599894 0.5509036389
0.1326801504 0.7486880732 0.5591081985
0.1426467182 0.7483149233 0.8049144697
0.1525207048 0.4933376368 0.5488603684
0.1326686703 0.9990193155 0.0603768907
0.1427644817 0.4979489846 0.3028494925
0.1426448666 0.9976707385 0.3063101835
0.1326112698 1.0011010994 0.5598655139
0.1425552479 1.001029088 0.8060134103
0.1525658845 0.9994841163 0.0492117646
0.1525369991 0.7477519251 0.0507292656
0.1327701394 0.7496307678 0.0567951958
0.1723438539 0.7472674848 0.0448492386
0.1623961726 0.7516012614 0.2947014075
0.1724808743 0.7461414885 0.542020458
0.162566152 0.7483869347 0.796824711
0.1824267039 1.00070831 0.7883766625
0.1725105003 0.4981008632 0.0383329926
0.1725616052 0.4979116696 0.5382255484
0.18229709 0.7478894014 0.2923248442
0.1824048547 0.7478632155 0.7908161811
0.1725219804 0.9951699792 0.0429735404
0.1625976296 0.9989276647 0.7978310703
0.1824363324 0.4999417362 0.2883725462
0.2025435211 0.4988163946 0.7804276274
0.1923384636 0.4977787758 0.5326993674
0.1923940124 0.7504752651 0.0339206579
0.202533152 0.7467634051 0.2851673797
0.1923877169 0.7484000277 0.535973044
0.2025790723 0.7495522099 0.7849752235
0.2325661727 0.4997329032 0.0216616831
0.2325213634 0.7503901607 0.0204834928
0.2324521125 0.749512931 0.5194370885
0.21256823 0.7473394962 0.0311408102
0.2226766325 0.7479679593 0.2734345448
0.2125360117 0.7479745058 0.5307866366
0.2325746902 0.500889668 0.520720266
0.2225873841 0.7493754547 0.775087535
0.2223633372 0.5005656168 0.7698816855
0.2124615763 0.4993244022 0.0244639355
0.2224444385 0.4994134345 0.2700136638
0.212663774 0.4996209582 0.5295025332
0.2526607704 0.7452380728 0.0172999904
0.2426245813 0.7477846576 0.2685712463
0.252551154 0.7520726087 0.5125286679
0.2424816357 0.747522798 0.7700890677
0.2424246056 0.5005453226 0.7681467109
0.2425242231 0.4984078936 0.2654290352
0.2627565818 0.498479905 0.7618446982
0.2523563629 0.5016032355 0.5119426279
0.2626640005 0.7488844679 0.259168684
0.2625229065 0.7467961375 0.7623409342
0.2628276843 0.4967162805 0.2626877013
0.2725424309 0.9987967349 1.0102987961
0.272567613 0.4991613946 0.5065692061
0.2824964077 0.5001315845 0.2525907789
0.2824486357 0.4973493261 0.7544594836
0.2825630663 0.7467634051 0.2553302611
0.2826019504 0.7469532533 0.7547233404
0.2725657614 0.74781739 1.0044661708
0.272475402 0.7494409196 0.507940336
0.2824738178 0.9992353497 0.2526555858
0.3126431184 0.9980046095 0.4899869599
0.2924444593 0.7504294396 0.9975966343
0.3024732418 0.7513066693 0.2437890696
0.2925355594 0.7476209953 0.4992469469
0.3025436037 0.7487338987 0.7462910308
0.3126020123 0.74917906 0.9951247122
0.3126257131 0.7472412989 0.485766176
0.3124653622 0.4984046203 0.4894398041
0.3024599101 0.497217087 0.7432663979
0.2925148211 0.4998723434 0.9969948555
0.3024025097 0.9978213078 0.2421013115
0.3325014484 0.4976753413 0.4844265238
0.3224804427 0.4974789466 0.7336610825
0.3325529236 0.7458207105 0.9788952009
0.3324821915 0.4966062994 0.9819596437
0.3226326464 0.7492707109 0.2329079831
0.3323884991 0.7493165363 0.4844357819
0.3224378553 0.7512477509 0.733216692
0.3226778261 0.5010022677 0.2340004431
0.3523905154 0.4975987474 0.4699301355
0.3525790111 0.9985807007 0.4764969309
0.3626922278 0.7465408244 0.2199252999
0.3627477766 0.749539117 0.7199155289
0.352458285 0.7482232724 0.9747475563
0.3625403944 0.4991201517 0.717650989
0.342353956 0.7474507866 0.2267929847
0.3626403822 0.4978920301 0.2173820901
0.3527015888 0.7473984146 0.4715567898
0.3426905818 0.7481250751 0.7272775982
0.3625811302 0.9995823137 0.7222115465
0.3425968895 0.5000366603 0.7268878307
0.3524464346 0.4978926848 0.9748493958
0.3423209971 0.4997112998 0.2243766114
0.3725391806 0.4988812048 0.9601937675
0.382526857 0.499690351 0.2084313248
0.3725688066 0.5000536812 0.4657973038
0.3926515538 0.499158776 0.9573700362
0.382586109 0.4971967929 0.7074448206
0.3726206521 0.75016758 0.9658041975
0.3826898002 0.7480072382 0.2128770814
0.372691014 0.7484785855 0.4730649401
0.3825157472 0.9991764313 0.2076573447
0.3827120197 0.7473591357 0.7142439952
0.3926626636 0.7507240317 0.9544722398
0.3924849074 0.7479679593 0.4571974219
0.392566379 0.4984504457 0.4574409109
0.4025910879 0.4982822009 0.7032888436
0.4027058888 0.7454672 0.2060279129
0.402620714 0.7499515459 0.7023315525
0.4126935652 0.7494540126 0.9483711286
0.4124972928 0.7466913937 0.4433898388
0.4225997701 0.9974939833 0.6920698352
0.4425566066 0.9999358242 0.1898335825
0.432624479 0.9994186514 0.4393292207
0.4426380782 0.9994121049 0.6901996919
0.4228256686 0.5000405882 0.6960295397
0.4324689424 0.7490939556 0.942168178
0.4226368026 0.7500759292 0.1949088923
0.4328207515 0.74917906 0.4445822867
0.4226738351 0.7511626466 0.6938640619
0.4426973303 0.7487600846 0.1888068553
0.4425862327 0.7506716598 0.6921198292
0.4226442091 1.0001518583 0.1955115969
0.4727381279 0.7490612232 0.9344654093
0.462568992 0.7531135007 0.1874783129
0.4725974042 0.7496111284 0.4353908099
0.4624801139 0.7515227035 0.6907274056
0.4525183603 1.0001845908 0.4335262214
0.4725862945 1.0007803214 0.4344437026
0.4726640628 0.5011318882 0.935261609
0.4628467361 0.5005093169 0.1832093867
0.4626541669 1.0005053688 0.1883013611
0.4626319473 0.9992418962 0.6864195952
0.4527220393 0.7525963279 0.9395666419
0.4524368887 0.7476144488 0.4363990208
0.4526368644 0.5011593834 0.4376322044
0.4827183978 1.0009308907 0.6847975699
0.492717184 0.9994841163 0.428548122
0.4926060864 1.0018604923 0.9303640554
0.4924912855 0.7505996484 0.4304404849
0.4925986799 0.7507043922 0.9333266587
0.4824221375 0.7511364606 0.1846573591
0.4825554546 0.7494801986 0.6827209701
0.4925098018 0.5018637858 0.9288179468
0.4926023831 0.5026834064 0.4275112109
0.4826369262 0.5023619737 0.6792436145
0.5126962401 0.9991764313 0.4241634691
0.5226246645 1.0019586897 0.6725305405
0.5027455962 1.0007017635 0.1759324923
0.5226654003 0.7495783959 0.6761162164
0.502582653 0.7513132158 0.1787802947
0.5027011572 0.7532902559 0.6784187146
0.5128221507 0.7546191934 0.9268089314
0.5125703295 0.4996824952 0.9287809142
0.502538214 0.5008464612 0.1752909035
0.5125110774 0.7509400659 0.4239468288
0.5226505872 0.7493296293 0.1750724115
0.5525173319 1.0012713082 0.4257049487
0.5424481839 0.4975365557 0.6707400172
0.5424518871 0.7520333298 0.1748317
0.552402531 0.5006991652 0.4256355126
0.5524284538 0.7492772574 0.4224053492
0.542551875 0.7504818116 0.6743627255
0.532686406 0.7500497432 0.9195135207
0.5324864302 1.0003547995 0.9225872217
0.5424667002 0.503984194 0.1738383021
0.552591397 0.4992779221 0.9253276297
0.5326641864 0.7502985098 0.4216174819
0.5424741067 1.0011992968 0.1714358159
0.5723630709 0.5039442604 0.9285124283
0.5625050083 1.0026657106 0.6791584397
0.5526617588 0.7476340883 0.9279847146
0.5624050205 0.7479024944 0.179086739
0.5624976018 0.7496242213 0.6788760665
0.5722297537 0.7517780166 0.9298548579
0.5723741806 0.503230693 0.4316394134
0.5724112132 0.7502592309 0.4288545663
0.6024927466 0.4969480262 0.1887087191
0.6025927344 1.0039357297 0.1919296244
0.6025594051 0.9985872472 0.6895803226
0.5922976879 0.7517452842 0.9374650452
0.5923754562 1.000747589 0.4364804924
0.5924532246 1.0016706441 0.9371132361
0.6026667995 0.7486487943 0.1904909101
0.5925939482 0.7503836142 0.4410030915
0.6024594173 0.7490612232 0.6891887035
0.582565536 1.0021223519 0.1849221417
0.5824914709 1.0032156158 0.6809434081
0.582332231 0.5003751139 0.6835847542
0.5824174059 0.749886081 0.1886226184
0.5824581417 0.7522820964 0.6791056683
0.6123730286 0.7500170108 0.9420663385
0.6124063579 1.0007279495 0.4428593477
0.6124545002 0.7475489839 0.4417798491
0.6222125749 0.9988818392 0.689206294
0.6224088473 0.749526024 0.1913583974
0.6224680994 0.7464229876 0.6953259214
0.622316266 0.9980700744 0.1941589834
0.6423804969 0.9996608716 0.6971294062
0.6422879156 0.9993335471 0.1996740546
0.6523940961 0.9989996761 0.4487178957
0.652449645 0.9997983479 0.9525280314
0.6323113489 0.996341801 0.4488539903
0.6325557637 0.9959359186 0.9452696533
0.6324187433 0.4973912236 0.4454553288
0.6324928084 0.7479875988 0.9430199264
0.6324187433 0.7482298189 0.4493872589
0.6524755677 0.7475555304 0.950519016
0.6422953221 0.7499777318 0.1929582032
0.6523829864 0.7487338987 0.4540255847
0.6424990011 0.7493950942 0.6999040694
0.6722361318 0.7497747906 0.9534631031
0.6623669596 0.9999423707 0.2020663568
0.6722102091 1.0010945529 0.9560831554
0.682220105 0.749872988 0.2080989578
0.6725138759 0.750206859 0.45463477
0.6823163896 0.7497747906 0.7103055844
0.6624669474 0.7500366502 0.2025440766
0.6621447643 0.7506520203 0.7008613606
0.6722842741 1.0009963556 0.4560568196
0.7024139499 0.501285076 0.2083100433
0.6924744157 1.0016182722 0.4623097642
0.6923929441 1.0001125794 0.9567589993
0.6923818344 0.7489564793 0.9583513986
0.7022213806 0.7508549615 0.2095811853
0.6923410986 0.7514310527 0.4557438946
0.7024361694 0.753918719 0.7106027706
0.7122683091 0.500072666 0.4657260162
0.7121905408 0.7536764988 0.4642382338
0.7224152255 1.0025478738 0.7158891659
0.7324066052 1.0014742494 0.9721460202
0.7324806702 0.7499449994 0.9688964147
0.7224448515 0.7501872195 0.2178162967
0.7324066052 0.7544358917 0.4770635287
0.7224337418 0.7510120773 0.7217560462
0.7223744897 1.0024496764 0.2205854049
0.7324140117 1.0020503405 0.4732482512
0.7124645816 0.7511233676 0.96241572
0.7123757035 1.0005381013 0.4660963416
0.7124090328 1.0002107768 0.961184388
0.7423609523 0.5017813 0.225733854
0.7424016881 0.7526225139 0.2272660754
0.7425053792 0.7502985098 0.7260786696
0.7524412101 0.7549661574 0.9771639296
0.762625159 1.0038309859 0.7338240257
0.7523782548 1.0031370579 0.9805709234
0.7624474028 0.7543049619 0.2395155143
0.7525263849 0.7538139751 0.4848236978
0.7626362687 0.7517190982 0.7358089699
0.7524597263 1.0022009098 0.4791993806
0.7425127857 1.0029930351 0.2268642723
0.7624881386 1.0023449326 0.2318081166
0.7826597639 0.9999489171 0.2395932826
0.7723091685 1.0024955019 0.4853560406
0.7824412719 1.0039226368 0.7350859095
0.772461002 1.004099392 0.9886717919
0.7824560849 0.7532575235 0.2445260172
0.7723350913 0.7533688138 0.4829766998
0.7823783166 0.7543573338 0.7439357611
0.7722091807 0.7506585668 0.9895327984
0.7724943313 0.5006494118 0.4882825372
0.7724980345 0.5026585297 0.9917177184
0.7922882247 0.7497158722 0.9918843648
0.8123709719 0.7532313375 1.0062159584
0.7923919158 0.5008791936 0.9937174756
0.8126190899 0.5016831027 1.0093266918
0.8023684824 0.7517125517 0.2464739288
0.8124820695 0.7526421534 0.5029668657
0.8024166247 0.7548483206 0.7499674363
0.7923993223 0.749526024 0.4928032847
0.792584485 1.0026722571 0.4954020433
0.7924474646 1.0002893346 0.9962356884
0.8024832833 1.0023580256 0.2481690934
0.8024610638 1.002083073 0.7484852088
0.8126413094 1.0041517639 1.001336921
0.8223475385 1.0026395247 0.7579285069
0.8225993598 1.0044398095 0.2603352091
0.8324648288 0.7540103698 1.0074843229
0.8224734492 0.5016687004 0.761845624
0.8224475264 0.7536961383 0.2575753589
0.8324463126 0.7520005973 0.512334247
0.8225067785 0.7515947149 0.7588626528
0.842448802 0.7526094209 0.2657947315
0.8423673304 0.7516536333 0.7709889584
0.8623611995 0.5028621256 0.773896013
0.8426302615 1.0036214982 0.7601837887
0.8625500655 0.9991044199 0.2754778153
0.8624945167 1.0002173232 0.7721665933
0.8526364542 1.0035691263 0.0177357708
0.8625648785 0.7510579027 0.7753995341
0.8525512793 0.5013027516 0.5168133329
0.8523809296 0.7510120773 0.0188255459
0.8522476125 0.5023200762 0.0196174868
0.8623723093 0.5010461291 0.2728670211
0.8622612117 0.7496504073 0.2748214135
0.8524920273 0.7532640699 0.5189352975
0.8524772142 1.0023056536 0.518818645
0.882477276 0.9978933192 0.775062538
0.8925427208 1.0021878168 0.0304392287
0.8824550565 0.750193766 0.7782473366
0.8724192378 0.7501348476 0.0259750484
0.8923279321 0.749192153 0.0282890267
0.882388398 0.5009564422 0.7711167207
0.882388398 0.501484744 0.2772572289
0.8824920891 0.7506258344 0.2739854039
0.8724710834 0.7523541078 0.5222071226
0.8923686679 0.7520595157 0.5297839805
0.8723599857 0.4991561574 0.0250780277
0.8823846947 1.0006755776 0.275608355
0.9023452345 0.9979129587 0.7803896691
0.9123180979 0.7490481302 0.5394828031
0.902511881 0.9982795621 0.2829611661
0.9024230029 0.750848415 0.7891339779
0.9123551305 0.7484131206 0.0388314506