POSCAR file written by Ovito 3.7.11
1
270.0044915338 0.0 0.0
0.0 15.2737605532 0.0
0.0 0.0 10.8001796613
Sr Ti O 
800 800 2400 
Direct
0.0225085765 0.4992575502 0.8152388336
0.0125427052 0.4990775029 0.0542296414
0.0127995528 0.2502651697 0.557765339
0.0225010581 0.2495633124 0.8112018637
0.0025019833 0.2500026279 0.8066334212
0.012607593 0.2475133916 0.0604769448
0.0024522805 0.0024443408 0.2995409309
0.0226456112 0.4994258127 0.3104787119
0.0126031116 -9.1743767857e-04 0.553646889
0.0025171683 -3.9536585662e-04 0.8030223701
0.0123537454 -0.0047077943 0.057948561
0.0225565757 0.2500877412 0.3130360768
0.0023268751 0.2505146171 0.3024853264
0.0425513171 0.5014456165 0.3139990237
0.032581483 0.2483920226 0.5603486293
0.0426453896 0.2503496283 0.8120972192
0.0524433748 0.499353139 0.0656334331
0.0326351858 0.2484299962 0.0615112795
0.0325133359 -7.4138411333e-04 0.564884665
0.0326155565 -0.0015503532 0.0641079955
0.0426431674 0.2519183317 0.3151582637
0.0526026314 0.2499914977 0.5633050616
0.0524663374 0.2495600388 0.0637255945
0.062445801 0.2492117291 0.312557381
0.0623983944 0.4983880852 0.8162656684
0.0624487639 0.5019163584 0.3144814231
0.0724241535 0.4966576666 0.5664661201
0.0724834118 0.2476593936 0.5624485944
0.0623983944 0.2503725434 0.815307351
0.0726393351 0.2484941586 0.0624567267
0.0622887665 4.1209737138e-04 0.3143647584
0.0624750597 -0.0018411788 0.8136092311
0.092533819 0.2494873652 0.5609078793
0.1023614333 0.2472397196 0.8094713369
0.0826547241 0.2487776513 0.8087037571
0.0924575239 0.2457351785 0.0623460804
0.1024684685 -0.0017201869 0.3077694977
0.0822325089 -0.0013455575 0.3103787136
0.0822362125 9.5060260533e-04 0.8082352464
0.0923797475 -0.0016181819 0.0594344622
0.1024455059 0.2487691399 0.3108175952
0.0825013933 0.2483317886 0.311947206
0.1025140233 0.4972482219 0.3069009936
0.0924653016 0.4980430491 0.5621347107
0.112286083 -0.0019065196 0.0530316983
0.1226070224 0.2494723067 0.3056834213
0.1124568209 0.2494382613 0.5570662765
0.1224892466 0.4984856382 0.8000733451
0.1124645985 0.4990218519 0.0557313756
0.1222681391 0.2493007706 0.806449165
0.1124908944 0.2519111298 0.0564596043
0.1125575599 0.4982898776 0.5590338364
0.1524431927 0.2498265089 0.5415044984
0.1325883378 0.2468619476 0.5477460612
0.1424233594 0.2505100341 0.7941077036
0.1523287502 0.2476960578 0.042186601
0.1323205645 0.2482872678 0.0504180381
0.1424200261 0.2505336039 0.2965344994
0.1423626197 0.4966013609 0.7968919166
0.1524176376 0.5003456909 0.0445761908
0.1323905633 0.499434324 0.0496288846
0.1323142683 0.4981091755 0.5496423259
0.1523117134 0.0012601531 0.5448016657
0.1824456566 0.2480005015 0.7835634346
0.1823197328 0.2495718237 0.2851578368
0.1624726555 0.5002671248 0.7881726172
0.1624089529 0.4953855503 0.2906234866
0.1726450789 0.2495482539 0.5392332398
0.1825997281 0.4994984863 0.7830634429
0.1623715461 0.2476882012 0.7925660626
0.1725654506 0.2495646218 0.0417024423
0.1625359878 7.6931129921e-04 0.2884513006
0.1723084178 -0.0030302769 0.5361906979
0.1825267664 -0.001991371 0.2837967484
0.162494507 0.2476947484 0.2903938608
0.2023056966 0.2491364365 0.2765700167
0.1925769695 0.5004347325 0.0305782755
0.2026834681 0.4990421481 0.279030161
0.192406602 0.2501859489 0.5319148431
0.2026334689 0.2491613158 0.7822199384
0.1925921545 0.2497865711 0.0318822353
0.1923869727 -0.0026181976 0.5325139072
0.2023497699 -0.0040894136 0.7768311392
0.1925736363 0.0010402989 0.0348753337
0.2026312467 -0.0011313994 0.2756366989
0.2125158971 0.2495508728 0.5219761195
0.2226323955 0.2499692373 0.7745117333
0.2125977476 0.2470773496 0.0243421756
0.2224675834 -0.0030160695 0.2740700583
0.2124758978 -0.0029919104 0.5248455162
0.2225227677 5.8651414259e-04 0.7761783723
0.2125555261 1.2978313809e-04 0.0253217889
0.2324714911 8.5730534595e-04 0.5225353695
0.2224186953 0.2473876858 0.2759487308
0.2324322325 0.2479206259 0.5255992074
0.2325414899 0.247540235 0.0254402129
0.2324892685 -0.0013107265 1.0240649893
0.2525756011 0.2475114274 0.520677993
0.2426031744 0.2517847693 0.7690692313
0.2627698759 0.2495515275 0.2649544692
0.2526059709 0.2508943533 1.0189539632
0.2423705856 -0.0024646663 0.2756941054
0.2525411572 0.5029409915 1.0162873409
0.2525107873 -0.0010867477 0.5204779963
0.2426353961 0.2451806327 0.2728784115
0.2625446945 0.2486316492 0.7664387195
0.2425253979 -0.0012521293 0.7786672197
0.2625346947 -0.0020298684 0.2695812441
0.2525752307 -9.3688279158e-04 1.0233798155
0.2624428443 5.6170034519e-04 0.7676146258
0.272471196 0.2463846584 0.5098679876
0.2726171195 0.2501813658 1.0149818071
0.2726060086 0.002383714 0.5193400522
0.2726671187 0.5026961271 1.0110466874
0.2825621393 0.2482892319 0.761331397
0.2826791744 -0.0012525876 0.7632582168
0.2826002868 0.2500222695 0.2621387753
0.3026743973 0.2482879225 0.2595647441
0.3125979359 0.2463820395 0.5026551446
0.3124497902 0.2478355126 1.0039542128
0.2927049335 0.4976155185 0.5092717012
0.3126201578 -1.5744147727e-04 1.004148654
0.2925453065 0.2489020476 0.5083059765
0.2926390087 -0.0014363014 0.510392053
0.3025795841 0.249562003 0.760121232
0.3026788417 0.4995423524 0.2580156958
0.292466419 0.2494559387 1.0112318695
0.3124734935 0.4988882895 1.0016209182
0.2926956744 -0.0017842838 1.0139725646
0.302611065 0.0012031927 0.759582352
0.3224003654 0.2511117196 0.2490963997
0.3324124211 0.2493361254 0.491392369
0.3222703676 0.25113398 0.7456816574
0.3324431613 0.25002096 0.9983524541
0.322603325 -0.0015718934 0.249341766
0.3325342709 -0.0010341738 0.4976348578
0.32261851 -0.0035843644 0.7506991665
0.3326242694 -7.4040203692e-04 0.9998616883
0.3623926631 0.2499181694 0.2403650635
0.3523376452 0.002170276 0.9969543292
0.3524357917 0.2479834788 0.4956672979
0.3425378082 0.2498206164 0.7440853876
0.3526361588 0.2511870121 0.9914173843
0.3425148456 0.0010720527 0.2474917968
0.3425622523 -4.2561381019e-04 0.7438548359
0.3423959587 0.2495548011 0.248927884
0.3625704379 0.2488968099 0.7403493387
0.3623926631 -0.0038074922 0.2412937517
0.3725073097 0.2514338406 0.4870183677
0.3825071433 0.249965309 0.7360938539
0.3724332368 0.2515556181 0.989102608
0.3823404794 2.3826984601e-04 0.7349910945
0.3822960357 0.2494978406 0.234347571
0.3922736475 -0.0013644134 0.485328581
0.3925032733 0.0010938548 0.9823249429
0.3723887931 7.235465383e-04 0.4909710797
0.3724887915 -2.0228963353e-04 0.9899637048
0.3924254968 0.2522064074 0.480982357
0.3924699405 0.2516381125 0.9827138254
0.4123770168 9.8130886122e-04 0.4801203343
0.4023068139 0.2486192096 0.7292930411
0.4024623669 -0.0020187382 0.2273236137
0.4024956997 -0.0017207107 0.731094863
0.4023253322 0.4987082422 0.2339457258
0.4023957014 0.2501086922 0.2273134287
0.4123622022 0.2491914328 0.4738019209
0.4125844208 0.2481831677 0.9773805808
0.412602939 -0.0040187695 0.9758713466
0.4124288678 0.5009558877 0.9750009907
0.4124325714 0.5006442421 0.4813397585
0.4224101832 0.2505872907 0.2282476724
0.4422802231 0.2518535146 0.7182635949
0.4323766841 0.4997754319 0.9731306515
0.4324840897 0.4973713088 0.4726815692
0.442383925 0.2491318535 0.2156636225
0.4226286981 0.49940879 0.2292939513
0.4424505906 0.5006717403 0.7171200955
0.4325063116 0.249531886 0.4723473155
0.4223731468 0.2491672083 0.7304930211
0.4323285367 0.2506350851 0.9712325349
0.4425098489 0.5011320067 0.2155015882
0.4325692735 -0.0026027463 0.9699455193
0.4523319077 4.5210061733e-04 0.9682788803
0.4726204591 0.2504792623 0.4524717202
0.4625206271 0.2462589526 0.7113053774
0.4725463862 0.2527884514 0.9571494358
0.4624724797 0.249784607 0.2094859475
0.4522170948 0.4982329172 0.9645011654
0.4624428506 0.5003371796 0.710543353
0.4723649078 0.5014102617 0.4625345157
0.4524763497 0.2498690655 0.4618836006
0.4524874607 0.2470891346 0.9648530114
0.4723686114 0.0026065799 0.9594086575
0.4824462215 -0.0011533324 0.2051712045
0.4824610361 0.2494919482 0.7055517694
0.4823980742 0.251966126 0.2062637789
0.492520128 0.2503168924 0.4516550671
0.4924904989 0.2493145197 0.9507143577
0.4825795527 0.4995266392 0.2079350474
0.5024125561 0.0012060734 0.6971870937
0.5024273706 0.2473811386 0.1989555671
0.5123420205 -4.0878756762e-04 0.9511680538
0.522519629 0.0016117364 0.1951787781
0.5025495908 0.5013316956 0.7030842178
0.5024421852 0.2490172779 0.7017018334
0.5225011108 0.4992503483 0.6951426833
0.5124568334 0.2531884838 0.4496375081
0.5225788873 0.2496340219 0.1952037777
0.5123790569 0.2528984439 0.9457607364
0.5226344419 0.2499227524 0.6904964643
0.512419797 0.4999947623 0.4495180656
0.5224196306 0.4992470747 0.1962306125
0.5525006117 0.2456729804 0.4353868192
0.5523746879 0.0012837229 0.9325757705
0.5325342772 0.4953266257 0.9420756125
0.5324861299 -0.0023514002 0.4400682228
0.5324342789 0.4988915631 0.4417200472
0.5324231679 0.2517585806 0.4404571052
0.5327490884 0.2470112232 0.942649677
0.5424267052 -0.0021799296 0.686794674
0.5424378162 0.2482041187 0.1902158977
0.54256374 0.249909658 0.6901844324
0.5525783882 0.2457927937 0.9368071816
0.5623930398 0.4991763652 0.6839993501
0.5626522947 0.5003227758 0.187242799
0.5625745182 7.3421843534e-04 0.1832160141
0.5625597036 0.2487645569 0.1871372452
0.5624597053 0.2490801308 0.6902492462
0.5725447227 3.7569507228e-04 0.434695164
0.5725076863 -4.2738154774e-04 0.9351405427
0.5725447227 0.2484732076 0.4341238773
0.5724706499 0.2470550892 0.9310295
0.5926295738 0.501374907 0.9294091565
0.582403818 0.2520106468 0.6825790034
0.60249978 0.2499633449 0.1810484576
0.5925369827 0.2503319509 0.4329924146
0.6027108876 0.2492248234 0.684683598
0.5925258718 0.2536107767 0.9295202658
0.5824667799 0.2526908984 0.1856668993
0.6026257038 0.4972233426 0.6849400752
0.59254439 0.5000222604 0.4290304435
0.5825815928 0.4984168928 0.183548416
0.6124477626 -4.450589232e-04 0.9335016811
0.6125033173 0.4980751302 0.430494308
0.6224957436 0.5008406574 0.183124349
0.6224512999 0.2458124352 0.6799327511
0.6126477593 0.5022862739 0.9277888131
0.6226920367 0.4993970051 0.6840437938
0.6125959083 0.2465889303 0.4305387517
0.6125292428 0.2500353638 0.9309739453
0.6225253728 0.2510187497 0.1826345423
0.6325029846 0.5009958255 0.9309276498
0.6424991146 0.2509624439 0.1808947565
0.6524582082 0.2498225806 0.4343766508
0.6424620781 0.2500622072 0.6824428945
0.65248043 0.2498029391 0.9315943054
0.6424954109 0.5021350341 0.6845197118
0.6525582065 0.5025606006 0.938603448
0.6424435599 0.5018679093 0.1826984302
0.652532281 0.4990009009 0.4373404904
0.6325363173 0.2477346861 0.4304461607
0.6325103918 0.2482342357 0.927075862
0.662372858 0.002548179 0.6843345297
0.6724541718 0.4999600622 0.4449857336
0.6825317819 0.4991874954 0.6977630101
0.6726541685 0.5011130199 0.9440107655
0.6825428929 0.5020878945 0.1926464128
0.6625469292 0.2476672502 0.1881492654
0.6626395203 0.2490873327 0.6839845356
0.6825243747 0.0011195197 0.192696412
0.6824836346 -2.1414002227e-04 0.6922047692
0.6624061908 0.5020276604 0.6885076085
0.6625321146 0.4957816544 0.190378858
0.6824465982 0.2508576891 0.1899510873
0.6725023192 0.2492333347 0.4379775169
0.6825577074 0.2505486624 0.695932485
0.6725282447 0.250946076 0.9389923305
0.70242034 0.2514842539 0.206573033
0.6926279103 0.2514043783 0.4483977139
0.70246108 0.2536153597 0.7004925943
0.6925353192 0.2515255011 0.9469181245
0.7025092274 0.4998965546 0.704417529
0.7024981165 8.5717440243e-04 0.7070897068
0.7025203383 -2.2081814189e-04 0.2012157147
0.6925538374 0.5017729753 0.9496495606
0.692620503 0.5022410984 0.4511217426
0.7126053557 0.2527930344 0.4568855356
0.7125312829 0.2510953516 0.9591679208
0.7223977854 0.5015916185 0.710335949
0.7223940818 0.2512878386 0.2100720489
0.732605023 0.2529056458 0.4641715256
0.7223681563 0.2495705143 0.7055786208
0.7324865065 0.5002821833 0.9646122746
0.7225125983 0.5023687683 0.207742458
0.7322605843 0.4993164748 0.4697380996
0.7325716903 0.2527851778 0.9681585119
0.7125238756 0.5000399378 0.9601123495
0.7625785985 0.5023654947 0.7235366554
0.7425567093 0.0011026935 0.7132099753
0.7525009884 0.5010901048 0.9719362269
0.76235638 0.4987043139 0.22136075
0.7623267508 0.2520957601 0.2210755695
0.7524083973 0.2510979705 0.4650205855
0.7625563766 0.2518345278 0.7193635766
0.7523972864 0.2524211548 0.9680659209
0.7423715272 0.5001957606 0.7152580894
0.7524861738 0.5028296895 0.4677038742
0.7424641183 0.2506200266 0.2148784504
0.7424418964 0.2518554788 0.7129349799
0.7825560439 0.4991979709 0.230455969
0.7824338237 0.5028434386 0.7287532353
0.7825227112 0.2534241822 0.2276189792
0.7725228775 0.2502540395 0.4732473005
0.7823338254 0.2528951703 0.7280847279
0.7724599156 0.2517356654 -0.0218326118
0.7926003213 0.5017755942 0.4827897343
0.8124481393 0.5020499208 0.4929701206
0.8025038602 0.5011320067 0.7378253066
0.802589044 0.5023150815 0.2382604688
0.7924743975 0.2505722322 0.4812610561
0.7925780994 0.2475114274 0.9836304768
0.8123296227 -0.0041154058 0.4926099414
0.8023334927 0.2510455931 0.2382752834
0.8123518446 0.2497708579 0.4918303247
0.802392751 0.2509015552 0.7379095644
0.812533323 0.2539669431 0.9951210264
0.832536694 -7.5716280773e-04 0.4979163346
0.8224553802 0.2512976594 0.2433057553
0.8324811393 0.0022451103 0.9989172595
0.8324700284 0.2541659772 0.4993783473
0.8224850093 0.2514495538 0.7441242759
0.8327181724 0.499747279 0.5018671948
0.8324737321 0.5025455421 1.0015931409
0.8323478082 0.2510266063 -7.8166573661e-04
0.8224627875 0.504254355 0.2483047462
0.8426068968 0.5025488157 0.7570333204
0.8425365276 0.4997210903 0.2498399058
0.8425254167 0.0031095339 0.2535333629
0.8426031932 0.2514521727 0.2550972258
0.842429122 0.2512302234 0.7537120793
0.8625287876 0.2516597182 0.2649646542
0.8524956212 0.2537705278 0.508705044
0.8624954549 0.250714306 0.7613063974
0.8523882156 0.253345616 0.0058266503
0.8723989938 -5.0722506895e-05 0.5169512031
0.8824543821 0.2497990107 0.2729922985
0.872428623 0.2534850709 0.5137957
0.892369032 0.2510246421 0.5230223984
0.8824284566 0.2551513272 0.7723099181
0.8926468051 0.500201653 0.0247006881
0.872469363 0.2530261138 0.0147615016
0.8925097704 0.2546524324 0.0226353521
0.892409772 0.0026048121 0.520977988
0.8725101031 3.7111204901e-04 0.0157271337
0.8725693614 0.5057595508 0.5167206514
0.8927023598 0.5042268569 0.5253001383
0.9127316562 -0.0013636277 0.530725048
0.9025725659 0.2512832556 0.2770644529
0.9126575834 0.0015938627 0.0297595855
0.9126279542 0.2522869377 0.5287195258
0.9025133077 0.2530248044 0.7778764922
0.9124946231 0.5013382428 0.5289297075
0.9023540511 0.5029108745 0.7758330076
0.9126316579 0.2521114733 0.0266144526
0.912557585 0.5022784173 0.0299821743
0.9025799732 0.5013893108 0.2766126086
0.9425311605 0.2512649235 0.7862606119
0.9326794725 0.252603821 0.0392473906
0.9325683633 0.5011981332 0.5300120969
0.932560956 0.5002455191 0.0309838244
0.9226203806 0.4995194373 0.7834606585
0.9225277895 0.5037089753 0.2810653123
0.9423978294 0.501435141 0.7844291609
0.9225574187 0.2531465819 0.2853291303
0.9226129733 0.2531662234 0.7827569665
0.9425274568 0.2515032407 0.2887948134
0.932653547 0.2515399049 0.5345397994
0.9724084412 -4.3877363415e-04 0.5480867963
0.9624086076 -0.0014129934 0.7974326483
0.9624826804 0.2514390784 0.2939234318
0.9527383981 -3.1968050095e-04 0.0448094277
0.9726788071 0.0011209601 0.0472321652
0.9524050703 0.2501100016 0.5396100854
0.9724195522 0.2474420274 0.5482479047
0.9626123079 0.2476482634 0.7956197155
0.952345812 0.2501708904 0.0404225562
0.9725084396 0.2479461599 0.0485196438
0.9725306614 0.499879532 0.5460479413
0.9525198832 8.9527896731e-04 0.5427239225
0.9626604553 -0.0013168809 0.2921799422
0.952501365 0.4993721258 0.5420220823
0.9625308278 0.5004131268 0.7915392278
0.9825082732 0.2489000835 0.2985002075
0.9824008676 8.4689533596e-04 0.8023899733
0.99274514 0.0017487034 0.0513988551
0.9924229231 0.2503902207 0.5534246704
0.9825341987 0.2505028322 0.8006946311
0.9925192178 0.2510796384 0.050160172
0.9923673685 0.5016381035 0.0517039426
0.0224990581 0.7490742202 0.8106805761
0.002629759 0.4997453148 0.3074796877
0.0026493883 0.7513133545 0.8067306418
0.0125339646 0.5009126763 0.5582264424
0.0024407251 0.5002802191 0.8023733069
0.0224517255 0.9989079129 0.3102037165
0.0225033173 0.9966556843 0.8121620329
0.0125348164 0.7481117854 0.0562395153
0.0225114653 0.7503705611 0.3116638774
0.0025801302 0.7519353362 0.3078528297
0.0126334815 0.7484587857 0.5597134547
0.0524348564 0.9970223262 0.5664300096
0.0523955978 1.0016315382 0.0647564107
0.0323970416 0.7482165402 0.0635343014
0.0424453929 0.7514573923 0.3126620089
0.0324485222 0.7495914472 0.5620041573
0.0423805792 0.7506389953 0.8112879734
0.0423287282 0.4988830518 0.8101324371
0.0325222247 0.4996562733 0.0644179904
0.0325388911 0.4989445952 0.5637643132
0.0425224287 1.0008655186 0.3121323881
0.0524630041 0.5013735975 0.5623837806
0.0525192994 0.7528519409 0.06299394
0.0524626337 0.7485766349 0.5635559834
0.0422831734 0.998501988 0.8101722512
0.0723726729 0.4971401935 0.0645708582
0.0724215609 0.999392404 0.5600217829
0.0722463787 1.0009702734 0.0613406342
0.0723063777 0.7490087485 0.0631790295
0.0624883929 0.749473598 0.3172295255
0.0722686005 0.7485700877 0.5619402695
0.0624969112 0.7509663541 0.81587586
0.0924041915 0.9970419677 0.5603838139
0.0924308577 0.7507502973 0.0605685174
0.1023384707 0.9972580245 0.8079871024
0.1023206932 0.7481707099 0.3050399135
0.0823750991 0.748694484 0.3142629082
0.1023529149 0.4991357728 0.8085426487
0.0925601148 0.7490349372 0.5609875076
0.1024603205 0.7473654073 0.8129083168
0.08251843 0.500257304 0.8142582943
0.082450283 0.7488254276 0.8109833488
0.0924797458 0.4984817099 0.0590552092
0.0824562088 0.4997643017 0.3107537073
0.1125975593 0.7516603548 0.0567278405
0.1224877651 0.7497289379 0.3046584384
0.1124901537 0.750625901 0.5594254965
0.1223529525 0.7495194282 0.8007835185
0.1225010982 0.9984888936 0.3020714444
0.1225662823 0.9987573279 0.8091111577
0.1226277628 0.5011850389 0.3046130687
0.1124145994 1.0008393299 0.5549774224
0.1424281741 0.7495587113 0.2959243244
0.1524254152 0.7496569189 0.5427794771
0.1323998225 0.7469201993 0.5527867181
0.1425892826 0.7496372774 0.7970650618
0.1524535629 0.5004504457 0.542367447
0.1324946357 1.0002959143 0.0509126595
0.1424555811 0.4969961556 0.297108564
0.1424052116 0.9994513285 0.2939215799
0.1324598215 0.9985150824 0.5511987815
0.1423441015 0.9978472704 0.7919651467
0.1525754128 0.9959878724 0.0423469687
0.1524676368 0.7487926917 0.0421247501
0.1322690839 0.7498533342 0.0520591219
0.1724665633 0.7456107641 0.0377650078
0.1624248785 0.7483867668 0.2894660985
0.1726654489 0.7476207472 0.5379554833
0.1625919128 0.7464160668 0.7905327631
0.1824419529 0.9955884946 0.782918075
0.172438786 0.4973418465 0.0374668647
0.1724380453 0.4997708488 0.5346555382
0.1824626933 0.7516276189 0.2875818706
0.1825478771 0.747948106 0.7856439555
0.1724506377 1.0028296714 0.0385149028
0.1624000641 0.9991698 0.7875383685
0.1824297309 0.5012295597 0.2862309671
0.2027075417 0.498033883 0.7760478189
0.1924436384 0.4990768482 0.5317435496
0.1925888212 0.7491200505 0.0275673071
0.2023382886 0.7476403887 0.2794773758
0.1926836344 0.7494146734 0.5323870574
0.2025279151 0.7471820864 0.7786107392
0.2326874134 0.498685327 0.0249911463
0.232447047 0.751594883 0.0233266369
0.2325381566 0.7464488026 0.5270630719
0.212538119 0.7462785761 0.0226919253
0.2225861 0.7501675987 0.2729728543
0.2126847832 0.7475290867 0.5202233709
0.2325596377 0.4992097558 0.5219992673
0.2224872127 0.7478106153 0.7734811949
0.2226805428 0.4988169253 0.7736098965
0.2124696016 0.502429657 0.0263350128
0.222594248 0.4979612094 0.2763950196
0.2125414522 0.4987606196 0.5257519826
0.2525652309 0.7468743691 0.0190271714
0.2425039168 0.7469529352 0.2694729126
0.2527000434 0.7504753159 0.5233094307
0.2425242868 0.7508223163 0.7731997181
0.2424876207 0.4963250701 0.7729849069
0.2425698416 0.5002972418 0.2726923035
0.2626539519 0.4981687548 0.7661137249
0.2525415276 0.4998389395 0.5188687638
0.2625902493 0.752040091 0.2643767011
0.2624902509 0.7515621472 0.7637156166
0.2625465463 0.4986833629 0.2668099939
0.2723411982 0.9976639495 1.0161299361
0.2726115641 0.4978688942 0.5122985027
0.2827013962 0.4998166791 0.2615480444
0.2828888005 0.4998114413 0.7619776826
0.2827325068 0.748059408 0.2633619031
0.2826388047 0.7484915216 0.7618036114
0.2726000828 0.746461897 1.0111763148
0.272603416 0.7477909737 0.5128910855
0.2826336196 0.9971991 0.2595712254
0.3124931228 1.0002304425 0.5051680658
0.2924660486 0.7498598814 1.0084078424
0.3025918061 0.7499253531 0.2576990344
0.2924830853 0.7476993133 0.5113114821
0.3025562511 0.7496569189 0.7518287773
0.3126216392 0.7504294857 1.002482015
0.3126871937 0.7482492761 0.5062754548
0.3125412702 0.4988928725 0.5012199833
0.3026262499 0.4990009009 0.7562527778
0.292687156 0.4986093798 1.009250421
0.3024858819 0.9987049505 0.2571981168
0.3322816825 0.4989465594 0.4965061728
0.3225481408 0.4971323369 0.7465983088
0.3326164918 0.7484260498 1.000102425
0.3322772382 0.5020918228 0.9982691222
0.3225007341 0.7472541053 0.2456029393
0.3325690852 0.7529959787 0.5020699692
0.3225899919 0.7508681465 0.7493843735
0.3224681421 0.5024872722 0.2509278507
0.3523891258 0.5013919296 0.4950932334
0.3524680134 1.0021225764 0.4966006157
0.3625000687 0.7485766349 0.2402789538
0.3624074777 0.7501021269 0.7385021472
0.3525717154 0.7469332937 0.9940562293
0.3624334032 0.4979251999 0.7378253066
0.3423981809 0.7496896548 0.2457177522
0.3624296995 0.498574025 0.239945626
0.3523635707 0.7501937874 0.4933756694
0.3423889218 0.7500170136 0.7480399515
0.3624371068 0.9982531953 0.7417483895
0.3424144769 0.4992542766 0.74737237
0.3524417175 0.5014488901 0.9927321772
0.3425259566 0.4975651052 0.2431955719
0.3724443478 0.5010246331 0.9882137339
0.3823627013 0.500398723 0.2395530399
0.3723406458 0.4992149936 0.4853202478
0.3924254968 0.4956958864 0.9866119087
0.3823886268 0.4997479337 0.7381864117
0.3722591657 0.7511693166 0.9836212177
0.3823627013 0.7497092963 0.2301856032
0.3725406424 0.7488319747 0.4843063758
0.3823219612 0.9982270066 0.2400039584
0.3824367741 0.7516865435 0.7338114845
0.3924588296 0.7491527864 0.9848156423
0.3925291988 0.7475225395 0.4833776875
0.3925217915 0.5010842124 0.4833721321
0.4024734778 0.4995063429 0.7261884631
0.402451256 0.7460756136 0.2307902227
0.4025882907 0.7506979199 0.7310800484
0.4123214622 0.7484653329 0.9811490366
0.4125214588 0.7473785016 0.4775685249
0.4222398157 0.9953004189 0.7236375796
0.4423876287 0.9971794584 0.219663556
0.4324248314 0.9977687043 0.4725065721
0.4424505906 0.9978472704 0.7187756235
0.4222398157 0.4957188016 0.7272597416
0.4325692735 0.7470904259 0.9664363184
0.422547218 0.745460179 0.2271458389
0.432439646 0.7499253531 0.4702945718
0.4225509216 0.7521841289 0.7247986714
0.4424691088 0.7495587113 0.2197191106
0.4424542942 0.7507241086 0.7137210779
0.4224620342 0.9974675342 0.2252958697
0.4724537952 0.753081092 0.9597049489
0.4624761834 0.7520793741 0.2126395987
0.4726056445 0.7520728269 0.4624613688
0.4624354433 0.7486290123 0.7111664908
0.4525504226 1.0006625561 0.4711630759
0.472579719 1.001251802 0.4577160774
0.4726130518 0.5027478498 0.9596771716
0.4625354417 0.5003168833 0.2105322264
0.4628687694 0.9988293468 0.21465438
0.4625095162 0.9993858568 0.7128479443
0.4524948679 0.7491789751 0.9606956731
0.4525985699 0.7503378252 0.4653909497
0.452483757 0.5009958255 0.4675899872
0.4825277017 0.9996281023 0.7062869423
0.492571979 1.0004464993 0.4520624677
0.492571979 1.0006298202 0.9518902641
0.4925127208 0.7518698644 0.4527226419
0.492520128 0.7527864691 0.9530754295
0.482535109 0.7511758638 0.2100526047
0.4825165907 0.7505342405 0.7055638062
0.4925460535 0.498307555 0.9564457438
0.4924201297 0.4996431789 0.4538133645
0.4824684434 0.5016479242 0.7059989842
0.5123753533 0.9995560834 0.447061625
0.5224233343 1.001736293 0.6919149592
0.5024607034 0.9989799319 0.2004796158
0.5224196306 0.750665184 0.6991546536
0.5027310693 0.7509467126 0.1972592991
0.5025829236 0.7505800707 0.7022953421
0.5126790519 0.7466648594 0.9457514773
0.5123938715 0.4981131038 0.9449551942
0.5024421852 0.4990905972 0.2023656956
0.5124383152 0.7504425801 0.4450903615
0.5224974071 0.7487926917 0.1931352936
0.5526450538 0.998724592 0.4384876935
0.5424341125 0.5018993358 0.6875511429
0.54256374 0.7462196515 0.1963824618
0.5524672789 0.4961181793 0.4398117456
0.5525339445 0.7495587113 0.4356155191
0.5425229999 0.7498598814 0.6893659275
0.5326157573 0.7488843521 0.9428348591
0.532463908 0.9976639495 0.9446774211
0.5425081854 0.4984738533 0.1919954977
0.5525228336 0.4987861536 0.9346035146
0.5324083534 0.7510842033 0.4406987679
0.5425489254 0.9980960631 0.1900483079
0.5724225025 0.5015451336 0.9340016727
0.5623856325 0.9998834422 0.6850761841
0.5524932044 0.7514639395 0.9371127321
0.5625078527 0.7504425801 0.1857715272
0.5624300762 0.7504949575 0.6859826505
0.5725928701 0.7503378252 0.9345201826
0.5724225025 0.4994231938 0.4325905694
0.5724150953 0.7509336183 0.4352757099
0.6024775581 0.5034896449 0.1808401277
0.6025442237 0.9997983289 0.1829410187
0.6026997766 1.0017493873 0.6826030771
0.5926443884 0.7508354106 0.9331590942
0.5926517956 1.00255469 0.4308202285
0.5926147592 1.0009113488 0.9360016395
0.6024627435 0.7490611259 0.1788688642
0.5924962427 0.750887788 0.4312794801
0.6026071856 0.7467565199 0.6840169424
0.5824630763 1.0017886704 0.1811845665
0.5825038163 1.0009244432 0.6828512211
0.5827223312 0.4969300291 0.6798151605
0.5825964074 0.7482034458 0.1811216045
0.5825408527 0.7514181093 0.6822401201
0.6126810921 0.7489825598 0.9287702783
0.6127070176 1.0000667631 0.4342636897
0.612547761 0.7484064083 0.4278980549
0.622543891 0.9989275544 0.679147579
0.6226216675 0.7477582379 0.1812734539
0.6225772238 0.746350595 0.6804651497
0.6226698148 1.0008720657 0.1785281292
0.6423843017 1.0000340272 0.6792207259
0.6425435583 1.0009833677 0.1774938871
0.6524396899 1.0004006691 0.4341099886
0.6524841337 1.0024695767 0.9344275916
0.6325955756 0.9950647206 0.4298933921
0.632632612 1.0013500096 0.9289091649
0.6323548389 0.5020846209 0.4298878366
0.6324918736 0.7544690933 0.9290758288
0.6325659465 0.7492837299 0.4315563274
0.6525545029 0.7514639395 0.9376405011
0.6425398546 0.7518436757 0.1811817887
0.6525507992 0.7510252787 0.4356108896
0.6424546709 0.7505997123 0.6854863624
0.6725134301 0.7489498239 0.9399830547
0.6625765584 1.0004661408 0.1834308254
0.6725615774 1.0010161036 0.9376219829
0.6826428912 0.7507175614 0.1922084571
0.6725615774 0.751071109 0.4406311764
0.6825391892 0.7504491272 0.6954945293
0.6627432222 0.7502461648 0.1903362661
0.6625580401 0.7502461648 0.6883853883
0.6723763953 1.0007411222 0.441804305
0.7024129327 0.500976184 0.2024295834
0.6924575428 1.0018279535 0.4505560113
0.6924353209 0.9991828943 0.9494458603
0.6925130974 0.75099909 0.9485014315
0.7022425652 0.7485569933 0.2030480916
0.6924168027 0.752151393 0.4505050862
0.702472191 0.7475356339 0.7025916334
0.7124757283 0.5029586689 0.4554383375
0.7123349899 0.7513722791 0.4544679833
0.7224422291 0.9994185927 0.7113637097
0.732460581 0.999654291 0.9583438604
0.7325902085 0.7528322993 0.9637048823
0.7224274146 0.7518633173 0.2108035182
0.7325568757 0.7510449203 0.4626891428
0.7224903765 0.7490545787 0.7091498577
0.7224866728 0.9990715923 0.2088720688
0.7323902118 1.0048200129 0.4649437349
0.7125535047 0.7483016535 0.9536031985
0.7125238756 1.0007411222 0.4588382809
0.7125868375 1.0000209329 0.9539180081
0.7422270852 0.500252721 0.219549669
0.7424159709 0.7509532598 0.2139006889
0.7425418948 0.7528650352 0.7157608588
0.7525861721 0.7533757149 0.9685844308
0.7624341564 1.0004923295 0.7203376345
0.7524083973 1.001736293 0.9682696212
0.7626082276 0.7530287146 0.2238662638
0.7524121009 0.7512937129 0.4675149884
0.7624526747 0.7516276189 0.7169108397
0.7524343228 1.0006691033 0.4671427724
0.7424344892 1.0002697255 0.2117822056
0.7625637839 1.0026005202 0.2213366763
0.7824745638 1.0038379365 0.2299254223
0.7725376921 0.9999030837 0.4740565463
0.7825301184 1.0020767462 0.72800047
0.772496952 1.0015005947 0.9746028492
0.7825523403 0.7512478827 0.2284560023
0.7724747302 0.7507699389 0.4735648878
0.782452342 0.7519353362 0.7310550488
0.7724932484 0.749846787 0.9749639543
0.7723562136 0.5035446411 0.4749065322
0.7723080663 0.5041613851 0.976167638
0.7923151409 0.7513591847 0.9811675548
0.8124888793 0.7505800707 0.9932784644
0.7924595829 0.4987979385 0.9833804809
0.8125999886 0.502047302 0.9925006996
0.8023149745 0.7515883359 0.2399465519
0.8126999869 0.7519746193 0.4895442516
0.802496453 0.7485177103 0.7386419597
0.7923669918 0.7512544299 0.4859470892
0.7924151392 1.000361386 0.4835239814
0.7923743991 0.9981484405 0.9859174758
0.8023853437 1.0030653697 0.2374428898
0.802433491 1.002109482 0.7353623846
0.8125629522 1.0016315382 0.9934636465
0.8223590855 1.0004857824 0.7413835807
0.8225516749 1.0020112744 0.2469742128
0.8325144721 0.752000808 0.9991672554
0.822540564 0.5013572296 0.7493204857
0.8226294514 0.7531203751 0.250386193
0.8325033612 0.7511300335 0.5002792582
0.8223590855 0.7514050149 0.7472649644
0.8423735674 0.7529566957 0.2498510168
0.8424957876 0.7502789006 0.7557666748
0.862525084 0.5046668271 0.7624934147
0.8422587545 0.9978407232 0.7529157963
0.8623880492 1.0035695023 0.2620924798
0.8625398986 1.0040932764 0.7581842272
0.8523771047 1.0035760495 0.0083555897
0.8625732313 0.7540435269 0.7606202977
0.8523289573 0.5039243774 0.5071772916
0.8524659921 0.7547833578 0.0067038579
0.8524696957 0.5032421616 0.0078084691
0.8624954549 0.5011333162 0.2613600846
0.8625621204 0.7535263 0.2590045682
0.8525511758 0.7543512442 0.5023042245
0.8524585848 1.0010619339 0.5037551263
0.882361791 1.002816577 0.773542305
0.8924394012 1.0046956166 0.0235466333
0.8825432695 0.7536506963 0.7693192271
0.8725249176 0.7554380754 0.0145338202
0.8924023648 0.7524198272 0.0233181185
0.8825284549 0.5047133121 0.7716330775
0.8827358589 0.5047958065 0.268868293
0.8823691983 0.7527209973 0.2696266137
0.8724434375 0.7550976223 0.5168169461
0.8923764393 0.7520924684 0.5236714617
0.8725286213 0.5010390368 0.0171303511
0.8825284549 1.0017297458 0.2689608841
0.9024910858 1.0007804053 0.7736895248
0.9125538814 0.7512806186 0.5308593051
0.9025688623 1.0018541422 0.2768857522
0.9025984914 0.7528977711 0.7805551513