POSCAR file written by Ovito 3.7.11
1
270.0238281834 0.0 0.0
0.0 15.2748543992 0.0
0.0 0.0 10.8009531273
Sr Ti O 
800 800 2400 
Direct
0.0227190137 0.5010874081 0.8058615291
0.0126896766 0.5021996936 0.0557390256
0.0125594659 0.2525560702 0.5511441937
0.0226624262 0.2491832066 0.8071373424
0.0024730598 0.2510182486 0.8024007234
0.0124845466 0.2527138458 0.0551139881
0.0024992426 9.5733806931e-04 0.3033910585
0.02246811 0.5023430665 0.3059537953
0.0125616879 -0.0019409547 0.5550781058
0.002506168 0.0031940861 0.8010545459
0.0126600126 0.0025841948 0.0530445411
0.0227063852 0.2509763497 0.3104987646
0.0026106032 0.2532690066 0.3082128552
0.0427903535 0.4991214319 0.3064231984
0.0325579232 0.2516473872 0.5550669957
0.0424759368 0.2502116943 0.8065003616
0.0526061539 0.4991600575 0.046884807
0.0324127508 0.2501553926 0.0526898502
0.032514964 -0.0013061205 0.5565798251
0.0323409053 0.0014478828 0.0547881836
0.0424877876 0.251715473 0.29798598
0.0524772764 0.2508846958 0.5520913323
0.052526161 0.2516434592 0.0555787619
0.062536759 0.2502909095 0.3020772856
0.0625486098 0.5016242381 0.7991510102
0.0624478779 0.5027699118 0.2985072303
0.0724007033 0.5003011485 0.5501118774
0.0724221829 0.2468309747 0.5513099198
0.0625726817 0.250864401 0.8016683806
0.0723658915 0.2509763497 0.0538965956
0.0624704685 0.0017976734 0.3009986771
0.0624971329 0.0018945647 0.798736232
0.0923415361 0.2515891215 0.5429208454
0.1025169343 0.2456401286 0.7945625262
0.0824775918 0.2492192135 0.8013647037
0.092368941 0.2503982755 0.0441539369
0.1025435987 -7.7027250623e-04 0.2886025489
0.0824161157 6.3890622879e-04 0.2920513186
0.0824101903 0.002165402 0.791639636
0.0923374623 0.0019616684 0.0435186226
0.1024454592 0.2508578543 0.2973628868
0.0824972197 0.2513004117 0.2931178911
0.1023139893 0.5005584341 0.2960093026
0.0923893096 0.498713572 0.5416505871
0.1122857019 -0.0016467457 0.039193171
0.122361109 0.2510536009 0.2877507722
0.112556789 0.2500696308 0.5375833534
0.1223466658 0.5023535413 0.7876251755
0.1122882942 0.5010173583 0.0383263956
0.1223992538 0.2506568704 0.7878760793
0.1125416052 0.2496578429 0.0396599816
0.1125319764 0.4999181662 0.5408876915
0.1522784687 0.2505089148 0.5308607986
0.1323768917 0.2486843475 0.5335725963
0.1423848974 0.2520735779 0.7811924099
0.152387348 0.2509063 0.0306712379
0.1324665134 0.2503000749 0.0334584919
0.1423852677 0.2482575022 0.2826364087
0.1422467614 0.5002252067 0.7829635499
0.1523784599 0.4994978676 0.0294665294
0.1324713278 0.4990651302 0.0374052732
0.1324350347 0.4997211103 0.5357936966
0.1523469812 9.3900728902e-04 0.5291498385
0.1823869227 0.2513193972 0.7726487194
0.1824013658 0.2502005649 0.2725206348
0.1624146112 0.4978389319 0.7808720678
0.1623479504 0.4987417229 0.2785117727
0.17234929 0.2502725787 0.5286072938
0.1824917282 0.5009820061 0.772663533
0.1623972053 0.2477376936 0.7728588861
0.1723841017 0.2480859785 0.0275028138
0.1622953624 -0.001998042 0.2764850997
0.172318552 -0.0045050381 0.5252150005
0.1823932184 0.0014250348 0.2769943141
0.1625275642 0.2514477126 0.2765175043
0.2024129331 0.2490018628 0.2672562846
0.1923178981 0.5003456661 0.0249004509
0.20243145 0.4990369794 0.2674821906
0.192372708 0.2505933673 0.522549495
0.20237664 0.2527550901 0.7685925959
0.1922990108 0.2465959479 0.02281582
0.1924030757 -6.0941990916e-04 0.5253881334
0.2024440414 0.0015362634 0.76979249
0.1923293785 -0.0021873728 0.0223181788
0.2023136826 0.0014122688 0.2722678793
0.212383905 0.2492277242 0.5177054781
0.2224626451 0.2492021921 0.7603970229
0.2123953854 0.2490483444 0.0192464128
0.2224026504 4.348320463e-05 0.2656351313
0.2122957646 8.5763171793e-04 0.5190118443
0.2225807828 0.0028765708 0.7637346913
0.2123846456 0.0020590834 0.0158433798
0.2321684552 -6.2310252731e-04 0.5090506863
0.2225222695 0.2528945349 0.2645907791
0.2324384314 0.2484539034 0.5099404226
0.2325850851 0.2485363919 0.009219057
0.2323725113 1.1497324777e-04 1.0140098261
0.252589616 0.2503190603 0.507347133
0.2425260597 0.2495072686 0.7626496019
0.2625809564 0.249297774 0.2610809036
0.2525066603 0.2468362121 1.0084455024
0.2423390391 2.005387115e-04 0.2611253442
0.2524818477 0.4975384381 1.0096028076
0.2524151869 -0.0012432721 0.507644329
0.242608645 0.2477291829 0.2598411982
0.2625131846 0.250490584 0.755850202
0.2423201519 -5.5305275976e-04 0.7589138205
0.262344681 -0.0023814826 0.2567303617
0.2524018548 -0.004715842 1.0081307153
0.2625194804 -0.0032006721 0.7558455727
0.2724645286 0.2485913843 0.5098339506
0.2725608164 0.2484493207 1.0083251426
0.2725300784 -0.0025520898 0.5077230257
0.2723786103 0.4991031011 1.0054828009
0.2825140121 0.2490804233 0.7545216155
0.2824580911 -0.0021465868 0.7547021551
0.2825725255 0.2484519394 0.2566886987
0.3022859709 0.250758999 0.251516007
0.3124321125 0.2527361046 0.4990960093
0.3123965601 0.2514018857 0.9991963186
0.2924249893 0.4974736257 0.5055982133
0.3124609988 -0.002299125 1.0010942993
0.2925749761 0.2476650252 0.5056417279
0.2925349796 -1.3014878915e-05 0.5087738589
0.3025563174 0.2495393475 0.7560409259
0.3023404105 0.4980837788 0.2485542314
0.2923609209 0.249190408 1.0041218099
0.3123765618 0.4982042382 0.9974372146
0.2923246278 -0.0023348046 1.0064827126
0.3025233573 -0.0052734382 0.7531948807
0.3224386368 0.2489167556 0.2439611182
0.3325433006 0.2520146575 0.4915059384
0.3224090098 0.2499589914 0.7487406442
0.3323970172 0.2517501705 0.9921969364
0.3225612186 9.4679787064e-04 0.2455128331
0.3324247925 0.0020563993 0.490266233
0.3225519601 -9.7983260523e-04 0.7490656155
0.3324462721 -3.6385292031e-04 0.9937153209
0.362458068 0.2494516216 0.2296605284
0.352506724 8.546202326e-04 0.9868362983
0.3525796805 0.2497128352 0.4859073584
0.3425057547 0.2481416255 0.7417625563
0.3524445072 0.2519033635 0.980799794
0.3424379829 9.9799312132e-04 0.2414381927
0.3424539074 -0.0026461005 0.7401858436
0.3424861268 0.2508781491 0.2346369411
0.3624802882 0.2465841638 0.7322874666
0.3625099152 -0.0048898797 0.23142241
0.3723942281 0.249949826 0.4741389526
0.3824637098 0.2443327512 0.7257963728
0.3725793969 0.2493743705 0.9768371808
0.382248914 -0.0043735802 0.7279628483
0.382504447 0.2446581226 0.2266302403
0.3925220814 -4.1877979412e-04 0.4731473734
0.3924961578 -0.0025008946 0.9747540313
0.3724164484 -1.2908799841e-04 0.4850722469
0.372412745 -0.0023230205 0.9825311227
0.3924739375 0.2467458675 0.4723779969
0.39239987 0.2481442442 0.9721153753
0.4122833004 -5.8009066069e-04 0.4703985419
0.402473055 0.2499007257 0.7201403905
0.4024952753 -0.0043170821 0.2236342084
0.402443428 6.6476572242e-04 0.7239604237
0.4023804706 0.4986448316 0.2191253471
0.402413801 0.247196281 0.2226398517
0.4123351477 0.2482188766 0.4689357081
0.4124684692 0.250425117 0.9701525855
0.4124832827 7.5406280927e-04 0.9734300741
0.4124129186 0.4988608729 0.966958423
0.4124721726 0.4974500575 0.4671840108
0.42217502 0.2495334554 0.2149590481
0.4424287881 0.2499098911 0.7121846111
0.4322259848 0.5004405934 0.9619403473
0.4324333739 0.4989178293 0.4615706173
0.4425176692 0.2470188652 0.2070403025
0.4224416631 0.5030016653 0.2159682183
0.4423658307 0.4986454863 0.710188491
0.4324592976 0.248381235 0.4642333453
0.4223009348 0.2487576706 0.7121151728
0.4324259672 0.2513390373 0.965597432
0.4423102801 0.497143017 0.2094854571
0.4322519085 0.0026975838 0.9641994072
0.4525056766 -0.0019020673 0.9620607071
0.4723261496 0.2498823949 0.4561794264
0.4623418456 0.247788758 0.7065767727
0.4724631745 0.2525534515 0.9552372352
0.4623899895 0.2476231263 0.2083383361
0.4524464226 0.4994029403 0.9593294666
0.4624122097 0.498928304 0.7069322969
0.4723742935 0.4984975307 0.4543749561
0.4521649659 0.2505409937 0.463385272
0.4523353212 0.2493134861 0.9596998043
0.4723520732 6.7871020886e-04 0.9536447831
0.4824067414 0.0016224181 0.2030036217
0.4824548853 0.251291901 0.7061712529
0.4823882246 0.2487406492 0.2067551425
0.4924725198 0.2503616139 0.4485171397
0.4924502995 0.2520820886 0.9470064801
0.482510436 0.5002874004 0.2019453818
0.5025197812 9.8306662879e-04 0.6973655486
0.502271655 0.2499203658 0.1942488388
0.5124448312 0.0017916504 0.9475434697
0.5225994906 0.0032770983 0.1944701155
0.5023864597 0.498980023 0.6982913928
0.5025012643 0.248544248 0.6987700542
0.5224550589 0.5017525535 0.6925909699
0.5124744583 0.2489383598 0.445722016
0.5224402454 0.2537600096 0.1962699567
0.5124707549 0.2507740565 0.9464972658
0.5225365332 0.2528762042 0.693898262
0.5123892806 0.4994873928 0.4462173427
0.5223328475 0.4974009572 0.1977087186
0.5525561061 0.2512257793 0.4401299169
0.5526005467 0.001906807 0.9393219731
0.5325986082 0.5003463208 0.9399052549
0.5325393541 0.0050253965 0.443213904
0.5325763879 0.4991914817 0.4433592616
0.5325134305 0.2489671653 0.443463882
0.53246899 0.2508061353 0.9427475967
0.5424681075 0.0017056267 0.6909392638
0.5426569798 0.2501508099 0.1921249521
0.5424977346 0.2521960013 0.6943547032
0.5523746407 0.2470182105 0.93821096
0.5626144777 0.5019895443 0.6939658486
0.562440419 0.5010703866 0.1940840385
0.562577444 -0.0011055294 0.187989206
0.5626441047 0.2500486813 0.1938294313
0.5625033764 0.2491105382 0.6921465647
0.5726432223 -5.8820857768e-04 0.436694109
0.5725432311 -0.0012153831 0.9434327214
0.5725691547 0.2494882832 0.4392827695
0.5724321298 0.250112839 0.9377758132
0.5926303473 0.5020248966 0.9436271487
0.5824979081 0.2509167747 0.6910327741
0.6025072534 0.2490503084 0.1934266891
0.5928266262 0.2505017134 0.4397197679
0.602444296 0.2537109093 0.6948065151
0.592548873 0.2519046728 0.9373221496
0.582457171 0.250168486 0.1882234446
0.6026627952 0.4984837826 0.691948434
0.5928155161 0.5001296248 0.4409242913
0.5824164338 0.4985649618 0.1917435043
0.6125730317 -3.4958109851e-04 0.9470527723
0.6125248878 0.4979790315 0.4458997781
0.6226128864 0.4995194717 0.1948256397
0.6226128864 0.2505036775 0.6973229597
0.6125248878 0.4973204327 0.9462750631
0.6224536412 0.5020753062 0.6963054569
0.6126952431 0.2517999255 0.441864949
0.6126396925 0.251236254 0.9438956435
0.6226314033 0.2503969661 0.1956922299
0.6324083182 0.5011031202 0.947173132
0.6423889189 0.249737058 0.1994039394
0.6524213668 0.2492336163 0.4487634143
0.6425926046 0.2494418015 0.7007013653
0.6525065445 0.2493632411 0.9522097246
0.6424259527 0.499033706 0.7050796826
0.6524435871 0.4986369756 0.9489600114
0.6425518675 0.5007489433 0.1989586083
0.6525583918 0.4972765698 0.4488939583
0.6325786736 0.2486673261 0.4437675589
0.6326601479 0.2492512924 0.9453769943
0.6626500938 -7.8467526218e-04 0.7045056592
0.6724381188 0.5005060605 0.4606993979
0.6822705844 0.4978075077 0.7058240613
0.6725529235 0.5003842917 0.9572278002
0.6825594478 0.4987816578 0.2118009935
0.6625278823 0.2514254538 0.2026656886
0.6624427047 0.2493861545 0.7018290435
0.6825890748 -0.0010318135 0.2094854571
0.6826075917 -0.0011744662 0.7078155522
0.6626056532 0.4997518798 0.7041510608
0.6624315945 0.5009139203 0.2048766045
0.6825853715 0.2484604501 0.2109973607
0.672449229 0.250866365 0.4581440679
0.6825335242 0.2506149715 0.7081895933
0.6725751438 0.248866346 0.9578388574
0.7022614128 0.2499157831 0.2176310345
0.692525235 0.2503629233 0.4639018931
0.7025317593 0.2517757027 0.7154213625
0.6926511498 0.2469128085 0.966875097
0.7024021411 0.499568572 0.717094363
0.7025576829 -0.0010595715 0.7119661119
0.7024243614 0.001014229 0.2170486785
0.692525235 0.4992549847 0.9616533356
0.6925030147 0.5021001837 0.4634176765
0.7125382836 0.2508277395 0.4680283807
0.7125568005 0.2504427931 0.9667825126
0.7224781471 0.4979390966 0.7204246247
0.7224040796 0.2501370619 0.2210733233
0.7325772559 0.2497684822 0.4767933479
0.7225929518 0.2502018743 0.7252593832
0.7324550444 0.502741761 0.9809942213
0.7225448079 0.4973492382 0.2248813206
0.732303206 0.5039463551 0.4823863729
0.7324661545 0.2500781415 0.9768186639
0.7124382924 0.498228461 0.9670047152
0.7624561004 0.5014913399 0.7401265896
0.7423023235 0.0019472002 0.7355288472
0.752468093 0.4992104671 0.9879010192
0.7625857186 0.4995024502 0.2350452384
0.7626968199 0.2510031912 0.2376079752
0.75249772 0.25113478 0.4867433958
0.7625449815 0.2523773451 0.7392442601
0.7525051268 0.2537082907 0.9844568787
0.742483789 0.4993125957 0.7322504328
0.7525903045 0.5029499463 0.4828354073
0.7424763822 0.2517940335 0.2348924741
0.7423282472 0.2479943246 0.7353955257
0.7825024795 0.5018677756 0.245329516
0.7824432254 0.501240601 0.7423476899
0.7825728436 0.2504447571 0.2449758435
0.7725070653 0.2517914148 0.4893218719
0.7825432166 0.2527347953 0.7447437747
0.7726366835 0.2497953237 -0.0112367599
0.7926349186 0.4980778868 0.5002190583
0.8124702051 0.5029204861 0.5021401851
0.8023896133 0.5000157121 0.7487711971
0.8024118335 0.502843235 0.2540398584
0.7925978848 0.2486699448 0.4984516217
0.7925756645 0.2500971269 0.9951040872
0.8126405604 0.0036920941 0.5009551045
0.80268218 0.2501711047 0.2501809397
0.8125961199 0.2497717556 0.5063185201
0.8026414429 0.2500578467 0.748438819
0.81260723 0.2505318283 1.0066030724
0.8324832537 0.0016596034 0.5103987155
0.8226137543 0.2530778427 0.2555508361
0.8325832449 3.4672668433e-04 1.0111119337
0.8327350833 0.2495668436 0.5084711079
0.8228433637 0.2501756874 0.7540411024
0.8326795327 0.4997342037 0.5108421949
0.832398076 0.5002271707 1.0148986366
0.8327017529 0.252632012 0.0125203397
0.8227655928 0.5048517647 0.2570479262
0.8426008793 0.5001394449 0.7620459515
0.8425971759 0.500697879 0.2633816265
0.8427342009 0.0010504977 0.262980736
0.8426749469 0.25124411 0.2645296733
0.8425971759 0.249029359 0.7650179114
0.8623732084 0.2496486775 0.2706124699
0.8525888867 0.2546058442 0.5162519027
0.8625917077 0.2506156262 0.7718265698
0.8524703787 0.2509586736 0.0216336095
0.8725204611 7.3467123824e-05 0.5271463116
0.8826195698 0.252144937 0.2798496176
0.8726019354 0.2494640603 0.5234586741
0.8926520177 0.2483439187 0.5297164551
0.8826603069 0.2505370657 0.7801767588
0.8925186962 0.4997112902 0.0301490617
0.8726352657 0.2486830382 0.025862403
0.8926112806 0.2510071192 0.0268063938
0.8926186873 8.7484955799e-04 0.5303488067
0.8725056476 -0.0027793915 0.0298070549
0.8725278678 0.4954873547 0.5260278918
0.8924964759 0.4978160185 0.5265833983
0.9126502528 2.4322324275e-04 0.5327430399
0.9027770501 0.2462227856 0.278664537
0.9125576684 -0.0019797767 0.0322197123
0.9127465406 0.2485782909 0.5346669442
0.9025918813 0.247371078 0.7806489393
0.9126391427 0.5003188246 0.5315644402
0.9025215171 0.5013617151 0.7825284031
0.912661363 0.2481815604 0.0293858883
0.9126687697 0.5016458422 0.0313193288
0.9027103893 0.4990546555 0.280715282
0.9426550123 0.2515819201 0.7896601811
0.9325929373 0.2504067862 0.0381039153
0.93254109 0.4995063783 0.5364260482
0.9325559035 0.4985787099 0.0350068738
0.9225827096 0.5017191653 0.7848152383
0.9226234468 0.4987482696 0.285071379
0.9428031473 0.5017394601 0.7876446182
0.9226641839 0.2501900902 0.2835455877
0.9225382691 0.2483007105 0.7825367357
0.9425994616 0.2502280611 0.2935002648
0.932600344 0.2499570274 0.5354742803
0.972830127 0.0026768962 0.5452835998
0.9627236115 -2.3882412946e-05 0.7937190822
0.9625384427 0.2485200252 0.2958472799
0.952557842 -5.1207037239e-04 0.0438079489
0.9727042122 -3.9540804924e-04 0.0497152979
0.9526541298 0.2488944968 0.5412043302
0.972544967 0.2537783404 0.5465075659
0.9627050946 0.2511910817 0.7926099208
0.9526133927 0.2499033444 0.0400440218
0.9725116366 0.2491111928 0.0467486153
0.9726819919 0.5002671057 0.5440624113
0.9528059683 0.0016916168 0.5480250245
0.9627050946 -0.0020572897 0.290532934
0.9527133838 0.4990160299 0.5418218683
0.9626347305 0.5010481278 0.7943930967
0.9825996352 0.2507891139 0.3022809713
0.982470017 -0.0010604226 0.7980807343
0.9926394899 0.0020764322 0.0540030677
0.9926246764 0.2516205457 0.5542216999
0.9825181609 0.2525593435 0.8017526324
0.9924172873 0.2509914071 0.0535574588
0.992680227 0.5027188475 0.0491471999
0.0224697024 0.7514655721 0.8038265235
0.0027413324 0.5008379785 0.3035114183
0.0025729769 0.7508501816 0.8041163127
0.0125713908 0.5014789012 0.5553354905
0.0027532943 0.5037296591 0.8009554806
0.0225465105 0.9998149115 0.301902301
0.022378266 1.0017330967 0.7995852311
0.0126257564 0.7534164908 0.0531263858
0.0224632215 0.7511447834 0.3075166204
0.0025662367 0.749030197 0.3035373419
0.0125169882 0.7496063072 0.5568640593
0.0525420855 1.0024859681 0.5529384798
0.0524794984 1.0043779665 0.0579749394
0.0323794205 0.7498092552 0.0518562201
0.0425644475 0.754241376 0.3028799925
0.0325057056 0.7495212 0.5545975926
0.0426144431 0.749409906 0.8051004851
0.0426662904 0.5006350306 0.8007971612
0.0327164277 0.4999096554 0.0574659102
0.0324064551 0.5008360145 0.5553762276
0.0423352085 1.0020276986 0.3028503655
0.0525157915 0.5002468109 0.5505229522
0.0523369184 0.7509352888 0.0534377472
0.0524246884 0.7537241861 0.5514580549
0.0423944625 1.0002600876 0.802949749
0.0723877415 0.500377745 0.0530936109
0.0724592166 1.0033239466 0.5472426862
0.0722862689 1.0004499421 0.0473536545
0.0723258951 0.7495932138 0.0441531962
0.0624286204 0.7485326472 0.3016625074
0.0724395887 0.7499532827 0.5445132974
0.0624152882 0.752964768 0.8016637514
0.0924167146 0.9993304552 0.5437837322
0.0925326303 0.7482380454 0.0412715987
0.1025354512 0.9964106237 0.7906989783
0.10234769 0.7481267514 0.2893404467
0.0825346238 0.7543330299 0.2961685478
0.1024069441 0.5002527029 0.7915701977
0.0925741081 0.7485981143 0.5461224147
0.1024065737 0.7509352888 0.7898999748
0.0824435207 0.5016844678 0.795306905
0.0824246335 0.748650488 0.7927330581
0.092390791 0.4988431968 0.0446263026
0.0824516681 0.5013080321 0.2946983072
0.1124564275 0.7497045078 0.0398124682
0.122224084 0.7483493394 0.28678882
0.1122927383 0.7490236503 0.5363408705
0.1224370282 0.7474458938 0.788674157
0.1224351765 0.9992977216 0.2840501728
0.122389625 0.9996512438 0.7856012801
0.1225281313 0.4987338668 0.2853204311
0.1124112463 1.0015301488 0.5417903896
0.1423852677 0.7483166059 0.2842862631
0.1523032813 0.7499336426 0.5315727728
0.1323231928 0.7482053119 0.5360668206
0.1424685937 0.7498550821 0.7826922775
0.1523762378 0.5009178484 0.5306524836
0.1323139343 1.0010195057 0.0318528928
0.1424267455 0.4989708576 0.2822086687
0.14246452 0.9996774307 0.2825947457
0.1323942976 1.0007510907 0.5347299016
0.1424530395 0.9983026221 0.7818071704
0.1523451295 0.9983680892 0.0310157445
0.1523921624 0.7494753731 0.0282092329
0.1323961493 0.7474131603 0.0357777317
0.1722252269 0.747733949 0.0259231384
0.1625386743 0.7489254497 0.2748333936
0.1723259587 0.7504573792 0.5256251495
0.1623731334 0.7489712766 0.7735282715
0.1824228454 0.9990162132 0.7698693351
0.1721663432 0.4985374656 0.0227407341
0.1723570671 0.5013983767 0.5259167905
0.1822513791 0.7499074558 0.2749426433
0.1823747015 0.7502806181 0.7741059982
0.172269297 0.9987477982 0.0241157053
0.1622449965 0.9991275073 0.7783954345
0.1822432316 0.4998075268 0.2747084047
0.2021992482 0.4972654404 0.7698776677
0.1924104825 0.5017852871 0.5199552795
0.1925875039 0.7493837192 0.0239194263
0.2023659002 0.7503984588 0.2733381552
0.1924712179 0.7525261387 0.5234873752
0.2025029251 0.7498158019 0.77113589
0.232459911 0.4994867382 0.0113017436
0.2323654749 0.7507585277 0.0137974492
0.2324673177 0.7481856718 0.5127920228
0.2123961261 0.7504115522 0.0178277417
0.2224400545 0.7531939028 0.2677182808
0.2124164947 0.7528600207 0.5204413478
0.2323002954 0.4993348545 0.5126022248
0.2224870874 0.74791071 0.7655734179
0.222279328 0.5000451723 0.7636032214
0.2124313082 0.5000445176 0.0168127387
0.2224256114 0.4988301034 0.2643963518
0.2124450107 0.5002461562 0.5183378297
0.2524603681 0.7493509856 0.0080903603
0.2424086626 0.7484671802 0.2630335091
0.2522707552 0.7471381986 0.506615716
0.2423160782 0.7493640791 0.7577426275
0.2425027284 0.4988674196 0.7605831176
0.242387183 0.4976019411 0.2583635509
0.2625298498 0.4970173202 0.7561742474
0.2525744321 0.5018586102 0.5110245862
0.2623520877 0.7478190561 0.2581959731
0.262405046 0.7461627392 0.7578592839
0.262432451 0.4994998316 0.2572914233
0.2724449007 0.995913074 1.009630583
0.2724308279 0.4995810107 0.509189563
0.2823695804 0.4983495751 0.2553841842
0.2824125396 0.4984864013 0.7559001975
0.2823621737 0.7500907636 0.2520307764
0.2825469722 0.7513935583 0.7558076131
0.2724556405 0.7509483822 1.0034922358
0.2724497151 0.7461365524 0.5079878172
0.2824617945 0.9970194675 0.2542074362
0.3125354367 0.9979163664 0.5052325048
0.2924146198 0.7461365524 1.0023997396
0.3023778146 0.748382073 0.2486144112
0.2924879467 0.7504050055 0.5043223999
0.3025052108 0.7490498371 0.7525116077
0.3125524722 0.7502806181 0.9953633236
0.3124784047 0.7488076089 0.495710197
0.3124580361 0.4964248432 0.498562723
0.3025100252 0.5023240811 0.7494970589
0.292256856 0.4983410644 1.002742302
0.3024096637 0.9997952714 0.2543111307
0.3326344037 0.5010461638 0.4848268982
0.3224719672 0.502745689 0.7492026405
0.3324007206 0.7474720807 0.9919747337
0.3326240342 0.4979273125 0.9936042196
0.3226412115 0.7512364373 0.2515521149
0.3325725573 0.7483558861 0.4910930119
0.3224134538 0.7491153042 0.7444502821
0.3225515898 0.4997826493 0.2490486322
0.3522760036 0.5018736676 0.4871655807
0.3525607933 1.0012028135 0.4861471521
0.3622877126 0.7488992628 0.2313474166
0.3625247287 0.7499794695 0.7300145191
0.3525337586 0.7482642322 0.9827625838
0.3624247376 0.5001466462 0.7293747607
0.3423509536 0.7489254497 0.2365349217
0.3624951017 0.4998206202 0.2346758265
0.3523189628 0.7496586809 0.4835353455
0.3424602032 0.747308413 0.7373684997
0.3624395511 0.9976479514 0.7357778993
0.3424979776 0.5022415926 0.7377092104
0.3525822729 0.4983489204 0.9817904473
0.3426394466 0.5014723545 0.2341990168
0.3724645923 0.4973525116 0.9769390236
0.382397049 0.4989551455 0.2236351342
0.3723720078 0.4981832887 0.4783635797
0.3923517261 0.500222588 0.9714302505
0.3824748199 0.4968392497 0.7258334066
0.3724868125 0.7478517897 0.9796980394
0.3824118625 0.7506210468 0.2278366153
0.3725460666 0.7506537804 0.4791431406
0.3824488963 0.9967903328 0.2278653165
0.3826118449 0.7492200515 0.7332586772
0.3924813443 0.7490040102 0.9746984806
0.3922702518 0.7497961617 0.473280695
0.3923258024 0.4964084764 0.4761230367
0.4023397335 0.4975384381 0.7197432033
0.4024397247 0.7488861694 0.2220445339
0.4023286234 0.7485130071 0.7203857392
0.4124277321 0.7503395384 0.9723931285
0.412505503 0.7467846764 0.4693236368
0.4225601712 1.0016807231 0.7211467831
0.4423510172 0.9987608917 0.2085790556
0.432522255 0.9968688933 0.469215313
0.442476932 1.0000833265 0.7123049709
0.422489807 0.4961570828 0.7162879527
0.4324889246 0.7501562306 0.9581073523
0.4223638922 0.7493509856 0.2197586245
0.4324333739 0.7496652276 0.4653184347
0.4223268585 0.7494360928 0.7133150669
0.4424213814 0.7484409933 0.210192802
0.4424880421 0.7475702813 0.7134965324
0.4224861037 1.0008165577 0.2204965223
0.4723817002 0.7497961617 0.9593202082
0.4625122009 0.7474393471 0.212481489
0.472418734 0.7497110545 0.4590671346
0.4623233287 0.7476815753 0.7101958977
0.4522797706 0.9985448503 0.4575941164
0.4722631922 0.9989049192 0.4546999274
0.4724631745 0.5017623736 0.9563482482
0.4624196165 0.5016242381 0.2032887817
0.4624196165 1.0032781197 0.2089836495
0.4623196253 1.0017985638 0.7081395977
0.4524723462 0.7484082598 0.9585147237
0.4523908719 0.7513280912 0.4640657675
0.4523390246 0.4974402375 0.4551350742
0.4824919191 1.0003779283 0.7059286817
0.4925428839 1.0001684337 0.4504206754
0.4923169779 0.9987347048 0.9475527282
0.4925984346 0.7494819198 0.4532880149
0.4925058502 0.7495997605 0.9497840127
0.4824326651 0.7505162995 0.2046636604
0.4824437752 0.7510989565 0.702319741
0.492239207 0.5003810184 0.9495710686
0.4924688164 0.4994998316 0.4489615449
0.4824104448 0.4992085031 0.7008282059
0.5126374068 1.0016348961 0.4463802912
0.5226550413 1.0003059146 0.6958462382
0.5025382981 1.0013206542 0.1939183124
0.5226217109 0.7496979611 0.6935788457
0.5024938576 0.7517470805 0.1993095033
0.5026345859 0.7478714298 0.6983839772
0.5124559414 0.749678321 0.9470342554
0.5125596359 0.4995306011 0.9508765089
0.5022086976 0.4998932887 0.1988900958
0.512363357 0.7539140406 0.4499753443
0.5224513555 0.7498747222 0.1973893024
0.552348717 1.0038542299 0.4371218491
0.5425495818 0.5016733384 0.6876062247
0.5424755143 0.7474589872 0.1894372264
0.5525005555 0.4985564511 0.4400271482
0.5525375893 0.7503919121 0.4420751156
0.5424866244 0.7520613224 0.6929418649
0.5326023116 0.750169324 0.9450899825
0.5326171251 1.0025907154 0.9450436903
0.5425495818 0.4997859227 0.1919860755
0.5524931487 0.5014880666 0.9445715098
0.5326578622 0.7443034744 0.4393947966
0.5426273527 0.9997298043 0.1878475518
0.5727024763 0.498767255 0.9406829641
0.5623774616 1.0000244061 0.6903245033
0.5525412926 0.7487225017 0.9344520325
0.5624478258 0.7536390789 0.192975803
0.5625367068 0.7473607866 0.689208861
0.5726728493 0.7536325322 0.9395441757
0.5725580446 0.4993067037 0.4415834923
0.5725580446 0.7533772106 0.4386707864
0.6024961432 0.5004347014 0.1961662621
0.6026479817 0.9986234108 0.1934248374
0.6026257614 1.0021717261 0.6923808033
0.5926599743 0.7508043547 0.9438586097
0.5924673987 0.998819812 0.4445147151
0.5925747966 1.0002273541 0.9371184638
0.6026442783 0.7494950132 0.194931186
0.5927710756 0.7491087575 0.4348276071
0.6027146425 0.7515244924 0.6947315218
0.5826571533 1.0024925148 0.1876160908
0.5825423487 1.0012420937 0.6915632828
0.5826497466 0.5012726799 0.691152208
0.5825090183 0.7511055032 0.1924119638
0.5827756614 0.7499336426 0.6881580278
0.612654506 0.7508436349 0.9453769943
0.6125174811 1.0034679742 0.447237623
0.6125508115 0.7524213913 0.4434055538
0.6226351067 1.0001553403 0.6979090191
0.6225314121 0.7498812689 0.1982096003
0.6224277176 0.7513280912 0.6960934386
0.6226202932 0.9993304552 0.1927323059
0.6427407397 0.9984204629 0.6993579653
0.6427148161 1.0007772775 0.2010713848
0.6528028147 0.9983222623 0.4491717116
0.6526509762 0.9983157156 0.951987522
0.6325453432 0.9990096665 0.4461173515
0.632760139 0.9979883802 0.9510801946
0.6323601743 0.4998991807 0.4500818164
0.6323342507 0.7502675247 0.949895114
0.6325490466 0.7505883133 0.4506178802
0.6524954344 0.7484148065 0.9507283738
0.6426851891 0.7491022108 0.1981068316
0.6524472905 0.7500056564 0.457845946
0.6423778088 0.7504246456 0.69968664
0.6725566269 0.7500383899 0.9568852379
0.6627426782 1.0029049573 0.2011500816
0.6726418046 0.9985317569 0.9560519781
0.6826816593 0.7482511388 0.2088864359
0.6725603303 0.752585059 0.4586236552
0.6826335154 0.7493575324 0.711852233
0.6626278735 0.7478256029 0.2038553984
0.6626908309 0.747262586 0.7020503203
0.6723270175 0.9987412515 0.4579607507
0.7026428606 0.4979443339 0.2124879699
0.692554862 1.0000833265 0.4629880848
0.6925215316 1.000430302 0.9639401708
0.6925993025 0.7524148446 0.9588387692
0.7024428782 0.7503853654 0.2149636773
0.6926622599 0.7520875093 0.4601503723
0.7024465816 0.7491742245 0.7174850693
0.7123716316 0.4989688936 0.4691199511
0.7125901309 0.7505883133 0.4658831997
0.7223781559 1.0028263969 0.7216541458
0.7325772559 0.9998607385 0.980966446
0.7323957904 0.7520351356 0.9822348526
0.7224188931 0.7484737269 0.2255071913
0.73236246 0.7520416823 0.4826419059
0.7223892661 0.7505686732 0.7267212912
0.7222596479 0.9999720325 0.2257710569
0.7324661545 1.0020080584 0.4838279123
0.7127197491 0.7512233439 0.9682268296
0.7122531236 1.0031471855 0.4663526027
0.7125012498 1.0019491381 0.9676990983
0.7425282295 0.5007253752 0.2344702891
0.7424171282 0.7492593317 0.2348174807
0.7426430342 0.7528141938 0.7403395338
0.7526680754 0.7499598294 0.9876140075
0.7623561093 1.0021913662 0.738971136
0.7524347626 1.0026561825 0.9915118116
0.7625449815 0.7534557711 0.2406049329
0.7525310504 0.74791071 0.482308602
0.7626042355 0.7497568815 0.736867618
0.7526458551 1.0020211519 0.4836362626
0.7424356451 0.9998607385 0.2374339165
0.762470914 1.0014450416 0.2369496999
0.7823987849 1.0039655239 0.2411706237
0.7725552092 1.0021651794 0.4948510136
0.7823543444 1.0018051105 0.7465362091
0.7723441167 1.0007903709 0.9909285298
0.7825580301 0.7494688264 0.2423186706
0.7724218876 0.7513280912 0.4933585527
0.7823839714 0.7515637727 0.7431920598
0.7724144809 0.7512757176 0.9916321714
0.77262187 0.505111669 0.4916040779
0.7727663017 0.5028111561 0.9920117675
0.7926941726 0.7509483822 0.9968817081
0.8125442726 0.7533772106 1.0043810463
0.7924793767 0.4993571133 1.0015849967
0.8126998145 0.5034959417 1.0028996955
0.8024192403 0.7534623178 0.2497661614
0.8125850098 0.7506734205 0.5011884172
0.802622926 0.7498616288 0.7473574329
0.7924349362 0.7496259473 0.4969313855
0.7924608599 0.9978247125 0.4969489766
0.7924904869 1.0021128058 0.9984741601
0.8025414517 1.0013730278 0.2504188816
0.8024784943 1.0021193525 0.7530782244
0.8125961199 1.0017920171 1.0029830215
0.8226841185 1.0035596281 0.7567390124
0.8226285679 1.0000178594 0.2592940243
0.8326610158 0.7519303883 1.0060938581
0.8226248645 0.503664192 0.7560131505
0.8225841273 0.7516226931 0.250511466
0.8325017706 0.750640687 0.5032437914
0.8224471024 0.7557798522 0.7551511896
0.8426712435 0.7508501816 0.2654323715
0.8426008793 0.7509287421 0.7635328573
0.8626842921 0.4988183193 0.771183108
0.842715684 1.0032453861 0.7661168885
0.8626102246 1.0025514351 0.2715336849
0.8624509794 1.0004957691 0.7752966339
0.8525888867 0.9998476451 0.018929126
0.8624917165 0.7499663761 0.774577253
0.8525407428 0.5015122894 0.5166509415
0.8526296239 0.747956537 0.0207884989
0.8527592421 0.4965996403 0.0210122755
0.8627657664 0.5014409303 0.2697958753
0.8624731996 0.7514786655 0.2713948082
0.8526592509 0.7526439794 0.5187914934
0.8525370395 1.001994965 0.5214255202
0.8825751293 0.9977396053 0.7769946322
0.8925520266 0.9948525074 0.0282925589
0.8826751204 0.7498616288 0.7772251674
0.8727019265 0.7488272491 0.0258366645
0.8925779502 0.7498092552 0.0244071611
0.8825899428 0.497309958 0.7732273721
0.8825862394 0.5033414394 0.2746343371
0.8827047475 0.7502413378 0.2798172131
0.8725649016 0.7513084511 0.5213838572
0.8926483144 0.7499794695 0.52842768
0.8725797151 0.5014690811 0.0227437893
0.8825640191 0.9997298043 0.2782164284
0.9027103893 1.000207714 0.7788139161
0.9126169225 0.7478779765 0.5315449975
0.9025733644 0.996829613 0.2846973379
0.9026029914 0.7527487267 0.7803165613