POSCAR file written by Ovito 3.7.11
1
270.0407995837 0.0 0.0
0.0 15.2758144466 0.0
0.0 0.0 10.8016319833
Sr Ti O 
800 800 2400 
Direct
0.0225752582 0.4980243279 0.7720853704
0.0127856264 0.4971242123 0.0212889155
0.0123820947 0.2502345938 0.5170285415
0.0226169926 0.248361044 0.770443026
0.0026398262 0.2459762284 0.7693163444
0.0127502613 0.2490294208 0.021257161
0.0026495284 -0.0022262497 0.2633705754
0.0223811023 0.4979483909 0.272384954
0.0124508992 -0.0026532645 0.5163897492
0.0023841241 -0.0032116636 0.7645170696
0.0124029434 6.7552688228e-04 0.0180021899
0.0225545206 0.250578929 0.2699131053
0.0025138082 0.2508270336 0.266063687
0.0426024541 0.4978953659 0.273432018
0.0325062019 0.2473195283 0.52226201
0.0423984108 0.2499282272 0.7710068297
0.052572429 0.4984334714 0.0211740255
0.0323517808 0.2504408021 0.0179987645
0.0323251182 -0.001280179 0.5196114846
0.0324199187 -8.0229939525e-04 0.0178335117
0.0425161708 0.2491727846 0.2708518523
0.0524654081 0.2498274142 0.5199836506
0.0524291173 0.2495937115 0.0188683553
0.0625509212 0.2509697428 0.2679782125
0.062508335 0.4990723899 0.7641004659
0.0625064834 0.501318424 0.2678217546
0.0725316352 0.4967680938 0.5181404106
0.0722583432 0.2467932061 0.514374313
0.0625709181 0.2496238244 0.7673860805
0.0726334717 0.2487970273 0.0106659837
0.0624927818 4.697768052e-04 0.2609403871
0.0624909302 9.0091648619e-05 0.7626793843
0.0924030769 0.2508499456 0.5126532768
0.1024208224 0.2479833227 0.7634079779
0.0826501062 0.250255542 0.7622266749
0.0924019659 0.2466786459 0.0144847585
0.1026059796 -0.0021930599 0.2642500721
0.0824682818 -9.689680864e-04 0.2618689504
0.0824123644 -0.0013222062 0.7623803554
0.0924575131 -0.0023722321 0.012520148
0.102578206 0.2488552893 0.2652462179
0.0825156821 0.2504866262 0.2653397223
0.102624125 0.4995921658 0.2669968793
0.0925126899 0.5013740675 0.5148603507
0.1125126307 -0.0020264567 0.0106140471
0.1223633644 0.2502915466 0.2636668269
0.1124726368 0.2505854753 0.5167072938
0.1225581498 0.502048336 0.768383152
0.1124452335 0.4993853028 0.0179576596
0.1225785171 0.2514718437 0.7657409587
0.1125278136 0.2501913883 0.0178908179
0.1126455736 0.5002304296 0.5167730246
0.1525599125 0.2515864039 0.5048637131
0.1325181262 0.2511242354 0.5144641142
0.142601047 0.2525559103 0.7634061263
0.1524665933 0.2535038139 0.0010491036
0.1326773614 0.2529460695 0.0165331527
0.1424214446 0.2494562392 0.2584990893
0.1425543874 0.5010009286 0.7569200694
0.1526328645 0.4989408093 0.0056821998
0.1326977287 0.5013635934 0.0122886089
0.1326232955 0.4998245593 0.5158639027
0.1525910189 0.0035605449 0.5016938217
0.1824142901 0.2510175308 0.7563590431
0.1824198449 0.2510201493 0.2596535445
0.1626054316 0.5013374082 0.7533687542
0.1625580314 0.5029877294 0.2556198947
0.172611327 0.2535208343 0.5078188221
0.1825031656 0.5036187923 0.7559174431
0.1624284213 0.2492277735 0.754550983
0.1725709627 0.2557459203 0.0060146495
0.1625139639 -7.6917513849e-04 0.2576214441
0.1725842941 8.6209631267e-04 0.5084131767
0.1826283319 -3.5420544753e-04 0.2558457865
0.1623110316 0.2484716764 0.2551347829
0.2021909313 0.2500794466 0.2483247008
0.1924083355 0.5009439759 0.0060874163
0.2023486853 0.4995993667 0.2501892339
0.1926557055 0.253120201 0.5053960401
0.2022857318 0.2515850946 0.7475390796
0.1923553805 0.2550441573 0.0031412874
0.1926831088 0.0012003434 0.5034074517
0.2024586687 0.0032867788 0.7513070287
0.1926782947 0.0029749787 -0.001053912
0.2025927225 0.0012709125 0.2488588794
0.2123512479 0.2492493763 0.4958706276
0.2221016263 0.2529342862 0.7478769915
0.2122394129 0.25158444 -0.0012638803
0.2224245405 -9.1810336801e-04 0.2496846805
0.2123564323 0.0042253212 0.4946967309
0.22238862 -0.001180348 0.7481917587
0.212309032 0.0031692728 -3.6086856117e-04
0.2322800883 1.086831287e-04 0.4957947131
0.2223712152 0.2485377939 0.2459898684
0.2324474704 0.2510352058 0.4985757744
0.2325089426 0.2486968689 -0.0013581253
0.2323156385 8.9031084758e-04 0.9972393104
0.2523411309 0.249265742 0.4989377567
0.2422767258 0.2491282698 0.7512181533
0.2622044553 0.2497567142 0.2473452192
0.2521415315 0.248048131 1.0000537
0.242378192 7.0164660254e-04 0.2489931183
0.2523596467 0.4992334288 0.9971282161
0.2523829765 8.3250705564e-04 0.4948596692
0.2423056104 0.2508126317 0.2507215609
0.2623870203 0.2485319023 0.7496665359
0.2422693195 -1.3143436196e-05 0.7491462441
0.2622251929 -0.0021683149 0.2481950908
0.2521804145 0.0012339914 0.995082229
0.2623174012 0.0012724836 0.7470141589
0.2722781183 0.2483551523 0.4967640111
0.2725280805 0.2477253986 0.9933047198
0.2723255185 -0.0011057202 0.4954281019
0.2724973444 0.5029288127 0.9932121412
0.2823651125 0.2505697642 0.7457162069
0.2825469369 -0.0015018366 0.7458846999
0.2823440046 0.2506031503 0.249414351
0.3022735857 0.2511281632 0.2444456573
0.3124005739 0.2509978919 0.4956900993
0.3124216818 0.2492061707 0.9924437388
0.2922925013 0.4979405353 0.4879171998
0.3124531585 7.8236242979e-04 0.9919993615
0.2924983961 0.2502470318 0.4923831916
0.2923861909 6.3795114438e-04 0.4919323338
0.3023606095 0.2500643901 0.7381627186
0.3022595137 0.5026041165 0.2346841694
0.2924895086 0.2505815475 0.9908976761
0.3124205709 0.5035160155 0.9893238399
0.2923610095 9.9328408056e-04 0.992693701
0.3023924566 -9.2183475662e-04 0.7456662144
0.3223561066 0.2513114595 0.2436133757
0.3325697484 0.2522835844 0.494082009
0.3225460778 0.2525611473 0.743703548
0.3324930933 0.2514083447 0.9940453486
0.3225412638 6.9490391786e-04 0.2485172643
0.3324005147 4.0928903198e-04 0.497326889
0.3224549805 -0.0015427509 0.7450329768
0.332276089 0.0025224988 0.9979521657
0.3625111499 0.2512289762 0.2470971085
0.3524189712 9.8929084013e-04 0.9950081661
0.3524178602 0.2528792973 0.4917647665
0.3425486108 0.2550579046 0.7435433871
0.3524148977 0.2541872472 0.9896663807
0.3426189706 -1.9264286712e-04 0.2472850431
0.3426730365 0.0012943482 0.745841188
0.3424612166 0.2517939215 0.2492440063
0.362233414 0.2525205603 0.7418658628
0.3625037436 0.0010858487 0.2454353226
0.3723541069 0.2510633549 0.4912444748
0.382452581 0.2528681686 0.7421732237
0.3725133421 0.2524564066 0.9902218523
0.3823822212 7.1657215697e-04 0.7437914977
0.3822303923 0.2541132741 0.2445215718
0.3925325393 0.0033088398 0.4929969878
0.3925695707 6.0332123958e-04 0.9915086949
0.3723467006 4.7494837888e-04 0.4918453099
0.3725281547 -7.6780041637e-04 0.992758506
0.3923770072 0.252620064 0.4946735863
0.3923621946 0.2530573566 0.9918697515
0.4124776735 0.0024218822 0.4901714888
0.4024162309 0.2543332296 0.7443719656
0.4026310133 6.1661022006e-04 0.240743439
0.4024162309 3.9351245909e-04 0.7489721963
0.4024606687 0.5040573941 0.2440197958
0.4024421529 0.2521775344 0.2394825184
0.4124147201 0.2542926426 0.4947263561
0.4123036257 0.2563527619 0.990971739
0.4124147201 0.0031716295 0.9895552864
0.4125813615 0.5039441432 0.9923419023
0.4125332207 0.505418369 0.4933904468
0.4224354281 0.2530416455 0.2359589768
0.4425953447 0.2507177104 0.7402262957
0.4325042769 0.5003312426 0.9933880405
0.4324079952 0.5008916055 0.4848667348
0.4428175333 0.2530501556 0.239510292
0.4225094909 0.5021818804 0.2376550168
0.4424657346 0.5028005053 0.735171504
0.4325672304 0.2537898871 0.4899631869
0.4224724595 0.2534527528 0.7414733295
0.4325376052 0.254261875 0.9889535255
0.4425472038 0.4998494352 0.2372263779
0.4326746216 0.0022938367 0.9898515379
0.4526715998 0.0024607672 0.9793253507
0.472461202 0.2514594058 0.4818357114
0.4625219632 0.2523477381 0.7350335619
0.4724982335 0.2509749799 0.9814824322
0.4625108538 0.2488428513 0.2327094678
0.4525530992 0.5012326675 0.9857965951
0.4625626978 0.5018958073 0.7307480983
0.4726648749 0.5013969795 0.4808367882
0.4526086464 0.2477790783 0.4829392483
0.4525827244 0.2519457955 0.9862039409
0.4725871089 -0.0012537974 0.9792235143
0.4825744886 -0.0010802551 0.2271251265
0.482533754 0.2494529661 0.7330375672
0.4827781615 0.2466596617 0.2275648749
0.4924618834 0.2520688659 0.4815616787
0.4924989149 0.2505854753 0.9794179293
0.4826411452 0.4999489389 0.2258253229
0.5026899675 -7.170666239e-04 0.7248443608
0.502549248 0.2492487217 0.2256512751
0.5124107208 0.0022884687 0.9727707856
0.5224758665 -0.002485483 0.2253596525
0.5024603726 0.5009983101 0.7266042801
0.5023752002 0.2486425347 0.7237241597
0.5224647571 0.4996170417 0.7229446479
0.5125255183 0.2483152199 0.4721593958
0.52240921 0.2498516355 0.2286767439
0.5125773623 0.250124616 0.9740576282
0.5225166011 0.2473745172 0.7282058899
0.5125292214 0.4989957982 0.4779927736
0.5223721785 0.4994671315 0.2214972732
0.5522861767 0.2483099829 0.480612748
0.5525120685 -0.0015015747 0.9815935265
0.5323780739 0.496423104 0.9747612256
0.5325150903 0.0023976609 0.4725722963
0.5325632311 0.4980315289 0.4754514909
0.5324039959 0.2489744319 0.4752181928
0.5323891834 0.2489299171 0.9751685715
0.5424617354 -4.3760525607e-04 0.7264367128
0.5424024851 0.2445353887 0.230363526
0.5424432197 0.2482157162 0.7278846421
0.5524343025 0.2473699348 0.9809732499
0.5623216973 0.4982311909 0.7347771191
0.5622068998 0.4964073929 0.235547002
0.5624698231 -0.001208628 0.2314476215
0.5625290734 0.2468337931 0.229983028
0.5624735262 0.2496179328 0.7315127976
0.5724016556 -0.0022062835 0.4847417537
0.5723053739 1.6792710572e-04 0.9805196147
0.5723794367 0.2480088532 0.4839168784
0.5724942342 0.249566217 0.9833340043
0.5922542113 0.4997545139 0.9896386071
0.5822853473 0.2476651727 0.736551851
0.6024008262 0.2485201189 0.2334426904
0.592428259 0.2478085366 0.4884106438
0.602397123 0.2466498422 0.73766372
0.592428259 0.2460763867 0.9820101302
0.5823408944 0.2481221042 0.2348776587
0.6021156841 0.4968001706 0.7364240925
0.5922838364 0.4988131566 0.4867081232
0.5823668165 0.4983483696 0.2380947652
0.612417831 -0.0049441931 0.9868427333
0.6123437681 0.4960316355 0.4899335618
0.6223385541 0.4969945956 0.2410433937
0.6223533667 0.2460587117 0.7405012542
0.6125400348 0.4989611029 0.9902773995
0.6223459604 0.4994684408 0.7373628395
0.6122660021 0.2508126317 0.4905973504
0.6122956273 0.24934888 0.9876203936
0.6222348661 0.2461667256 0.2351276209
0.6322740898 0.4994900436 0.9896663807
0.6424947676 0.2525480548 0.2381651249
0.652474741 0.2474877681 0.4874182011
0.6425947525 0.2486818125 0.7342818236
0.6524895536 0.2519215742 0.9983502537
0.6421577815 0.4984144872 0.7395504719
0.6523118026 0.4999666139 0.990110758
0.6423577512 0.5004680601 0.2383113991
0.6524451158 0.5012018999 0.4925831614
0.6322889024 0.2525415085 0.4894512273
0.6324370281 0.2497311837 0.9849078405
0.6625176679 -0.0045912299 0.7436637392
0.672490235 0.4963386568 0.4888707594
0.6823961455 0.4981631094 0.7389755588
0.6725272664 0.4975693604 0.9905551353
0.6824776147 0.4992334288 0.2409535924
0.6625065584 0.2503471901 0.2422367319
0.6625287773 0.2511091789 0.7412224415
0.6826886939 -7.7002615694e-04 0.2415979395
0.6826627719 -0.0012173345 0.7405262504
0.6625028553 0.496582179 0.7391292393
0.6624361987 0.5004104527 0.2377225992
0.6825183493 0.2471886024 0.2364894522
0.6725309696 0.2469044931 0.4893262461
0.6825479744 0.2508564919 0.7409937723
0.6724865318 0.2493030559 0.9854540543
0.7025375464 0.2482739782 0.2494967459
0.6925464635 0.2490772087 0.4947559812
0.7023709049 0.2480965736 0.7449079957
0.6922465089 0.2466256209 0.9913142798
0.702604203 0.4997263648 0.7478408858
0.7025967967 -0.0028154163 0.7413057622
0.7024819992 -2.3728860449e-04 0.2427264727
0.692557573 0.4972793595 0.9947304303
0.692609417 0.4975248456 0.491918447
0.7124730821 0.249495517 0.4956789899
0.7123545815 0.2477555116 0.9973874362
0.7226604316 0.5003122583 0.7450070548
0.7225086026 0.2486287875 0.239739887
0.7325293106 0.2492650874 0.4891299795
0.722619697 0.2459480793 0.743033279
0.7325478264 0.4976943946 0.9906662296
0.7226530253 0.5004438389 0.2434809883
0.7326552175 0.4976426789 0.4882893658
0.7326626238 0.2501200336 0.9898515379
0.7125508481 0.501364248 0.9923233866
0.762832139 0.4975091344 0.7433406399
0.7425574249 -0.0018798197 0.7443117895
0.7526966335 0.4985565418 0.9923048709
0.7625840283 0.4985591603 0.2421635948
0.7627469667 0.2485770717 0.2442549454
0.7526151644 0.2471355774 0.494185697
0.7626543881 0.2489469374 0.7450163126
0.7528077279 0.249677504 0.9929251475
0.7425759407 0.4984046677 0.7405151409
0.7525262889 0.4998271778 0.4941107083
0.7427499884 0.2504047975 0.2375837313
0.7425833469 0.2498444346 0.7377627791
0.7826995072 0.4997689158 0.2492569674
0.7827550544 0.5002029352 0.7481251021
0.7825476783 0.2492775254 0.2491523535
0.7726343615 0.2491708208 0.4960122729
0.7825884129 0.2488821291 0.7440970071
0.7726639867 0.2504296734 -0.0055770341
0.7926794806 0.5006225527 0.5010096659
0.8126135055 0.5001453278 0.5009235678
0.802633532 0.4993132936 0.7474844582
0.8024742968 0.4997964102 0.2491023611
0.7924461826 0.2505232855 0.4945004643
0.7925720895 0.2502097179 0.9989797882
0.8126653495 -1.6750509123e-04 0.499196051
0.8025705786 0.2492762161 0.2502373748
0.8124653797 0.2483872291 0.4953716289
0.802503922 0.2515628372 0.7510079998
0.8123690979 0.2467552376 0.9961746565
0.832643812 1.3467192304e-04 0.5035740932
0.8223861028 0.2498706198 0.2499068691
0.8325104988 4.4745393651e-04 1.0012572218
0.8325067957 0.2511896984 0.5049016703
0.8227416046 0.251155003 0.7492471548
0.8325216083 0.500659212 0.4995672912
0.8325067957 0.4985146455 1.0058120891
0.8323845919 0.2496997615 0.0045773667
0.8225231191 0.5018984258 0.2504540087
0.8426237854 0.5019102091 0.7549629577
0.8425238005 0.5007384222 0.2542626924
0.8425238005 -0.001991565 0.2554865816
0.8424312219 0.2525532918 0.2540904962
0.8424201125 0.2492644328 0.7480584455
0.8626133574 0.2493292411 0.2487172341
0.8526926343 0.2496709578 0.5002060836
0.8624059813 0.2498817485 0.75760978
0.8526741186 0.2508145956 0.0021577323
0.8724970491 2.6834728334e-04 0.5035129913
0.8824325848 0.2530868149 0.2487755586
0.8726266591 0.2487865532 0.500338471
0.8925088399 0.251672815 0.4992923328
0.8824918351 0.2507190197 0.7522263342
0.8924755116 0.5006107694 3.4985737467e-04
0.8725488931 0.2490176374 0.0064037574
0.8924051519 0.2506005318 5.3779193893e-04
0.8923866362 0.0018380836 0.5067662034
0.8724526113 -0.0034449735 0.0015308826
0.8725451899 0.5004955546 0.5052210665
0.8925866059 0.5007750814 0.5033250567
0.9125798811 6.3421975577e-04 0.503436151
0.9026295328 0.2517323863 0.252053767
0.9125613653 0.0033115238 0.00454302
0.9123354735 0.2526167909 0.5018947173
0.9023666096 0.2511360188 0.7541695591
0.9126872722 0.5041870108 0.5024937009
0.9024740007 0.501906936 0.750929308
0.9124058333 0.2517107835 0.0027459768
0.9124873025 0.5019075906 0.0039275575
0.9024962196 0.5035991534 0.2513622048
0.9424272227 0.2479021486 0.7610620361
0.9324028116 0.2516394289 0.0090574305
0.9326212971 0.5004778796 0.5070624549
0.9326064845 0.5021962822 0.011595658
0.9226116985 0.5017066193 0.7547657653
0.922419135 0.499994763 0.2507187835
0.9425864579 0.5008595286 0.7589438377
0.9224857916 0.2516237178 0.2571048555
0.9223302595 0.2530350992 0.7550805326
0.9425975673 0.249712854 0.2576603272
0.9323917021 0.2542409269 0.5036675975
0.9725893316 -5.9497820717e-04 0.5151371607
0.9624538261 2.6258654303e-04 0.7607444915
0.962579733 0.247547994 0.2587703446
0.9525219936 1.5836951384e-04 0.0100169151
0.9724152838 -0.0028290326 0.0130792301
0.9524405244 0.2483381319 0.5109794556
0.9725967379 0.2489227161 0.5079345454
0.9624130915 0.2492513402 0.759504864
0.9525664313 0.2490772087 0.0084913123
0.9725041593 0.2484736402 0.0110610166
0.9727226448 0.5008117407 0.5134022377
0.9524590401 2.7162043124e-04 0.5118182178
0.9625315921 8.3283500983e-05 0.2612579317
0.952377571 0.4994893889 0.5108563261
0.9626130613 0.4985355936 0.7610027858
0.9826137427 0.2469634098 0.2616625002
0.9823915541 -6.6430284032e-05 0.7599538702
0.9924344809 3.9246505176e-04 0.0065660477
0.992641857 0.2530481918 0.5111979411
0.9826322584 0.2492546133 0.7608518827
0.9927899828 0.2483093282 0.0114244802
0.9926566696 0.4989624121 0.0175544798
0.0225512248 0.7494531479 0.7685136879
0.0027722506 0.5014552416 0.2654165625
0.0027276277 0.7487330553 0.764372647
0.0127410775 0.4982743964 0.5211853208
0.0025478401 0.5015743841 0.7716335868
0.0224299838 0.9979112588 0.2659581473
0.0224333907 0.9995216475 0.766756546
0.0126128006 0.7520520273 0.0189971322
0.0225061205 0.7470637499 0.2704546901
0.0026334938 0.7508016848 0.2662877272
0.0126413519 0.7491520183 0.5169498497
0.0523391309 0.9970798792 0.5142595155
0.0523969 0.9984742402 0.0171924975
0.0325024988 0.7505136478 0.0119646763
0.0424395157 0.7482486294 0.2672551736
0.032635812 0.7495382497 0.5176608534
0.0424872863 0.7494400553 0.7619082045
0.0426717029 0.4991365436 0.7666945183
0.032505091 0.5025687665 0.0208223193
0.0326365526 0.4988236306 0.5199021814
0.0425831977 0.9990568605 0.2648296142
0.0526350121 0.5001453278 0.5154769242
0.0523935671 0.750539833 0.0104537935
0.0525098459 0.7503368978 0.5117469322
0.0425724586 0.999731129 0.767098161
0.072606809 0.4983797918 0.016318
0.072567926 0.9986378976 0.5165730548
0.0724597942 0.9979439903 0.0187364308
0.0725664448 0.7510438978 0.0136707148
0.0627916255 0.7509587959 0.2679198879
0.0725046023 0.7476594628 0.5185542369
0.0626023949 0.7494531479 0.7649077513
0.0926378562 0.9996132957 0.5125977296
0.092446774 0.7475023517 0.0151434553
0.1025104385 0.9997442216 0.7634663024
0.1025019212 0.7484515646 0.2638529099
0.0826419593 0.7497673701 0.2659044518
0.1025441371 0.5017151295 0.7650392129
0.092426777 0.7494531479 0.514927933
0.1025233995 0.7500619534 0.7623535076
0.0824308801 0.5002310842 0.7676332654
0.0826101122 0.7484973887 0.7652614016
0.0924745476 0.4985421399 0.0148746996
0.0825079055 0.4968185002 0.2660664643
0.1125215183 0.7505201941 0.0164953806
0.1223992849 0.7518621847 0.2624188674
0.1124456038 0.7499244812 0.519648516
0.1225437075 0.752222231 0.7619350523
0.1225285246 1.0019961474 0.2636177603
0.1225507435 1.0005428697 0.7612462675
0.1225385231 0.4985447584 0.2606145104
0.112637797 1.0019830548 0.5111581323
0.1426432629 0.751580694 0.2547607653
0.1527243321 0.7502190645 0.5034518894
0.1325377529 0.7494204164 0.5067402814
0.1425029137 0.752156768 0.7571755864
0.1524877012 0.5007030722 0.505599713
0.1326681036 0.9999864345 0.0077309642
0.1425288357 0.4992203362 0.2576519951
0.1424547729 1.0007458049 0.2571150392
0.1326525504 1.0012826011 0.5100397828
0.1426377082 0.9998947864 0.7574653574
0.1525347312 1.0017342955 0.0036750031
0.1525721329 0.748726509 0.0039260762
0.1323907381 0.7491520183 0.0111066578
0.1724843092 0.7528572217 0.0065748426
0.162538775 0.7505725645 0.2556161916
0.1725198594 0.7520192958 0.5087177603
0.1626417224 0.7533481939 0.7543112044
0.1825650081 1.0009749252 0.7572885323
0.172474681 0.5034243673 0.0052106969
0.1726446553 0.5030545016 0.5025224002
0.1825113125 0.7520520273 0.2507946979
0.1824631716 0.7532499994 0.7519800752
0.1725883675 1.0030762862 0.0042781527
0.1625669189 1.0011713141 0.7572329851
0.1824416934 0.5006474287 0.2560605689
0.2024164528 0.5008706573 0.7474020632
0.1924990625 0.5001191426 0.500974486
0.1924268512 0.7477707498 0.0034332803
0.2022949897 0.7518883699 0.2520482122
0.1923801916 0.7508344163 0.5041129006
0.2024334873 0.7497739164 0.7520217355
0.2323782216 0.5004372926 -0.003117989
0.2323300807 0.7488181572 0.0019308222
0.2321823253 0.750585657 0.4999931528
0.2122894054 0.7484581109 0.002226796
0.2222123503 0.7492371201 0.2502716288
0.2124404936 0.7504678237 0.4994302749
0.232403403 0.5026741618 0.4991479101
0.2222308661 0.7537998883 0.7536640799
0.222336776 0.5004896629 0.7498072553
0.2124975221 0.5022185396 -0.0010765012
0.2224460187 0.5014375666 0.247930316
0.2123686526 0.5015030295 0.5034213385
0.2522467008 0.7493876849 -0.0016218817
0.2422278443 0.7530536106 0.2501512767
0.2523300215 0.7469197314 0.5018919399
0.2424189266 0.7511028144 0.7501664603
0.2425296506 0.498782389 0.7526336801
0.2423663419 0.5019305026 0.2449261403
0.2625469961 0.5002166824 0.7442377266
0.2524796285 0.4991797491 0.4965057168
0.2623025886 0.749832833 0.2448002334
0.2623992407 0.7524120736 0.7434174802
0.2624577504 0.4993800658 0.2459315439
0.2723347764 1.0010796659 0.9926474117
0.2723577359 0.4990102001 0.4990377416
0.2823602985 0.4992530676 0.2398787549
0.2823854798 0.4981591816 0.7444895404
0.2824417676 0.7495251571 0.2413377936
0.2822810512 0.7502910737 0.7407493648
0.2724055064 0.7489098053 0.9944989838
0.2724484629 0.7461538148 0.491070427
0.2824862054 0.9999471568 0.2436929933
0.3123579877 1.0046408509 0.4919943615
0.2924372942 0.7469721018 0.990444041
0.3023124687 0.7486937776 0.2377022319
0.292363972 0.7481569813 0.4890818386
0.3022965452 0.7494073238 0.7367860748
0.3125960999 0.7495644349 0.9904903303
0.3122124542 0.7501143237 0.493177516
0.3123313251 0.4990835186 0.4900289177
0.3023009889 0.499282526 0.7403744215
0.2923499 0.4997204732 0.992230808
0.3024983665 1.0005297771 0.2417914288
0.3323531144 0.5013393721 0.4951994327
0.3224283179 0.4985166094 0.7386320922
0.3322949751 0.7483337313 0.9961468829
0.3324242148 0.4968761076 0.9982206436
0.322413135 0.7519407403 0.2445095366
0.332563453 0.7509129718 0.4959807961
0.3223949896 0.7498066478 0.7410067333
0.3224712743 0.4994965899 0.2437337279
0.352369349 0.5006860518 0.4899289328
0.3523671272 1.0031810269 0.4953614453
0.3624037587 0.7518490921 0.2424579947
0.3622667423 0.7512010089 0.7409150805
0.352356388 0.7511028144 0.9903329466
0.3625074467 0.5010526444 0.7400772442
0.3424452931 0.7508736941 0.2475285248
0.3625111499 0.5014552416 0.240981366
0.352442301 0.7501601478 0.4969102853
0.3423034627 0.7503761756 0.7467762319
0.3626074316 1.0023758325 0.7430138374
0.3424501072 0.499252413 0.7419417772
0.3524771105 0.5023396461 0.9910920912
0.3425445374 0.4998455074 0.2384336029
0.3726281396 0.5011318545 0.9859724944
0.3824970187 0.5010199129 0.2401139045
0.3726022176 0.5023854702 0.487189532
0.3925732738 0.4996543556 0.9937490971
0.3825747847 0.5035127423 0.7423361621
0.3724392793 0.7511617311 0.9903329466
0.3825192376 0.7507951385 0.2381771601
0.3725059358 0.754146842 0.4963927709
0.3825858941 1.0006410641 0.2407110365
0.3827747545 0.7515872403 0.7400272517
0.3924325544 0.7536558698 0.9917493993
0.3923992261 0.7526477402 0.4935978229
0.392602899 0.5002742898 0.4885430312
0.4025569504 0.5025785859 0.7458263754
0.4026939667 0.7545723512 0.2416229357
0.4025014032 0.7536493235 0.7394310455
0.4126776433 0.7536689624 0.9894441921
0.4126554244 0.7528834069 0.4937774254
0.4225798507 1.0032333973 0.7381636444
0.4425546101 1.0050336286 0.2356923504
0.4327227624 1.0035279806 0.4877968476
0.4424583283 1.0020157862 0.7359056523
0.4227020544 0.5015207045 0.7372295263
0.4327560907 0.7542450364 0.9872315634
0.4223613652 0.7523400643 0.2368107
0.4326227775 0.7514235829 0.4900298435
0.4224983815 0.7518883699 0.740934522
0.4425916415 0.7531714439 0.2412850238
0.442628673 0.7530339717 0.7355705178
0.4225835538 1.0053151193 0.2389631525
0.4726019215 0.7507100367 0.9786495269
0.4626330575 0.7522615088 0.2338778098
0.4727278284 0.75118137 0.4817912736
0.4624479003 0.7527459347 0.7303750066
0.4525086615 1.0004512216 0.4865368528
0.4726611718 1.0030239158 0.4816227806
0.4726056246 0.4996779222 0.9846393626
0.4626182449 0.4997748074 0.2376827904
0.4625293695 1.0030173695 0.2388002141
0.462440494 1.0036654528 0.7342633079
0.4526567872 0.7526739254 0.9855281171
0.4526641935 0.7528768606 0.4850380052
0.4526086464 0.5022944767 0.4874450489
0.4824670974 0.9977541477 0.7319127372
0.4928025727 0.9995347401 0.4737147163
0.4925914935 0.9974857496 0.9786680427
0.492606306 0.7496626293 0.4755209249
0.492450774 0.7491651109 0.9794734765
0.4825485666 0.7525953699 0.2283249452
0.4824856132 0.7498590182 0.7300083953
0.4926211186 0.4974927687 0.9794364451
0.4926433375 0.4977042141 0.4783112439
0.4825448635 0.5027546813 0.7297593588
0.5125551434 1.0013938881 0.4791166778
0.5226239923 0.9995151013 0.7248813922
0.5025714669 0.9993121661 0.2292590633
0.5226610238 0.7464091203 0.7263395052
0.5024085285 0.7523400643 0.2284314106
0.5026566392 0.749145472 0.7274541516
0.5125921749 0.7498524719 0.9752241186
0.5125995812 0.5010932314 0.9747519677
0.5024937009 0.4992020065 0.2296386356
0.5127180818 0.7504350922 0.4754700066
0.5225314137 0.7485497591 0.2257244122
0.5524750371 0.9983694995 0.4777048541
0.5423654536 0.4976623178 0.725003596
0.5426468926 0.746291287 0.2274324875
0.5524861465 0.4992439028 0.4819403252
0.552497256 0.7478100276 0.4803924109
0.5423395316 0.7470637499 0.7271245718
0.5324151054 0.747796935 0.9758351374
0.5325891531 0.9994758235 0.9792049986
0.5424543291 0.4977002863 0.2255855443
0.5523972711 0.5009845629 0.9794271872
0.5324521368 0.7496691756 0.473893393
0.5424247039 0.9978981662 0.2252143041
0.5722979676 0.4985414853 0.986333551
0.5623439162 0.9974530181 0.7303111273
0.5524120836 0.7468542684 0.9778348352
0.5625179639 0.7471684906 0.2318716315
0.5623105879 0.7484057405 0.7341818387
0.5724831248 0.7485104813 0.9832506835
0.572334999 0.4995692537 0.4843418142
0.5722868581 0.7471684906 0.4870321484
0.6024415607 0.4984249612 0.236477417
0.6023637947 0.9970406014 0.2349924562
0.602241591 0.9999929808 0.7405651334
0.5922912427 0.7443863149 0.986463161
0.5923541962 0.9996263883 0.4874635646
0.5923319773 0.9991354161 0.9828063062
0.6025193268 0.7483206387 0.2371495376
0.5922319924 0.7506249348 0.487319142
0.6025822802 0.7475416295 0.7396078706
0.5823594102 1.0006999808 0.2335324916
0.5824371762 0.9994954624 0.7355677404
0.5821927687 0.4987326371 0.7347076852
0.5822927536 0.7479147684 0.2347980411
0.5823668165 0.7470310184 0.7369462358
0.6123363618 0.7491585646 0.9904162674
0.6124326436 0.9976428607 0.4863665082
0.6122734084 0.7462192777 0.4914453704
0.6226385088 1.0011123974 0.7395384367
0.6222681944 0.7438757038 0.239008516
0.6222237566 0.7484581109 0.7350335619
0.622412617 1.0002679253 0.2425764954
0.6424095953 0.9974268329 0.7382886255
0.6423244229 0.9999144253 0.2414831421
0.6526636013 1.0000388049 0.494216248
0.6527154454 0.9998031383 0.9912957641
0.6323999967 0.9978850736 0.487773703
0.6324518407 0.9982058421 0.9870186327
0.6324370281 0.4988308316 0.482750388
0.6324703564 0.7478362128 0.9900922423
0.6324925753 0.7484122868 0.4948170831
0.6522673649 0.7469393703 0.98958306
0.6422614695 0.7469066388 0.2386687525
0.6525302882 0.749656083 0.4904640372
0.6423096104 0.7477903887 0.7384210129
0.6724161721 0.7507820459 0.9892312613
0.6624658238 0.9952927405 0.2429625481
0.6724124689 0.9971126107 0.9926011224
0.6823998486 0.7491782034 0.2416858892
0.6724717193 0.7494007775 0.4888355795
0.6823517078 0.7487068701 0.7404475586
0.6624139798 0.7484712035 0.2375911376
0.6626583873 0.7494269627 0.7401290882
0.6725087507 0.9989324809 0.4925813098
0.7024819992 0.4974423622 0.2462676043
0.6924909164 0.9987426383 0.4937218782
0.6926649642 0.9978981662 0.9932121412
0.6926316359 0.7495644349 0.9953136755
0.702630125 0.7496037127 0.2439401782
0.6924168535 0.7465924166 0.4903871969
0.7024819992 0.7478100276 0.742470401
0.7126212078 0.4966685901 0.4972315331
0.7124953009 0.746579324 0.4960298628
0.7224789775 0.9998358697 0.7412853949
0.7326107798 0.9991288698 0.9926751853
0.732614483 0.7497411849 0.9910087704
0.7225123058 0.7492960368 0.2387789211
0.7325922641 0.747508898 0.4912463264
0.7226493221 0.7496037127 0.744119226
0.7222901171 0.9981207402 0.2460722634
0.7325626389 0.9984349624 0.4904668145
0.7123508783 0.7477380184 0.9936287449
0.7125545512 0.9993907216 0.4918999313
0.7125915827 1.001590277 0.9930084683
0.7426796287 0.5007711536 0.2400574316
0.7426388941 0.746756074 0.2400694668
0.7425833469 0.7486610461 0.7415214704
0.7526151644 0.7502387034 0.9917123678
0.7626840132 1.0010403882 0.7491258768
0.7526966335 1.0024020177 0.9926103803
0.7628136233 0.7478165739 0.2421543369
0.7525559141 0.7467298888 0.494038497
0.762780295 0.7495775275 0.7424000413
0.752707743 0.9988081013 0.4961483634
0.7427685041 0.9995674716 0.2447280221
0.7627358573 1.0003399345 0.2469989752
0.7826735852 0.9987753698 0.2463398156
0.7725973301 0.9979308977 0.4938718556
0.7826661789 1.000483953 0.7500729559
0.7727010181 0.9983498606 0.997331889
0.7826772884 0.7509195181 0.2448678158
0.7727565653 0.7515414162 0.4957539786
0.7826883978 0.7494793331 0.745598632
0.7726010332 0.750075046 0.9962487194
0.7726565804 0.5013707943 0.4918314231
0.7727047212 0.4979510094 0.9925363174
0.7925757926 0.7506445737 0.9984520901
0.8125431457 0.7525888236 0.9978873607
0.7927054026 0.5007168194 1.0007572974
0.812680162 0.5006932527 1.002766253
0.8025076251 0.7526935643 0.2499077949
0.8125357394 0.7496495367 0.5025529512
0.8026261258 0.7506773052 0.7470706318
0.7925054329 0.7499441201 0.4999653792
0.7927720592 0.9977345088 0.5045082113
0.7925387612 1.0011058511 0.9979891971
0.8024409685 0.997983268 0.2514760765
0.8024557811 0.9976494069 0.7520430286
0.8125320363 1.0005166845 1.0012294482
0.8223638839 1.00200924 0.7516282765
0.8224231342 1.0009945641 0.2518065821
0.8324475454 0.7474107036 1.0038123913
0.8225157128 0.4968067169 0.7537751743
0.8225638537 0.7498262867 0.2532600661
0.8325438271 0.7519603792 0.5049822137
0.8225897757 0.7513973977 0.754174188
0.8425645351 0.7479671387 0.2534831806
0.8424164094 0.7490276386 0.7514375645
0.8625059662 0.4983378955 0.754386193
0.8423645653 0.9991616013 0.7520291418
0.8624504191 1.0000322586 0.2526638599
0.8625578102 0.9984742402 0.7512477784
0.8526037588 0.997937444 0.0014387669
0.8624985599 0.7470179258 0.7572626102
0.8526518997 0.4982868344 0.5060098362
0.8524815551 0.7495513423 0.0038344234
0.8525037739 0.4995024815 0.0041520606
0.8627022329 0.4990972658 0.2550551653
0.8626837171 0.7509064255 0.2554791753
0.8525482117 0.7500488608 0.506646777
0.8525445085 0.9981141939 0.5038203522
0.8824622099 0.9966936478 0.754680593
0.8924977305 0.9991681476 0.0031120326
0.8825621948 0.7478689443 0.7559192947
0.8726081434 0.7496298979 0.0057750561
0.8925717934 0.7494662405 7.5942790871e-06
0.882669586 0.5003724842 0.7532206284
0.8825399759 0.500487699 0.2548690823
0.8825547885 0.7502779811 0.2515501393
0.8726859094 0.7488443424 0.506170923
0.8926680751 0.7503434441 0.5045776452
0.8724377988 0.4995031361 0.0024522249
0.8825955231 1.0011582215 0.2528240209
0.9025591731 1.0023954714 0.7547694685
0.9125724748 0.7550240456 0.5036907422