POSCAR file written by Ovito 3.7.11
1
270.0545228845 0.0 0.0
0.0 15.2765907537 0.0
0.0 0.0 10.8021809153
Sr Ti O 
800 800 2400 
Direct
0.0226386966 0.4977501525 0.8082336859
0.0126001682 0.4970719907 0.0596712369
0.0125792095 0.2521881642 0.5552310727
0.0225506403 0.2499743194 0.8145981414
0.0025219441 0.251017746 0.7995558086
0.0125295158 0.2496797511 0.0561141774
0.0025347563 -1.3154918942e-04 0.3054741003
0.0225985566 0.5021136915 0.3110850043
0.012561065 0.0014274374 0.5592237849
0.0024527729 9.0817178494e-05 0.8021737985
0.0125136672 -9.3820822733e-04 0.0597569603
0.0225052791 0.2496692775 0.3089409928
0.0025897823 0.2492411716 0.3001973881
0.042450918 0.5008542482 0.3199082226
0.0325132952 0.25185432 0.5673776939
0.0425386781 0.2499075506 0.8188195112
0.0524914831 0.5003619918 0.0708436104
0.0323603631 0.2490565754 0.0611661202
0.0326143859 0.0045338897 0.5620935758
0.0325369941 -9.7728762729e-04 0.0638475232
0.0425186821 0.2501386231 0.3180780366
0.0525559145 0.2481787617 0.5702613708
0.0525492492 0.2483960877 0.0694025126
0.0625616718 0.2509621053 0.3219328137
0.0624035555 0.5019369505 0.8224669228
0.062382819 0.4956096225 0.3199091483
0.0725096629 0.498855111 0.5692513896
0.0724063504 0.2499762832 0.5742420485
0.0624524346 0.2480969372 0.8234528348
0.0724337523 0.2510943337 0.0723022974
0.062667206 -9.0233634932e-04 0.3255200523
0.062451694 0.0018608456 0.8230177375
0.0924611895 0.2512115065 0.5753279403
0.1025102713 0.2502577596 0.8245146574
0.0824761688 0.2508076205 0.8222197505
0.092489332 0.2513928296 0.0723209047
0.1026346907 6.0048586868e-04 0.3220892636
0.0826550216 0.0022262413 0.3238713112
0.0824976459 0.003166307 0.8220966272
0.0927255806 4.1575878883e-04 0.0727636857
0.1026143244 0.2481250848 0.320967268
0.0824217354 0.2497242636 0.323318645
0.1024406558 0.5004536352 0.3276381431
0.0924682251 0.5008784683 0.57676191
0.1124975138 -0.0011847292 0.0682102533
0.122310347 0.2496718959 0.3192592796
0.1123079225 0.2517135818 0.566043704
0.1225514095 0.4992485234 0.8157423548
0.1124508566 0.4994429385 0.0725105886
0.1223758894 0.2493452524 0.8181872314
0.112302368 0.2494676619 0.0713840569
0.1123205125 0.4978797625 0.5715287075
0.152312807 0.2509928713 0.5592941411
0.1322961083 0.2469271736 0.5667296766
0.1423251942 0.2496339293 0.8137436843
0.1525472041 0.2506452807 0.0576662714
0.1325038442 0.2483077172 0.0658857227
0.1422855726 0.2495167566 0.3140445918
0.1424666471 0.499507089 0.8096667298
0.1522954031 0.5031080233 0.0606156758
0.1324220088 0.4979805704 0.0640046211
0.1324649631 0.5011946383 0.5668305821
0.1524968439 0.0022435881 0.5547487626
0.1825870639 0.2548274965 0.8006592895
0.1824370941 0.2553465914 0.2999890968
0.1624226173 0.498538941 0.8059332245
0.1624240985 0.5004647634 0.303003303
0.1723772737 0.2539791397 0.5535739999
0.1824078408 0.5011952929 0.8015026377
0.1623500393 0.2521488884 0.8049213918
0.1724809565 0.2519374538 0.051598793
0.1624411321 0.0013013621 0.307791225
0.1724368913 0.0028473877 0.5534008867
0.1822767562 0.0012508273 0.2972813103
0.1623348572 0.2509117014 0.3040512395
0.2024245394 0.2542763264 0.2950873089
0.1925295006 0.5008385379 0.0477045793
0.2025189648 0.5026249312 0.2903530797
0.1924702533 0.2516042643 0.5449035285
0.2026307941 0.2483980515 0.7908316444
0.1923439825 0.2502800159 0.0503108123
0.1924909898 0.0041088603 0.5438916958
0.2025519211 0.0012385864 0.7903937699
0.1924395187 4.4953595864e-04 0.0495628152
0.2023256705 0.002037783 0.2920175584
0.2125806367 0.2485034415 0.5428900462
0.2225023368 0.2520271335 0.7880127692
0.2125099102 0.2533265072 0.0396289879
0.2224101332 0.0023051201 0.2896078599
0.212532128 0.0014858928 0.5446156237
0.222444941 -0.0020842755 0.79103901
0.2123606811 0.0011754833 0.0428578729
0.2323647897 -5.6008774767e-05 0.5374272605
0.2223516265 0.2515263673 0.2870491173
0.2325062426 0.2490493748 0.5349944184
0.232472916 0.2464381901 0.0353821603
0.2325577137 -4.2493925742e-04 1.0358081006
0.2524307376 0.2524833871 0.5299250718
0.2424608991 0.2512835121 0.7775380326
0.2624761165 0.2525652116 0.2738795545
0.2524070387 0.250688484 1.0265969977
0.2423686955 -0.0013208852 0.280141253
0.2523333499 0.498997813 1.028383674
0.252456288 0.0020334627 0.5292353962
0.242383137 0.2514006848 0.2813669314
0.2624279781 0.2520991391 0.7738859923
0.2424768218 0.0017627871 0.7813474485
0.2626627455 0.0013836449 0.2744748047
0.2524607316 0.0027277275 1.0344842939
0.2624542691 0.0011127075 0.7753643975
0.2722326648 0.2511421193 0.5230801577
0.2724655808 0.2495848346 1.0204408335
0.2723878187 0.0019738289 0.5220368499
0.2725233469 0.4988099439 1.0200890527
0.2824743004 0.2500607261 0.7717327234
0.2825420645 1.9659994286e-04 0.7631261281
0.2822610101 0.2523347937 0.2700997622
0.3023610253 0.251891632 0.2582549319
0.3124312139 0.2518150443 0.5036581538
0.3126437636 0.2497144447 1.0042496586
0.2925085704 0.5019140396 0.5201501938
0.3124749088 0.0018336799 1.0032591179
0.2924382142 0.2511519382 0.5130571817
0.292338975 3.098451052e-04 0.5145865025
0.3026820715 0.2503526761 0.7603822377
0.3025084029 0.5013445408 0.2615431568
0.2925052377 0.2497851411 1.0128682886
0.3124508396 0.5013550144 1.0061381662
0.2924074797 0.0017516589 1.015441843
0.3024965534 -0.0012457376 0.7651840458
0.3226173051 0.2510897515 0.2509675146
0.3324542076 0.2526706016 0.4972761092
0.3225191768 0.2502080103 0.7549342638
0.3325708507 0.250875044 0.9970844389
0.322494367 -1.3770239477e-04 0.2573717769
0.3324975322 7.2197894459e-04 0.5004041812
0.3224788146 0.0027075005 0.7550305406
0.3325067896 -3.2203671683e-04 0.9974732493
0.3625625721 0.249379946 0.2385524291
0.3523472275 7.3657644239e-04 0.994381281
0.3524075857 0.2483136086 0.488782454
0.3425051409 0.2552470927 0.7396373528
0.352436839 0.2485328983 0.9885306107
0.342359985 0.0018834292 0.2409732365
0.34235369 0.0018004918 0.7455796713
0.3424810717 0.2543352401 0.2429098825
0.3624625923 0.2509103922 0.7364944689
0.3624107509 4.8305128993e-04 0.2349050175
0.3725198206 0.25111659 0.4815033684
0.3824807721 0.2498656564 0.7283146393
0.3725198206 0.2499121328 0.9804951963
0.3821919415 0.0014881839 0.7267556948
0.3824622573 0.2518445011 0.2284498395
0.3924232088 -7.6094354546e-04 0.4784762019
0.3923010112 8.6038625401e-05 0.9748481884
0.3725790679 0.0032181511 0.483072496
0.3722124753 -7.528920108e-04 0.9856700772
0.3923602585 0.2494656981 0.4781401586
0.3922676846 0.2511041527 0.9748481884
0.4123154881 0.0012410738 0.4716248077
0.4023730514 0.2501412415 0.7214308442
0.4024730312 0.0025601509 0.2228380098
0.4023323189 0.0012559332 0.7231129119
0.4024397046 0.5000916435 0.2202616782
0.4023175071 0.2513600998 0.223869283
0.4123191911 0.2515944453 0.468906838
0.4124821211 0.2490094445 0.9713396377
0.4124821211 6.0395522915e-04 0.9675255931
0.4123525177 0.4977036761 0.9674607913
0.4123858443 0.5025516164 0.472336701
0.4223912312 0.2517751139 0.2126919105
0.4425279056 0.2530712146 0.7085815871
0.43241143 0.5029404466 0.9604529472
0.4322040645 0.5040329679 0.4613046695
0.4424612524 0.2496601132 0.2089278558
0.4223616076 0.5016338724 0.2164717028
0.4423168371 0.5022446108 0.7098665128
0.4325373305 0.2541486801 0.4643105439
0.422409746 0.2488268121 0.7108635337
0.4323929152 0.249125308 0.9592309718
0.442413114 0.499925376 0.2074133468
0.4325373305 0.0027323097 0.9583885493
0.4524851541 -5.6214264486e-04 0.9493625942
0.4724626015 0.2529592786 0.4425214254
0.4625349766 0.2484281629 0.7008886961
0.472581096 0.2493157955 0.9448542453
0.4624757293 0.250875044 0.1937503651
0.4524259069 0.498895696 0.95139922
0.4624609175 0.5011344154 0.6973958829
0.4724626015 0.4989500275 0.444367349
0.4523185211 0.2505163252 0.4524971888
0.4524740453 0.2523433035 0.9516676843
0.4724551955 -5.0768023152e-04 0.9438637046
0.4824642854 0.0039332321 0.1906620999
0.4824235529 0.2497596118 0.6933624381
0.4824790973 0.2540066327 0.1910814596
0.4925326227 0.2542233041 0.4404172207
0.4924030192 0.2511480106 0.9408550529
0.4823457909 0.5002958775 0.1940975173
0.5025380096 -5.3521308774e-05 0.6877746776
0.5024935741 0.2493884557 0.1930005166
0.5123656547 -0.0028098955 0.9390128323
0.5224154771 -0.0010859506 0.1844189162
0.5025417126 0.5015913236 0.6893123301
0.502589851 0.2516422308 0.6915359551
0.5226339515 0.4999325766 0.6814972416
0.5126359705 0.2514098491 0.4393257745
0.5224376948 0.2482586225 0.1846984893
0.5125804261 0.2531831506 0.9365040797
0.5225710012 0.2500816732 0.6797874017
0.5124286049 0.5010368806 0.4370882633
0.5225413776 0.502229555 0.180862227
0.5524982912 0.2508030384 0.4277642203
0.5526945478 0.001139415 0.9299405903
0.5323319931 0.5005544431 0.9298295016
0.5325726852 -8.7863996275e-04 0.4290547004
0.5326948828 0.5007239835 0.4325067811
0.5324949232 0.2521554343 0.4273976276
0.5326134178 0.2524742228 0.9299128181
0.5424521717 7.9031879978e-04 0.6822248724
0.5426484284 0.2518647936 0.181823144
0.5426039929 0.2532381367 0.6799725494
0.5526019739 0.252853234 0.9278021332
0.5626110638 0.503415029 0.6777276324
0.5626332816 0.5008660309 0.1764094225
0.5624740545 0.0010147799 0.1796448802
0.5628221323 0.2518418827 0.1813787893
0.562511084 0.2494493332 0.6799623663
0.5725349858 -2.0728598296e-04 0.4230772038
0.5726238567 5.7908056921e-04 0.9242565529
0.5726645892 0.2493570351 0.4253572989
0.5724090853 0.2519492365 0.9262561491
0.5925716804 0.4999430501 0.9304312319
0.5826736791 0.2505569101 0.6744588481
0.6023030486 0.2493373972 0.1750430317
0.5927086897 0.2451191786 0.4256239118
0.6026770471 0.2500751273 0.6715622108
0.5925531656 0.2507369241 0.9210257238
0.5826403525 0.2476779956 0.1772685082
0.6024030284 0.4991647351 0.673182254
0.5925901951 0.49712174 0.4268116349
0.5826403525 0.5002552926 0.1703874904
0.6125861572 -0.0039214 0.9298017294
0.6125417218 0.4976513084 0.4220394504
0.6226730092 0.5003934124 0.1778841247
0.6225322969 0.2488896533 0.6809445754
0.612608375 0.4985991639 0.9240621477
0.6224582378 0.4998376601 0.6790394046
0.6124010094 0.24895184 0.4246926183
0.6124047124 0.2492869933 0.9230160627
0.6225174851 0.2489308929 0.1764279372
0.6323895656 0.5018276329 0.931310684
0.6424690117 0.246783817 0.1891911006
0.6524077454 0.2481401406 0.4434610505
0.6427615452 0.2509202111 0.6881366416
0.652611408 0.2487678984 0.9420585136
0.6424764176 0.5002683845 0.6876635889
0.6525484577 0.4953471294 0.9428361343
0.6423801407 0.4983373254 0.1843050503
0.6524743986 0.5018498892 0.4387258956
0.6325302779 0.2495102106 0.4323160789
0.63260804 0.2473722991 0.9305608354
0.6625205181 -0.0012266234 0.6938928866
0.6725777464 0.4978856539 0.4459966496
0.682531292 0.4980002083 0.6940447078
0.6724962814 0.4972958626 0.9444098906
0.6825201831 0.4937623517 0.1911147862
0.6626649334 0.2459983014 0.197925448
0.6625242211 0.2503500577 0.6958536017
0.6824720447 -0.0017913436 0.1986197522
0.6824794506 -0.0042981856 0.698165172
0.6625982802 0.4984361694 0.6934364973
0.6625723595 0.5003410447 0.1919877581
0.6825127772 0.2500201412 0.1965053644
0.6726369937 0.2496149461 0.4458624174
0.6823313324 0.2479686363 0.6952259507
0.6724962814 0.2468787335 0.9428083622
0.702530957 0.2472511988 0.2013840088
0.6926440647 0.2488425224 0.4454865674
0.7025939073 0.2481074107 0.7013987783
0.6924107785 0.2463629116 0.9520102077
0.7024976304 0.4984342056 0.7033187609
0.7024939275 -0.0034647536 0.7048758539
0.7026568575 6.5353381874e-05 0.2011766433
0.6925181642 0.4964121576 0.9464465164
0.6924848376 0.4978555425 0.4490154844
0.7125178292 0.2469042627 0.4601706392
0.712702977 0.2464506275 0.9554261845
0.7226120871 0.4988701668 0.7102127391
0.7224306423 0.2460375772 0.2089435934
0.7325137913 0.2488346672 0.4597466507
0.7225232162 0.2490801409 0.706588471
0.73262488 0.4975256259 0.9595642378
0.7224824837 0.4974830772 0.2070569373
0.7324175144 0.4965528958 0.4589625498
0.7325434149 0.2471798478 0.9585274101
0.7124289583 0.5004143595 0.9557779654
0.7625040315 0.5020011009 0.7214808341
0.7425006635 1.633464501e-04 0.7114384176
0.7526986041 0.4988125623 0.9683587582
0.7624336753 0.49968383 0.2192924295
0.7624929226 0.2518366459 0.2233092109
0.7525171593 0.2480838453 0.4653010847
0.7624670019 0.2498060882 0.7248181231
0.7525060504 0.2483797228 0.9644243675
0.7424858516 0.4979864617 0.7097100629
0.7526726834 0.4976369073 0.4671803348
0.7424414162 0.2503336928 0.2128085536
0.7424117925 0.2498571467 0.7112329035
0.7826110822 0.4985088296 0.2252847379
0.7825518349 0.4974320187 0.7299346825
0.7822704103 0.2507009213 0.233349776
0.7723353795 0.2499671189 0.4727616151
0.7825407261 0.2468545134 0.731259415
0.7724390623 0.2512409633 -0.0236203694
0.7925313012 0.501175655 0.48300862
0.8125124515 0.4978581609 0.4859839451
0.8024922527 0.4987844146 0.7323665988
0.8024515202 0.4967244 0.2347383845
0.7923942918 0.25008691 0.4829993626
0.7924905687 0.2491685114 0.9840407766
0.8125050455 0.001055954 0.4865171707
0.8026070443 0.2452324237 0.2350355467
0.8125161544 0.2508920635 0.4911643804
0.8024033817 0.2469193184 0.736238965
0.8125161544 0.2503795145 0.9898266452
0.8325121165 -0.0017777935 0.5004180673
0.8224697 0.2464728837 0.2454797339
0.8325380372 -8.2358841273e-04 0.996566025
0.8324936017 0.247854082 0.4970557833
0.8224808088 0.2491586924 0.7428487413
0.8322492066 0.4974182721 0.4944007639
0.8324306515 0.4993159469 0.9951496444
0.8325491461 0.2496123277 -0.0055665059
0.8224326704 0.4985304313 0.2407714254
0.8425249094 0.4989624648 0.7499565653
0.8426730276 0.498430278 0.2472886279
0.8425138005 -0.0036718679 0.2499825283
0.8424878798 0.2489426756 0.2467155954
0.842558236 0.2473762267 0.7497797491
0.8628615434 0.2511565204 0.2577087459
0.8525969495 0.2483273551 0.504902347
0.8627393458 0.2498008514 0.7585696408
0.852808018 0.2476557393 0.0028883516
0.8726262382 0.0011883134 0.510466964
0.8826908725 0.2512808937 0.2631270962
0.8724707141 0.2479051405 0.5060465604
0.8925333293 0.2462372291 0.5200224418
0.8824909128 0.251782969 0.7643036681
0.89255925 0.4991444426 0.0149772067
0.8725188525 0.2490853776 0.0110228201
0.8926962594 0.2497785951 0.016465147
0.8925851707 -0.0049409338 0.5184088788
0.8724818229 -0.0042030728 0.0109566297
0.8726077234 0.4980335927 0.5113223468
0.8926184973 0.5004549444 0.5165333316
0.9126922215 -3.4900608498e-04 0.519904873
0.9026720227 0.2508861721 0.2732046908
0.9127625777 2.4654564163e-04 0.0206301393
0.9125774299 0.2501687345 0.5209833589
0.9026831316 0.2487135669 0.7736323398
0.9126737067 0.4971420325 0.5229736977
0.9028238439 0.5003829388 0.7696711027
0.9127255481 0.2496817149 0.0250999774
0.912736657 0.4977737179 0.025341225
0.9026238843 0.4969574363 0.268415843
0.9426454321 0.2467877446 0.782799933
0.932654857 0.2497445561 0.0310101728
0.9327844604 0.5003004597 0.5310461417
0.9325252535 0.5034975081 0.0356889502
0.9225976286 0.4993349301 0.7776870766
0.9226235493 0.498756267 0.2754801572
0.9424084429 0.4994174093 0.7841913187
0.9227605587 0.2502499045 0.2774843821
0.9226864996 0.2484536922 0.7781666094
0.942823174 0.2490245002 0.284003436
0.9327178072 0.2508357682 0.5338779772
0.9725282865 -0.0014662711 0.5490091809
0.9624229198 -9.1948677275e-04 0.7921795204
0.9626710178 0.2507009213 0.2957103312
0.9525804629 3.2123508107e-04 0.0368172409
0.9727097314 -3.807283576e-05 0.0446065013
0.9527063634 0.2471844299 0.5378873528
0.9725356925 0.2494316591 0.5421559352
0.9627006415 0.2494152942 0.7905992839
0.9527470959 0.2501713529 0.0412739335
0.9725912368 0.2492123693 0.0476324643
0.9726319693 0.4990665457 0.5410496771
0.9527767196 -0.0013256638 0.5348851812
0.9627265622 -4.2965235088e-04 0.2943365346
0.9526137895 0.4991732449 0.5373180233
0.9626043646 0.5023441094 0.7932737439
0.9826299504 0.248455656 0.2947688547
0.9825670001 -0.0027481016 0.7951196674
0.9925168427 -6.0802984648e-04 0.0502029637
0.9924612984 0.2493563805 0.5494831593
0.9826114356 0.2504698488 0.7974784503
0.9925464664 0.2502322304 0.0485177485
0.992657555 0.4997159052 0.0500997438
0.0227540067 0.7491851789 0.8112562237
0.0026185913 0.4995241085 0.3035346771
0.0027071289 0.7480789111 0.8084382742
0.0124980407 0.5009367273 0.5608669716
0.0025436434 0.5009871312 0.803750332
0.0225565651 0.9994831715 0.3107360007
0.0226577298 0.9993784361 0.8129780982
0.0126651921 0.7457223644 0.0576721962
0.0225744133 0.7484847608 0.3126957901
0.0027617846 0.748465123 0.3064137254
0.0126098329 0.7499641485 0.5610530451
0.0526458963 1.0004323362 0.5734403585
0.052564061 1.0002752331 0.0698300188
0.0325288476 0.7526545394 0.0656472524
0.0426679113 0.7500230622 0.3185788614
0.0325173684 0.7486876857 0.5654919636
0.0425968145 0.7496761261 0.8177030699
0.042546084 0.4994043174 0.8157108797
0.032534402 0.5002539834 0.0662893449
0.0324551588 0.4979871163 0.5648217285
0.0425116465 0.9998366535 0.3166598045
0.0525418433 0.4999214484 0.5679859044
0.0526777418 0.7507038424 0.0715825353
0.0525555442 0.7502718088 0.5709482691
0.0427030893 1.0002752331 0.816940261
0.0724341226 0.500214053 0.0784468899
0.072544841 1.000825094 0.5755908502
0.072541138 1.0017742586 0.0764024879
0.0723748753 0.7501932572 0.0690500837
0.0625509332 0.7514435362 0.3207404619
0.0724989243 0.750232533 0.575289985
0.062703495 0.7495844827 0.8232565781
0.092603383 1.0001246759 0.5737819562
0.0924297144 0.7498135914 0.0725480811
0.1024402855 1.0014076847 0.8218226084
0.102578776 0.7493030062 0.3201498405
0.0823928523 0.7519475753 0.3246220855
0.1025454494 0.499537855 0.8220327512
0.0923112198 0.750769302 0.5715962864
0.1023843708 0.7526349015 0.8197665421
0.082356193 0.5017143877 0.8210292501
0.08262799 0.7527789127 0.8257301527
0.0925093279 0.4986822976 0.0738879031
0.0823958147 0.4989591919 0.3208959861
0.1124253062 0.7496630342 0.0707847334
0.1224999384 0.7520261269 0.3147972176
0.1123179204 0.7496630342 0.5698160904
0.1224114377 0.7512471573 0.8180372617
0.1226280607 0.9996075448 0.3163533849
0.1224088457 1.0016106096 0.8161441255
0.1225969558 0.4977940104 0.3149703308
0.1124316012 0.9981477951 0.5689690392
0.1425047876 0.7520523108 0.3111822069
0.1523713137 0.7526218096 0.5594172643
0.1323872011 0.7486484099 0.5618260372
0.1423181586 0.7531651245 0.8143019049
0.1522054212 0.5013687609 0.5602096969
0.1324053455 0.9985732827 0.0617459106
0.1423729623 0.4984754452 0.3062924536
0.1423770356 1.0020230052 0.3152193546
0.1324316365 0.9998562914 0.5623851835
0.1424281364 1.000995289 0.8099305654
0.1525931207 0.9999741188 0.0628303212
0.152453149 0.7500361541 0.056680452
0.1324764423 0.7476076018 0.0662555555
0.1723050661 0.7499379647 0.0514045729
0.1624740884 0.7540030078 0.3056222186
0.17246022 0.7523861549 0.5504598139
0.1623811442 0.7509002212 0.807147794
0.1822923086 1.0008840077 0.7975950934
0.172469107 0.5019127304 0.0500562341
0.1723798658 0.5005079667 0.5479455068
0.1822797185 0.7552663787 0.2991744465
0.1825030068 0.7534662388 0.7995974669
0.1724598497 1.0011982139 0.0514385475
0.1625192644 1.0009429213 0.8047760508
0.1824000646 0.5010905575 0.2987162057
0.2024319453 0.5011422706 0.7945031252
0.1925072828 0.4992799441 0.5475650281
0.192384715 0.7520392188 0.0474489828
0.2025389608 0.7536691637 0.2993818121
0.1926128171 0.751122784 0.5494850108
0.2023627001 0.7509198591 0.7944290661
0.232375158 0.5021621316 0.0348790212
0.2325262386 0.7506514746 0.0335294789
0.2325214247 0.7495386609 0.5334549145
0.2125343497 0.7506121989 0.0358279036
0.2225530673 0.7532240382 0.286546441
0.2126050762 0.7494993851 0.5405349663
0.232479211 0.4996661559 0.5375670471
0.22249382 0.7557704178 0.7874962069
0.2222235043 0.5014715325 0.788474713
0.21253472 0.5020495411 0.0434047995
0.2222805298 0.5026858087 0.2870602262
0.2122947685 0.5021320202 0.5374309634
0.2524936879 0.7527069071 0.0259714681
0.2424523823 0.7512144275 0.2798792689
0.2524903552 0.751829748 0.5265516789
0.2425849481 0.7525301661 0.7821010001
0.2423357392 0.5020141929 0.7815029727
0.2424123903 0.5000052368 0.2849106602
0.2624605641 0.5037429817 0.775021874
0.2525995924 0.5025902376 0.5284624042
0.2624894472 0.7547492476 0.2787461643
0.2623405883 0.7499379647 0.7787544536
0.262520552 0.5014767693 0.2763725696
0.2723855969 1.0034303873 1.0195336093
0.2722545123 0.5020410313 0.5260841807
0.2826039038 0.5012542065 0.2695517247
0.2824361599 0.4980931609 0.773301851
0.2823276633 0.7532829518 0.2650461531
0.2824398629 0.7511096921 0.7700645418
0.2726381385 0.7490346218 1.02031123
0.2723070942 0.7511882436 0.5170498939
0.2824961478 0.998160887 0.2626845929
0.3123856676 1.0024354009 0.506327985
0.2925200496 0.7529556537 1.0142383823
0.3024710031 0.7505467392 0.2616644286
0.2923989629 0.753603704 0.5132414038
0.3025317315 0.750239079 0.7595990625
0.3124397307 0.751299525 1.0063047992
0.3125182334 0.7497743156 0.5064066728
0.3126341359 0.5017556273 0.5063863066
0.3027513168 0.5002258357 0.7609200921
0.2923526759 0.500499457 1.0160250585
0.302484704 1.0016957071 0.2604905915
0.3324742036 0.5002494012 0.4971502087
0.322354025 0.5013098472 0.7542723604
0.3322327708 0.7534007792 0.9996117063
0.3323912574 0.5042110181 0.9989914612
0.3225073274 0.7492964603 0.2535540293
0.332417178 0.7507496641 0.499709877
0.3223780942 0.7499641485 0.7496899524
0.3224965888 0.49743791 0.2536290142
0.352420546 0.499082256 0.4879400315
0.3523894412 0.9983179901 0.4918262838
0.3624181568 0.749519023 0.2420109899
0.3622070883 0.7494208336 0.7387310543
0.3523998095 0.7477188832 0.9951589018
0.3624366716 0.5008856688 0.7356335317
0.3424625569 0.752719999 0.2442762732
0.3624959189 0.4994900695 0.233470122
0.3522483586 0.750586015 0.4884815889
0.3422244569 0.7493226441 0.7462860102
0.3622589297 1.0011393002 0.7384533326
0.3425003271 0.4990888019 0.7455639338
0.3524020313 0.5023401818 0.989891447
0.3423466544 0.5002644569 0.2373684089
0.3725013058 0.5019487332 0.9797823772
0.3823919011 0.4997355431 0.2302133723
0.3725087117 0.5007992621 0.4834539004
0.3922973083 0.4994638856 0.9766070925
0.3824955839 0.5003279528 0.7257031296
0.3724790881 0.7501539814 0.9803285632
0.3823326538 0.7490215298 0.2278684754
0.3722902373 0.7512667952 0.4872272125
0.3823696834 0.9980626975 0.2282933896
0.3824289307 0.7515940933 0.7335765397
0.3922936053 0.7494666553 0.9753295727
0.3926379802 0.7510704163 0.4756628811
0.3923750704 0.5007194013 0.4778911349
0.402487843 0.499224958 0.7171048659
0.4022545568 0.7500950678 0.2201302233
0.4023434277 0.7513257089 0.7206356344
0.4124302797 0.7499510566 0.9694418728
0.4124636063 0.7491131733 0.4662703334
0.4223430928 1.003306014 0.714320243
0.4425056879 1.0005894393 0.2072300505
0.4324854891 1.001178576 0.4622091165
0.4426093707 1.001001835 0.7083982907
0.4224541815 0.5019664073 0.713057535
0.4324817862 0.7481378248 0.9595642378
0.4224208549 0.7500688839 0.2132630915
0.4322522029 0.7503241765 0.4578451829
0.422243113 0.7499968783 0.7157005198
0.4424168169 0.7528640102 0.2060025206
0.4422761046 0.7504878256 0.7099785272
0.4224541815 1.0032209165 0.2110496496
0.4723107803 0.7506776585 0.9488997247
0.4624201849 0.7509787728 0.2003842107
0.4724885221 0.7519213915 0.4474509855
0.4625127588 0.7509722268 0.6998342794
0.4526073517 0.9994373498 0.4550661144
0.4725255517 1.0009887431 0.4482480468
0.4725070369 0.4984682446 0.9451967687
0.4624349968 0.500744276 0.1994205164
0.4624275908 1.0006287151 0.1970302584
0.4623202051 0.9984881851 0.6965488317
0.4526258665 0.7474635906 0.9533617866
0.4526258665 0.7495124771 0.4500800843
0.4522814916 0.5019677165 0.4536969465
0.4824828002 1.0040064321 0.6908675716
0.492417831 1.0007203586 0.4404422157
0.4927214734 1.0029983537 0.9411512894
0.4922660098 0.7503045386 0.4428695033
0.4924770783 0.7506187448 0.9412716355
0.482667948 0.7527789127 0.192814443
0.4825716712 0.7513322548 0.693706813
0.4924252369 0.5014073821 0.9432527169
0.4924770783 0.5013039559 0.4408273231
0.4825124239 0.5007455852 0.6931782161
0.512502664 1.0027496071 0.4356200413
0.522508051 1.0030769053 0.6874145652
0.5025269007 1.0022586599 0.1916730069
0.5226820899 0.7507038424 0.6822109863
0.5024861682 0.751482812 0.1859241678
0.5024084061 0.7529098319 0.6867674736
0.5127692769 0.7491851789 0.935467252
0.5125989409 0.4996013508 0.9330973602
0.5025750392 0.5038614637 0.1882135203
0.512587832 0.7482687441 0.4377335034
0.5225191599 0.750586015 0.1856797727
0.5525464296 1.0007661803 0.429850836
0.5425817752 0.5012384962 0.6796096598
0.5425447456 0.7489495242 0.1813686062
0.5524908853 0.5001446658 0.4251610423
0.5525056971 0.7531651245 0.4260404943
0.5423855185 0.7510573244 0.6759622482
0.5326911798 0.7538000829 0.9314958318
0.5325208439 1.0021735624 0.9321531064
0.542681755 0.4992642337 0.1794921333
0.5525279148 0.5012954461 0.929672126
0.5325245468 0.7523206952 0.4317708186
0.5425854781 1.0031620028 0.1802336502
0.5726127478 0.5002291087 0.9274040655
0.5625592225 1.0050537862 0.6755558488
0.5525094 0.7535120605 0.9244602155
0.5624703515 0.7510311405 0.1736710865
0.5627258555 0.7550634538 0.6763612417
0.5725349858 0.7485633124 0.9242010086
0.5725386887 0.499317256 0.4225106515
0.572686807 0.7532371301 0.4239992398
0.6025696614 0.500363301 0.1729573418
0.6025437407 0.9977812211 0.1712225069
0.6026103939 1.0005698014 0.673767321
0.5924531858 0.7515940933 0.9248860554
0.5926383336 0.9979186863 0.4240297892
0.5925420567 0.9998759293 0.9213775047
0.6024511668 0.7478367105 0.1730980541
0.5925531656 0.7499052348 0.4211146372
0.6024993052 0.7499314187 0.677044437
0.5825959171 0.9991362355 0.1734387261
0.5825477786 0.9983638118 0.6691839873
0.582518155 0.5000072006 0.6757456252
0.5826107289 0.7507038424 0.1719769842
0.5825551845 0.7495713907 0.6779211119
0.6124750685 0.7493226441 0.9256729335
0.6125158011 0.9998497455 0.4268162636
0.6127046518 0.7481116409 0.4257340747
0.6225137821 1.0012964033 0.6813741183
0.6225026732 0.7483865714 0.1747606813
0.6225545146 0.7459187433 0.6802280534
0.6225508117 0.9996468206 0.1791144318
0.6425986151 0.9980299677 0.69011402
0.6425986151 0.9981150652 0.1862037409
0.6525410518 0.9980954274 0.4408060311
0.6525077252 0.9978663186 0.9434100925
0.6325673075 0.9988351212 0.4317060169
0.6325673075 1.0020099133 0.9346711165
0.6323673479 0.4953117812 0.4308737775
0.6325747134 0.7522748735 0.9287278722
0.6323229124 0.752006489 0.4300396867
0.6523299833 0.7473130334 0.9449468192
0.6425801004 0.7493815578 0.18354687
0.6525447548 0.7521243164 0.440607923
0.6424653087 0.7490084379 0.6848660057
0.6724555489 0.7474570446 0.9413179224
0.6625020033 0.996917154 0.1941252894
0.6725740435 0.9977288534 0.9476036901
0.6823498472 0.7485829503 0.1950760234
0.6723740839 0.7461674899 0.4440831471
0.682360956 0.7492310006 0.6942159695
0.6626316068 0.7497219479 0.1922395591
0.6623686969 0.7470250111 0.6921543488
0.6724925784 0.997100441 0.442771375
0.7023828388 0.4963768094 0.2020718329
0.692451511 1.0000133946 0.4539283812
0.6925033524 0.9966684074 0.9533525292
0.6924589169 0.7500754299 0.9455300348
0.702619828 0.7483145658 0.2081678241
0.692529273 0.7484847608 0.4451690389
0.7026457487 0.7468809999 0.7034113348
0.7124993144 0.4973416844 0.4532016761
0.7126141061 0.7461347601 0.4557280178
0.722538028 0.9978532267 0.7090444565
0.7324878706 0.9989922243 0.9591383979
0.7323952967 0.7487204155 0.9588236466
0.7223454743 0.7508936753 0.2093768392
0.732621177 0.7495517528 0.4583497106
0.7225158103 0.7490804435 0.70751421
0.7225269191 0.9974211932 0.2090630137
0.7325841475 0.9989791324 0.4590384604
0.712532641 0.7479479919 0.9557131636
0.7125289381 0.9948551756 0.4620452607
0.7125437499 0.9960399949 0.9582404311
0.7423784659 0.5011200143 0.2057525711
0.7422747832 0.7515155418 0.2143832356
0.7424969605 0.7490018919 0.7094573361
0.7523542292 0.7485567664 0.9675626226
0.7625521699 0.9981019733 0.7164040815
0.7525764066 1.0001246759 0.9651557013
0.7625484669 0.748281836 0.2246413493
0.7523171997 0.7482360142 0.4656371279
0.7624262694 0.7497808615 0.7205125111
0.7523949617 0.9963083794 0.4679857277
0.7426006433 0.9999741188 0.2132723489
0.7626632586 0.9998693834 0.2213336839
0.7824481522 0.9980692435 0.2329498567
0.7725501509 0.998154341 0.4771996078
0.7824222315 1.0012833114 0.727141728
0.7722391026 1.000825094 0.9774680298
0.7826481118 0.7476926993 0.2364685906
0.772546448 0.7499445106 0.4793186244
0.782462964 0.7519803052 0.7312742268
0.7725501509 0.7487138696 0.9742834877
0.7725020125 0.5007900978 0.4795343216
0.7725131214 0.4984217683 0.9767089238
0.7924942716 0.7521243164 0.981059897
0.8125383721 0.7464162365 0.9878918508
0.7924942716 0.4977481887 0.9859755711
0.8124457982 0.4962255977 0.9935573733
0.8024330054 0.7506580206 0.2373841465
0.8124383923 0.7506711125 0.487232767
0.8025996384 0.7495124771 0.7390291423
0.7925053805 0.7516268232 0.4814718933
0.7924350243 0.9984096336 0.4816301946
0.7925424101 0.9991362355 0.9819578639
0.8024589261 0.9968255105 0.2351012741
0.8025885295 0.9972444521 0.7361065843
0.8124606101 0.9970022515 0.9879381377
0.8225252443 1.000818548 0.742920949
0.8226807685 0.9992147871 0.2402243137
0.8325195224 0.7487138696 0.9922057944
0.8225289473 0.4979563503 0.7418656065
0.8223623143 0.748098549 0.2382904449
0.8323677012 0.7475290502 0.492776092
0.8224585911 0.746678075 0.7428302266
0.8425100975 0.7472672117 0.2453084722
0.842473068 0.7497284938 0.7466914839
0.8624282975 0.5005413512 0.7571865867
0.8425878596 1.0036005824 0.7495094333
0.8625393862 0.9983507199 0.2550222514
0.8625727128 0.9992082411 0.7565765247
0.8524229106 0.9987238398 0.0088596458
0.8624875448 0.7483407497 0.7533290324
0.8525080786 0.4998455153 0.4990618597
0.8525265934 0.7476141477 0.0028739101
0.8525302963 0.4978411414 0.0010728849
0.8625467921 0.5002742759 0.2529837741
0.862639366 0.7470250111 0.2554323537
0.8525265934 0.7488644267 0.5013539894
0.8526561968 1.0000199405 0.5018288935
0.8827575257 0.9986060125 0.7611894821
0.8926036855 0.999941389 0.0151909599
0.8824279626 0.7506056529 0.7598360517
0.8724151697 0.7483996633 0.0071256441
0.8925148146 0.7502521709 0.0159889469
0.8823798242 0.5008634125 0.762455893
0.8825538631 0.4987772141 0.2654284833
0.8825982986 0.7471297465 0.2629993442
0.8724929318 0.7465864315 0.5057493981
0.8926629328 0.7515679095 0.5195919732
0.8725855057 0.4965240936 0.0078869718
0.8825908926 0.9995224473 0.2651961228
0.9026164784 0.9994438958 0.7692628518
0.9126996274 0.7464947881 0.5219905629
0.9025276074 1.0004126983 0.2697692734
0.9024720631 0.749525569 0.7714624076