POSCAR file written by Ovito 3.7.11
1
270.0393912078 0.0 0.0
0.0 15.2757347768 0.0
0.0 0.0 10.8015756483
Sr Ti O 
800 800 2400 
Direct
0.0224835219 0.4982842069 0.7663755856
0.0126344403 0.5006605247 0.0142679057
0.0125480085 0.2506758231 0.5108693438
0.0224618955 0.2507144464 0.7640777727
0.0024198935 0.2484369782 0.7635139661
0.0123858099 0.2472462008 0.0139999819
0.0024559994 0.0014048024 0.2632850943
0.0225066297 0.4993414392 0.2657393659
0.0125010894 -0.0031193663 0.5134050849
0.0024009333 -5.4233800847e-04 0.764315701
0.0123482969 -0.0026240709 0.0149134597
0.0225706944 0.2510443815 0.2645487988
0.0025075104 0.2478019842 0.2621750711
0.0424878627 0.5020490013 0.2674752237
0.032513392 0.2506640397 0.5131264219
0.0425308194 0.2509907016 0.7662950418
0.0525734283 0.4995993646 0.0210631181
0.0327092893 0.2515720157 0.0197747875
0.0322500971 6.3855445029e-04 0.5172360075
0.0324641399 -0.0017434586 0.0172206231
0.0424708281 0.2502928628 0.2708969467
0.0522623626 0.2513599146 0.5167703347
0.0524334487 0.251079077 0.0202462002
0.0624901297 0.2509815367 0.2713394748
0.0625556757 0.5017720915 0.7697001006
0.0625334567 0.5031939544 0.2697082313
0.0726275396 0.5007089675 0.5255144294
0.0725519951 0.2501927039 0.5232138391
0.0626193701 0.2541133009 0.771323012
0.0725234807 0.2501082563 0.0277082597
0.0622335005 0.0013167542 0.2684343431
0.0623271905 0.0020181935 0.7707082868
0.0926675788 0.2547633515 0.5323004764
0.1026064992 0.2510836594 0.7801735726
0.0825997884 0.2535784658 0.7828991009
0.0925235258 0.2498208724 0.0275466166
0.1025750223 -1.1518997956e-04 0.2809871413
0.0824124083 -0.001369074 0.2788467128
0.0824624011 0.0025936159 0.7742374016
0.0924009511 0.0010580433 0.0278686992
0.102444671 0.2514397798 0.2835886136
0.0823887081 0.2518855849 0.2787689464
0.1025428048 0.4964302863 0.2800345025
0.0924831613 0.5006965295 0.5290805758
0.1125591213 2.9058126441e-06 0.0277796382
0.122417683 0.2519314092 0.2729716441
0.1125083879 0.2498385475 0.5246515923
0.1226698684 0.4998415788 0.7718988539
0.1125413461 0.4988858146 0.0266430447
0.1225906207 0.2524505331 0.7749548895
0.1124924643 0.2503223213 0.0225865069
0.1125883762 0.500233704 0.5260134306
0.1525284752 0.2522043911 0.5152437056
0.1326076778 0.2508944705 0.5169175355
0.1423832886 0.2506234524 0.7701555897
0.1525732834 0.2508578111 0.0160216314
0.1325958277 0.2491236883 0.0187079987
0.1426480648 0.2511124633 0.2673159877
0.1423903246 0.5023736992 0.7650183762
0.1523636844 0.5019383683 0.0124352101
0.1326087887 0.5003318989 0.0208727755
0.1325976792 0.5003757593 0.516012112
0.1524981092 0.0037611538 0.515184455
0.1825600197 0.251701633 0.7580443937
0.1826685224 0.2517880445 0.2569628685
0.1623503756 0.5031815164 0.7601126105
0.1622933468 0.5009590373 0.2651709303
0.1726111008 0.2530940374 0.5072846816
0.1825781652 0.5039507101 0.7571139739
0.1626133002 0.2511347208 0.7642055318
0.1725085232 0.24912958 0.0101868345
0.1625107225 0.0027895475 0.2599050319
0.172535186 3.7283891783e-04 0.5113313134
0.1827259214 0.0032611452 0.2559444986
0.1627106934 0.2505527521 0.2695082605
0.2024834093 0.2504669952 0.2509989238
0.1925059761 0.4979758748 0.0047352224
0.2026178341 0.5032286499 0.2574229866
0.1924593162 0.2521952263 0.5039546118
0.2026041324 0.2498103983 0.7523535573
0.1925448593 0.2497508267 0.0088587875
0.1924248768 -0.0011503611 0.5078938519
0.2026045027 5.5633254619e-04 0.75946826
0.1923915483 -0.0023390437 0.0036126084
0.2025982074 0.001813097 0.2594134369
0.2123582649 0.2508348989 0.5032973003
0.2225760335 0.2492624705 0.7541921779
0.2124708411 0.2492127183 0.0046462539
0.2226775002 7.3082469653e-05 0.2487177751
0.2125474966 -0.0022050404 0.5058497057
0.2224101318 0.0013149213 0.7520323078
0.2125274995 -0.0017398581 0.004710689
0.2325405057 -0.0030934428 0.504042562
0.2223871721 0.2467801021 0.2513359117
0.2325686497 0.2508735222 0.5021298781
0.2323853431 0.2444725208 0.0064558973
0.2323379426 -0.0035885417 1.0044630725
0.2525235162 0.2453844246 0.5027307163
0.2425371953 0.2492323573 0.7533802593
0.2624391066 0.2467971226 0.2516775285
0.2525483274 0.2489305715 1.0033891551
0.2425038669 -2.1351585533e-04 0.2513720175
0.252426123 0.4976708158 1.0057684376
0.2524894471 -0.0030183564 0.5048841059
0.2424916464 0.2492834187 0.2517719592
0.2625316857 0.2467440973 0.7530266072
0.2424423944 0.0019496534 0.7514203601
0.2623994828 -3.0293872238e-04 0.2490010671
0.2524150135 -8.5584174953e-04 0.9959550545
0.2625409436 8.4731691224e-04 0.754244948
0.2724257978 0.2466668506 0.5035972566
0.2725961433 0.2465326509 1.0065275861
0.272414318 -0.0017335082 0.5017206785
0.2724639403 0.4961317736 1.003296576
0.2826020909 0.2475414403 0.750663989
0.2824795162 -0.0030169817 0.7493854718
0.2824602597 0.2476252333 0.2510452133
0.3024599345 0.2448639914 0.2453932602
0.3126380792 0.2498771708 0.5008439546
0.312432924 0.2490176377 1.0016394103
0.292510275 0.4992916871 0.5009828232
0.3123933001 -0.0015894235 1.0030188387
0.2923262278 0.2494994476 0.4987618509
0.2925858195 -8.8379457839e-04 0.4984406015
0.3024403077 0.2486588988 0.7501066629
0.3025140007 0.4995267003 0.2508841257
0.2924147334 0.2512244055 1.0037131819
0.3125069872 0.497472462 1.0043982671
0.2925399003 -0.0029267732 1.002991065
0.3024010542 -0.0015813715 0.7513518516
0.3227169791 0.2487512021 0.2469809915
0.3325881316 0.2475859554 0.4980545467
0.3224503514 0.2480409253 0.7485642953
0.3325973895 0.2480062297 0.9980936313
0.3224344278 2.4813133238e-04 0.2477947616
0.3325048104 0.0013596327 0.5008097003
0.3224433154 -8.5152117176e-04 0.7501316592
0.3323892717 -5.6092958551e-04 0.9972326459
0.3627215131 0.2480658013 0.2413808826
0.3527011232 -0.001764276 0.9942608572
0.3524844881 0.2474988892 0.4947800244
0.3426662909 0.2512296426 0.7442028945
0.352668165 0.2492565788 0.9951311006
0.3425207566 0.0013929535 0.2499231548
0.3423615205 -0.0046773928 0.7465090396
0.342496686 0.2492565788 0.2476031229
0.3626326372 0.2455356448 0.7450351805
0.362628934 -0.0026890105 0.2461542602
0.3726311785 0.2506142876 0.4931237846
0.3825926881 0.2496991107 0.7442454809
0.3725867405 0.2508519194 0.9940479253
0.3826778609 -0.001030236 0.7445037766
0.3826667514 0.2495249783 0.2413623667
0.3925060566 -0.0050830688 0.4973148398
0.3924986503 -8.9924391706e-04 0.9903817935
0.3726015532 -0.0011333407 0.4929867675
0.3726645069 -9.0277893523e-04 0.9938257355
0.3926764021 0.2501468796 0.4909824303
0.3925801199 0.2531614646 0.9906224991
0.4125957183 -9.5848820306e-04 0.4924192577
0.4026638339 0.2485168435 0.744643571
0.402597177 -0.0019215188 0.2420085688
0.4026268023 -0.0030203203 0.7446759737
0.4025083011 0.4994245776 0.2452497626
0.4025712548 0.2496061528 0.2404560175
0.4126920005 0.2500964729 0.4901316285
0.4126290467 0.2476867688 0.9935017087
0.4126660784 -0.0022670996 0.993168424
0.4126845942 0.4996366787 0.9969919402
0.4125512803 0.4990200144 0.4917600946
0.4225979627 0.2507713995 0.2399570162
0.4426542959 0.2495858591 0.7414690341
0.4325705819 0.4992524091 0.9971493247
0.4327742558 0.4989519326 0.4946133821
0.4427172497 0.2519379555 0.2453960375
0.4226349943 0.4986861516 0.2406291404
0.4426468896 0.4972341756 0.7475551832
0.4324594869 0.2509461865 0.4915277211
0.4226831355 0.2487106148 0.7432835842
0.4327594432 0.2495138495 0.9932239714
0.4427950161 0.5001531841 0.2415447475
0.4325002217 -0.0034178789 0.9941312465
0.4526083992 -0.0015031429 0.9925111125
0.4724869805 0.2498228363 0.4799673707
0.4624217823 0.2519012961 0.7412088869
0.4723795888 0.2484657821 0.9865953089
0.4624662203 0.2512257148 0.239010858
0.4525898834 0.5016346186 0.9944274995
0.4626513784 0.5008464405 0.737901962
0.472520309 0.497925468 0.484410241
0.452649134 0.2524970121 0.4920933794
0.4524936011 0.25021758 0.9888912702
0.4724906837 -3.1360924019e-04 0.9863083137
0.4825743977 0.001672089 0.2311555225
0.4826077262 0.2523019314 0.7369085884
0.4824633028 0.2515170265 0.230967587
0.4925285011 0.2503216666 0.4821374245
0.4925062821 0.2521435103 0.9782169016
0.4826225389 0.497381468 0.2308713047
0.502519636 7.7615830574e-04 0.7258851966
0.5025825898 0.2494379121 0.22910397
0.5124144887 8.3075469748e-04 0.9804850892
0.5225611565 -0.0028491338 0.225053635
0.502564074 0.5005165054 0.7298420267
0.5025936993 0.2483112887 0.7294893004
0.5225056091 0.4981356052 0.7267184084
0.5125070678 0.2492277749 0.4792674728
0.5226648451 0.249225811 0.2291317437
0.5123811602 0.2491243429 0.9729676674
0.5225389375 0.2494706437 0.7265850945
0.5125737247 0.4997990277 0.4792850628
0.522572266 0.4998278315 0.2271829539
0.5525827025 0.2481862538 0.473476651
0.5526604689 0.0012438936 0.9746433489
0.5325782136 0.4994645102 0.9777540062
0.5324263839 -0.0017572714 0.4750782692
0.5325374788 0.4992530638 0.4760957133
0.5325745105 0.2494136907 0.4770779774
0.5325300725 0.2503190481 0.9751525339
0.54246566 -0.0025026365 0.722133892
0.5426137865 0.2502044873 0.2257535329
0.5425619422 0.2485260083 0.7297114902
0.5526086247 0.2471525883 0.9760227773
0.5624849615 0.5004438412 0.721509909
0.5623664603 0.4989794272 0.2199812269
0.5624479299 3.9804228812e-04 0.2217948511
0.5625923533 0.2480481262 0.2263303006
0.5625516185 0.251285941 0.7262536614
0.572624223 0.002164373 0.4739349174
0.5725390503 -2.2366266675e-04 0.9701440053
0.5725649724 0.2474353898 0.4652704408
0.5723761111 0.2498385475 0.975235855
0.5924324443 0.4988543923 0.9730880202
0.5824450125 0.2509710626 0.7229735844
0.6023198906 0.2509749904 0.2278921097
0.5923065367 0.2508375174 0.4736858797
0.6023569223 0.2483741335 0.7261277538
0.5923917095 0.2506470192 0.9730324728
0.5823635429 0.2508767954 0.2241176604
0.6024013602 0.5011639375 0.725463036
0.5924287411 0.5012798075 0.4746246316
0.5824931536 0.500544 0.2205265177
0.6123702762 0.0017485502 0.9813368168
0.6123999015 0.5029779255 0.4754384018
0.6223836301 0.4992700842 0.2313036491
0.622539163 0.2498031973 0.7293791313
0.6124924806 0.500733189 0.9784668651
0.6224132554 0.5024463635 0.7218570806
0.6124924806 0.2518436883 0.4752615757
0.612455449 0.2487669133 0.9771892737
0.6223651143 0.2515438664 0.2312147731
0.6323636556 0.4997518941 0.9813923642
0.6423325716 0.2504257533 0.2333514984
0.6524385046 0.2532334742 0.4786370092
0.6424214475 0.251908497 0.729610579
0.6524014729 0.249413036 0.9782076437
0.6426288246 0.5041097859 0.7345839275
0.6525125678 0.5010258099 0.9826144082
0.642410338 0.5024345801 0.2363010681
0.6526458817 0.5027180362 0.4819161604
0.6324599378 0.251947775 0.4793591261
0.6324488283 0.2514790578 0.9779947118
0.6624703743 0.0035366147 0.732979532
0.6725726042 0.5004235475 0.4809033452
0.6824748632 0.4994978965 0.7363096017
0.6725540884 0.5013131938 0.9809016951
0.6824193158 0.5023867919 0.2334468549
0.6624111237 0.2491839145 0.232570131
0.6624962965 0.2508682852 0.7300966192
0.6824489411 -8.0654788504e-04 0.2361020231
0.6823859873 3.522179785e-04 0.7385564961
0.6625296249 0.5022853238 0.7277784389
0.6622889193 0.4989604428 0.2346226093
0.6824711601 0.2499013923 0.2315647221
0.672568901 0.2491970072 0.4855647022
0.6825230043 0.2506345812 0.734497829
0.6725837137 0.2514986968 0.9808831793
0.7026422913 0.2513487858 0.2353965705
0.6925289519 0.2492140276 0.4868367389
0.70245343 0.2525120686 0.7346542876
0.6923882317 0.2495321792 0.9876877421
0.7026311818 0.4996052563 0.733444279
0.7025200869 0.001730155 0.7384972455
0.7025126806 -8.2180083381e-04 0.2348114706
0.6923734191 0.5000667726 0.9864008928
0.6925956089 0.4996458435 0.4845870671
0.7126445357 0.2493632839 0.4902362429
0.7123260637 0.2510188508 0.9868545303
0.7226764055 0.5028496174 0.7420782045
0.722620858 0.2498064705 0.2399616452
0.7324638664 0.2529886415 0.4912379486
0.7227023276 0.2501246221 0.7412635086
0.7325712582 0.5015141661 0.9947700422
0.7225690137 0.5018074417 0.2433879971
0.7324749759 0.4995037882 0.4903334509
0.7325231171 0.2521088147 0.9914557109
0.7125778788 0.5000890301 0.9890764284
0.7624409745 0.5018735596 0.7433132095
0.7425179552 -0.0018129152 0.7414486667
0.7526683262 0.5015809387 0.9895948713
0.7625039282 0.502463384 0.2438897758
0.7624854124 0.2517284729 0.2390469638
0.7526016692 0.2503020276 0.4955947204
0.7624668966 0.252167077 0.7454397511
0.7525387154 0.2524001264 0.9924925967
0.7422920622 0.5009668929 0.7389082966
0.7524646522 0.501432337 0.4941884441
0.7426475659 0.2519903261 0.2446211506
0.7424327824 0.2511726895 0.7435066998
0.7826343247 0.5005446547 0.246562534
0.7826491373 0.4989794272 0.7446361647
0.7826306215 0.2523444826 0.2418604422
0.7726542992 0.2505540613 0.4970972789
0.7825491519 0.2495537821 0.743103055
0.7725913454 0.2513186727 -0.0061352102
0.7925143647 0.5014892901 0.4975296233
0.8125706979 0.5001296173 0.4931228588
0.8026573294 0.5020018677 0.7454295674
0.8026314072 0.5006271384 0.2471494854
0.7924847394 0.2548340519 0.4930543503
0.7926513818 0.2512158953 0.9949181687
0.8125521821 -0.0015734504 0.4936829623
0.8024129206 0.2482307689 0.2456006373
0.812415165 0.2478995246 0.5005375178
0.8025721566 0.2514535271 0.7442158556
0.8125410726 0.250702663 0.9971770984
0.8324233571 0.0014486628 0.4920535703
0.8225729424 0.2533094116 0.2444563598
0.832375216 0.0015416207 0.9964642394
0.8325603741 0.2523804874 0.4982785881
0.8224433316 0.2525264706 0.7478227368
0.8326603596 0.4999633406 0.4986322402
0.8324677951 0.4996353694 0.9982232421
0.832693688 0.2488487424 -0.0097754661
0.8223951905 0.4989034897 0.2471929976
0.8425107743 0.5020418003 0.7446491257
0.8424218984 0.5000438604 0.2468717482
0.8422589592 0.0011954507 0.2481548943
0.8425441028 0.250301373 0.2512053752
0.8425515091 0.2517415656 0.7452869956
0.8624189809 0.2495924055 0.2497972473
0.8524167365 0.2510954428 0.4998663194
0.8624411999 0.25021758 0.7484078366
0.8524167365 0.2507124825 -0.0036307793
0.8724101159 0.0012009497 0.5005560336
0.8825197521 0.2508787593 0.2508415394
0.8723508653 0.2502123429 0.4990497719
0.8924738554 0.2459199144 0.4975277717
0.8826752849 0.2514214501 0.7475542575
0.8922961035 0.5014670325 0.0025991452
0.8726730405 0.2493842322 1.2311750937e-04
0.8922961035 0.2510810409 0.0010084513
0.8926516072 0.00112894 0.4994756357
0.8724286317 0.001256528 -0.0022943816
0.8724730697 0.4983948399 0.498695194
0.8924627459 0.4989715716 0.5021983866
0.9124857506 0.0011074026 0.5000088912
0.9024946156 0.2482798663 0.2523561332
0.9125005633 0.0044367351 0.0019360937
0.9124894538 0.250353089 0.5001746078
0.9023946302 0.2472926798 0.7457961806
0.9124153905 0.5014617955 0.5001079508
0.9022687227 0.4983869843 0.7474153888
0.9122894829 0.2511229374 0.0019397043
0.9124005778 0.5017799471 0.0031041641
0.9024205524 0.4973225511 0.2501731184
0.9424850776 0.254280887 0.7537126182
0.9323939572 0.2521795151 0.0013807118
0.932275456 0.5010317016 0.5004273487
0.9323050813 0.4969860697 0.0012004603
0.9224694792 0.4999345367 0.7522961582
0.922576871 0.5000752828 0.2495259905
0.942448046 0.4990625656 0.7508158187
0.9224731824 0.2538540663 0.2501971889
0.9224065254 0.2513442034 0.7528942191
0.9424110143 0.2518980229 0.2509785564
0.9326087407 0.2500984368 0.4999014995
0.9723622002 -7.1496472911e-04 0.504197169
0.9624599412 0.0018523749 0.7575092866
0.9624858633 0.2527156595 0.2506637875
0.9526946992 -0.0024486293 0.0032536793
0.9724177477 -0.0016959323 0.011434708
0.9524725094 0.2500421383 0.5013383269
0.9724769983 0.2488605258 0.508743728
0.9623562526 0.253439029 0.7540736767
0.9523021639 0.2499622731 -0.0032978834
0.9725436552 0.2491904608 0.0039616316
0.9724918109 0.4996124573 0.5094908412
0.9524465872 0.0030155269 0.5031269548
0.9624673475 0.0010533299 0.2578044124
0.9525058379 0.4998062286 0.501391097
0.9622858925 0.5006467774 0.752699803
0.9824533206 0.2496133537 0.258532084
0.9822903814 0.0030638388 0.7620651034
0.9924296429 0.0018525713 0.0142640174
0.9923629859 0.2500519578 0.5118053183
0.9823311162 0.2515968917 0.7597321104
0.9925185188 0.2486916305 0.0145563822
0.9922259689 0.4980347918 0.0129273606
0.0225082961 0.7521580831 0.7701981761
0.0024798107 0.4973624837 0.2627573935
0.0023609762 0.7502334621 0.7620308491
0.0126295151 0.4993506041 0.5113637161
0.0027034448 0.4992956149 0.7618114367
0.0222746265 1.0012262986 0.267850169
0.0225699908 1.0007942408 0.7646054735
0.0123866987 0.7480666269 0.014067472
0.0225592887 0.7497293947 0.2633341612
0.0023083913 0.7516016451 0.264149783
0.0125209754 0.7490551228 0.5103305335
0.0524845524 1.0011215573 0.5179766402
0.0525382483 0.9995766234 0.0231827162
0.0326441137 0.7498079507 0.0136125384
0.0424419435 0.7524199363 0.2716727595
0.0325385735 0.747313799 0.5186034006
0.0425226724 0.7514707185 0.768728946
0.0424923065 0.5018355909 0.7660672973
0.0323604513 0.5009282696 0.0155809549
0.0324663618 0.500253343 0.5148854245
0.0422771527 1.0001068761 0.269231449
0.0526560089 0.5034715188 0.5193560686
0.0523960468 0.7515820061 0.0214358415
0.0524882556 0.7520664345 0.5176452071
0.042306778 1.0015536151 0.7677661235
0.0724046092 0.5021543972 0.0225775267
0.0724234953 1.0025355646 0.519190352
0.0724060904 1.0020773215 0.0212151329
0.0724605269 0.7509011878 0.0265063054
0.0626582533 0.7495919218 0.2740427841
0.0726545727 0.7507768075 0.5207493838
0.0625119784 0.7537488413 0.7710887869
0.0923616975 0.9969188135 0.5280825732
0.0924431671 0.751241597 0.0287572733
0.1024687415 0.9993802335 0.7773045467
0.1024228223 0.74923842 0.2820518008
0.0825160969 0.7502269158 0.2751722489
0.1027020408 0.5001656221 0.7820445959
0.0924135418 0.7504233057 0.5276520805
0.1024768885 0.7511172167 0.7819251689
0.0824923967 0.5005289435 0.7772758472
0.0825327612 0.7507047979 0.7783775383
0.0925079725 0.4996851215 0.031408368
0.0824798059 0.4995862719 0.2745973328
0.1124328434 0.7493104296 0.0259674951
0.1225376654 0.7527603455 0.2789531788
0.112572823 0.751778396 0.5281686718
0.1225261856 0.751241597 0.7763370953
0.1223443603 1.0045191025 0.2769034778
0.1225210012 1.0021493311 0.772026613
0.1224358285 0.500822219 0.2749380238
0.1125294959 1.002862881 0.5308090273
0.142555856 0.7517653034 0.2714838981
0.1524710761 0.7497032094 0.5203975833
0.1324988048 0.7491205861 0.5183867655
0.1425828891 0.754416567 0.7727126241
0.1522881399 0.5009295789 0.515582545
0.1324554778 1.0015667077 0.0225413283
0.1424466127 0.5043762216 0.2648968962
0.1426314006 1.0038251915 0.2659828489
0.1326006418 1.0000806908 0.521965873
0.1424218015 1.0003949147 0.7714007784
0.1524947764 0.9992623996 0.0149628043
0.1525206985 0.7498014044 0.017915892
0.1325402802 0.7516540157 0.0228495241
0.1723870594 0.7516867474 0.0104331874
0.1624603595 0.7488980108 0.2633036101
0.1725333344 0.7525181313 0.5111007915
0.1625196101 0.7521122588 0.7627261181
0.1824763282 1.0024570086 0.7584323001
0.1723452137 0.5007056944 0.0141397763
0.1723981689 0.502384828 0.5094991733
0.182444481 0.7480535343 0.2578321861
0.1825526134 0.7511564947 0.7569991758
0.1726092492 1.0022344334 0.0087970372
0.1624648033 1.0007091385 0.7628677641
0.1826022358 0.5007986523 0.2572276447
0.2025434005 0.5005466186 0.7548717084
0.1926070724 0.5005034128 0.5058635926
0.192491904 0.7512939676 0.0052479254
0.2025674711 0.7504233057 0.255309406
0.1925670782 0.7542332697 0.5078938519
0.2024663747 0.7477000325 0.7526007434
0.2325823514 0.4999653045 0.0039435786
0.2326715976 0.750508408 0.0031005535
0.232424967 0.7509993827 0.4991516089
0.2124189968 0.7517129327 0.0036651933
0.2225956602 0.7527472528 0.2548029984
0.2124726927 0.7502334621 0.5027955217
0.2324849582 0.4995653237 0.5030815911
0.2225938087 0.7488194549 0.7560520918
0.2225271517 0.4948886256 0.7483365507
0.2124134421 0.4988399903 -0.0029342975
0.2224656792 0.5006356486 0.2538559144
0.2125493482 0.5017197209 0.5029640156
0.2523568738 0.7476803935 -7.8721264247e-04
0.2425001637 0.7477131251 0.2561361373
0.252359466 0.74852487 0.5005532562
0.2422594581 0.7472614283 0.7557882414
0.2425616362 0.4941076484 0.7537792752
0.2424597992 0.5002101372 0.249050134
0.2625042823 0.4964617087 0.7559122973
0.2523920539 0.4970646257 0.5015975483
0.2622343217 0.7440733657 0.2521043181
0.2623057927 0.7463514885 0.7510074574
0.2626864779 0.500064154 0.2527107111
0.2725094893 0.9946537833 1.0055740215
0.2727072382 0.4950306809 0.5009467173
0.2824610004 0.4972642887 0.2503943824
0.2824413736 0.4986861516 0.7501909098
0.2823921215 0.7490223911 0.2522496673
0.2823847152 0.7474054476 0.7461489069
0.2725987355 0.7462729325 0.9982139842
0.2724657919 0.7482368315 0.4987137098
0.282541359 0.9977371047 0.2513886818
0.3124140378 0.9968729891 0.5032797103
0.2926609937 0.7493693466 0.9970289719
0.3024795613 0.7467246293 0.2530264058
0.2926476623 0.7489438351 0.5057617556
0.3025621418 0.7463842201 0.7493641786
0.3124699556 0.7500828966 1.0006488141
0.3124792135 0.7498406823 0.5042953029
0.3125866052 0.4997106522 0.501302221
0.302398462 0.4989715716 0.7465460712
0.2926372935 0.496266628 0.9958624754
0.3025239992 0.9984637473 0.2512164847
0.3324307471 0.4980505029 0.5020308184
0.3225099723 0.4966148928 0.746874727
0.3325707267 0.7487016209 0.9959920861
0.3325436936 0.4965507388 0.9990842276
0.3224966409 0.7448392863 0.2533152525
0.3324814805 0.7529960134 0.5007587818
0.3224151713 0.7490682154 0.7524303979
0.322502566 0.4997996823 0.245508984
0.3525881767 0.4969958892 0.494697629
0.3524615285 0.999013639 0.4928451215
0.3625067296 0.7475821985 0.2431593268
0.3625326518 0.7458146894 0.7485457795
0.3523915387 0.7450291298 0.9921037645
0.3626363403 0.5002972034 0.7479042064
0.3425385317 0.7494282636 0.2438212673
0.3627585447 0.4971759133 0.2450710849
0.3524044998 0.7497293947 0.4947744697
0.3423418938 0.7501614525 0.7468552854
0.3625252454 0.9988107028 0.7446546805
0.3424459527 0.4994461805 0.7487263087
0.3527026044 0.4974096172 0.9938812829
0.3426840661 0.4981964861 0.2481002726
0.3726015532 0.4997178532 0.9963253708
0.3825741723 0.4998271769 0.2425973718
0.3725904437 0.4969258435 0.4955400987
0.3923875554 0.4984098965 0.9939090567
0.3826371261 0.4969749409 0.7486170654
0.3725274899 0.7490092984 0.9954829011
0.3824556711 0.7511106704 0.2457413575
0.372575631 0.7486819819 0.4952123688
0.3824852964 0.9969319061 0.241684542
0.3825334375 0.7481517292 0.7429447448
0.3925727136 0.7488129085 0.9909835576
0.3925171661 0.7474119939 0.490930586
0.3925949326 0.5025183731 0.4956947058
0.4028638048 0.4971811503 0.7443195442
0.4024897853 0.7481975535 0.2407282
0.4026156928 0.7511303093 0.7433048774
0.4124624044 0.7495919218 0.9958347017
0.4125920151 0.7496508388 0.4915092053
0.4227090576 0.9982411721 0.7460322573
0.4425135757 0.9989350831 0.2397681549
0.4326668641 1.0009644454 0.49536605
0.4426209674 0.9996028087 0.7438723872
0.4226609165 0.4976210637 0.7452888472
0.4326631609 0.7479553393 0.9899744455
0.4226016659 0.7470061215 0.2460144658
0.4325224407 0.7517653034 0.4959779978
0.4225498216 0.7521580831 0.7390656811
0.4425913421 0.7492253273 0.2438555215
0.4426320769 0.7489045572 0.7388434913
0.4225201963 0.9995569844 0.244410996
0.4726425134 0.7504625837 0.9807535686
0.4628143176 0.7497621264 0.2378962058
0.4726943577 0.7477982274 0.4844139442
0.4625773152 0.7481386366 0.734533009
0.4527380099 0.9977371047 0.4903177125
0.4726091849 1.0002050711 0.483923275
0.4724795742 0.4979333236 0.9828180822
0.4625995342 0.5002841107 0.23894883
0.4624551108 0.9985292106 0.2334755544
0.4627143322 1.0000806908 0.7399155571
0.452649134 0.7510386607 0.9862249925
0.4527639321 0.7501549062 0.4947939113
0.452489898 0.5010893093 0.492873821
0.4824595997 0.9989154441 0.7369493232
0.4924618441 0.9978549386 0.4849721961
0.4924618441 0.9995766234 0.9814479117
0.4925099852 0.7462009229 0.4812107078
0.4925099852 0.7497097557 0.9803369627
0.4827632591 0.7503185644 0.2344439317
0.4823633174 0.751163041 0.734918138
0.4925247979 0.4993119807 0.9772540791
0.4924025935 0.5015632636 0.4797840641
0.4826373515 0.498944077 0.7304354587
0.5125255836 1.0001461541 0.4732803833
0.522435249 0.9986535909 0.7269285629
0.5024937139 1.0010626403 0.2341254596
0.5223648889 0.7507309832 0.7264851091
0.5024455727 0.7537946656 0.2328034303
0.5023789158 0.7488587329 0.7296355754
0.5124922551 0.749159864 0.9834105883
0.512510771 0.4990972611 0.9807443106
0.5024418696 0.4958129674 0.2309148169
0.5126329754 0.7487801769 0.4754300697
0.5225056091 0.7492711516 0.2247138697
0.5523160747 0.9986470446 0.4738765926
0.5425952707 0.4968538338 0.7223588592
0.5425063948 0.7516998401 0.2210310737
0.5524012475 0.4975974969 0.4726526971
0.5526234373 0.749277698 0.4738062325
0.5426323024 0.748603426 0.7252936162
0.5325485883 0.7484594067 0.9770504051
0.5323523207 0.9981691625 0.9799944201
0.5425434264 0.4993663153 0.2232307528
0.55263825 0.5004314031 0.9720696503
0.5326078389 0.7449898519 0.4783361272
0.5425323169 1.0005454802 0.2275227192
0.5725168313 0.5008628063 0.9778465853
0.5624034919 1.0007418701 0.7181928004
0.5525789993 0.7494413562 0.9743100642
0.5625590248 0.7499781553 0.2240519293
0.5623775698 0.7477982274 0.7218117168
0.572487206 0.7508619098 0.97149566
0.5726538483 0.5024443996 0.4752328762
0.5723946269 0.7499912479 0.4719509476
0.6023161875 0.4991476678 0.2265247166
0.6023384064 0.9960677906 0.2299973582
0.6024457982 1.0022213407 0.7277673294
0.5923768968 0.7497883117 0.9740878744
0.5924028189 1.0022606187 0.4784546284
0.5923065367 1.000440739 0.9702273265
0.6023680318 0.7494479026 0.2259423942
0.5923398652 0.7492907906 0.4707214974
0.6024013602 0.7541874454 0.720885926
0.582615358 0.999648633 0.2261210718
0.5823191049 1.0000545055 0.7213627083
0.5824376061 0.502352751 0.7225005052
0.5823598397 0.7487932696 0.2220475921
0.5821820879 0.7528781794 0.7233550102
0.6122999161 0.750488769 0.9765319622
0.6123850888 1.004211425 0.4846574272
0.6123999015 0.7519616932 0.475902223
0.6225021314 1.0041132301 0.7295383673
0.6223540048 0.7514118015 0.2282281718
0.6224169586 0.7543314647 0.7283829803
0.622472506 1.0001134225 0.229365043
0.6422399925 1.0008989821 0.7286310923
0.6425214329 0.9996551794 0.2309574033
0.6524310983 1.0028759737 0.4808274304
0.6523163002 1.0028366957 0.98242925
0.6323969841 1.0010822793 0.4833437299
0.6324710473 1.0021362384 0.9845400532
0.6323969841 0.5032607269 0.4824633028
0.6324229062 0.7540237872 0.9811516586
0.6324117967 0.7486296113 0.4776991831
0.6523163002 0.7496050145 0.9803739943
0.6423918222 0.7533233299 0.2291484079
0.6522496432 0.7527145212 0.480665417
0.6423621969 0.7526490579 0.7307233796
0.6725874168 0.7518307667 0.9862712821
0.6624074206 1.0046958534 0.2366028759
0.6724059618 1.0008989821 0.9838734838
0.6822600797 0.7489176498 0.2341569365
0.6724429935 0.7484921384 0.4835187044
0.6824785664 0.7507702612 0.7315445561
0.6623185446 0.7514969038 0.2306083801
0.6624074206 0.7509862901 0.7329563872
0.6724837283 1.000957899 0.4834076095
0.702546009 0.5023691168 0.2380341486
0.6924215602 1.0007091385 0.4879051015
0.6925104361 1.001671449 0.9865027298
0.6923734191 0.7493235223 0.9863638612
0.7024830553 0.7470257605 0.2361409063
0.6924141539 0.7506524273 0.4879726842
0.7024386173 0.7461354596 0.7373233427
0.7125186282 0.5009158316 0.4910065009
0.7124408617 0.7516671084 0.4853276998
0.7224949505 1.0011411963 0.742837353
0.7325860708 0.9993998725 0.9914649688
0.732545336 0.7529894671 0.9905947254
0.7224949505 0.7502923791 0.2375888432
0.7323527715 0.7505804176 0.4921683684
0.7226615928 0.7494086246 0.7429197484
0.7224912473 1.0007156848 0.2375999527
0.732545336 1.0050297163 0.4917656494
0.7124297523 0.7496704778 0.9851233014
0.7124815965 0.9993082239 0.4888068218
0.7123630953 1.002345721 0.9858361604
0.7426105343 0.501710556 0.2421742853
0.7424846267 0.7514838112 0.2390951049
0.742673488 0.7495657365 0.7407756168
0.7525942629 0.7521580831 0.9939646041
0.7624743029 1.0001199688 0.7449472304
0.752642404 1.0024177306 0.9909650417
0.7627779623 0.749179503 0.2441332588
0.7524905743 0.7498995993 0.4932496921
0.7626261326 0.7506327883 0.742700336
0.7525868566 1.002247526 0.4925285011
0.742492033 0.9987976102 0.2415465991
0.7626557579 1.0026533985 0.2451340387
0.7824195412 1.0023326283 0.2427788268
0.7726802214 1.0001396078 0.4935894574
0.7826343247 1.0005913046 0.7433696828
0.7724654379 1.0010626403 0.9940942148
0.782415838 0.7496050145 0.2419520955
0.772535798 0.7518111277 0.4927331008
0.7824491665 0.749834136 0.7389980983
0.7724802505 0.7505345933 0.995390322
0.7726172676 0.5023488232 0.4955799077
0.7727209562 0.4989336029 0.9924833387
0.7924588173 0.7519224153 0.9898448348
0.8124521967 0.7487212599 0.9945293365
0.7925513964 0.4998330686 0.9937331564
0.8123262891 0.5004510421 0.9918167693
0.8025277187 0.7519486006 0.2443350812
0.8123522113 0.7515754598 0.4950151753
0.8025092029 0.7516278304 0.7468432501
0.792610647 0.7500894429 0.4929451069
0.7925773185 1.0016452637 0.4920045034
0.7925550995 1.0015536151 0.9961124389
0.8024758744 0.9992754922 0.2442332442
0.8025092029 1.0015798004 0.7446472742
0.8125336663 1.0018940242 0.9915020004
0.8223988937 1.0020118582 0.7428160598
0.8224211127 1.0001461541 0.2441017819
0.8322789337 0.7491271324 0.9953162588
0.8224914728 0.497996823 0.7451842329
0.8222544703 0.7490551228 0.2445406068
0.8322159799 0.7503447498 0.4948938967
0.8224840664 0.7490747617 0.7435511378
0.8422811782 0.7521253515 0.2427362404
0.8425515091 0.7530614767 0.7424587046
0.8623004797 0.5004052178 0.7493373306
0.8424256015 0.9987190542 0.7432678458
0.8623856525 1.0000872372 0.247292983
0.8626856087 1.0009709917 0.7451231307
0.8523648922 1.001691088 -0.0035129816
0.8623449177 0.7532644129 0.7471626479
0.8524796903 0.5007914513 0.4993228802
0.8523537827 0.7494348099 -0.0057655974
0.8525574567 0.500900775 -0.0052313606
0.8624523094 0.5015979591 0.2456376689
0.8622819639 0.7510517534 0.2462301751
0.852427846 0.7509993827 0.4917721299
0.8525463472 1.0018743852 0.4953512374
0.8825678932 1.0022606187 0.7504103223
0.8926145756 1.0039430255 2.5059891068e-04
0.8823457034 0.7516671084 0.7531756596
0.872436038 0.7490944007 5.187079435e-04
0.8923701668 0.7512088653 7.9283461691e-04
0.8824086572 0.4992877593 0.7550559408
0.8822383116 0.498166373 0.2560722577
0.8824308761 0.7506458809 0.2517321502
0.8722953178 0.7510779387 0.4953401279
0.8921813055 0.7499912479 0.4972944724
0.8725619456 0.4997813526 0.0017252912
0.8825086426 0.9978942166 0.2494935879
0.9026353359 0.9988499808 0.748649468
0.9123561399 0.7496835704 0.5037583442
0.9024094429 1.0033996801 0.2495519127