POSCAR file written by Ovito 3.7.11
1
270.0182960006 0.0 0.0
0.0 15.2745414517 0.0
0.0 0.0 10.80073184
Sr Ti O 
800 800 2400 
Direct
0.0224831393 0.4996104629 0.8089379579
0.0126221779 0.5005067255 0.054543152
0.0124405236 0.2504376801 0.5559588043
0.022454882 0.247386852 0.8110711467
0.0026042271 0.2491440243 0.8015412369
0.0125264437 0.2502772825 0.0483249623
0.0025166775 0.0025101065 0.302719483
0.022541802 0.5019228073 0.3091347891
0.0127126903 -1.6316523457e-04 0.5578975618
0.0026148931 -0.0015548273 0.8024532122
0.0127140976 -0.0011572376 0.0549661789
0.0226327218 0.2492841267 0.3092144133
0.0027411067 0.2519997565 0.3065590377
0.0424406388 0.4994729793 0.3110485483
0.0325509386 0.2483557845 0.5590706304
0.0423928643 0.2509437509 0.8083009641
0.0524521826 0.5007653258 0.0634760652
0.0325676041 0.2488579273 0.057906813
0.0327164829 0.0036015304 0.5627638987
0.0323513225 -0.0037735518 0.0604595104
0.0423613849 0.2494366681 0.3165703963
0.0524529233 0.2503794132 0.5654988985
0.0525199558 0.2461711036 0.0626114942
0.0624459499 0.252456726 0.3125549277
0.0623966939 0.5013486493 0.8137589276
0.0625296479 0.5005649924 0.3138289154
0.0723026893 0.4991842636 0.5647933908
0.0722860238 0.2501253958 0.5640712175
0.0622955897 0.2512717477 0.8143422214
0.0724945282 0.249820313 0.0613276923
0.0625333513 -3.8316969496e-05 0.3176703218
0.0624807623 0.0020659033 0.8173744233
0.0924642861 0.2501568206 0.558079031
0.1025680459 0.2489286332 0.8079463585
0.0824042271 0.2500075526 0.8121766274
0.092368737 0.2509627368 0.0609504956
0.1024450913 1.6777759707e-04 0.306333127
0.0824634823 1.4126288949e-04 0.3167129792
0.0826027321 -6.7224762009e-04 0.8141977867
0.0924835441 1.8676343707e-04 0.0601052751
0.1024447209 0.2540161836 0.3112318692
0.0823857098 0.2492127661 0.3138437292
0.1022995456 0.4992844302 0.3043952954
0.0923961426 0.5007849663 0.5625852071
0.1124484875 0.0029033753 0.0565333876
0.1222293062 0.2517496671 0.3052424602
0.1124621902 0.2508344187 0.5551977447
0.1224670678 0.5010337463 0.8039086691
0.1123714556 0.4996562908 0.055150148
0.1223559643 0.2499204796 0.804965079
0.1122147996 0.251368641 0.0538950478
0.1122888687 0.499388525 0.5589373061
0.1524768861 0.2534033993 0.5472945766
0.1322975128 0.2504625581 0.5508517429
0.1423683119 0.250369593 0.7979775895
0.1525054027 0.2505843294 0.0493374863
0.1324874999 0.2526688436 0.0494093333
0.1424297892 0.2507565113 0.3003020542
0.1424997844 0.5018894184 0.798644211
0.1523472653 0.4998821569 0.0472494796
0.1323649156 0.4997296155 0.0507391506
0.1324108385 0.4988385903 0.5523729361
0.1524691089 1.2456844398e-04 0.5453891501
0.1824333747 0.2493934589 0.7886235938
0.1824515216 0.2502006844 0.2872547902
0.1625543514 0.4976077842 0.7931862475
0.1622769628 0.4990304128 0.2948440908
0.1724351633 0.2512782945 0.5419495684
0.1822844959 0.4993106176 0.7866570604
0.1624213975 0.2490366561 0.7973146715
0.1726166325 0.2530354668 0.0400799654
0.1625928673 2.9144743069e-04 0.2943728264
0.1724662723 0.001950417 0.5359518267
0.1824715203 0.0028957155 0.2827717607
0.1625028734 0.2501816986 0.2946274388
0.2026131184 0.2484913042 0.2847688476
0.1924145502 0.5011463519 0.0340000071
0.2026220067 0.5020197006 0.2825615897
0.1925689842 0.2499780918 0.5364314238
0.2026538564 0.2477816266 0.785157162
0.1925349124 0.2488369774 0.035053269
0.1924156612 7.6674811471e-04 0.5327557469
0.2026460791 -3.3390685769e-04 0.7785576092
0.1926430532 0.003047013 0.0385104422
0.202630895 -0.0044201834 0.2822458704
0.2126283656 0.2476441429 0.5307290324
0.2226824992 0.25020985 0.7762262857
0.212753172 0.2488572726 0.0239267082
0.2224517741 0.0012504288 0.2720956323
0.2126257732 -4.0696960747e-04 0.5266357913
0.2226580564 -0.0033093808 0.7727672608
0.2127198409 7.5732066312e-04 0.0252011589
0.2327866293 -0.0025315506 0.5208278515
0.2225154734 0.2502857934 0.2744982472
0.2325662739 0.2496225984 0.5130478232
0.232612567 0.2469789838 0.0231037084
0.2326514533 3.5364242378e-04 1.0201680888
0.252720834 0.2460290371 0.5117599475
0.2424967121 0.2443825065 0.7667648898
0.2626234963 0.2479695209 0.2598816451
0.2526486167 0.2465809359 1.0099095247
0.2427844703 -6.8553770809e-04 0.2607278841
0.2524215951 0.4971717645 1.0111409227
0.2526030643 -0.0042991977 0.5089999493
0.2425948535 0.2496422389 0.2679061013
0.2626375695 0.2511669982 0.7563359669
0.2427474358 -0.001495251 0.7636938016
0.2626457171 -0.0023568808 0.2581687982
0.2528086059 -0.0055806896 1.0124186139
0.262716453 -0.0019115647 0.7571868351
0.2725443056 0.2475531418 0.5052363154
0.2726613347 0.2437081819 1.0018267391
0.2726920733 -0.001273575 0.5033336666
0.2725235662 0.5022062855 1.0049839325
0.2824336354 0.2485194556 0.7505298788
0.2826088088 -0.0011524584 0.749926216
0.2825369618 0.2479957083 0.2471065849
0.3025281997 0.2479917802 0.2441660434
0.3126415885 0.2509064339 0.4854413605
0.3126656609 0.2502209797 0.9909200707
0.2925066566 0.4979881556 0.4990284028
0.3125375214 0.0015289314 0.9891979652
0.2923837019 0.2500114807 0.4955045675
0.2926762747 -0.0013470306 0.4922307153
0.3024719072 0.2501443816 0.7389843649
0.3024189478 0.4957118189 0.2448021114
0.292612205 0.2498995297 0.9958456629
0.3124445648 0.4976208778 0.9918366753
0.292644425 -0.001543043 0.9904663978
0.302630415 -0.0020239085 0.7377242651
0.3226512805 0.2475492137 0.2335288012
0.3325439435 0.246835608 0.4788279198
0.3224446279 0.2512481791 0.7349698221
0.3325620904 0.2506635461 0.9792634532
0.3226723902 -0.0016974175 0.234112095
0.3325794967 -9.2953848623e-04 0.4796649001
0.3224594417 4.2863863586e-05 0.7339254484
0.3326491216 0.0010812584 0.9797911952
0.3626589399 0.2471420002 0.2222110496
0.3524540758 -5.0111318648e-04 0.9721065308
0.3526251753 0.247996363 0.472316324
0.3425869667 0.2483865547 0.719926397
0.3525011097 0.2487865667 0.9684493712
0.3424980838 -0.0021860738 0.2258117316
0.3425328963 -0.0022372701 0.7255130555
0.3426454812 0.2479197649 0.2235868823
0.3626293123 0.2506360494 0.7212624176
0.3624034016 -0.0021021432 0.2200871195
0.3727397382 0.2453429281 0.4697951985
0.382553888 0.2487695449 0.7163636755
0.3725101242 0.2482503804 0.9620238807
0.3824464879 4.8104395699e-04 0.7127139228
0.3824724121 0.2488906615 0.2185659263
0.3925013621 -7.6540917289e-04 0.4630002886
0.3924754379 -0.0010816216 0.9679401464
0.3727101106 -0.0034432637 0.4668916916
0.3725582691 -0.0019949715 0.9656995575
0.3926383899 0.2481587246 0.4600588213
0.3926606106 0.2491296212 0.9613480006
0.4127518417 0.0018418704 0.4561072372
0.4024821673 0.2526387282 0.7090400977
0.4025599398 -9.7621746525e-04 0.2146671164
0.4026377123 1.9753513523e-05 0.7064874929
0.4025154983 0.5000301155 0.2044215144
0.4025673467 0.2499957683 0.2107729358
0.4125555587 0.2507538925 0.4610004241
0.412533338 0.2476598553 0.9598481022
0.4125666691 -0.0011038154 0.9593203602
0.4125518553 0.5000366623 0.9586259628
0.4125296346 0.5004458399 0.4549304651
0.4223474878 0.2486156942 0.2063445322
0.4424350155 0.2518609634 0.6954780537
0.4326504933 0.4991364716 0.9514320058
0.4327430797 0.5000877277 0.4514751436
0.442431312 0.2508455483 0.194598106
0.4225252535 0.4981308768 0.2045409507
0.4428683195 0.4995836209 0.6920551375
0.4326282726 0.2478051952 0.4507501928
0.4225659915 0.2494412508 0.703631205
0.4324616172 0.2505568326 0.9511449882
0.4426535192 0.4990330315 0.195923942
0.4324912449 -0.0012403825 0.9495710208
0.4524417448 -8.7919327603e-04 0.9449787394
0.4726663003 0.2486143848 0.4387713749
0.4624595845 0.2490091593 0.6904469132
0.4725144587 0.2495649862 0.9362756255
0.4624299569 0.250408874 0.1904844958
0.4525232208 0.4985917744 0.9419789427
0.4625299501 0.500312939 0.6859398112
0.4724848311 0.4998913224 0.4359123093
0.4525750691 0.249671045 0.4458301558
0.4524232275 0.2524050059 0.9453490847
0.4724885345 -0.0020087853 0.934701658
0.4824989673 -0.0024359667 0.1804860993
0.4825545191 0.2494648195 0.6837223688
0.4824952639 0.2487832933 0.1852394809
0.4923279309 0.2503106714 0.4292905358
0.492394593 0.2510773065 0.9322018274
0.4824619328 0.5010651711 0.1844284247
0.5024827983 0.0022597553 0.6797115295
0.5024568742 0.2497771038 0.1826887278
0.5124043482 0.0015497503 0.9341276229
0.5224703328 0.0027469712 0.1848904304
0.5024087293 0.5010271994 0.6763691634
0.5024494673 0.2489423815 0.6830937077
0.5225925467 0.5049736354 0.6778144359
0.5124673069 0.2495440363 0.4281693155
0.5222296084 0.2508998871 0.1830016695
0.5123117619 0.2531906269 0.9320073962
0.5222629394 0.2507453817 0.6807651618
0.5127191417 0.5008203192 0.4330449111
0.522374043 0.5007208072 0.1808749618
0.5525238518 0.24960885 0.4363122822
0.5523497896 0.0027870379 0.9312481884
0.5323992896 0.4974604802 0.9360904528
0.532484469 0.0019667187 0.4386167557
0.5325289105 0.5026076069 0.4332448975
0.5323659585 0.2508913762 0.4349105254
0.5323992896 0.2513791159 0.9301093766
0.5422875084 -0.0016615408 0.6844713922
0.542398612 0.2502851387 0.1826294725
0.5424060189 0.2529942217 0.6828372436
0.5523979344 0.2505385015 0.934275761
0.5625083604 0.4982677058 0.6850009859
0.5623602223 0.5009276874 0.187688389
0.562586133 -1.9295336283e-04 0.1899586055
0.5624602156 0.2509424416 0.1837877274
0.5625713191 0.252469165 0.6862175701
0.5723706551 -3.0202374019e-04 0.4347883114
0.5724002827 -6.0324391197e-04 0.9349238652
0.5726076761 0.2512789492 0.4374770181
0.572459538 0.2504507738 0.9395994743
0.5926618727 0.5045939186 0.9403586821
0.5823699775 0.2490883761 0.68838409
0.602668602 0.2531343241 0.199531105
0.5925137346 0.252295019 0.444048795
0.6025908295 0.252382092 0.6929208196
0.5924581828 0.2493430482 0.9409790105
0.5824588604 0.24863468 0.191254814
0.6025278708 0.5002428878 0.6893747636
0.5925396588 0.4997427091 0.4414758212
0.5825033018 0.5018979293 0.18678845
0.6123642413 -0.0022258131 0.9501080215
0.6124716415 0.5013204979 0.4506770496
0.6227413159 0.5000877277 0.2026355243
0.622496888 0.249708362 0.7026710848
0.612467938 0.4989701819 0.9466545518
0.6224043017 0.5009113203 0.6984584073
0.6124346069 0.2499054219 0.4477198426
0.6125864485 0.2509234557 0.9473674664
0.6224413362 0.2493463216 0.2001347678
0.632770266 0.501073682 0.9490988306
0.6425251605 0.2519081007 0.2037595222
0.6526059589 0.2546361695 0.4597634709
0.6425436778 0.250945715 0.7080281292
0.6526207727 0.2523585234 0.9598851367
0.6427658849 0.5041637911 0.7101918715
0.6526652141 0.5076774809 0.9590796358
0.6425325674 0.5002965719 0.2051288738
0.6525689243 0.5055726714 0.4567118258
0.6325962037 0.2519755331 0.4528796781
0.6325628726 0.2511499764 0.9493951068
0.6625608399 0.0014569161 0.7154841055
0.6724231345 0.4995613616 0.4702340577
0.6822298774 0.5026796222 0.7189477597
0.6722824033 0.501562731 0.9670698351
0.6826076296 0.5040380918 0.2186196263
0.6624164052 0.2518642368 0.2172734213
0.6624571432 0.2518445963 0.7147230459
0.6825298571 9.1542688239e-04 0.2186446246
0.6824076431 0.0019349665 0.7236428119
0.6626126882 0.50097417 0.7171339937
0.6623978879 0.5040754088 0.2144587972
0.682374312 0.2504579753 0.2208972498
0.6723527689 0.2524266105 0.4656075193
0.6824076431 0.2509090527 0.7182533623
0.6723379551 0.2537222304 0.968329009
0.702521095 0.2495892095 0.223798905
0.6925514002 0.2538276346 0.4723265085
0.7027433022 0.2497587727 0.7231780286
0.6923736345 0.2504874361 0.9713380643
0.7023470327 0.5004281634 0.725529721
0.7024618397 4.4064994569e-04 0.7249158738
0.7023951776 0.0013040474 0.2268811035
0.6924588139 0.498752172 0.9703196148
0.6924143724 0.5011260567 0.4759901491
0.7123685758 0.2502366921 0.4749670703
0.7125056036 0.247948571 0.9782450037
0.7223160499 0.5012484827 0.7323070396
0.7224049328 0.2529549406 0.2317770681
0.7325227657 0.2496180156 0.4842516263
0.722430857 0.2504095287 0.7308265843
0.732148717 0.499900488 0.9854945125
0.7222197601 0.5012713966 0.2286800557
0.732345 0.4991083202 0.4844951283
0.7322561171 0.2514053033 0.9808189034
0.7122426585 0.4990199378 0.9775876409
0.7622318636 0.500138793 0.7419850875
0.7423258051 0.0060949604 0.7340476624
0.7524547484 0.502062255 0.9898090349
0.7622985258 0.4995685632 0.2388738094
0.7623318569 0.2483793532 0.2374664974
0.7523991966 0.2501188489 0.4864662911
0.7623355603 0.2529091127 0.7408120188
0.7522843895 0.2509372041 0.9885683782
0.7423443224 0.4993813235 0.7361845546
0.7524029 0.5011790861 0.4929538144
0.742333212 0.2526177783 0.2367526568
0.7423480258 0.2495545112 0.7367447018
0.7822786533 0.4979279247 0.2417282456
0.7824564191 0.5000844543 0.7407259135
0.7823934604 0.2491636648 0.2370350451
0.7724385794 0.2519938643 0.4878347169
0.7823193913 0.2469541058 0.7400722541
0.7723978414 0.2506910429 -0.0113815835
0.7923001965 0.5005204739 0.4983127105
0.8123692069 0.4995070228 0.5002070266
0.8023513672 0.4985708245 0.7496679002
0.8023698845 0.4999247113 0.2526089898
0.7923113068 0.2493908402 0.4942416901
0.7923187137 0.2503034699 0.9955493867
0.812402538 0.0020295683 0.495568452
0.8022772982 0.2490314186 0.247003814
0.8123284689 0.249459582 0.5013791694
0.802529133 0.2504887455 0.745257088
0.8123840207 0.251345727 1.0013823248
0.832541914 -0.0014203552 0.508359252
0.8223870466 0.2499100047 0.2485287107
0.8324308104 8.085169627e-04 1.0091317996
0.8324641415 0.2475073139 0.5057353557
0.8224611156 0.2492350253 0.7522954999
0.8325159899 0.4977053321 0.5088175543
0.832386369 0.500887097 1.0063912446
0.8322752654 0.2514766638 0.0046882896
0.8223055706 0.5018016907 0.2562522614
0.84234125 0.4995273181 0.7586654386
0.8423338431 0.4996726579 0.2657062504
0.8424264294 6.5060714867e-04 0.2560365353
0.8423968018 0.2485934349 0.2602603232
0.84234125 0.249447143 0.7637984241
0.8624435915 0.2493116234 0.260342725
0.8524072346 0.2507067553 0.5106526151
0.8623732259 0.249583972 0.7683175624
0.8523739035 0.2499211343 0.0143689299
0.8722651482 -9.1346384655e-05 0.5187279938
0.8823792776 0.2482399055 0.2723807981
0.8723392172 0.249185924 0.5162420511
0.892541552 0.2495191583 0.5225527346
0.8824459398 0.2525215397 0.772596902
0.892541552 0.5002199739 0.0217606513
0.8724799484 0.2515873055 0.0149392616
0.8924341518 0.2532141955 0.02425576
0.8924971105 0.0018660283 0.5255266072
0.8724614312 -0.0017429835 0.0221110905
0.8721947826 0.498998988 0.5147791873
0.8922786068 0.4990696938 0.5278736704
0.9124068725 -3.5957047589e-04 0.5292652427
0.9024408812 0.248848107 0.2737427429
0.9125290864 0.0029042264 0.0286316671
0.9124957554 0.2521693197 0.5292522806
0.9024334743 0.2517601421 0.7741032814
0.9124142794 0.5000183312 0.5318345131
0.9024260674 0.5019431025 0.7742782696
0.9126253762 0.2522649035 0.0303392366
0.9124735347 0.5005676111 0.0309052168
0.902455695 0.5025146418 0.278472052
0.9424715019 0.2475367747 0.7859534043
0.9326203176 0.2495073739 0.0379880702
0.9326166141 0.4986048681 0.5408311257
0.9326573521 0.5014900611 0.0417492042
0.9225098916 0.4996215926 0.7905132805
0.9224987812 0.4999476253 0.2871964608
0.9425826055 0.4989466132 0.7923501931
0.9223432362 0.2500239197 0.2813320434
0.922480264 0.2511139688 0.7844507284
0.9424381708 0.2549582741 0.2857715574
0.9324499588 0.2516390255 0.5373785818
0.9725546486 8.0311796266e-05 0.5433605839
0.9626182848 -6.0180360687e-04 0.7939834158
0.9626886505 0.2492972203 0.2943561609
0.9526448866 0.0034142253 0.0412533119
0.9726620487 0.0015565591 0.0481801573
0.9524449002 0.2500893881 0.5379739119
0.972680566 0.2473678662 0.5449660306
0.9626368021 0.2499807106 0.797298006
0.9523412035 0.2536652729 0.0351627986
0.9726694556 0.2496029578 0.0471532824
0.9726176073 0.4970441011 0.5502703008
0.952574521 -0.0013385197 0.5391062425
0.9626886505 -0.0022568451 0.2923192619
0.9525856314 0.4983076415 0.5381572328
0.9626516159 0.4989498866 0.7926131382
0.9826169297 0.2489325613 0.2994956274
0.9825798952 -4.3106198374e-04 0.7996552536
0.992542183 -0.0033622138 0.0561564686
0.9926014383 0.2524429776 0.5505406529
0.9826317435 0.2491230744 0.7985812523
0.9925532934 0.2523002565 0.0508305333
0.9927310591 0.5028367464 0.049961981
0.0223998857 0.7475819004 0.8083954021
0.0026305587 0.4996137364 0.3011390346
0.0025394908 0.7480598198 0.8055307814
0.0124016373 0.5011011787 0.5558097403
0.0025889319 0.4999711939 0.8010746019
0.0225089524 0.9985092367 0.3102208266
0.0226064643 0.9995960124 0.8099638144
0.0126299552 0.7482365845 0.0558745433
0.0225604304 0.7491138613 0.3071034452
0.002626633 0.7502071838 0.3098180761
0.0127808338 0.7484395366 0.5587271352
0.052422555 0.9996680276 0.5658655404
0.0524599599 1.0017499232 0.0695485241
0.0324209474 0.7480139919 0.0642824921
0.0424613781 0.7485573797 0.3142668487
0.0323913198 0.7531336219 0.5593132066
0.0425032272 0.7499256696 0.8131191561
0.0426176639 0.5023712659 0.810101768
0.0325516793 0.4987495533 0.0583340989
0.0324413164 0.5012537201 0.5569939193
0.0424798954 0.9978152715 0.316592617
0.0524147778 0.5007515774 0.5631453543
0.052423666 0.7526884367 0.064558029
0.0524958834 0.7511761163 0.5661738528
0.0425328548 1.0011345201 0.8178679084
0.0721752906 0.5006717059 0.06155851
0.0724556419 1.0009053806 0.5687070145
0.0726174828 0.9963029512 0.0685716459
0.0724900841 0.7490680334 0.0624443759
0.062357067 0.7485180987 0.3142677746
0.0724900841 0.7507833058 0.5649600462
0.0624007677 0.7505214322 0.8181651105
0.0925990918 0.9997007618 0.5599520522
0.0926031656 0.7525247656 0.0610220649
0.1024369437 1.0004340081 0.8096925364
0.1025647128 0.7493037197 0.3117290577
0.0824386692 0.753251465 0.3129780471
0.102530641 0.5015555295 0.8081963415
0.0925098386 0.749166236 0.5601751852
0.1025061982 0.753251465 0.8112692814
0.0822983083 0.500325378 0.8120831152
0.082361267 0.7515034584 0.8133200684
0.0923183701 0.5015660045 0.0578592236
0.0823757105 0.5008929892 0.3131363697
0.1125073724 0.7525574998 0.0537967211
0.1222722662 0.7504821511 0.3020843409
0.1125877373 0.7516933168 0.5570716918
0.1223489277 0.7505541664 0.8041253211
0.1223111525 1.0033211651 0.3016380748
0.1224422547 1.0001655876 0.8012486642
0.1224459582 0.5009355436 0.3036434945
0.1124418213 1.0034782893 0.5570087331
0.1423568312 0.7537424781 0.300330756
0.1522831956 0.75118921 0.5468140536
0.1324752785 0.7507374779 0.5533858305
0.1424079388 0.7498798417 0.8005903755
0.1524442958 0.5019326276 0.5459576301
0.1324089867 1.0034717425 0.0492865638
0.1426112584 0.5013859663 0.2984299589
0.1423612753 1.0001263065 0.3030277955
0.1324830558 1.0008333654 0.5525849588
0.1423538684 1.0002376028 0.8034457375
0.1524391109 0.9990395308 0.0457418966
0.1523161563 0.7554904848 0.0469277422
0.1323778777 0.7516147547 0.0538595873
0.1725321938 0.7514903647 0.0389754107
0.1624195457 0.7491727828 0.2899814573
0.1725040476 0.7502661053 0.5395775069
0.162160304 0.7512219442 0.7948731703
0.1823948588 0.9997269492 0.7858848905
0.1724451627 0.4989341742 0.0417781837
0.1724059061 0.5018828716 0.5385285039
0.1824900375 0.7514510836 0.2886889523
0.1824226347 0.75069165 0.7876634736
0.1725855235 1.0019070474 0.0386120094
0.1622365952 1.0003292586 0.7948324323
0.1824985555 0.5032472333 0.2836624411
0.2025546038 0.5013257354 0.7817786872
0.1924393633 0.498439233 0.5330205438
0.1925208393 0.7488650813 0.0354845361
0.2024349823 0.7497750922 0.2825115931
0.1924663985 0.7520795804 0.5381396414
0.2024612768 0.7487406913 0.7804222977
0.2326081229 0.4989544694 0.0191734192
0.2326421946 0.7482365845 0.0229711248
0.2327507058 0.7438567476 0.5168688605
0.2125850353 0.7482234908 0.0250944994
0.2226017639 0.749578687 0.2723150618
0.2125157807 0.7494281096 0.5282504967
0.232674785 0.4998939412 0.5214639195
0.2226502791 0.7482234908 0.7720515686
0.2223947409 0.4985341622 0.7715266042
0.2125539262 0.5011934892 0.0297360368
0.2224958451 0.5004543508 0.2729344643
0.2125717028 0.4997341982 0.5308780964
0.2527374996 0.7485115519 0.0121992621
0.2427518799 0.7491924234 0.2658090212
0.2526593567 0.7448518675 0.5098415589
0.2425022672 0.7493691881 0.7701905836
0.242713364 0.4994075109 0.7653677622
0.2426315177 0.4969661937 0.2632304923
0.2627771896 0.4959887503 0.7562933771
0.2525430683 0.4979050108 0.507756515
0.2626438653 0.7468617478 0.2579752928
0.2627345999 0.7493822818 0.7608588085
0.2626431246 0.4957268766 0.2590659596
0.2727554024 0.994122853 1.0039006726
0.272671334 0.4977727646 0.503574391
0.2825154817 0.499599988 0.2499036175
0.2826239929 0.4983403757 0.7531315544
0.2826206598 0.7458666279 0.2503758078
0.282761391 0.7487275976 0.7528037988
0.2726879995 0.7463380005 1.0069930557
0.2725743035 0.7480467261 0.5022985516
0.2824547451 0.998659814 0.2494795722
0.312731212 0.9997989644 0.4876569511
0.2925688746 0.7476931967 0.9960123183
0.3026374516 0.7463052663 0.2432836958
0.2925240628 0.749290626 0.4960795285
0.3025211631 0.7487799723 0.7440979073
0.3125982581 0.746606421 0.9903830701
0.3125638159 0.7477783056 0.492435331
0.3124064192 0.4988988213 0.489410536
0.3024304285 0.5006906918 0.7440840193
0.29251036 0.4978454345 0.9942161437
0.302650784 1.00225403 0.2366128515
0.332559498 0.496789429 0.4805731719
0.3225468432 0.4979665511 0.7395574742
0.3325491284 0.7470123252 0.982513233
0.332692452 0.4985904651 0.9819206806
0.322614246 0.7470254189 0.2354166363
0.3325132049 0.7460761269 0.4801991232
0.3225579535 0.7472611051 0.7339837778
0.3226112832 0.4986179618 0.2351786894
0.3526340636 0.4995364836 0.4731255284
0.352563698 0.9964535285 0.4718117285
0.36245525 0.7482627719 0.2154587294
0.3626552364 0.7465540463 0.7195514224
0.3524125972 0.7493626412 0.9724305829
0.3628367056 0.4980228539 0.722531776
0.3426695537 0.7477259309 0.2253571327
0.3626996779 0.4994998213 0.2221527203
0.3525074055 0.7467242642 0.4742819315
0.3425010466 0.7493626412 0.723852057
0.3624256223 0.9977825373 0.7185116781
0.342648444 0.4980280914 0.7298525763
0.3526544326 0.5002782408 0.9729675836
0.3427114027 0.4997178311 0.2279014048
0.3726915934 0.4982094389 0.970541822
0.3825983295 0.5008235926 0.2155189105
0.3724249448 0.4996287941 0.4682462294
0.3926013553 0.5000288061 0.9599499471
0.3824983362 0.500064159 0.7129611283
0.3723360619 0.7509862579 0.967273525
0.382635364 0.7501089811 0.2168253035
0.3725286414 0.7515296457 0.4670435331
0.3825872191 1.0018219384 0.2149837616
0.3826427709 0.7475360725 0.7119565667
0.3925569139 0.7516671294 0.957588996
0.3925606173 0.7516998636 0.4581774673
0.3926791278 0.5021342703 0.4654195691
0.4025932708 0.5003214499 0.7093317446
0.4026932641 0.7487734255 0.2068472759
0.4027265951 0.7486883166 0.706006044
0.4127111037 0.7507963995 0.9550058377
0.4127407314 0.7506261816 0.4563266667
0.4226289502 0.9997793239 0.7091234254
0.4423350223 1.0018088448 0.2000310711
0.4326060519 1.0004340081 0.4531657698
0.4424535328 0.9996876681 0.6984398901
0.4225659915 0.496014283 0.7042117212
0.4327208589 0.751889722 0.9506635394
0.4226733916 0.7496965301 0.2034549132
0.4326875279 0.7524920314 0.4483160985
0.4227770883 0.7487799723 0.7091354616
0.4425016776 0.7484591771 0.1964702013
0.4425720432 0.7487668787 0.6954669434
0.4226215433 1.000270337 0.2039863587
0.4724811276 0.7478372272 0.9369237297
0.4625336535 0.7488847218 0.1910733448
0.4724848311 0.7483937087 0.4381019758
0.46242255 0.7514379899 0.6945586716
0.4524935932 1.0006893349 0.4471717316
0.4722737343 0.9993406856 0.436171551
0.4724218724 0.5010370197 0.9342016919
0.4626706813 0.4999836329 0.1898475019
0.4626299433 0.9962571233 0.1910974172
0.4623373706 0.9984175809 0.6904311735
0.4526565451 0.748465724 0.9464508619
0.452541738 0.7500238722 0.4409036378
0.452582476 0.500174146 0.4424933449
0.4824693397 1.0004929296 0.6810910657
0.4926575382 1.0012720038 0.43048027
0.4924538483 0.9995174503 0.9301927043
0.492753828 0.7494739375 0.431136707
0.4926168002 0.7490287523 0.9298593936
0.4825730364 0.7507440248 0.1827257623
0.4824434155 0.7460826737 0.6814614109
0.4926130968 0.5005414238 0.9312481884
0.4927316072 0.5001558148 0.4298886434
0.4826100709 0.5012164031 0.681265128
0.512615445 1.000767897 0.434967003
0.5225592157 1.0004078207 0.6822446912
0.5025309432 1.0004143675 0.178451052
0.5224481121 0.7498798417 0.6847334114
0.5026457502 0.752465844 0.1824757792
0.5026642675 0.7474116825 0.6823669051
0.5124636035 0.7493953754 0.9319055512
0.5124413828 0.4996412331 0.9277669428
0.502586495 0.5005964172 0.1813573365
0.5125747071 0.7514248963 0.4295044102
0.5226295813 0.7501613559 0.1812628985
0.5524942242 1.0015273306 0.4326023484
0.5424578673 0.5021794435 0.6857213075
0.5425171225 0.7486555824 0.1838136516
0.5524720035 0.501210511 0.4347346114
0.5525794036 0.7502071838 0.4347651649
0.5423912051 0.7504232295 0.6833001752
0.5325103932 0.7531925434 0.9358126939
0.5323881793 1.0002179623 0.9361182287
0.5424615707 0.4971239726 0.1823850447
0.5523757137 0.502524462 0.9345627786
0.5323511447 0.7499780443 0.4296960639
0.5424689776 0.9991835614 0.182917416
0.5726854486 0.5000445185 0.9386643525
0.5624602156 0.9999102608 0.6852898552
0.5523386792 0.7491073144 0.9335813636
0.5622528222 0.7516736762 0.1833081303
0.5622861533 0.7484329898 0.6827890988
0.5723299171 0.750776759 0.9321184998
0.5724188 0.4985570762 0.4364196824
0.5724336138 0.749041846 0.4360437819
0.6022982568 0.5010416025 0.193725017
0.6025574984 1.000231056 0.1947860562
0.6024130638 1.0020903589 0.6934809668
0.5925174381 0.7519551904 0.9386828697
0.5925137346 0.9999626355 0.4412971296
0.5923767068 0.9991115461 0.9437751173
0.6024834294 0.7507963995 0.1947249492
0.592402631 0.7523218135 0.4396426121
0.6025463881 0.7506065411 0.694819765
0.5823588672 1.0010166769 0.1867486379
0.5826255158 1.0002506965 0.6878137583
0.58244775 0.5000072015 0.6880285585
0.5824736742 0.7484591771 0.1824989258
0.5826292192 0.7496703428 0.6876702495
0.6126123727 0.7502922927 0.9472933974
0.6123197999 0.998208082 0.4525630329
0.6124383104 0.7507112906 0.4465726981
0.6223968948 1.0000739318 0.7033117822
0.6226042882 0.7482824124 0.2023383222
0.6223672672 0.7495132186 0.6998083159
0.6223524534 0.9994912629 0.2015318954
0.642488126 1.0026010126 0.7077531479
0.6422844361 1.002581372 0.2075861147
0.652402269 1.0037990845 0.464500187
0.6525318898 1.0005387575 0.964153366
0.6327184176 1.0007482564 0.4563155564
0.6326184244 1.0020117968 0.9573853061
0.6325962037 0.5017912158 0.457042359
0.632411031 0.7546852233 0.9536170429
0.6326221278 0.7500697001 0.4571201315
0.6524170828 0.7519682841 0.9649496084
0.6423733189 0.7534609639 0.2107933048
0.6526763245 0.7527342645 0.4641289158
0.6425288639 0.7517980662 0.7064199049
0.6725712726 0.752839014 0.9685234403
0.6626423158 1.0011148796 0.2196630741
0.6724194311 1.0014029406 0.9716065647
0.6822632085 0.7519813778 0.2175409957
0.6725342381 0.750279199 0.4670953815
0.6824113466 0.7535788071 0.7171488075
0.6624201086 0.75568689 0.2154476191
0.6623645569 0.7522825325 0.7129083541
0.6724823898 1.0034324614 0.4709728965
0.7024285087 0.4995037494 0.2209185446
0.6924551104 1.0001655876 0.4690109924
0.6924551104 1.0016648142 0.9723842897
0.6923884483 0.7523087199 0.9662550754
0.7024729501 0.7518046131 0.2249701219
0.6925180691 0.7524331098 0.4705136684
0.7025285019 0.7515623799 0.7257454472
0.7123648724 0.499338769 0.4770965556
0.7123722793 0.7526818898 0.4764188238
0.7223975259 1.0003096181 0.7321663084
0.7324709174 1.00175647 0.986337048
0.7323487034 0.7528717482 0.9838649933
0.7224678915 0.7501024343 0.2360490008
0.7324672139 0.7498602012 0.4858579989
0.7223567879 0.7495459528 0.7312089658
0.7224901122 1.00200525 0.228630985
0.7323746276 1.0029021673 0.485167305
0.7123463551 0.7490811271 0.979596764
0.7124611622 1.0016124395 0.4749402202
0.7123833897 1.0015142369 0.9767636226
0.7424924605 0.5013964413 0.2358508661
0.7425109777 0.7524789377 0.2403727819
0.7424480191 0.7517325978 0.738063131
0.752484376 0.7485377392 0.9944013163
0.7625577675 0.999982276 0.7363549134
0.752328831 0.999530544 0.9896331209
0.7624614777 0.7521254083 0.2400228056
0.7524547484 0.7513921621 0.4915640938
0.7623651879 0.7516278483 0.7422359964
0.7523769759 0.9998644329 0.4848747322
0.7424109845 0.9997400429 0.2359906714
0.762317043 1.0030461978 0.2398515209
0.7823156879 0.9983586593 0.2409486688
0.7723052551 0.9990788119 0.4899160573
0.7822453223 0.9990067966 0.7401259542
0.7721311928 1.0004601954 0.991392261
0.7825304881 0.750776759 0.2490203441
0.7722756275 0.7505083385 0.4914094746
0.7825453019 0.7517391447 0.7422980292
0.7725570899 0.7493495475 0.9902904838
0.7724719105 0.5017080709 0.4901725214
0.7722200757 0.5004491133 0.9891609307
0.7923520448 0.7506785563 0.9890035339
0.812558083 0.7491335018 1.0014656524
0.792377969 0.5005787408 0.9974566648
0.8123506896 0.4999266754 0.9985491834
0.8023772914 0.7522367046 0.2436614479
0.8124210553 0.7490156586 0.5020096822
0.802529133 0.7492644386 0.7467856881
0.7924964795 0.7511499289 0.4901873352
0.7923853759 1.0027515899 0.4975840562
0.7923853759 1.0001786812 0.9958826974
0.8024217328 1.0003358054 0.2478713479
0.80233285 0.9980771452 0.7494771724
0.8126025244 1.0005453044 1.000595341
0.8224463018 1.0000739318 0.7567924174
0.822431488 1.0002376028 0.251897001
0.8323382241 0.7473134799 1.007335625
0.8222944603 0.5023116897 0.7534435703
0.8224203777 0.7488847218 0.2554708329
0.8325567278 0.7519159094 0.505665916
0.8225277778 0.7516147547 0.7518658994
0.842415319 0.7518635346 0.2646581733
0.8422708844 0.7491793297 0.7648381685
0.8622806396 0.4999914891 0.7606773393
0.8424819812 1.0012916443 0.7615920922
0.8623510052 0.9988496724 0.2649683375
0.8624028535 0.999942995 0.7656936661
0.8523961242 1.0003881802 0.0115043092
0.8624954398 0.7503970422 0.7730764991
0.8522998344 0.4985033921 0.5089101406
0.8525220416 0.7480598198 0.01369055
0.8523553862 0.4982847276 0.0119173368
0.8622806396 0.5000451732 0.2651748049
0.8624176673 0.7479616172 0.268422733
0.8525146347 0.7494673907 0.5107368686
0.852296131 0.998993703 0.5149551013
0.8821866981 1.0010035833 0.7690721409
0.8924267449 0.9993537792 0.0259860131
0.8824126087 0.7511433821 0.7736134998
0.872435507 0.7507963995 0.0207172035
0.8923971173 0.749454297 0.0250995917
0.8823274293 0.5020832049 0.7717330717
0.8824163122 0.4994644684 0.2687171575
0.8824496432 0.7528455608 0.2787007402
0.8724503208 0.7486163013 0.5159818836
0.8926637659 0.7518046131 0.5234535995
0.8724206932 0.4981943811 0.0210131093
0.8823274293 0.9991377335 0.2748454459
0.9023890328 1.0008726464 0.7751383965
0.912525383 0.7494477502 0.5317595182
0.9023964397 0.9991442803 0.274107533
0.902529764 0.7534740576 0.7759226026
0.9124883485 0.751765332 0.0310265049