POSCAR file written by Ovito 3.7.11
1
271.58601287 0.0 0.0
0.0 15.3632249101 0.0
0.0 0.0 10.8634405148
Sr Ti O 
800 800 2400 
Direct
0.0223476435 0.49912974 0.7860986844
0.0124429361 0.249612466 0.5372226495
0.0224777681 0.2516205079 0.7818044647
0.0025358353 0.2486647483 0.7886006542
0.0124406901 0.2498669698 0.0366452318
0.0223932645 -0.0016801515 0.2825924524
0.0024610156 -7.8580799522e-04 0.2858382013
0.0024096506 0.4986096669 0.2871388942
0.012438849 0.4969394447 0.5381753864
0.0124032065 -0.0015622075 0.5361677351
0.0222825076 -0.0014005227 0.7834310212
0.002484544 -0.0020463116 0.7884542917
0.0224694098 0.2497068472 0.2841352417
0.0024932337 0.2491099673 0.2879728841
0.0323106014 0.5007368245 0.0316939459
0.0424050093 0.5020496999 0.2836547309
0.0323625187 0.5014847143 0.5335101977
0.032409281 0.250817942 0.5356632909
0.042416792 0.2506532631 0.7859219448
0.0325046467 0.2475933586 0.0329615002
0.052360603 0.4976241967 0.0364691366
0.04238844 -0.0024977142 0.7849066127
0.0424554537 0.2516159516 0.2848725772
0.0523966874 0.2516348278 0.5347013488
0.0524817433 0.2500902302 0.0365773896
0.0623570678 0.2482325474 0.2875936304
0.0624678982 0.500369714 0.7827746914
0.0724017677 0.4995827699 0.0334343706
0.0622926315 0.4985504346 0.2838102986
0.0725810847 0.4987411497 0.5318919258
0.0724614173 0.2506285287 0.534339585
0.0625540588 0.2476564964 0.7857921516
0.0725044976 0.2508322619 0.0336056791
0.0926351366 0.2529431469 0.528232864
0.1026897781 0.2528318421 0.7772718307
0.0825326281 0.2497504578 0.7809078795
0.0925614951 0.2521522973 0.0291835994
0.1024725357 0.0038528665 0.2768585415
0.092428204 2.1255010275e-04 0.5276253217
0.1025863118 0.2523801141 0.2757870577
0.0826327806 0.2490077752 0.278360828
0.1025833662 0.503933419 0.7778416317
0.08246856 0.5003254525 0.780933654
0.1025609055 0.501959875 0.278659076
0.0824033873 0.4981266954 0.2816249872
0.1225284287 0.2520819996 0.2747993412
0.1125614205 0.5028086551 0.024527708
0.1126450036 0.2521431846 0.52313227
0.1225902875 0.5018531266 0.2720387056
0.1126369031 0.503028661 0.5235851652
0.1226569331 0.2508752217 0.7753028412
0.1125886679 0.2521861444 0.02657218
0.1225350564 0.0017896929 0.2719448127
0.1525988285 0.250584918 0.5129329229
0.1325690783 0.2501937241 0.5201479484
0.1424027953 0.250633085 0.7677140851
0.1525575893 0.2517506889 0.0135957201
0.1326640758 0.2507691242 0.0226957837
0.1424650224 4.7069902807e-04 0.2674223044
0.1424885877 0.2514786106 0.2691961439
0.1425721708 0.5009360014 0.7656364745
0.1524246664 0.5015517575 0.014766896
0.1324501473 0.5027871752 0.0200503971
0.1524828432 0.4992384411 0.5160663685
0.1325889615 0.5027253393 0.5210749107
0.1825480881 0.2509233887 0.2597387349
0.1723781977 0.4996335405 0.5132146016
0.18252305 0.4977745558 0.7618973276
0.1726226874 0.2497452506 0.5072570047
0.1625588407 0.251400502 0.7628233694
0.1725295309 0.2493748856 0.0063413885
0.1825679713 0.5012920464 0.258315613
0.1625102373 0.0015368163 0.7604493517
0.162552213 0.2477625939 0.2633434861
0.1825885909 0.2510620314 0.7580302286
0.1825653939 8.6469803119e-05 0.2570222843
0.1925751141 9.514574654e-04 0.0051359692
0.2026595804 0.2513341097 0.2537056555
0.2027693062 0.5000032545 0.7560474313
0.1924495553 0.501233465 0.0086144253
0.2025796794 0.4987945239 0.2555089516
0.1924823258 0.5000123672 0.5089295872
0.192571432 0.2497035927 0.5072303097
0.202648166 0.2525031351 0.7523764028
0.1926362365 0.2512371249 0.0060666136
0.202609136 0.0015524381 0.2560336472
0.212629166 0.2528682928 0.5076574303
0.2225947013 0.2527003593 0.7542017913
0.2126151741 0.2511446964 0.0052719299
0.2225969105 0.0014889748 0.7532720675
0.2226606104 0.2503889956 0.2491785446
0.2325513996 0.2507606624 0.4998606371
0.2326666486 0.2506649794 1.0009551101
0.2327097288 0.001199973 0.4988112458
0.2226267353 0.5031842273 0.7537083933
0.2125952909 0.4995899298 0.006218131
0.2125500014 0.5022176334 0.5029443747
0.242579162 0.5010648806 0.7479330591
0.2625319568 0.2525083423 0.74051644
0.2623894605 -0.0013444147 0.23893041
0.2625569949 0.0025515122 0.7397450454
0.2526338035 0.2488059947 0.4918714554
0.2424889512 0.252024069 0.7465946249
0.2524865205 0.2519667894 0.9939039369
0.2624723072 0.2500225361 0.2443108417
0.2425080979 0.0016522869 0.2454605696
0.2624734118 0.4959292401 0.2412749711
0.2525159771 -0.0019713338 0.4951669123
0.2425427094 7.4154060101e-04 0.7477839351
0.2526002966 -7.0418450749e-04 0.9932411635
0.242609355 0.2510027991 0.2436913327
0.2725950671 0.2486068177 0.4836585876
0.2725122204 0.2479227166 0.9861347592
0.2725269487 -0.0015797819 0.4869070981
0.2725843891 -0.0038380383 0.9850025212
0.2824538223 0.247755434 0.7351838753
0.2724220096 0.498232142 0.4896474822
0.2824678141 0.251619857 0.2367230062
0.3124793008 -6.5360918853e-04 0.4822078502
0.2925555943 0.4990822239 0.4835536485
0.2923994744 0.249900166 0.4851120867
0.3024360737 0.2522616493 0.7347079671
0.2924038929 0.250044016 0.9848276227
0.2925563308 -0.0037433446 0.4842210246
0.3025041921 8.1593904318e-04 0.7355051363
0.3125290088 0.4998366228 0.4816380491
0.3025332805 0.2496072587 0.2332857894
0.3124914516 0.2500375069 0.4841998526
0.3125164898 0.2486309012 0.9795438454
0.3223741403 4.6972267057e-04 0.236220403
0.3325212019 -8.9079897267e-04 0.4755101562
0.3224857071 -0.0012457375 0.7308381065
0.3324906406 -1.5794502658e-04 0.9806024419
0.3226801207 0.2528735 0.2300087429
0.3224827615 0.4978637298 0.725489893
0.3224312124 0.498465166 0.2303474938
0.3325786422 0.247707267 0.4803106612
0.3225420429 0.2477736593 0.7310663952
0.332526725 0.2498220574 0.9792400743
0.3627374119 0.2464666421 0.2225350517
0.3525336463 0.4985575945 0.4748952497
0.3525568434 0.2508609018 0.4740290417
0.3426086138 0.2485222001 0.7287301187
0.3625164874 0.4994662579 0.7248823506
0.3525789358 0.2498838934 0.9757881292
0.3624907129 0.5006476505 0.2223187298
0.3424650129 -0.0025912427 0.2284226892
0.3426730502 0.2472470772 0.2243622813
0.3627116373 0.2493644712 0.7208992663
0.3425224533 0.4985315583 0.7307939216
0.3424337153 0.5000963339 0.2281631029
0.3826832108 0.2466781862 0.216664904
0.3925585353 0.251277481 0.4628640705
0.3925990381 0.2493462458 0.9604891086
0.392643223 -0.0027389786 0.9609309576
0.3826721646 0.4995847226 0.7139926146
0.3925511711 0.5003332634 0.9622380941
0.3727821118 0.2512507939 0.4697477092
0.3825322457 0.2503102361 0.7130223879
0.37249491 0.2509767629 0.966960355
0.3925806277 0.5000149708 0.4665203707
0.3725354128 -9.7841078646e-04 0.4700257059
0.4125301087 0.4984775332 0.9642632352
0.4026842408 0.2498480936 0.711281687
0.4026658304 -3.9656680172e-04 0.7124047198
0.4025590503 0.249057244 0.2133574804
0.412592704 0.2486491266 0.4639180644
0.412592704 0.2494308635 0.9619895541
0.4125779757 -0.0011731616 0.4588883503
0.4125411549 -0.0028496 0.9577275525
0.4424690585 3.5770191906e-04 0.7085799647
0.4425169254 0.2515671337 0.2099193431
0.4225195775 0.5011286693 0.7123743427
0.4324059482 0.5005051023 0.9618422711
0.432494318 0.5017938942 0.4625731866
0.4424506481 0.5002955109 0.7072056303
0.4424543302 0.5022911856 0.2124866697
0.4324096303 0.2506786484 0.460524112
0.4226521322 0.2506103033 0.7097987314
0.4325569132 0.2504768678 0.9600472596
0.4224827567 3.0100809305e-04 0.2124498489
0.4325090463 -8.7309435651e-04 0.9602865945
0.4226374039 0.2510984821 0.2109162648
0.4425574283 0.2507873495 0.7088331073
0.4725589733 0.2510197226 0.4532492528
0.462492181 0.2507268153 0.7063937328
0.4724374648 0.2517988559 0.9533274732
0.4725994761 0.00149991 0.9585652245
0.4625547762 0.252400943 0.2085523728
0.4524217065 0.501521165 0.9599367974
0.4525468971 0.5010713896 0.459290617
0.4624590423 0.5011586109 0.7045536159
0.472592112 0.500356045 0.9557852581
0.4625179555 0.5016409315 0.2048500467
0.4524143424 0.251709031 0.4547681087
0.4523812037 0.2500173289 0.9559969774
0.4525542612 0.0018774349 0.458676631
0.4823532921 0.2504078719 0.7059988303
0.4826662685 -4.5026646471e-04 0.7034103317
0.4924311307 0.5000963339 0.9568530598
0.4925231826 0.4986955864 0.451929229
0.4824085233 0.249570808 0.2047340613
0.4924863619 0.2508654581 0.4538429874
0.4924716336 0.2495903352 0.9501608889
0.4824122053 0.5010518625 0.2029583808
0.5023101373 0.2501156155 0.7057861905
0.5124358428 0.2499886891 0.45409613
0.5123585193 0.2516257152 0.9529316502
0.5024390099 1.6978564387e-04 0.7033578622
0.5023506401 0.2488990741 0.2086122065
0.5224216296 0.2505191766 0.2072627261
0.5225284097 0.2513139317 0.7097591491
0.5123806117 0.5004159283 0.456238177
0.5224216296 0.5039177972 0.7069349978
0.5423711105 0.5021902953 0.7112144892
0.552441585 0.5000963339 0.9607928798
0.542345336 0.5000201781 0.2090071091
0.5522611633 0.50029486 0.4605931509
0.5324221446 -0.0024694324 0.4596275268
0.5324331908 0.2512149941 0.4593237556
0.5324147804 0.2506975246 0.9577091422
0.5325362889 0.499061395 0.9558220789
0.552441585 8.5037812106e-05 0.9604706982
0.542444752 0.2501937241 0.2122464143
0.5523568973 0.2512286631 0.4608693065
0.5424778907 0.2494347689 0.709677223
0.5522059322 0.2518431174 0.9622565045
0.5723100603 0.2516803912 0.4625906765
0.572391066 0.2528233804 0.9656624236
0.5624089613 0.5002863982 0.7154553188
0.5623095453 0.5011013313 0.2124295975
0.5723984301 0.5028040988 0.9653770628
0.5724831178 0.5003449797 0.4657517376
0.5625046953 0.2501598771 0.2136796619
0.5624752387 0.2506109542 0.7125584465
0.6025546223 0.502295742 0.7222607134
0.5924289167 0.5000403561 0.9674022039
0.5923663215 0.5012647084 0.4673120168
0.5824357659 0.2505009513 0.7177731848
0.6023484261 0.2500322997 0.2233349824
0.5923037262 0.2519772039 0.4667790365
0.6024478421 0.250441068 0.7230661673
0.5924289167 0.2506246233 0.9692708569
0.5824063093 0.5012621048 0.7205964156
0.5824873149 0.5033189646 0.2164292512
0.5824504942 0.2505862199 0.2194908964
0.6126324609 0.5002922563 0.9706332245
0.6126655996 0.4994402217 0.4710290713
0.6226292938 0.5000781086 0.7272223091
0.6125219986 -1.1238167617e-04 0.4770741175
0.6226697967 0.5003703649 0.2222432473
0.6126030043 0.2505614855 0.4751161742
0.612393126 0.2502256185 0.97410358
0.6225004212 -0.001180647 0.7264150142
0.622537242 0.2512813864 0.2284503048
0.6224562363 0.2510054027 0.7227403037
0.6424572664 9.07586468e-04 0.2267694376
0.6525019663 0.0027749027 0.4775748796
0.6325782598 0.501233465 0.4751815311
0.6424462201 0.2523358525 0.2280461971
0.6523951861 0.2502933126 0.4804671494
0.6423504862 0.2515476066 0.7254015232
0.6324125664 0.0013243609 0.4777681886
0.6524577814 0.2517754233 0.9774910887
0.6425750927 0.5011221602 0.7244009194
0.6526124285 0.5030364719 0.4788525596
0.632442023 0.2509097196 0.4778933791
0.6323941561 0.2503427814 0.9773161902
0.6824740547 0.4987932221 0.7373213197
0.6624730247 -0.001827256 0.2301762773
0.6825035113 0.4989989081 0.2346868189
0.66253562 0.0040752157 0.729257576
0.6724146265 0.499951833 0.4808003771
0.6624509322 0.2519537713 0.2313545412
0.6624730247 0.2507997167 0.7323229032
0.6726576434 0.0015769121 0.9838978988
0.6625687586 0.5026426743 0.7319233981
0.662587169 0.5021902953 0.2324195813
0.6825035113 0.249331275 0.2375008445
0.6723962161 0.2499626529 0.4806135118
0.6825697887 0.2496046551 0.7378478563
0.6724809039 0.2513484296 0.9841188233
0.7025745008 0.2493371332 0.2430073873
0.6925113905 0.2484479969 0.4894228757
0.7024824489 0.2487975329 0.7402421254
0.6925187546 0.2483191177 0.9863096578
0.6924451131 0.5015302777 0.9866410445
0.6923088764 0.4990861294 0.4869374752
0.7324029883 0.4985458782 1.000559287
0.7323808959 0.5004706043 0.5041916775
0.7125529233 0.2487877693 0.4935118197
0.712390912 0.2493013334 0.9916670765
0.7225202997 -0.0019354169 0.2460515426
0.7324140345 -0.001606469 0.5015166502
0.7324803119 -0.0015292717 1.0014337798
0.7124240507 0.5010733424 0.9937382436
0.7224945252 0.2495135284 0.2479119108
0.7325649996 0.2494119872 0.502813661
0.7225387101 0.2495031139 0.7493469758
0.7325134505 0.2498910533 1.0037166661
0.7123651375 0.4983467013 0.4924596668
0.7125455592 -3.273105091e-04 0.4942215396
0.7124130045 -3.1748184351e-04 0.9914001261
0.7525107985 0.5002024315 0.0069891575
0.7425139656 0.0012081744 0.2554380716
0.742484509 -7.3113197473e-04 0.7529747399
0.7423777288 0.2482663944 0.2535427237
0.7425066014 0.2493813947 0.754774354
0.7624818569 -0.0016837315 0.2580247291
0.7526028504 -0.0011126925 0.5071824427
0.7625481343 4.2826002169e-04 0.7609924577
0.7524887061 -3.5217508032e-04 0.0089507828
0.7625149956 0.2496430585 0.2563374184
0.7525770759 0.2508062257 0.5061174026
0.7625002673 0.2495636481 0.7565546371
0.7524739778 0.2498376791 0.0094641561
0.7824497483 -0.0026440767 0.2590216509
0.7824166096 -0.0024632423 0.7604005642
0.77258547 -6.051167656e-04 0.0092276748
0.7825675747 0.2487461114 0.2565353299
0.7725007823 0.2509012579 0.5071916479
0.7824607945 0.250036856 0.7596153617
0.7725081465 0.2500420633 0.0060698354
0.7924318529 -5.5903269118e-04 0.51106427
0.7923803039 -0.001435997 0.0095983677
0.8123923801 0.4993074371 0.0173287916
0.7923618935 0.2490110297 0.5058973986
0.7924392171 0.2499164386 0.0074326634
0.8023918651 -2.4444409878e-05 0.2600839294
0.8123297849 -0.002212364 0.5168939148
0.8024250038 -2.6130874151e-04 0.7637880729
0.8123702877 -0.0018385167 0.0150511522
0.8024397321 0.2505016022 0.2613772582
0.8123445132 0.2492687881 0.5109657745
0.8023071774 0.250057685 0.7607209047
0.8123481952 0.2482338492 0.0114964772
0.8324670517 -5.936608375e-04 0.5227962807
0.8223560744 -0.0030540427 0.7669564983
0.832334497 -3.245054145e-05 0.014518356
0.8224444442 0.2504293518 0.266637102
0.832386046 0.2493306241 0.5164999328
0.8223892131 0.2479793453 0.7687266557
0.8323197687 0.2486035632 0.0170022836
0.822433398 -0.0015818648 0.2715664795
0.8424528384 -0.0021120855 0.7680850542
0.8425559365 0.2480860937 0.2734277683
0.8423534224 0.2473531747 0.7688619719
0.8624612326 -0.0011911916 0.2784482772
0.842482295 0.4964753494 0.7690580424
0.8523318449 -7.9537629881e-04 0.5223599548
0.8622992213 -5.9333538499e-04 0.7759545684
0.8523465732 -2.6266943894e-05 0.0221593054
0.8624023194 0.248358172 0.2797756652
0.8424491563 -0.0016039956 0.268583999
0.8523281629 0.2499522384 0.5198681107
0.8624796429 0.2469697916 0.7763641992
0.8523244808 0.249002568 0.0186453174
0.8724580655 -0.001997012 0.5275636469
0.892580604 2.1157374524e-04 0.5268097421
0.8724028344 -0.0016991579 0.0292204202
0.8824217598 0.2467842837 0.2785716268
0.8925253729 8.4965592248e-04 0.0317826839
0.8723218287 0.2483432012 0.5285357147
0.8925180087 0.2486152795 0.5274089998
0.8824548985 0.2487871184 0.7766348317
0.8723181467 0.2474892138 0.029438399
0.8924480493 0.2476421765 0.0293909923
0.9025442983 -0.0011446519 0.2784013308
0.9124748539 -8.9086406317e-04 0.5296265293
0.9025590266 -0.0023315056 0.7757759878
0.9024412002 0.2493605657 0.2804448823
0.9124969463 0.2493058897 0.5293623405
0.9023160096 0.246912512 0.7821975262
0.9025037955 0.4990431696 0.7783994661
0.9123607096 0.2501637825 0.0283474002
0.9225453283 -0.001534544 0.2778775557
0.9225490104 -1.3490298937e-04 0.7806795909
0.9224937793 0.2496417567 0.2838121396
0.9225674208 0.2484310734 0.7820051378
0.9425205838 -0.0012177486 0.2783718742
0.9326599876 -2.5167534742e-04 0.5292785733
0.9425610866 -5.2642235039e-04 0.7775663967
0.9325716179 -0.0011154914 0.0335447408
0.9425169017 0.2500485723 0.2831226711
0.932578982 0.251099133 0.5321423069
0.9425868612 0.251119962 0.784603762
0.9324869301 0.2485026729 0.0300118821
0.9525910583 -0.0014115881 0.5310275588
0.9525395092 7.6809752525e-04 0.0325830749
0.9626357582 0.2515423993 0.2842208499
0.9526205149 0.2490852329 0.5318357742
0.9727430534 0.2500602886 0.5341297067
0.9625510705 0.2500270925 0.7854101364
0.9524032724 0.2504488789 0.0319534402
0.9726510015 0.2506545649 0.0332243083
0.9625989374 0.0014669091 0.2851201967
0.9824747769 0.4998880443 0.7837697721
0.9827288401 0.5007303154 0.2856899978
0.9827104297 -0.001817883 0.2870597296
0.9925489334 -0.0010405071 0.5387019231
0.9826551986 0.2480711229 0.2878753091
0.9925931183 -2.7582392314e-04 0.0390935354
0.9925194768 0.2503948538 0.5366997949
0.982776707 0.2496241823 0.7867163524
0.9925857542 0.2510587769 0.0374416646
0.0124776949 0.7489060742 0.0347276994
0.0024020287 0.4981650988 0.7868884894
0.0123294546 0.4993647167 0.035018123
0.0224645126 0.749791305 0.285945902
0.0025114232 0.7485676036 0.2847225326
0.0125093976 0.748749857 0.5327507697
0.0224614933 0.7501493028 0.787310087
0.0223355663 0.4993738294 0.283019573
0.0026380866 0.7476563366 0.7861465513
0.0125207384 0.9994198838 0.0377716706
0.0522192114 1.000734712 0.5362947667
0.0524143613 0.9998494811 0.0341437223
0.0324328463 0.7491013457 0.0325698195
0.0425047936 0.4985536891 0.7843671887
0.0423645065 0.7496155607 0.2824571361
0.0323816654 0.7496155607 0.5340422575
0.0425239403 0.7488019294 0.7855040293
0.0524478682 0.750175339 0.0330878874
0.0523672308 0.7509173707 0.5348615191
0.0523399834 0.4985250493 0.5345108015
0.0422617766 1.0000252255 0.2839980844
0.0324869728 0.9987819969 0.5339143054
0.0324114903 0.9991530128 0.0330811676
0.072446689 0.9996867549 0.5345043578
0.062357436 1.0014051441 0.7824479073
0.0723977174 1.002036522 0.034405886
0.0722519072 0.751346968 0.0294077457
0.0623092008 0.7493747258 0.2885261158
0.0724095 0.7490232371 0.5328216497
0.0623014684 0.7500777032 0.7867504116
0.0623636955 0.9998624992 0.2874076856
0.082555457 0.9981831643 0.282403746
0.1025170888 1.0015613613 0.7732298331
0.082456041 1.0020625582 0.7801907954
0.0925408755 1.0013791079 0.0287891572
0.0925662818 0.7488019294 0.0295476646
0.0926034708 0.5022618949 0.025159552
0.1025447044 0.7518221287 0.2740675288
0.0825042762 0.7489451285 0.2815798818
0.0925508171 0.7517049658 0.5302662898
0.1025410223 0.7512818775 0.7772165996
0.0824269526 0.7499345041 0.7828345251
0.0926874221 0.5025508967 0.5269689919
0.1124527993 0.9999080626 0.0277886454
0.1124793103 0.751346968 0.0276172448
0.1224511051 0.5025430859 0.7738180446
0.1224444774 0.7494137801 0.2733320344
0.1125717304 0.7549659998 0.5256388424
0.1226554603 0.7510150065 0.7747560531
0.1125617888 1.0019844496 0.5243722087
0.1224540508 1.0025702641 0.7737416415
0.1524622236 0.9998104268 0.5138138593
0.1324840224 1.0006761305 0.5207380009
0.1424900605 1.0025051736 0.7701985651
0.1525248188 1.0017305966 0.0132040394
0.1323702463 1.0000642798 0.0208568635
0.1523837954 0.7520889997 0.0179165427
0.1323993347 0.7514380947 0.0231486789
0.1423965358 0.7493226534 0.2660194339
0.1523930005 0.7518807101 0.5115760784
0.1324516201 0.7532476106 0.5198856006
0.1425036842 0.5008071222 0.2689291935
0.1425633338 0.7507220992 0.7687294173
0.1725424182 0.7501558118 0.0091821091
0.1625500037 0.5029817958 0.76255826
0.1724466843 0.4988439927 0.0119571968
0.162543376 0.7483462959 0.2599854339
0.1825300459 1.0013140174 0.756401831
0.1724227508 0.7492510539 0.5080385251
0.1625157604 0.4995482719 0.2595905314
0.1626648845 0.7508327531 0.7601474215
0.1824829154 0.7470249588 0.2625693299
0.1825849089 0.748229133 0.7580062951
0.1624804125 0.9998234449 0.2623723389
0.1726466209 0.9994719562 0.5067405937
0.1726234238 1.000090316 0.0074611994
0.1926181943 1.0011122369 0.5017246874
0.20264117 1.0021471758 0.7543297434
0.1926111984 0.7504031558 0.0072130276
0.2025553777 0.7508522802 0.2565565018
0.1925581765 0.7488474928 0.5089479975
0.2025649511 0.7509238798 0.7575708897
0.2325808562 0.7521410721 0.9999241292
0.2326125221 0.5016214044 1.003412895
0.2326276186 0.7491859634 0.4979091374
0.2325083193 0.5008930417 0.4996157791
0.2224455773 1.0021406668 0.2555669442
0.212748097 1.0006566034 0.5009468491
0.2125249633 1.0006305672 0.0027407796
0.2126497856 0.7489060742 0.0083798771
0.2327413947 1.0009234744 1.0032564068
0.2225372609 0.7511191513 0.253413851
0.2126243793 0.7510150065 0.5096936177
0.2226749705 0.5000331962 0.2542819002
0.2226584012 0.7511516965 0.7526525584
0.2525575846 0.7487108027 0.9930570597
0.2525612666 0.4998249066 0.9919432321
0.2426251879 0.7506635178 0.2457265995
0.2526142885 0.7489386195 0.4922138883
0.2425504418 0.4980166924 0.2490929363
0.2425681158 0.7499995946 0.7483546566
0.2525638441 0.4989364212 0.4949183722
0.2625577314 0.4979555074 0.7410963668
0.2625673048 0.7479752801 0.2393943514
0.2625444759 0.7501102485 0.7404483216
0.2823558791 0.4976528365 0.7337782432
0.2825849041 0.7481705516 0.2343186114
0.2825348279 0.4995977407 0.2312569662
0.2825650209 0.7469338321 0.7317337712
0.2724566211 0.749914977 0.9859138347
0.2724407882 0.4987880149 0.9884084404
0.2726079544 0.7504617372 0.4852842236
0.2825694394 1.0025116826 0.2345800387
0.2824696552 1.0001749336 0.7353026222
0.3125105984 0.9984695625 0.9820568614
0.2925268742 0.7519783459 0.9852326509
0.3024242911 0.4996153151 0.7298338207
0.2924650153 0.5002519002 0.9850669575
0.3024754719 0.7472527755 0.2338730803
0.2925150915 0.747441538 0.486977978
0.3025130291 0.4979457438 0.2317835029
0.3025428539 0.7488540018 0.7355806188
0.3024537477 1.0010601645 0.233758936
0.3124623633 0.7483983683 0.9819095784
0.3123640519 0.4988823961 0.9789547135
0.312508021 0.7485676036 0.4848193617
0.2924977858 0.9989577413 0.983907104
0.3324556609 0.7491729453 0.9854075495
0.332528566 0.4996758493 0.979028355
0.3224547777 0.7501297756 0.2311050807
0.3324405644 0.7498759227 0.479809899
0.3224083836 0.7488930561 0.7334100358
0.3326408693 0.4983935664 0.4790670404
0.3525237047 0.9989056689 0.4752643777
0.342477532 0.9985541802 0.7319500931
0.3625533081 0.7499865765 0.2258231444
0.3527357922 0.9980334562 0.9750240987
0.3625569902 0.7484764769 0.7266497465
0.3627595043 0.9990163227 0.2223960534
0.3524334939 0.7500972304 0.9818267318
0.3626490421 0.9998690083 0.7238366414
0.3524419627 0.4987847604 0.9721889011
0.3424197234 0.7495765064 0.2294453855
0.3525038215 0.7516789296 0.4777856784
0.342490051 0.7503966467 0.7296138167
0.3925879919 0.9994719562 0.4648818475
0.3725906439 0.7512818775 0.9732106769
0.3725096383 0.4987554696 0.9692064206
0.3825248816 0.7512558413 0.217376465
0.372645875 0.7497392326 0.4730063454
0.3826206155 0.4987834585 0.2162074062
0.3825175174 0.7490622914 0.7181892593
0.3825543382 1.0000772979 0.213363924
0.3825580202 1.0002074789 0.7154543982
0.3726201005 1.0003181327 0.9721889011
0.3725611873 0.5009145215 0.4692110469
0.3925806277 0.7514641309 0.962578686
0.3924848938 0.7479362258 0.4674556177
0.4126221606 0.7496806512 0.9615661155
0.4125227445 0.7507936988 0.4629662481
0.4126074323 0.4985315583 0.4634771359
0.4026474201 1.0002400241 0.213536061
0.402548004 0.5004048629 0.7140570509
0.4023749465 0.7489516376 0.2129837498
0.402544322 0.4981384117 0.2146158294
0.4024080852 0.7496481059 0.7134789651
0.4326084623 0.7514641309 0.9611242665
0.4225858548 0.7493421806 0.2127573022
0.4325753236 0.7512753685 0.4617732559
0.4225821728 0.5016539496 0.2135102865
0.4225011671 0.7493682168 0.7120816178
0.4425795207 0.7508718074 0.2099451176
0.4424911509 0.7512948956 0.7123817069
0.4324354048 0.9983589087 0.4591792342
0.4225269416 0.9989642503 0.7109696312
0.4424396019 1.0014572165 0.2108555106
0.4525211225 1.0005329314 0.9610230094
0.4625400479 1.0018737957 0.2052679621
0.4725994761 1.0020169948 0.4579770368
0.4624406319 1.0012749631 0.7031986124
0.4524806197 0.7498694136 0.9573501399
0.4525542612 0.7502859929 0.4575158569
0.4726178865 0.7504031558 0.9544320956
0.4627204696 0.7508002078 0.2096800082
0.4724374648 0.7490492733 0.4536901813
0.4624627244 0.7517570382 0.708301968
0.4724632394 0.5006600177 0.4602221819
0.4825815808 1.0007802753 0.2046033477
0.4924016741 0.9999926802 0.4554364052
0.4924274487 0.9984695625 0.9551132795
0.4825705346 0.5018134213 0.7061645237
0.4926262807 0.7521020178 0.4528746017
0.4824600723 0.7515552576 0.2042885303
0.4925195005 0.7498694136 0.9534839614
0.4824784827 0.7493226534 0.7020516462
0.512347473 1.0004743499 0.4557641099
0.5123106523 1.0015873975 0.9560798241
0.502442692 1.000741221 0.2031378819
0.5224363579 0.7507871897 0.7086278317
0.5224105833 1.0014051441 0.2050949046
0.5224400399 1.0009104563 0.706204106
0.5024205995 0.7495114159 0.207108079
0.5024831948 0.5004966405 0.201469902
0.5023985071 0.7491599272 0.7042203882
0.5025273797 0.5019631295 0.7039221401
0.5124284787 0.7506114454 0.952084773
0.5123364268 0.5006014362 0.9547542772
0.5124137504 0.7525446332 0.4557880434
0.5224216296 0.5005845127 0.203510692
0.5224547682 0.7514250766 0.2067914206
0.5324405549 0.7494072711 0.4593734636
0.5324994681 0.5007713224 0.4579558649
0.5325068323 0.9999340988 0.9594213069
0.5423674285 1.0006566034 0.2104182642
0.5524968161 1.0012489269 0.4621138478
0.552294302 0.7490362552 0.961593731
0.5423306077 1.0015353251 0.7089730262
0.5424521162 0.7517114748 0.211811009
0.5523789897 0.7505723911 0.4609319018
0.5423747926 0.7520629635 0.7097416593
0.5324552832 0.7488995652 0.9587125075
0.5623021812 1.0019258681 0.211961974
0.5624015972 1.0005719857 0.712683637
0.5624052792 0.7513534771 0.2140635182
0.5624568283 0.749654615 0.7128861511
0.5723726556 1.0012749631 0.4663905776
0.572343199 1.0022643387 0.9651009072
0.5724610254 0.7514511128 0.9645209804
0.5724831178 0.749270581 0.4646581614
0.6025141195 1.0003246418 0.2232907975
0.5925614714 0.7493617077 0.9743152993
0.5925209686 1.002296884 0.4701647042
0.6024441601 1.0000772979 0.7201177459
0.5924583733 0.9986713431 0.9695838332
0.6026282638 0.7485936398 0.2200201946
0.6025840789 0.5003176416 0.2218299344
0.5925761997 0.7509629341 0.4700514804
0.6025803968 0.7513339499 0.7214064721
0.5823878989 1.0005394405 0.2180180665
0.5823842168 1.0012033636 0.7154525572
0.5825977772 0.7509108617 0.2165203826
0.582439448 0.751737511 0.716648311
0.6125735477 0.7519458006 0.9758617707
0.6125367269 0.7504161739 0.4756924189
0.6125293628 0.9997388273 0.9738734503
0.6225593344 1.0003311508 0.2244423664
0.6226550684 0.7508392621 0.2258305086
0.6225593344 0.7498433774 0.7269673255
0.6424499022 1.0018477595 0.7268053142
0.6526418851 1.0011447821 0.9795070247
0.6324972542 0.9999340988 0.978687763
0.6326150806 0.75290914 0.9776936029
0.632589306 0.5002968127 0.973118625
0.6325708957 0.7514966762 0.4730348815
0.6525093304 0.7524860518 0.9765245441
0.6524688276 0.5016409315 0.9789178927
0.6426929191 0.7504422101 0.2258783755
0.6425603644 0.5017183892 0.2252036353
0.6525166946 0.7515747848 0.4793238651
0.6425971852 0.7510540608 0.7287540522
0.672539817 0.7509694431 0.9813296517
0.6725729557 0.5016975603 0.9839807455
0.6825550604 1.0018607776 0.2372863636
0.672635551 1.0010211102 0.4827822539
0.6824556443 1.0024856464 0.7338445206
0.6826029273 0.7511516965 0.2368794944
0.6725619095 0.7518286377 0.4803944284
0.6825550604 0.7494398163 0.7368398884
0.6626276718 0.7516203481 0.2307948659
0.6627086775 0.7521931445 0.7313103326
0.7025339979 1.0005915129 0.2432798608
0.7024566744 0.4982848653 0.7397689788
0.692485616 0.7502339204 0.9882059263
0.6926034424 1.0008453658 0.4898518374
0.7024787668 1.0003311508 0.7389681276
0.6924966622 1.0000447526 0.9874418958
0.7024714027 0.7505268277 0.24109547
0.7023940791 0.499465607 0.2368500378
0.6924561594 0.7493747258 0.4875063558
0.7025155876 0.7490818186 0.7410503409
0.7223177856 0.4995599882 0.7440042853
0.7324029883 0.7518221287 0.9985525563
0.7224540223 0.7481119701 0.2471092185
0.7223951091 0.4998301138 0.246146356
0.7324434911 0.748489495 0.4987900738
0.7224429761 0.7503120291 0.7493423732
0.7226013053 1.0013986351 0.7475169846
0.7124314149 0.749921486 0.9907373527
0.7124682356 0.7510996241 0.4917214108
0.7423924571 0.499431109 0.7504239826
0.7423814109 0.7484634588 0.2563254516
0.7424219137 0.4995040104 0.2534736847
0.7423482722 0.7462308547 0.7561661782
0.7524445212 0.4982952798 0.5073729901
0.7524997523 0.7498433774 0.0084303215
0.7623824409 0.4993256624 0.7574797584
0.7625039494 0.7477539724 0.2587528594
0.7624045334 0.4985790744 0.2541088426
0.7525255268 0.7489060742 0.5075037037
0.7626033654 0.7495049068 0.7574217657
0.7825528464 0.7481184792 0.2581710916
0.7825233898 0.498527002 0.2560115548
0.7724750078 0.7480403706 0.5092591329
0.7824792049 0.7486066579 0.757755914
0.7724271408 0.9976364041 0.5076288943
0.7726259729 0.4990692058 0.5051876787
0.7724529153 0.7492510539 0.0094100296
0.7824423841 0.4986897282 0.7553303472
0.7725486493 0.4995664973 0.0072670621
0.7924281709 0.7478255719 0.5116635277
0.8123702877 0.4974809976 0.5153557281
0.812385016 0.7477734995 0.0152505365
0.8023255878 0.4987906185 0.7579427793
0.802384501 0.7472853208 0.2621523349
0.8024544604 0.4981032628 0.2584601345
0.7923582114 0.4969088521 0.5044420586
0.7925680897 0.7495699973 0.0091841343
0.8123923801 0.7458663479 0.5161059508
0.7924613095 0.4983733884 0.0052991772
0.8023734548 0.7489386195 0.763715352
0.8323602715 0.4976502329 0.5170918264
0.8324780979 0.7488865471 0.0179748116
0.8224113055 0.4973052533 0.7663314661
0.8324670517 0.4976521856 0.0221142
0.8223192537 0.7487303299 0.2662919075
0.822433398 0.4981742115 0.2673716759
0.8324375951 0.747317866 0.5176294093
0.8223597565 0.7485025131 0.7686659015
0.8624391401 0.750429192 0.7734728501
0.862483325 0.4995254903 0.7758302984
0.8524423072 0.7489646557 0.0213967477
0.8525380411 0.4981110737 0.0240158996
0.8624796429 0.748229133 0.2705447038
0.862531192 0.4983089488 0.2732768033
0.8524054864 0.7475652099 0.5240877684
0.8423239658 0.7523558708 0.2679396359
0.8424417922 0.4997995213 0.2655950748
0.8423571044 0.7507025721 0.7685720086
0.8524570355 0.4974888085 0.5222927569
0.8724286089 0.4966810354 0.5249650227
0.8825653607 0.7468101601 0.777487232
0.8923891361 0.4963562338 0.5234857492
0.8725206608 0.7475847371 0.0299704588
0.8926984304 0.7477149181 0.0312481387
0.8824512164 0.5008032168 0.7812291405
0.872531707 0.4989891445 0.0248104913
0.8925106446 0.4974712341 0.0286217148
0.8825506324 0.7487693842 0.2778168014
0.8824880371 0.5000676941 0.2782844249
0.8725022504 0.7492380358 0.5295805034
0.8926100606 0.749394253 0.5286774746
0.882480673 0.9983003272 0.2785983218
0.8826021814 0.9993027209 0.7804089584
0.9125484954 0.7496676331 0.5279972112
0.9124859001 0.9988145422 0.0279172419
0.9125705878 0.4999479276 0.5316691603
0.9025700728 0.7495895245 0.7746750475
0.9127399633 0.7496350878 0.0266191264
0.9124932642 0.4972167302 0.0300620504
0.9025995294 0.7506439906 0.2784169796
0.9025222058 0.5009763575 0.2805019544