POSCAR file written by Ovito 3.7.11
1
271.6007300277 0.0 0.0
0.0 15.3640574382 0.0
0.0 0.0 10.8640292011
Sr Ti O 
800 800 2400 
Direct
0.0223493729 0.4996348621 0.7698046908
0.0125251725 0.2493149179 0.5169620346
0.0223215747 0.2496911206 0.7671509792
0.0023883809 0.2468943334 0.7662203852
0.012499473 0.2517133729 0.0145594822
0.022500072 -8.0039279576e-04 0.2678638455
0.0024137122 -0.0027043625 0.2653537271
0.0024471804 0.5008689111 0.2699100477
0.0124333465 0.5001835453 0.5153466118
0.0125771606 -0.001172495 0.5194390161
0.0224300428 2.1047299034e-04 0.7646601906
0.0024151481 -0.0033298028 0.7646242923
0.0223163464 0.2479715228 0.2655175705
0.0025066795 0.2483698551 0.2681519522
0.0324927919 0.498980738 0.0174621806
0.0423734722 0.5002304079 0.2655709577
0.0323985358 0.4993829755 0.5168276461
0.0322774021 0.2487584243 0.5143690739
0.0425174335 0.2515239698 0.7647163392
0.0322394788 0.2510774732 0.014912574
0.0524235188 0.4999518356 0.015574299
0.042361322 -1.2693788051e-04 0.7641797059
0.0424658873 0.2491977614 0.262125643
0.052347304 0.2503413395 0.5130169053
0.0523756545 0.2504077282 0.0121156375
0.0623995598 0.2476122427 0.262123802
0.0623785731 0.4996478795 0.7586025854
0.072350564 0.4980220069 0.0106005458
0.0623774685 0.4999381674 0.2613414035
0.0725228757 0.4997682904 0.5090018203
0.0724838478 0.2484043512 0.5082212628
0.0624698836 0.2505209795 0.7637691768
0.0723999011 0.2486646991 0.0095188109
0.0923633968 0.2490077074 0.5027886559
0.1022786867 0.2502821103 0.7532666277
0.0823575326 0.2492524344 0.7574253058
0.0923306281 0.2490799539 0.0026094959
0.1023873021 -0.0028952105 0.2556630315
0.0924668575 0.0010180722 0.5054893114
0.1022956234 0.248220155 0.2489141542
0.0823299186 0.2516261563 0.2575914136
0.1023998204 0.5008786741 0.7539781501
0.0824009788 0.4996869317 0.7557426888
0.1024035023 0.5002427744 0.2520152136
0.0823498007 0.4991115628 0.2545658326
0.1224741406 0.2468884755 0.2488690512
0.1123861706 0.499275582 0.0027270398
0.1122506776 0.2503667234 0.5012873713
0.1224792952 0.5000078104 0.2504679055
0.1123567156 0.5002857318 0.5011005161
0.122313979 0.2499709946 0.748447053
0.1122628278 0.2514517233 0.0025636565
0.122537837 8.9688021333e-04 0.2509640382
0.1524814237 0.2508373022 0.4926911131
0.1323724939 0.2510410245 0.4952085953
0.1423949265 0.2505281391 0.7415407756
0.1524114681 0.250898484 -0.0077555665
0.1323886942 0.2503198608 -0.0019446064
0.1424884461 -0.001272013 0.2446026783
0.1423459576 0.2493513666 0.2451669257
0.1423621578 0.499550249 0.7465720581
0.1524103635 0.5002134853 -0.0028201379
0.1325322873 0.5012809116 -0.001160864
0.1524460777 0.500274667 0.495349427
0.132582729 0.4995398351 0.4977776237
0.1822990902 0.2513872872 0.2434336829
0.1725631076 0.5021699997 0.4943488774
0.1825247892 0.5031794987 0.7490840174
0.1725255524 0.2518858534 0.4956918414
0.1624777149 0.2495257997 0.7415757534
0.1725689986 0.2512525571 -0.0023689609
0.1824599882 0.4992658189 0.2508416159
0.1625767574 5.3467120556e-04 0.7422173201
0.1623223398 0.2492901849 0.2435551848
0.182465511 0.2493220775 0.7459286504
0.1824883386 0.001800743 0.2456216372
0.1924886799 0.0020830903 -0.0017460429
0.2024647208 0.2510755206 0.2431676674
0.2024525707 0.5033187848 0.7467846864
0.1925170304 0.502118581 -0.0044781415
0.2024566207 0.5019356866 0.2460597804
0.1925063529 0.4999310078 0.4964355802
0.1924721115 0.2503745338 0.4934937619
0.2025674452 0.253086708 0.7421409212
0.1925590037 0.2516788768 -0.0036420705
0.2025696543 -0.0010121858 0.2440862953
0.2125085083 0.2531954033 0.495406496
0.2224451532 0.2502612825 0.746573899
0.2124945172 0.2512440958 -0.0030043145
0.2227312349 0.0025963662 0.7460832891
0.222348688 0.2500517025 0.2459520856
0.2323733297 0.2503934091 0.5039834244
0.2323950528 0.2511067623 1.0007530759
0.2324951998 -3.5461211396e-04 0.4969206672
0.2224348439 0.5004523545 0.7476839844
0.2124974627 0.5031794987 -0.0037225379
0.2124761078 0.5042339076 0.4931338586
0.2425769105 0.4988661849 0.7524501719
0.2625433517 0.2515604185 0.7525265708
0.2625779613 0.0014598825 0.252563813
0.2624435729 0.0019458219 0.7511026055
0.2524023628 0.2505483161 0.504481398
0.2424182217 0.2515402415 0.7526038902
0.2524760003 0.2487467086 1.0044533605
0.2624726597 0.2498935411 0.2535091345
0.2424005487 0.0022356542 0.2513672035
0.262646076 0.501433866 0.2531188557
0.2525223919 -2.0230859587e-04 0.5026413809
0.2425706513 0.0037177496 0.7495479337
0.2525503741 -0.0012686285 1.0036249386
0.242338325 0.2498225963 0.2521505225
0.2724586417 0.2516482859 0.5026146873
0.2723662266 0.2500764355 1.0016735447
0.2723732222 2.8076692177e-04 0.5056098928
0.2724980378 0.0017785484 1.0039102839
0.2822406478 0.2509538079 0.7553192731
0.2725300701 0.500804475 0.5048900862
0.2825020609 0.2508568283 0.2519912814
0.3124622161 3.7364603301e-04 0.497960797
0.2924781019 0.4970990736 0.5015644324
0.2923739048 0.2497783372 0.5013600883
0.3025380896 0.2489380643 0.7487250346
0.2924114599 0.2501662555 0.9995564664
0.2926250087 -1.0929931068e-04 0.5031853779
0.3026246136 9.8806706326e-04 0.7518233326
0.3126503599 0.4989130475 0.4997133696
0.3023996511 0.2490480613 0.2502295041
0.3124368111 0.2511842158 0.4990911327
0.3125023485 0.2497926563 0.9996945368
0.3226378146 0.0017424902 0.2448355569
0.3324308664 0.0016462916 0.4933510892
0.3225185219 0.0017196446 0.7446114595
0.3324964037 1.3809627576e-04 0.994199338
0.3225947367 0.2489406678 0.243991487
0.3224747076 0.5004901049 0.7486311468
0.3226131461 0.5023652606 0.2475463375
0.3326930159 0.2519965012 0.4945348121
0.3225571816 0.25221259 0.7461790179
0.3326153283 0.2507090809 0.9930395473
0.3625644378 0.2514497707 0.24533261
0.3524978227 0.5025227711 0.4947014169
0.3525346415 0.2514413093 0.4958667305
0.3424864358 0.2526890266 0.7430300941
0.3626528028 0.5006808097 0.7430945269
0.3526193246 0.2499397529 0.9962427787
0.362586529 0.4982289834 0.2413497415
0.3425111044 0.0019117163 0.2443357423
0.342645861 0.2515291768 0.2451908578
0.3625975747 0.2512388889 0.743579614
0.3425236227 0.5005206958 0.7446206642
0.3425700144 0.5013173603 0.245703559
0.3824392003 0.2527899114 0.2433462384
0.3925017653 0.2533542155 0.487085458
0.392568039 0.2518819482 0.9871393422
0.3924759922 0.002577491 0.988207086
0.3824723372 0.500669745 0.7399815014
0.3926306309 0.5014182452 0.9873418454
0.3725091828 0.2502365495 0.4901892789
0.3825754297 0.2532207872 0.7425578936
0.3724686822 0.253301495 0.9925424941
0.3925643572 0.5042781668 0.4888251441
0.372649094 5.1774859244e-04 0.4927978875
0.4125532578 0.5018979361 0.9871117282
0.4024759653 0.2547542363 0.7399179891
0.4025164659 0.0032145623 0.7355770582
0.4024980565 0.2547177876 0.2393624494
0.4124501653 0.2534785316 0.4912468975
0.4124243921 0.2516216003 0.9880414017
0.4126563503 0.002666595 0.4851340642
0.4124317559 0.0036673723 0.9868447922
0.4423764471 9.4813438355e-05 0.7296335911
0.4425310859 0.2507357666 0.2323466361
0.4225053665 0.5020918953 0.7335041624
0.4324206565 0.5003527714 0.9808709497
0.4324869303 0.5014364695 0.4856817431
0.4425347678 0.4980773308 0.7309093608
0.4425200403 0.5005740671 0.2312163004
0.4323801559 0.2515799446 0.4803945703
0.4223985921 0.2521585678 0.7343086521
0.4324906121 0.2506648218 0.9808709497
0.4224832753 0.0010409177 0.2335091882
0.4325127034 8.502128533e-04 0.9846540764
0.4224832753 0.2517595846 0.2347674691
0.4423654015 0.2492133822 0.7320489012
0.4723874121 0.2529116241 0.486142898
0.4624831678 0.2496351458 0.7316033943
0.472332184 0.2500211116 0.9857402296
0.4724389584 0.0012286936 0.9835679233
0.4623800752 0.2483789672 0.2311675156
0.452589969 0.501858884 0.9821964247
0.4526046965 0.5012464155 0.4782406733
0.4625126228 0.4991532185 0.7329472788
0.4724610496 0.5016219674 0.9846816905
0.4625126228 0.4966096195 0.2316102611
0.4523469652 0.2505099148 0.4815506791
0.4523322377 0.2500881512 0.9792049011
0.4523874659 -0.0010884027 0.4852693731
0.4823689759 0.2503185591 0.7347081356
0.4824867959 -2.7917631163e-04 0.7353303725
0.492486769 0.5000605309 0.9839729295
0.4925199059 0.5017892409 0.4846765912
0.4824978415 0.2503146538 0.234372588
0.492516224 0.2491671705 0.4865607908
0.4925125421 0.254131354 0.9830892795
0.4824941596 0.5018673453 0.2334686876
0.5024830602 0.2497444919 0.7337315182
0.5124572602 0.2498596959 0.4823726577
0.5123799409 0.2492237962 0.983457467
0.5024867421 6.2507701181e-04 0.7330218368
0.5025125152 0.2491066396 0.2351098835
0.5225934627 0.2493390001 0.2332440932
0.5224130509 0.2488358778 0.7361459079
0.5125088065 0.4995307229 0.4837413949
0.5224425059 0.4980122438 0.7348020234
0.5423393596 0.4995216107 0.7367653834
0.5523871971 0.4986728766 0.9868171781
0.5423909058 0.4992436894 0.2357597344
0.5523982427 0.4989996132 0.4873477916
0.5324314333 -0.0025609303 0.4858612345
0.5324756159 0.2487382473 0.4842899943
0.5324167058 0.2487981273 0.9852063577
0.5324866615 0.4986852431 0.9874246876
0.5523172415 -0.0025060034 0.9887225486
0.5424129971 0.2479500441 0.2376402522
0.5524240158 0.2491326744 0.4874637707
0.5423540871 0.2504506856 0.7359277568
0.5525197446 0.2459199814 0.989891544
0.5724755083 0.2458288596 0.4902914509
0.5724202802 0.2493019005 0.9898271111
0.5624203071 0.4976262781 0.7356092746
0.562394534 0.4987535845 0.2371735745
0.5723613702 0.4994291872 0.9925516988
0.5724497352 0.49836111 0.4924554731
0.5624902627 0.2484616277 0.2388387026
0.5623098508 0.2473017778 0.7382629861
0.6022176964 0.499510546 0.7444190815
0.5924717727 0.4987503301 0.99163123
0.592434954 0.500599451 0.4923496191
0.5823024333 0.2491730283 0.7444301271
0.6023981083 0.2514601846 0.2451429935
0.5923355433 0.2492901849 0.4936658895
0.6024496546 0.2507774222 0.7435630455
0.5923723621 0.2487916187 0.9931223895
0.5823392521 0.4977929007 0.7416852892
0.5822950696 0.496172886 0.2411628863
0.5823760708 0.249014867 0.244580587
0.6124017633 0.5006801589 0.9962519834
0.6125011739 0.499180555 0.4972768887
0.6222655071 0.497201911 0.746897904
0.6125048558 -0.0022746778 0.4942356597
0.6224017364 0.4982289834 0.2472453442
0.6124643552 0.2501311086 0.491673995
0.6123833539 0.2500295729 0.9967030131
0.6225121927 -8.007833176e-04 0.7454297563
0.6225637389 0.2512864023 0.2459723359
0.6225011471 0.2495668045 0.7442165784
0.6423169996 -1.672918041e-04 0.2440853748
0.6526299321 -2.0911200606e-05 0.4965598435
0.6324753471 0.5014781252 0.5013564064
0.6424937296 0.2490409018 0.2458453112
0.6523427458 0.2494431393 0.4963306467
0.6424200921 0.2493949749 0.7475311866
0.6324863927 -0.0021320137 0.4965027744
0.6523317002 0.2493455088 0.9956168599
0.6423648639 0.4994799551 0.7527290739
0.6524347927 0.5010505038 0.4982562675
0.6324606196 0.2496019515 0.4976432353
0.6323538452 0.2481199211 0.9973657507
0.6826629883 0.5002974475 0.7419310543
0.6624568571 0.0012006411 0.245422816
0.6825930327 0.5007413406 0.2420934803
0.6625341764 -0.0019940358 0.7443343984
0.6725120583 0.4989136984 0.4971830008
0.6625783589 0.2497054398 0.2470704552
0.6625268127 0.2511471162 0.7489100488
0.6726777427 0.0010616153 0.9986452023
0.6623869014 0.5001314757 0.7457583636
0.6625341764 0.4993322077 0.244949695
0.6826224877 0.2507552926 0.2446514631
0.6724752395 0.2495127823 0.4947704521
0.6826298514 0.250643343 0.7427870903
0.6726188327 0.2512785919 0.9924136285
0.7027255264 0.2508418583 0.241380117
0.6925451414 0.2495609467 0.493829733
0.7026592527 0.2501792729 0.7433623833
0.6925488233 0.249294741 0.9947055958
0.6927439627 0.4981547843 0.9947240052
0.6927623721 0.5000709448 0.4933759419
0.7325523977 0.4993673546 0.9863477391
0.7326370808 0.4983448383 0.4876635124
0.7125303602 0.2492771675 0.4901285279
0.7124935414 0.2506049417 0.9916220253
0.7225597883 0.001433262 0.2393247101
0.7325892164 -0.0023362501 0.4856568904
0.7326554902 -0.0010982959 0.9850682874
0.7125745427 0.5014306117 0.9901032518
0.7226702445 0.2472431996 0.236819194
0.7325892164 0.2505307426 0.4851303823
0.7227033814 0.251108064 0.7368399414
0.7324898058 0.2513625541 0.9882531095
0.7126849989 0.4995873486 0.4913849678
0.7126003158 6.2794083865e-04 0.4896894643
0.7125855883 6.5299932346e-04 0.9936654661
0.7525044795 0.4997175225 -0.0131562846
0.7426665089 -0.0010987515 0.2368873087
0.7425376433 -0.0021382946 0.7373415969
0.7425965533 0.2482546511 0.2357937918
0.7426444177 0.247045986 0.7357767999
0.7625964995 -0.0016853153 0.2360248295
0.7525928445 -0.0037410613 0.4871876301
0.7624823614 -9.3613350053e-05 0.7380816538
0.7526443908 -0.0014973441 -0.0160516837
0.7625744083 0.2473173987 0.2426227499
0.7526922552 0.2475744922 0.4859081784
0.762522862 0.2479161989 0.7394724822
0.7526443908 0.2511126201 -0.0127406193
0.7825043989 -5.3119307319e-04 0.2422315506
0.7825669908 -0.0010095823 0.7417036985
0.772467607 -0.0022137434 -0.0087766333
0.7823939426 0.2470349212 0.2428077641
0.772555972 0.2483939372 0.4928282629
0.7825522633 0.2474963879 0.7429813092
0.7726222458 0.2496110636 -0.0110770008
0.7924601895 -0.0011368924 0.4933372822
0.7924933264 2.3872073686e-04 -0.005392793
0.8125080001 0.4995782364 -0.0029068645
0.792474917 0.2497386341 0.4955160318
0.792474917 0.2502996838 -0.0042332416
0.802537482 -0.0016422928 0.2450012413
0.812658957 3.0898030335e-05 0.4979893315
0.8024454351 2.996421441e-04 0.7436624562
0.8126957758 0.0037721624 -9.0516698089e-04
0.8024712083 0.25067849 0.2477709319
0.8123717707 0.250088802 0.4964245346
0.8024454351 0.2508574792 0.7495286039
0.8124601357 0.2506804426 7.9842748278e-04
0.8324564001 7.3269650112e-05 0.4955445664
0.8225337464 -5.0721034488e-05 0.7471243393
0.8326404939 2.9124592451e-04 -0.0023566819
0.8224674726 0.250233946 0.2466470395
0.8325300376 0.2482579055 0.5012450297
0.8225042914 0.2527912132 0.7522311003
0.8326552214 0.251982833 9.0331490335e-04
0.8225411101 5.2816250821e-04 0.245540636
0.8426956951 -0.0019260915 0.7529278952
0.8424379639 0.2505639369 0.2500721039
0.8425079195 0.2489985952 0.7527511652
0.8626072764 -8.3573502239e-04 0.2523567075
0.8425999664 0.5017840339 0.749466012
0.8526293945 -0.0011182776 0.4993138861
0.8625999126 -1.8362863446e-04 0.7562286963
0.8526993501 -0.0014312157 0.0070578455
0.862500502 0.250368676 0.2583415957
0.8425300107 -0.0015032019 0.2492851031
0.8526478039 0.247361007 0.5049738488
0.8625078657 0.2507188439 0.7599299014
0.8526846226 0.2493298879 0.0050136684
0.8726772051 0.0011772098 0.5051496584
0.8925593313 -8.7524281534e-04 0.5036989995
0.8726109314 -0.0017025633 0.0046433638
0.8825446307 0.2520628899 0.255632656
0.8927286976 -0.00107148 0.0042856696
0.8725409757 0.2482924016 0.5064180644
0.8926661057 0.2496611806 0.5030970129
0.8826514051 0.2511529741 0.7527833816
0.8725998857 0.251033214 0.0082476435
0.8927250157 0.2492465766 0.0032684595
0.9027028976 8.9837721372e-04 0.2532053798
0.912754417 -4.2132626184e-04 0.5085931322
0.9026992157 -0.0022791233 0.7512425168
0.9025629863 0.2475582205 0.250645556
0.9125740051 0.2503159556 0.5046102637
0.902603487 0.2500198098 0.751207539
0.9025188038 0.5000384013 0.7526241405
0.912636597 0.2479741263 0.0024520957
0.922551887 -0.0018391939 0.2569111872
0.9226770707 -0.0016318789 0.757934325
0.9225003407 0.2478777975 0.2577193588
0.9226255245 0.2463052963 0.7563741304
0.9427211995 0.0016658828 0.2611527074
0.9325997245 -0.001100639 0.5094611343
0.9426033795 -0.0012664806 0.7619807059
0.9326917713 0.0021810462 0.0125948336
0.9424340132 0.2481381454 0.2615567932
0.9325187232 0.2499020024 0.5049324277
0.9426438801 0.2500074433 0.7634506946
0.9325003138 0.2498876833 0.0068309499
0.952621762 6.413487552e-04 0.5125355001
0.9525775795 0.0011104306 0.0128034118
0.9624265957 0.2502085621 0.2627616869
0.9524781688 0.249924132 0.5109504528
0.9724817969 0.2491827914 0.513585755
0.9622756388 0.2494652688 0.7619411257
0.9524965782 0.2514764563 0.0111900141
0.9725480707 0.2480060189 0.0114228927
0.9626769632 -8.1666453915e-04 0.2617887514
0.9823455407 0.4981326547 0.7647798515
0.9823749957 0.4962561973 0.2656915391
0.9824744063 -9.2588048075e-04 0.2648594353
0.9924486063 -0.0025691638 0.5127821857
0.9825738169 0.2498727133 0.2660229079
0.9925148801 -0.0015490232 0.0141607351
0.9923602413 0.2479194532 0.5144371886
0.9823786776 0.2490571735 0.7652428473
0.9925001526 0.2494841441 0.0167069359
0.0126878377 0.7480529649 0.0163706886
0.0024122762 0.4984327057 0.7672853676
0.0123035236 0.497526695 0.0193117706
0.0224648365 0.7480399475 0.2654568196
0.0024965175 0.7506694612 0.267156005
0.0125087145 0.7480529649 0.5182092698
0.0225828406 0.7474216212 0.7681791428
0.0225311471 0.4972123249 0.2655599121
0.0024462968 0.7475062343 0.7664937645
0.0124946865 0.9979023302 0.017105775
0.0525626937 0.9982017303 0.5130675311
0.0525070974 0.9994448915 0.014651437
0.032440141 0.747083169 0.0176031043
0.0423870952 0.4978833716 0.7650863676
0.0424960787 0.7476819691 0.2645777719
0.0324143679 0.7499469958 0.5185820597
0.0426157396 0.747512743 0.7627502178
0.0524106323 0.7498363479 0.0144068684
0.0522887622 0.7486322389 0.5115432347
0.0524419282 0.4976204202 0.514824706
0.042374945 1.000766157 0.262789301
0.0324526594 1.0010395223 0.5171065482
0.0324471366 0.9995099785 0.0157815886
0.0724908434 1.0007531397 0.5113379702
0.0623623728 1.0009288745 0.7618877385
0.0723792826 0.9987810044 0.008517709
0.0724525519 0.7487559042 0.0095513034
0.0624919748 0.7505002351 0.26255182
0.0723619778 0.7505197612 0.507461876
0.0625427847 0.7492440565 0.7621141739
0.0624768792 1.0004146874 0.2634290268
0.0823115092 0.9996792046 0.2572894998
0.1023777292 1.0009093484 0.7540158893
0.082393615 0.9965680473 0.7569862421
0.0924447662 0.9993732958 0.0041165795
0.0923611876 0.7484565041 0.0064368052
0.092244104 0.4983207561 7.6562197449e-04
0.1024384801 0.7497517349 0.2529089888
0.0823991378 0.7510144222 0.255942854
0.0923862244 0.7500316089 0.5065018271
0.1022897324 0.7498428566 0.7538235113
0.0823560599 0.749855874 0.7560989102
0.0922175945 0.4979198203 0.5067521946
0.1123736523 0.9980390129 0.0018448624
0.1124546535 0.7507020047 0.0055504858
0.1224796634 0.5007628193 0.7534903016
0.1225323142 0.7504091133 0.2514353182
0.1125566414 0.7497257001 0.5036382486
0.1225371006 0.7496996653 0.7537756469
0.1125209273 0.998637813 0.5016270242
0.1223242882 0.9997442916 0.7503643895
0.1523164757 1.0005839135 0.4961907355
0.1324954686 0.9991520001 0.4953512679
0.1424534683 0.998637813 0.7453561188
0.1524302456 0.9988721261 -0.0067431299
0.132417781 1.0004081787 -9.9521644429e-04
0.1525904072 0.7507996352 -0.0053979292
0.1325580604 0.7514960658 -0.0020059188
0.1424877097 0.7485150824 0.2473677666
0.1526353261 0.752049305 0.4964318983
0.1325698424 0.749491387 0.49924301
0.1424895507 0.4997917217 0.245701718
0.1425606109 0.7519777094 0.7475919375
0.1726315904 0.7489511651 0.0016098668
0.1625163746 0.5015080652 0.7477023938
0.1725910898 0.5013433951 -0.0023692647
0.1625049608 0.7475648126 0.2473318683
0.1825413576 1.0007726657 0.7495893548
0.1725881443 0.7507410569 0.5007562608
0.1624118094 0.5011852338 0.2487733224
0.162523002 0.7494263 0.7456267366
0.1825424622 0.751749905 0.2469903744
0.1825281029 0.7521534442 0.7494273523
0.1625712346 0.9975508606 0.2434051484
0.1724353465 1.0023477705 0.4990174952
0.1723830639 1.0017945312 -0.0027118447
0.1924949391 0.9994579089 0.4991647702
0.2025626587 1.0019767748 0.7476591317
0.1925078257 0.7515676614 4.6754656065e-04
0.2026591239 0.7505913568 0.2469471123
0.1925921406 0.7519972355 0.5004258125
0.2025840136 0.7527912965 0.7481690714
0.2324668493 0.7522966355 1.0000811337
0.2324134621 0.5028319342 0.9980192835
0.2326104425 0.7499535045 0.502311853
0.2325036681 0.5001985153 0.4968571549
0.2224915448 1.0026862228 0.246928703
0.2124617485 1.0025430314 0.4926349645
0.2125320723 1.0010265049 -0.0034794881
0.212580673 0.7518540441 -0.0047779198
0.2325522688 1.0014821138 1.0005229587
0.2224573033 0.7525765095 0.2525315966
0.2124503347 0.752394266 0.4987965827
0.2223372742 0.5011064786 0.2472996519
0.2225305727 0.7519451659 0.7505825407
0.2525772518 0.7505848481 1.0045822261
0.2524719502 0.5007869015 1.000661029
0.2424911228 0.7519842181 0.2530037971
0.2525849838 0.7503700611 0.5024259912
0.2424259536 0.5007836472 0.2519360533
0.2425570284 0.7535593228 0.7554150019
0.2524955142 0.5001073935 0.5040303683
0.2625109512 0.5033558844 0.7538566482
0.2625437199 0.7510144222 0.2509806066
0.2624638232 0.7512161918 0.7528496553
0.2824497783 0.4998841452 0.7550228822
0.2824634013 0.7520883572 0.256635967
0.2824004412 0.4996784704 0.2567721964
0.2824814424 0.7502854481 0.7541686871
0.2725385384 0.7505132525 1.0054290574
0.2725646797 0.5009697959 1.0041772198
0.2724862558 0.7495109131 0.5008087275
0.2825270977 1.0021525096 0.2520437481
0.2824449919 1.0000697264 0.7534856993
0.3124655297 1.000961418 1.000513754
0.2923897369 0.7486582737 1.0055947418
0.3023893418 0.5001477474 0.7511808454
0.2926349498 0.4997149191 1.0007806899
0.3025347759 0.7494978957 0.2518449269
0.2923775867 0.7487363781 0.5082083762
0.3025031118 0.5008305098 0.2519682697
0.3024931707 0.7498688914 0.7530862158
0.3024751295 1.0003886526 0.2528620449
0.3125159714 0.7486127128 1.0022994635
0.3126974879 0.5018107196 0.9989857758
0.3124349702 0.7498884175 0.5004479037
0.292551003 0.9996141176 1.0022810541
0.3324986129 0.7515741701 0.995055374
0.3325792459 0.5011989021 0.9952394677
0.322389288 0.7542101926 0.2435699123
0.332451853 0.750565322 0.4982443014
0.3225177855 0.7489446564 0.7482279814
0.332559732 0.5026412294 0.4945182437
0.3524153487 1.0003300743 0.495569419
0.3425228864 1.0031157968 0.7448434176
0.3625018459 0.7510274396 0.2405314447
0.3524341263 0.9985141478 0.9934997817
0.3625644378 0.7518735702 0.7401048442
0.3624834365 1.0015472007 0.2440522379
0.3525011364 0.7525179313 0.9954695849
0.3625128915 1.0031678664 0.7418150753
0.3525324324 0.5033018622 0.9937943317
0.3424334168 0.752329179 0.2444379144
0.3524536402 0.7525569834 0.4966564927
0.3422784098 0.7518019745 0.7441806801
0.3924944015 1.0015602181 0.4896839415
0.3725165465 0.7498754001 0.9917324816
0.3725717747 0.5042853263 0.9886397064
0.3825091559 0.7511120526 0.2414104925
0.3726343665 0.7521599529 0.4907719356
0.3824870647 0.500974352 0.2397536486
0.382623294 0.752329179 0.7375671117
0.3824907465 1.0020874226 0.2394876331
0.3825717478 1.0024388923 0.7372108903
0.3725975478 1.0003951613 0.9940428583
0.3724613184 0.5019467514 0.489225548
0.3925717209 0.7495109131 0.9861912594
0.392420764 0.754158123 0.4870863785
0.4125606215 0.7539173012 0.9860900078
0.412516439 0.7533900967 0.4859569633
0.4125569397 0.5028787968 0.4872207669
0.4025753759 1.0015016398 0.2364961095
0.4026232403 0.501109082 0.7331727936
0.4024207371 0.7540344577 0.2362098437
0.4025311934 0.503492567 0.2344204523
0.4024465103 0.7525309487 0.7339395442
0.4325900228 0.7503570437 0.9777229463
0.422520094 0.7534812185 0.2352912158
0.4325642496 0.7502724307 0.4823551688
0.4225016846 0.4999824265 0.2343293259
0.4224354109 0.7520948659 0.7337729393
0.442497949 0.7509623526 0.2315449078
0.4425053128 0.7482156823 0.7298038778
0.4325347946 1.0005969309 0.4832121253
0.4224795934 1.0024584184 0.7337434843
0.4423911746 1.00195074 0.2291820644
0.4524095571 0.9990543696 0.9805487856
0.4623800752 1.0019116878 0.2295815478
0.4725162778 1.0001543395 0.4850742337
0.4625015771 1.0023738053 0.7321105726
0.4525273771 0.7517824485 0.9797940011
0.4525273771 0.751059983 0.4799030399
0.4724168671 0.7518865876 0.9861544406
0.462534714 0.7513203309 0.233870012
0.4724352765 0.7536374272 0.4865792002
0.4625899421 0.750200835 0.7322909845
0.4725420509 0.5017404257 0.4838932722
0.4823763396 1.0007010701 0.2365356897
0.4926229984 0.9993342436 0.4836162111
0.4925199059 1.0008572788 0.9841846374
0.482659844 0.5002238992 0.7344016195
0.4925935434 0.7485801694 0.4856955501
0.4824941596 0.7518019745 0.2333370605
0.4925199059 0.7495239305 0.9847369186
0.4824757502 0.7518280093 0.7317018845
0.5124462146 0.9989502305 0.4840810478
0.5124314871 0.9971798648 0.9870104766
0.5024425596 0.9977656476 0.2351945666
0.5226229177 0.7475387778 0.7357740385
0.5224351421 0.998917687 0.2332091154
0.5223688683 0.9975378432 0.733191203
0.5026119259 0.7491008651 0.2337577148
0.5025051515 0.4997038543 0.2302571719
0.5026818815 0.7506824786 0.7339505898
0.5024131046 0.5010986681 0.7308329619
0.5125677165 0.7460808296 0.9818374419
0.5126450359 0.4991714428 0.9862648969
0.5125677165 0.7464973862 0.4817320115
0.5225124615 0.4992664698 0.2351052811
0.5225603259 0.7495825087 0.2374681246
0.5325345259 0.7484955563 0.4882544534
0.5323577958 0.4983585065 0.4838536921
0.5323909327 0.9990023001 0.9855193171
0.5423393596 0.9998679568 0.2353795808
0.5524461071 0.9994188567 0.4899057745
0.5523466965 0.7491854782 0.987203775
0.5423982696 0.998423026 0.7373443583
0.5424866346 0.7494783696 0.2387291668
0.552449789 0.7492831087 0.4851543145
0.542416679 0.7494002652 0.7379573905
0.5325271621 0.7480594736 0.9836599701
0.5623503515 0.997778665 0.2368725812
0.5624497621 0.9995685567 0.7426545428
0.5622877596 0.7491594434 0.2399810044
0.5623724427 0.7501748002 0.738710334
0.5724092346 0.9977461215 0.4934035559
0.5724092346 0.999477435 0.9937759223
0.5724129165 0.7479162822 0.992487266
0.5723908252 0.7470441168 0.4854672739
0.6023428802 0.9983839738 0.2449101149
0.5924165446 0.7481961562 0.9931868223
0.5923392252 1.0012282746 0.4940662935
0.6021882414 0.9988851435 0.7485593502
0.5923834077 0.9993732958 0.9924596519
0.6025674746 0.7491334086 0.2441037842
0.6023355164 0.4977688185 0.2470630914
0.5923429071 0.7499469958 0.4949987284
0.6024496546 0.7491854782 0.7428496822
0.5823429339 0.9985271652 0.2441083865
0.5822030227 0.9981171172 0.744669449
0.5823944802 0.7491724608 0.2434732631
0.5823871165 0.7465754906 0.7424750514
0.6124164908 0.7475192517 0.9949725318
0.6124275364 0.7480399475 0.4959919142
0.6124238546 0.9980715563 0.9943742271
0.6224385552 0.9990543696 0.2430397222
0.6224496008 0.7471222211 0.2480397088
0.6225784664 0.7481440866 0.7442018509
0.6423501364 0.9983514303 0.7497375503
0.6525121121 0.9996596785 0.9921466925
0.6325158477 0.9991910523 0.9946687771
0.6323685727 0.7474801995 0.995791749
0.6325268933 0.5005499849 0.9991974836
0.6323391177 0.750200835 0.4969133035
0.6525084302 0.7498949262 0.9969515397
0.6524458383 0.5011806777 0.9985623601
0.6424605927 0.7487298694 0.2484290671
0.6422691352 0.4984886805 0.2488736535
0.6524053377 0.7501617828 0.4944492085
0.6424716383 0.7507410569 0.7460446294
0.6726409239 0.7507345482 0.9952762865
0.6725636046 0.4994532694 0.9952670818
0.6825488502 1.0023933314 0.2438791898
0.6724899671 0.9988851435 0.4977914307
0.6825193952 1.0006424918 0.7441760778
0.6825304408 0.7481180518 0.2462733292
0.6725820139 0.7508256699 0.4991767363
0.6826482608 0.7496085435 0.74520148
0.6625930864 0.7498168219 0.2466074593
0.6625157671 0.7470636429 0.7474805608
0.7025193414 1.0012803441 0.2457394573
0.702589297 0.5007888541 0.7423627542
0.6925672327 0.7503895872 0.9974946163
0.6926003695 1.0011306441 0.4946185748
0.7025929789 1.0012933615 0.746324452
0.6925930058 1.0013975007 0.9973013179
0.7025929789 0.7493872478 0.2442556615
0.7025929789 0.4998516017 0.2440605222
0.6926408702 0.7498688914 0.4970246802
0.7025119777 0.7485541346 0.7431276638
0.7225450608 0.4995079425 0.7357758794
0.7325818527 0.7493742304 0.9835495139
0.7225192877 0.7498623827 0.2388699985
0.722596607 0.4979497603 0.2353482849
0.732659172 0.7513658918 0.4840221378
0.7225266514 0.7488470259 0.7358817333
0.7225340152 1.0008182266 0.7383264985
0.7125303602 0.7525374573 0.9909684925
0.7124530408 0.7495239305 0.4926699423
0.7426260083 0.4993146342 0.7356534571
0.7425118702 0.7472589038 0.2364767796
0.7424640058 0.4996882334 0.2372122342
0.7424787333 0.7484565041 0.7389772699
0.7525339345 0.4997806569 0.4856633337
0.7525597077 0.7495760001 -0.0144687351
0.7625007708 0.5008708637 0.7393187639
0.762493407 0.7480529649 0.2396017712
0.7625559989 0.4989189054 0.2385045724
0.7525707533 0.7480334388 0.4838141119
0.7625744083 0.7488730607 0.7385510929
0.7825669908 0.7513073135 0.2412807064
0.7825154445 0.4995007829 0.2394388483
0.7725375626 0.7503179916 0.4922888682
0.7826111733 0.7495694914 0.7423931297
0.7725081076 0.9986963913 0.4919538176
0.7723902876 0.4973529128 0.4873551554
0.7725338808 0.7507866178 -0.0112871439
0.7825154445 0.4987535845 0.743149755
0.7723902876 0.4979875108 -0.0115446818
0.7924380983 0.7509167917 0.4934753525
0.8125669101 0.5014781252 0.4980224684
0.8124674995 0.7517629224 -0.0029133998
0.8025264364 0.5002063257 0.7462692238
0.8025890283 0.7517108528 0.2450684355
0.8024380714 0.5009287911 0.2438469734
0.7924417801 0.5013102008 0.4950419904
0.7925559183 0.7483588736 -0.0045802399
0.8126258201 0.7504351481 0.4958750147
0.7925006901 0.499990237 -0.0066952103
0.8025890283 0.7506499351 0.7456782828
0.8326147207 0.4977128437 0.5002840603
0.832607357 0.7513658918 -2.8202800779e-04
0.822426972 0.5010856507 0.7451149559
0.8325116282 0.5003605818 -0.0023454153
0.8226000201 0.7503440263 0.2490678725
0.8225006095 0.5003137192 0.2489169156
0.8326404939 0.7517173615 0.4993304546
0.8226442026 0.7501943263 0.7502695813
0.8627987339 0.7479618431 0.7549823816
0.8625446845 0.5005389201 0.7537425101
0.8525741664 0.7492310391 -0.0011380364
0.8524710739 0.5000813587 0.0046375648
0.862795052 0.7519191311 0.257050178
0.8627250964 0.5012438121 0.2547158691
0.8526956682 0.7483393476 0.498667717
0.842699377 0.7482352084 0.250498281
0.8425594657 0.5020411275 0.2507017046
0.8426846495 0.748781939 0.7474603105
0.852496847 0.5009203298 0.5046792988
0.8726367045 0.5015295439 0.5042181439
0.8827066332 0.7506889873 0.751723922
0.8926256051 0.5000104139 0.5017144688
0.8727177057 0.7506434264 0.0057862178
0.8927618345 0.7474671821 0.0039961821
0.8827176789 0.5006020545 0.7580061216
0.8724599745 0.4995027355 0.0054991236
0.892629287 0.4984418179 0.0028592191
0.8825998589 0.7513268396 0.2558995919
0.8826366776 0.5011181942 0.2525122667
0.8726035676 0.7492050043 0.5022317723
0.8927839257 0.7478251605 0.5039410828
0.8826771782 0.9987744957 0.2511821893
0.8826219501 0.999412348 0.7534139027
0.9125887326 0.747447656 0.5070007211
0.9126218695 0.9977331041 0.0051154722
0.9124525032 0.5001112987 0.5045292624
0.9026255782 0.7481831388 0.755132418
0.9125740051 0.7478316692 0.0064765694
0.9125813688 0.5012672434 0.0064104798