POSCAR file written by Ovito 3.7.11
1
271.6005663348 0.0 0.0
0.0 15.3640481784 0.0
0.0 0.0 10.8640226534
Sr Ti O 
800 800 2400 
Direct
0.0224589154 0.4989215082 0.7662417165
0.0125082366 0.2477865238 0.5137450044
0.022366353 0.2474415626 0.7684213879
0.0024891485 0.2514268404 0.7637187099
0.0125146799 0.2503151542 0.0134251713
0.0224790921 -7.9229840209e-04 0.2650507512
0.0025620497 3.7191299534e-04 0.2633810198
0.0023497894 0.4975917805 0.2626759403
0.0124131705 0.4982556681 0.5163232391
0.0124137964 5.7303186481e-04 0.5148606132
0.022504497 -2.6289348791e-05 0.7656636617
0.0024761883 2.3542552956e-04 0.7645388481
0.0225458077 0.2488135968 0.2658441958
0.00247096 0.2501732645 0.2655864644
0.0324221862 0.5002544902 0.0169144866
0.0423831375 0.5003078616 0.2678287278
0.0324376501 0.4991538688 0.5156466941
0.0325562066 0.2494735791 0.5136805715
0.0425013257 0.2509048426 0.7630090281
0.0325193878 0.249574464 0.0142502801
0.0525392282 0.5001028375 0.0142059135
0.0426817377 5.368434857e-04 0.7672588351
0.042446834 0.2496883663 0.2620030772
0.0525241325 0.2508931269 0.5116997215
0.0525090368 0.2498172386 0.0131972631
0.062563876 0.2513702147 0.2621374657
0.0624850838 0.4997630833 0.7654878521
0.0724640762 0.4990770662 0.007896096
0.0624044507 0.4999466286 0.2659656978
0.0725745325 0.4988993786 0.5088913694
0.0725240908 0.2491149497 0.5103134946
0.0626643912 0.2503874008 0.7609158807
0.0726150332 0.2502370498 0.011722303
0.0925763318 0.2502442094 0.5086106263
0.1025409649 0.2510708144 0.7605375678
0.0825520522 0.2499116147 0.7587978807
0.0924644027 0.2465218831 0.0075371129
0.102562688 -0.0013039474 0.2585283053
0.0924909122 -0.0011387566 0.5090229966
0.1025085644 0.2496265336 0.2598712701
0.082614276 0.250471363 0.2573869233
0.1026020841 0.4957224815 0.7573435391
0.082408459 0.502370469 0.7593474009
0.1024702729 0.5004901052 0.2563164175
0.0824883558 0.4984509291 0.2601437291
0.1224433534 0.2504459791 0.2547847564
0.1125446259 0.4971888919 0.0077711883
0.1125685581 0.2489899826 0.5055712364
0.1225578598 0.5006502193 0.2534546782
0.1125085435 0.4979810009 0.5080160031
0.1225843694 0.2489424691 0.7520250672
0.1124919751 0.247489727 0.0023982245
0.1225663282 6.586212866e-04 0.256358759
0.1524105222 0.2498055229 0.5003070722
0.1324930379 0.2516722184 0.5015211713
0.1424341071 0.2511287419 0.7534628403
0.1524263543 0.2490407505 -0.0034075623
0.1325210202 0.2500164048 8.9012752813e-04
0.1424462572 5.8090739335e-04 0.2495270354
0.1426240919 0.2496187232 0.2502698542
0.1424168022 0.4981547832 0.749881294
0.1523427756 0.5003950782 -0.001680366
0.1324606374 0.501623921 0.0042668694
0.1523976356 0.499418773 0.497547505
0.1325589435 0.5002570937 0.5021056693
0.1823614907 0.2482935516 0.2376492988
0.1723143835 0.4994845109 0.4916261256
0.1822826985 0.4997116645 0.7413384179
0.1724561358 0.2488324721 0.4932093329
0.1624186015 0.2495900849 0.7461377451
0.1723224836 0.2475151109 -0.0072180386
0.1823474995 0.498135908 0.2379880315
0.1624204424 -0.0013588158 0.7427752706
0.1623545368 0.2490466083 0.2434832336
0.1824852017 0.2473933982 0.7398214844
0.1823986776 5.428837302e-05 0.2416082375
0.1924866536 -6.2425488572e-06 -0.0119677341
0.2025061467 0.2509855504 0.2356979037
0.202353717 0.4985641805 0.7354115157
0.1924848127 0.5003169738 -0.0127980987
0.202355558 0.498586961 0.2330101332
0.192385402 0.5006684436 0.4862284933
0.1923055053 0.2481998263 0.487422342
0.2024881055 0.2492509816 0.7361193566
0.1923942385 0.2492711585 -0.0120707806
0.2024218317 6.3245630747e-04 0.2376005139
0.2125392628 0.250125751 0.4856596432
0.2225583877 0.2531926511 0.7361110724
0.2124678344 0.2514886731 -0.0099858347
0.2225024232 1.8784692323e-04 0.7358607047
0.2224298902 0.2536209236 0.2379263601
0.2324994568 0.2513728182 0.4892918153
0.2324287648 0.2513532921 0.9899838862
0.2324420195 0.0017426455 0.4882406393
0.2224696544 0.5012548776 0.7371051793
0.212363269 0.5010010383 -0.0139134959
0.2122995726 0.5016395419 0.4851948062
0.2425844873 0.5009444126 0.7386175104
0.2624802485 0.2496219775 0.7428397034
0.2626120597 -0.0015626032 0.2396200237
0.2624423251 -2.8689774793e-04 0.7413098833
0.2525222427 0.2477936833 0.4902205689
0.242532941 0.2488923521 0.741140517
0.2525001515 0.2484250274 0.9897813829
0.2625697181 0.2485714731 0.2430285217
0.2424810266 2.2279864908e-04 0.2362483444
0.2625196446 0.4981931845 0.2382402401
0.2526393264 -8.060968488e-04 0.4901064307
0.2426316154 5.725111687e-04 0.7363522353
0.2525093562 0.0016486598 0.9897353594
0.2425476685 0.2498224455 0.2379963157
0.2724942188 0.2495490801 0.4929773746
0.2725951022 0.2478346882 0.9905269631
0.2724614501 7.2911052143e-04 0.494815552
0.2724213176 9.6042976482e-04 0.9929846163
0.2824897797 0.2498074755 0.7462261102
0.2725262511 0.4995932062 0.489991372
0.2825586308 0.2497944581 0.2470077108
0.312463944 -4.6133094215e-04 0.4996719483
0.292550878 0.4970561144 0.4949867593
0.2926340884 0.2492763655 0.4986308975
0.3025258204 0.2495712097 0.7487003318
0.2925586099 0.2514353017 0.9974580974
0.2925545599 7.7538738751e-04 0.49610605
0.3027474694 -0.0018239992 0.7475184492
0.3125939142 0.4990386648 0.4994409105
0.3024540238 0.2489847757 0.2512630407
0.3126281557 0.2509048426 0.4999259978
0.3126506152 0.2485128948 1.0001642773
0.3226818903 -0.0023371972 0.248865218
0.3325872452 -0.002488492 0.4974342873
0.3224650277 -0.0022187128 0.7512113723
0.3325449036 -0.001027653 0.9967861547
0.3225154694 0.2500528536 0.2464692362
0.3225957343 0.4987099754 0.7520655678
0.3225994162 0.5003722977 0.2523169781
0.3325912952 0.2484282817 0.499424342
0.3226012571 0.2504381687 0.7483588377
0.3325419581 0.2489743618 0.9959853464
0.362442853 0.2493043529 0.2410670015
0.3523740228 0.4965686127 0.4913527462
0.3524738016 0.2487966742 0.4923615806
0.3426203612 0.2484100574 0.7446465848
0.3624170799 0.5013687799 0.7431167647
0.3524071596 0.2490518153 0.9911989057
0.3624281255 0.4996159866 0.242089643
0.3426314068 -0.0016444827 0.2461802088
0.3424830272 0.2479368748 0.2430975569
0.3624391711 0.2496454089 0.7388476278
0.3424517312 0.5004432426 0.7471567047
0.3425386235 0.5014058795 0.2449164044
0.3824170382 0.2502800072 0.2321789494
0.392277106 0.2502481146 0.4819768453
0.3924427905 0.251413823 0.9857773412
0.3925532468 4.5457350156e-04 0.9820678496
0.3823360369 0.4986032327 0.7362647908
0.3922844697 0.5001418897 0.9844518653
0.3724023315 0.25141903 0.4858980448
0.3824096744 0.2509172091 0.7327532001
0.3725753797 0.2489587409 0.9871856593
0.3923544254 0.4987568381 0.4823082143
0.3724649234 0.0012393927 0.4888674789
0.4124464306 0.4993712595 0.9774931169
0.4023838596 0.2487751955 0.7316560007
0.402520089 0.0015405503 0.7272533957
0.4022881307 0.2482974568 0.2276750928
0.4122954737 0.2509204634 0.4795624542
0.4124280212 0.2483521299 0.9774286841
0.4124317031 -3.1351833615e-04 0.4808096901
0.4125016588 -4.0613715532e-04 0.9802085015
0.4425310513 8.5074530061e-05 0.7262197086
0.4422438648 0.2468974352 0.2314214031
0.4222954528 0.4991493127 0.7266228742
0.4324279795 0.4995567574 0.9784412004
0.4324905715 0.4974459856 0.4794317475
0.4424463681 0.4970723862 0.727350045
0.4424979144 0.4965484357 0.2302201906
0.4324242977 0.2489691548 0.4737837475
0.4224353641 0.246522534 0.730413367
0.4324390252 0.2480605401 0.9764806006
0.4225495023 -0.0027220047 0.228899317
0.4325126627 -0.0028628465 0.9783399487
0.4223654085 0.2491169023 0.2290106938
0.4423653668 0.2478633264 0.7327716095
0.4724094867 0.2509966152 0.4834983811
0.4623505976 0.2481809511 0.7318787542
0.4725015337 0.247800192 0.9831355941
0.4724757605 -9.0411789003e-04 0.9834485537
0.4623837345 0.2481503602 0.233031304
0.452302754 0.4978814177 0.9767291273
0.4524279378 0.4988290846 0.4773514867
0.4623726888 0.4983741264 0.7344229316
0.4724131686 0.5008038246 0.983200027
0.4623763707 0.4999694091 0.2322360185
0.4523432547 0.2484823039 0.4818829574
0.4524647566 0.2505494675 0.9797666762
0.4524500291 -0.0041275522 0.4821738257
0.4824941491 0.2491045358 0.7340050385
0.4823910565 -0.0018695796 0.7381747647
0.49232108 0.5014599017 0.9926716567
0.4925051739 0.4998281703 0.4913527462
0.4823542377 0.2485200544 0.2332015908
0.4924131269 0.2496076584 0.4864705767
0.492530947 0.2507076289 0.9878207832
0.4825383316 0.5009346495 0.2339867512
0.502354196 0.25047657 0.7414516356
0.5124130852 0.2528594055 0.4932176171
0.5123799483 0.2512322302 0.9984522043
0.5023799692 -2.388635325e-04 0.7433229498
0.5024536067 0.250080841 0.243578042
0.5225382482 0.2502656881 0.2481067512
0.5226192495 0.2525352722 0.7508560711
0.5125124959 0.49801029 0.4969409157
0.5224977475 0.5019701839 0.7510631767
0.5425124333 0.5020326674 0.7547073149
0.5524903212 0.500070294 1.0077673542
0.5423614764 0.4998040881 0.2551179663
0.5525676407 0.4987906833 0.5085351478
0.5324351348 0.001322639 0.499712449
0.5324019979 0.2516500888 0.5008391035
0.5324756354 0.2518896091 1.0022077193
0.5324093616 0.4991161184 1.0023734038
0.5523614555 -3.0095654268e-04 1.0038001313
0.5425271609 0.2502819598 0.2562943262
0.5523540918 0.24950417 0.5055565089
0.542523479 0.2498699591 0.7540731115
0.5524350931 0.2512367863 1.0057883451
0.5724829158 0.2470152427 0.5084863629
0.5724313695 0.2486157323 1.0080066763
0.5624387541 0.5006437106 0.7566264935
0.5624829366 0.4976822515 0.2557770224
0.5724055963 0.497684855 1.0115780974
0.5723503682 0.5000305909 0.5114631608
0.5624903004 0.2488838908 0.2595702766
0.5624755729 0.2487582729 0.7585235809
0.6024975807 0.501282865 0.7636662432
0.5925565116 0.4998555068 1.0149746293
0.592604376 0.4994051047 0.513652037
0.5825049862 0.2497078924 0.7621207751
0.6026411739 0.2496004988 0.2624430615
0.5924976016 0.2480839714 0.5125778492
0.6026485377 0.2511150736 0.7624217686
0.5925381022 0.250261132 1.0139252943
0.5824718493 0.4985472579 0.7630522901
0.5825565325 0.5006782067 0.2628443862
0.5825086681 0.2510604005 0.2634252023
0.6125711974 0.5007699794 1.0109153594
0.6125454243 0.4984053682 0.5120826367
0.6226337685 0.5024680995 0.7601822667
0.61261538 8.2953978214e-04 0.5122510826
0.622497539 0.5008988516 0.2614590798
0.6124754686 0.2518193151 0.5127996823
0.6126411531 0.2509445456 1.0102342121
0.622526994 0.0015758926 0.7633947047
0.6226337685 0.2511710484 0.2614949781
0.6226558598 0.2512953646 0.7621631167
0.6424790879 -0.0011599099 0.2559206156
0.652571114 0.0028639645 0.5023505141
0.6325895651 0.5012789598 0.5109191634
0.6426594999 0.2491793858 0.2524550485
0.6524901127 0.2497788372 0.5061308818
0.6425048611 0.2497430394 0.7563126135
0.6325564282 4.6915299242e-04 0.5074563577
0.6524569758 0.2487472081 1.0072887102
0.6425122248 0.5021947341 0.7542737738
0.6525563865 0.497889879 0.5044372182
0.6326006107 0.2502403042 0.5098182821
0.6324938363 0.2488936539 1.0074359853
0.6824274582 0.5007543585 0.7502807777
0.66254532 8.5271075868e-04 0.2543272832
0.6824164126 0.5022982224 0.2532807095
0.6625600475 -7.2761475909e-05 0.7544882432
0.672431161 0.5014462334 0.4995347984
0.6626741857 0.2488956065 0.2521328842
0.6625416381 0.2504173408 0.7529280476
0.6724422066 -6.8726081117e-05 0.999961774
0.6624532731 0.5023450851 0.7534803292
0.6624459093 0.4997682902 0.2551501828
0.6825231871 0.2517815646 0.2488265583
0.6725931636 0.2510382709 0.5035277945
0.6825600058 0.2508540747 0.7501924127
0.6725821179 0.251634468 1.0007533777
0.7024274165 0.2510786249 0.2498363131
0.6924421649 0.2514333491 0.4983740865
0.7024715991 0.2503730817 0.7455109055
0.6923648455 0.2524135595 0.9997776802
0.692438483 0.5010687287 0.9963903529
0.6925563031 0.5006847154 0.4990754842
0.7325230828 0.5017124393 0.9879220348
0.7325451741 0.5010108013 0.4893764985
0.7124347594 0.2507388707 0.4940267097
0.7123243031 0.2498614977 0.9910976541
0.7222874635 -8.9702340564e-04 0.2448243575
0.7326224935 0.0018927361 0.4894400109
0.7323279433 0.0025749131 0.988695229
0.7125709889 0.4999954439 0.9969610439
0.7225451949 0.2536176692 0.2420528242
0.7325009915 0.25346862 0.4910756849
0.7224568299 0.2532264963 0.740777852
0.7325525378 0.2504277548 0.9895328562
0.7125452158 0.5014651087 0.4955086654
0.7124089863 0.0020573412 0.4976910982
0.7124126682 2.7799243591e-04 0.9961970543
0.7525340867 0.5029282647 -0.0128080582
0.742552517 0.0014964213 0.2419119924
0.7425414713 0.0019392083 0.7409159224
0.7424936069 0.2520523266 0.2370703236
0.7424678338 0.2507278059 0.7398343709
0.7626113853 0.0011705957 0.2363247434
0.7524788586 8.4789431974e-04 0.4878181439
0.7625414296 0.0015544138 0.7349301102
0.7525524961 -2.7278501676e-06 -0.0138833505
0.7625230202 0.2502155711 0.2346329207
0.7524899042 0.2511319962 0.4868857084
0.762471474 0.2497853459 0.7357401232
0.7524788586 0.2514470174 -0.0119101219
0.782629753 3.8349848362e-04 0.2295261567
0.7826702536 -4.9446023165e-04 0.7344772393
0.7726776382 -8.7666401834e-05 -0.0186957116
0.7826444805 0.2501062249 0.2362483444
0.7725229994 0.250190838 0.4829230878
0.7825855705 0.2501817258 0.7358551819
0.7725782276 0.2505195274 -0.0161461219
0.7926407778 -0.0011959681 0.4811419796
0.7925340033 -7.5995015675e-04 -0.0150185285
0.8126186448 0.5004848982 -0.0098229208
0.7926591872 0.2500209609 0.4862192886
0.7926702328 0.2493564225 -0.0136101
0.8026223475 -0.0014792267 0.2332246026
0.8125855079 0.0014153229 0.4878540422
0.8026628482 -5.9404336119e-04 0.7342581675
0.8126517817 4.6641933789e-04 -0.0142482246
0.8026186656 0.2490153666 0.2340410589
0.8125855079 0.252486457 0.4893277136
0.80260762 0.2492893829 0.735251354
0.8126223267 0.250025517 -0.0131647861
0.8325486474 0.0019313327 0.4891942456
0.8225891689 4.0295950043e-04 0.7392820893
0.8325965118 -2.0887126731e-05 -0.0116994081
0.8224860764 0.248346923 0.2407328712
0.8324823736 0.2514034091 0.489797153
0.8225928508 0.2514548278 0.7413338155
0.8323535079 0.2506588136 -0.0075206539
0.8225818052 9.7481399464e-04 0.2393006208
0.8423755783 0.0016096727 0.7422027386
0.8425228534 0.2512966664 0.2448694605
0.8425854453 0.2508501695 0.7437123084
0.8625633124 0.0022394547 0.2439499116
0.8425523084 0.50002994 0.7446594713
0.8525375601 -5.0812850433e-04 0.4944409209
0.8627069056 0.002750583 0.7442986473
0.8525927882 0.0012908114 -0.009625655
0.8624602198 0.2507740177 0.246159038
0.8424933984 0.0012235766 0.2435679168
0.8524565588 0.2507056763 0.4924048427
0.8624307648 0.2521167627 0.7454814505
0.8524823319 0.2507434268 -0.001442351
0.8725596096 -8.4026753051e-04 0.4977914294
0.8926847518 -1.4246966659e-04 0.5006927488
0.8726295653 -0.0010655988 -0.0023842857
0.8825006788 0.2526921319 0.2483258229
0.892589023 -1.537297198e-04 0.0034319116
0.8726737478 0.2519709678 0.4995532078
0.8925927048 0.2520210848 0.5056209418
0.8825411794 0.252115461 0.7484159068
0.8727216123 0.2519735713 -1.240087961e-04
0.8924785666 0.2509588648 0.0029804214
0.9025558652 2.9133527353e-04 0.2530782062
0.9125705719 0.0016957828 0.5039576537
0.9026368665 0.0015832474 0.7527144987
0.9026368665 0.2504368669 0.2539333223
0.9126552551 0.251549204 0.5017660161
0.9025595471 0.2514073143 0.7520784544
0.9026479121 0.502455733 0.7508054453
0.9125447987 0.2528932508 0.0018013001
0.9225889604 -0.0012048199 0.2533801202
0.9226257792 4.1447990169e-04 0.7536220815
0.9225631873 0.2511515223 0.2559270589
0.922482186 0.2509419422 0.7506655339
0.9426146918 -3.7456995413e-04 0.2546641749
0.9325815758 0.0019029548 0.502069771
0.9424269161 2.6133016064e-04 0.7535861832
0.9326220765 0.0029117384 0.0028253223
0.9424048248 0.250777272 0.2509151032
0.9326220765 0.2510766723 0.500971651
0.9424269161 0.2521610219 0.7551169238
0.9325079383 0.2527917151 0.0033657299
0.9525263059 3.8922614074e-04 0.502805226
0.9526183529 2.8697444368e-04 0.001803049
0.9625446945 0.2521798971 0.2551455804
0.9525594428 0.2501921398 0.5017789027
0.9726330387 0.2504687596 0.5080657084
0.9624011013 0.251514057 0.7555882041
0.952463714 0.2495601449 0.0037815979
0.9724857636 0.249353819 0.003054059
0.9624158288 0.0012731078 0.2526538699
0.9825925172 0.4990705575 0.7566541076
0.9824967884 0.500095027 0.2588725609
0.9825188796 4.9063170664e-04 0.2538615257
0.9924783581 0.0014982438 0.5038011739
0.982566744 0.2523797143 0.2569358933
0.9923752656 7.8254695892e-04 0.0093936076
0.9925262225 0.249103234 0.5084228505
0.9825151977 0.2518492551 0.7558615835
0.9925961782 0.2498120316 0.0107386895
0.0124513516 0.7495110635 0.017878126
0.0026032131 0.4979172156 0.7621916513
0.0123644961 0.4981248432 0.0192309398
0.0224006313 0.7499471464 0.2647985426
0.0025050542 0.7489448064 0.2653176873
0.0125022351 0.7487885976 0.5181015859
0.0224546812 0.7483785494 0.7667268038
0.0223666844 0.4963147733 0.2626823836
0.0024700764 0.7498364985 0.762785354
0.0126355927 1.0017232379 0.0128483132
0.0525848835 1.0007143892 0.5120909209
0.0524862092 0.9989244964 0.01108092
0.0324704188 0.7483980755 0.0169224026
0.0425480856 0.4991668862 0.7678617425
0.0425083213 0.7471158614 0.2702265505
0.0324674733 0.7491140327 0.5166674946
0.0423905012 0.749237698 0.7679675965
0.052419199 0.751548287 0.0190297252
0.0525049868 0.7481572536 0.51895302
0.0525708924 0.4995124983 0.5157691165
0.0425804861 1.0007339154 0.2645417317
0.0326154848 0.999347562 0.5188839848
0.0325142332 0.999041653 0.0151115633
0.0725660642 1.0004410238 0.5123587775
0.0625023886 0.9989244964 0.7656130359
0.0724533988 0.9986316048 0.0111067852
0.0724195255 0.7490229109 0.0172088527
0.0624504741 0.7509169429 0.269082407
0.072339997 0.7503376685 0.515064037
0.0624442149 0.7470963353 0.7659462458
0.0625892809 1.0001416235 0.2638771528
0.0825516841 1.0007729676 0.2609472988
0.1024750593 0.9986836744 0.7581323814
0.0825564705 1.0018599207 0.7596493149
0.092474712 0.9986576396 0.0136163528
0.0924710301 0.7472590528 0.0094929262
0.0925582906 0.4999986983 0.0084893385
0.1024728502 0.7471223701 0.2587851163
0.0824762056 0.7502270206 0.2615446834
0.092533622 0.7481247101 0.5131347332
0.102466591 0.7486258801 0.7588761206
0.0825089743 0.7512619041 0.7642691506
0.0925387766 0.4967469511 0.5059044464
0.112505598 0.9988398833 0.008876672
0.1125571443 0.7487235106 0.00733912
0.1225501279 0.4984105751 0.754238796
0.122360143 0.7482223406 0.2563615205
0.1125221665 0.7476886271 0.5060443577
0.1224437216 0.7460874866 0.7548987725
0.1123321816 0.9994907534 0.5090625767
0.1224507172 0.9981759957 0.7537352992
0.1523869582 0.9991457922 0.4972851712
0.1325129201 0.9988398833 0.5021912729
0.1425169493 0.9995037708 0.7506149081
0.1522753973 0.9990221269 -0.004781731
0.1324179276 0.9984493612 0.0060149327
0.1524038948 0.750435299 -7.8340543292e-04
0.1325132883 0.7500838292 0.0043671085
0.1424503073 0.748931789 0.2537317395
0.1524123631 0.7511056953 0.4949425767
0.1324915652 0.7499536551 0.5036962404
0.1425688638 0.4994480621 0.2507126
0.1423243871 0.7498299898 0.7519661571
0.1723191699 0.749608694 -0.004962143
0.1623493822 0.497930233 0.7439654374
0.1723162244 0.4996010166 -0.0098434473
0.1623700007 0.7492572241 0.2467269676
0.1823953639 0.9980848739 0.7376979616
0.1723383157 0.7479099229 0.4925189809
0.162343123 0.500065087 0.2446227747
0.1623850964 0.7476951358 0.7455523266
0.1823103126 0.7480140622 0.2414048138
0.1823217264 0.7484371277 0.7435539876
0.1624359063 0.9997120493 0.2421669624
0.1722867694 0.9983712568 0.4951717736
0.1723847073 0.9994191577 -0.0084772793
0.1924553577 0.9986446222 0.490893432
0.2024696962 0.9997315754 0.738722444
0.1923541061 0.7497649028 -0.0128117217
0.202394954 0.749543607 0.2339812284
0.1924380529 0.7524529964 0.4873082038
0.2024512868 0.7492767502 0.7355026421
0.2326183814 0.7520950179 0.9870844077
0.232548794 0.5013694307 0.986863495
0.2325270709 0.7524009268 0.4877306993
0.232499825 0.5021732554 0.4877978935
0.2225293009 1.0016581509 0.2360173066
0.212418129 0.9995883839 0.48788902
0.2123783647 1.0002522715 -0.0124314297
0.2125447856 0.749869042 -0.0125923278
0.2324696336 0.999783645 0.9874618001
0.2224600816 0.7495566244 0.2363192206
0.2124763027 0.7511707823 0.4886309183
0.2224556633 0.5024179825 0.2373188503
0.2224376221 0.7505264209 0.7381959355
0.2525366021 0.750109864 0.99061901
0.2525833619 0.4982732416 0.9921377845
0.2423904524 0.7495305896 0.2417509103
0.2524556008 0.7508128037 0.4893857032
0.2424489942 0.5003039563 0.2410927747
0.242544723 0.7511056953 0.739293135
0.2524463961 0.497323622 0.4908823864
0.262549836 0.4991727441 0.7378332705
0.2624084519 0.7487300193 0.2422903053
0.26245963 0.7500057248 0.7418584831
0.2824275559 0.499664151 0.7454179381
0.2824750522 0.7499536551 0.2482807199
0.2825641536 0.5002492833 0.2448151528
0.2823583366 0.7491270501 0.7449383736
0.272443777 0.7494199416 0.9950280583
0.2724824368 0.4978736073 0.9916499357
0.2723922308 0.748541267 0.4937837058
0.2825269666 0.9999203277 0.2415944305
0.2824993525 0.9982541002 0.7418695287
0.3124959763 0.9997901537 0.9993082408
0.2924267987 0.7483525146 0.9985166371
0.3026649953 0.5019779943 0.750722603
0.292560819 0.4982673837 0.9952397662
0.3025567481 0.7477927663 0.2504254135
0.2924573583 0.7478708707 0.4976386315
0.3024952608 0.5008506873 0.2482567877
0.3025578527 0.7487235106 0.7528047047
0.3024786923 0.9967245554 0.2472636013
0.3125928097 0.7462502041 1.0046101443
0.3124554756 0.4986149484 0.9996119957
0.312536477 0.7492767502 0.5021949548
0.2924809223 1.0008445633 0.998369362
0.3326376869 0.7490619631 0.9999065459
0.3325242851 0.4984951883 0.9977158288
0.3225997844 0.7493483459 0.2492508946
0.3325360671 0.7507802602 0.5029184437
0.3226152483 0.7480466057 0.7501712419
0.3324742115 0.4980246092 0.4975695963
0.3525426527 0.999672997 0.4916141595
0.3423902439 0.9987422528 0.7472588768
0.3623986705 0.7480726405 0.2405165609
0.3525014157 1.000349902 0.9915394794
0.3626269469 0.7487885976 0.7385227021
0.3624023524 1.0018989729 0.2406739611
0.3525444937 0.7497323593 0.9949360113
0.3623876248 0.9984168177 0.7382815391
0.3525143023 0.4996498319 0.9908859461
0.3425224233 0.7486974758 0.2455993927
0.3524734334 0.7507346993 0.4956025533
0.3425743377 0.7497714115 0.7454483136
0.3925090642 1.0006362848 0.479252256
0.3725864254 0.7499211116 0.9875078236
0.3725275153 0.4988538177 0.9888885276
0.3825090851 0.7480726405 0.2333479455
0.3725496066 0.7501879684 0.4856734502
0.3825164489 0.5000156209 0.2382770589
0.3824501751 0.7521731223 0.7336837947
0.3825385401 0.9987292354 0.2338919429
0.3824980395 1.0011895244 0.7308763631
0.3726048348 1.0010723678 0.9868542903
0.3724207409 0.4984470239 0.4839558544
0.3924759273 0.7499276203 0.9793800791
0.3925385193 0.7479229403 0.4783704463
0.4124427487 0.7504222816 0.9774194794
0.4124537944 0.7488211411 0.4785996432
0.412313883 0.4980421827 0.4778319718
0.4025458622 0.9997055405 0.2277699011
0.4024243602 0.4987327559 0.730397719
0.402520089 0.7496607636 0.2303251241
0.4024133146 0.5005688605 0.2287686104
0.4025605897 0.7496607636 0.7327716095
0.4324647983 0.7459508039 0.980015203
0.4225016379 0.7487690715 0.2290180576
0.432442707 0.7470507744 0.4788389652
0.4224832285 0.4999921896 0.2292785504
0.4225642299 0.7467839176 0.727710869
0.4424021855 0.7477862576 0.2278067199
0.4424537318 0.7470833179 0.7300341336
0.4324979352 0.9978505607 0.477285213
0.4224574554 0.9969393425 0.7285926786
0.4424169131 0.9978115085 0.2298207069
0.4523690278 0.9965032595 0.9791775758
0.462457372 0.9989960921 0.2348427877
0.4724683968 0.9988659181 0.4878402351
0.4623837345 0.9960151069 0.736212324
0.452512621 0.7485998453 0.9784688144
0.4524095284 0.7487560541 0.478081419
0.4724831243 0.7498364985 0.9819389839
0.4624389626 0.7468555133 0.2346872284
0.4725309887 0.7502725815 0.4835094268
0.4624831451 0.7462697302 0.731525294
0.4723837136 0.500807079 0.4850079509
0.4824205115 0.9985274656 0.2362851632
0.4924794007 1.0011179287 0.4853135467
0.492472037 1.0011960331 0.9868819044
0.482435239 0.4994467604 0.7366118077
0.4924462638 0.7493548546 0.4862441413
0.4825051947 0.7474933661 0.2359740446
0.4924168088 0.7499080942 0.9873881626
0.4824021021 0.7491595936 0.735025839
0.5125272234 1.0008445633 0.494256827
0.5125235415 1.0019900947 0.9944389579
0.5025309261 0.9992629489 0.2410347851
0.5224756563 0.7533967581 0.7499613749
0.5224204281 0.9982671176 0.2477753822
0.5223762456 1.0006232674 0.7478212836
0.5024536067 0.7502205119 0.2417555126
0.5023652417 0.5001028375 0.2437382036
0.502475698 0.7510080648 0.7428599537
0.5024167879 0.4989970091 0.7429704101
0.512328402 0.749869042 0.9961970543
0.5124867228 0.4989657674 0.9976053725
0.5124020396 0.752049457 0.4970522925
0.5224204281 0.5017677633 0.2503821515
0.5225198388 0.7500122335 0.2501115335
0.5324719535 0.7515157435 0.4996268453
0.5325271817 0.4992287189 0.5006936693
0.5324093616 1.0012806463 0.9998973412
0.542313612 0.9992434228 0.2542628503
0.5525234581 0.9982866437 0.5093018988
0.5523651374 0.7499992161 1.0058343686
0.5425197971 0.9991197574 0.7543759459
0.5424572052 0.7497779202 0.2536571815
0.5525160944 0.7488927368 0.5054138362
0.5424829783 0.7471093527 0.7533569863
0.532519818 0.7498430072 1.0012504311
0.562442436 0.9959760547 0.2568153118
0.562412981 0.9997706276 0.756176384
0.5625271192 0.7464584826 0.2594322062
0.5625234373 0.7468750394 0.7606461832
0.5722620031 0.9977529302 0.509249432
0.5724055963 0.9987487615 1.0081539514
0.5726044177 0.7459377865 1.0084392969
0.5725823265 0.7489448064 0.5074278231
0.6025049445 1.0001220974 0.263508965
0.5924571009 0.7528044663 1.012342087
0.5925307385 1.0004540412 0.5161207358
0.6025086264 0.9998226972 0.7655265118
0.5923981909 1.0008315459 1.0158490752
0.6026779927 0.7501293901 0.2638467773
0.6026522196 0.4997572254 0.2638725504
0.5923908271 0.7489578238 0.514448243
0.6025933095 0.7482744102 0.7613024779
0.5824902587 1.0004735673 0.2623362871
0.5824276668 0.9969653773 0.7651362328
0.58257126 0.7491791197 0.2645518568
0.5825896694 0.7468750394 0.7653709524
0.6126264256 0.752505066 1.0150666763
0.6124717867 0.7518346698 0.5142475807
0.6126043343 0.9995883839 1.0139160896
0.6226595416 1.0021332861 0.2622470016
0.6225674947 0.7493483459 0.2641956352
0.6224496746 0.74847618 0.7638558599
0.6424790879 0.998911479 0.7554188377
0.652571114 1.0018403946 1.0046837819
0.6325269732 1.0020616904 1.0054109527
0.6326190201 0.749302785 1.0107404703
0.6325895651 0.5002928916 1.0110074064
0.6325601101 0.7500252509 0.5110784046
0.6524569758 0.7501424075 1.0054845902
0.6525527046 0.5008272559 1.00519004
0.6424312235 0.7481377275 0.2569754735
0.642596908 0.5001021866 0.2595555491
0.652420157 0.7520234222 0.5039705402
0.6424496329 0.7513660433 0.7580918807
0.672339114 0.7510145735 1.0038001313
0.6724458885 0.4988089077 0.9985718653
0.6824164126 1.0017622902 0.2500986469
0.6725232079 1.0009747373 0.5008529105
0.6824164126 1.0014368551 0.7515906056
0.6822507281 0.7517500567 0.2518567434
0.6723538415 0.7521731223 0.5007995233
0.6824016851 0.7521731223 0.7508864466
0.6624790462 0.7524529964 0.2539084696
0.6624790462 0.749869042 0.7536920372
0.702504736 1.002985926 0.2465953405
0.7023611427 0.4999629004 0.7454142562
0.6923206629 0.7518281611 1.0031097793
0.6925452575 1.0013262072 0.4973008192
0.7024384622 1.0025238082 0.7461598364
0.6925636669 1.0010658591 0.9990873281
0.7025010541 0.7504027555 0.2485973614
0.7025305091 0.4994884161 0.2465999429
0.6924532105 0.7502790902 0.504293625
0.7026372836 0.7519127742 0.749130191
0.7225562405 0.5021036123 0.7414019303
0.7325599016 0.7529541664 0.9919997141
0.72263356 0.7528174837 0.2462124253
0.7225341493 0.5003670908 0.240901317
0.7324531271 0.7507346993 0.4924766393
0.7225893774 0.7496998158 0.7420370541
0.7225194218 1.0013392246 0.7443989785
0.7125120789 0.7488862281 0.9981576541
0.7125341701 0.7514962173 0.4958409548
0.742552517 0.4995307226 0.7366292966
0.7425193801 0.7501293901 0.2384574709
0.7425230619 0.5024680995 0.2374072153
0.7425782901 0.7532405493 0.7363586786
0.7525635417 0.5026321188 0.4856071765
0.7525635417 0.7500122335 -0.0165402485
0.7625966578 0.5016395419 0.7347837556
0.7625856122 0.7512358693 0.2342748581
0.7625635209 0.5019077003 0.2362253327
0.7525598599 0.7495501157 0.4860858205
0.7627218416 0.7517760915 0.7311276512
0.7826555261 0.7518932481 0.2287888607
0.782600298 0.5006489175 0.2375480472
0.7725377269 0.7498885681 0.4813260735
0.7826150255 0.749367872 0.7315593514
0.7726592289 1.0018989729 0.4817642169
0.7726297738 0.5005206961 0.4864208714
0.7725009081 0.7497779202 -0.0199083379
0.7825192967 0.4990822731 0.7345471949
0.7726187282 0.500200468 -0.0158339908
0.7925818677 0.7516003566 0.4836125193
0.812611281 0.5009776069 0.4892375076
0.8127217374 0.7500512857 -0.0098009032
0.8024308899 0.5005206961 0.7373960476
0.8026481207 0.7493092937 0.2322028816
0.8026923032 0.5011780749 0.2346320002
0.7926113227 0.4984196873 0.483307844
0.7926076409 0.7469075829 -0.0176020099
0.8125376435 0.7498169724 0.4870651999
0.7926739147 0.4978612408 -0.0143150506
0.8024640268 0.751548287 0.7325120372
0.8324381911 0.4992176541 0.4913536667
0.8324823736 0.7513855694 -0.0064829793
0.8225008039 0.499303569 0.7408947516
0.8326259668 0.5021537293 -0.0051383117
0.8225228951 0.7513920781 0.2422166678
0.8226443971 0.4998073424 0.2400867017
0.8324602824 0.7509690125 0.4926911087
0.8226628065 0.7503962468 0.7399788846
0.8625817218 0.7512749215 0.7475101649
0.8626111768 0.5023489903 0.7486018416
0.8525154688 0.7528174837 -0.0063630974
0.8525596513 0.5004048412 -0.0028235982
0.8625706761 0.752049457 0.2472792493
0.8624418104 0.5011058283 0.2461792884
0.8524307856 0.7511903084 0.4952168766
0.8425559903 0.7524139442 0.2451115439
0.8424897165 0.4994721443 0.2436305087
0.8424897165 0.7494199416 0.7464341363
0.8525007413 0.4999472795 0.4964880448
0.8724196983 0.5018829673 0.4983041308
0.8826405901 0.7501228814 0.7481922327
0.8925337948 0.5016414945 0.501708947
0.8725080634 0.7512619041 -3.0465090838e-04
0.8924270204 0.7516459175 -9.2434770163e-04
0.8824601781 0.5029041825 0.7526114062
0.8724307439 0.5015725022 9.5115464682e-04
0.8924196566 0.5011162423 0.0012638381
0.8823902224 0.7517500567 0.2487740915
0.8826663632 0.5019187651 0.2496816743
0.872519109 0.7507867689 0.4961852104
0.8925190673 0.7528825707 0.5000143629
0.8826258626 1.0005972326 0.2497175726
0.8826111351 1.0024066516 0.7485097947
0.9125632081 0.7518932481 0.5044666732
0.9125484806 1.0002913237 0.0041866965
0.9126368457 0.5000071596 0.5017310383
0.9025669108 0.7517370393 0.7508846056
0.9125852994 0.7508193124 0.0033088449