POSCAR file written by Ovito 3.7.11
1
271.6091452145 0.0 0.0
0.0 15.3645334731 0.0
0.0 0.0 10.8643658085
Sr Ti O 
800 800 2400 
Direct
0.0224520922 0.5023860145 0.7663179876
0.0125703926 0.2484531498 0.5169734748
0.0225667423 0.2504571156 0.7666116081
0.0025220932 0.251113172 0.7686954849
0.0125360417 0.2511424602 0.0175236131
0.0224698383 0.0010268282 0.2692756296
0.0024243425 -6.6935084485e-04 0.2691504497
0.0025564809 0.5000156204 0.2691403249
0.0125988526 0.500359269 0.5203478089
0.0124845707 -0.001447832 0.5212305111
0.0225717127 0.0019937303 0.7710499711
0.0024274351 -4.5658812051e-04 0.7662010917
0.0224420778 0.2503809662 0.2701445252
0.0024089895 0.2500366668 0.2678498676
0.0322900526 0.5014396792 0.0201063686
0.0424517134 0.501609551 0.2668760418
0.0325109583 0.5012691567 0.5165491518
0.0326284064 0.2519208763 0.5153304889
0.0424465589 0.2517217163 0.7690111959
0.0324608863 0.2521369584 0.0176243093
0.0523751642 0.4997735043 0.0135397635
0.0423327925 1.5690268391e-04 0.7657684848
0.0424863219 0.2510695651 0.2672828764
0.0524057228 0.2511066635 0.5128370161
0.0524370178 0.2518603473 0.0120208529
0.0624849122 0.2473825023 0.2639195876
0.0624565626 0.5002434177 0.7572884684
0.0724219855 0.5013257806 0.0071901061
0.0623317509 0.498771196 0.2577369901
0.0724282445 0.500700965 0.5067538262
0.072416831 0.2501726944 0.5052139296
0.0624086997 0.2526107768 0.7642258268
0.0724120448 0.252095304 0.0043589238
0.0926109228 0.2516839671 0.5011023229
0.1023620672 0.251649472 0.7500666939
0.082453312 0.2492777762 0.7536426044
0.0924592342 0.251005131 0.0032686623
0.102390785 3.4727618306e-04 0.2510969339
0.0924445072 0.0025686908 0.5016619506
0.1023454993 0.2507363301 0.2500135757
0.0823016234 0.2517340825 0.2551726435
0.1024938743 0.5008148637 0.7546394412
0.0825092747 0.5016531579 0.7568687476
0.1023683262 0.5037716733 0.2537662107
0.0824396894 0.4984919815 0.2496895807
0.1223882707 0.249343512 0.2493747901
0.1124294749 0.5032184511 0.0013820359
0.1123944982 0.2506354484 0.5014769421
0.1222943858 0.501384357 0.2506256685
0.112437943 0.5027530937 0.5011271748
0.1222748724 0.25196969 0.7472842029
0.1123782984 0.2511776061 0.0010176336
0.1223761209 0.0013773758 0.2493637448
0.152377688 0.2506504179 0.4913281675
0.1322679086 0.2514698376 0.4981882089
0.1423732384 0.2495927874 0.7458133393
0.152383947 0.2524832103 -0.0095627355
0.1323540618 0.2489015851 -0.0034353277
0.1424814822 0.0025236521 0.2460289897
0.1424060061 0.2511268398 0.2444587185
0.1424004834 0.5003696826 0.7442596361
0.1524145056 0.5018067584 -0.0066873261
0.1323658434 0.5004191471 -2.7643185336e-04
0.1524421188 0.4992697468 0.4912775432
0.1323102488 0.4988805387 0.4984974769
0.1823696825 0.2531438226 0.2398316652
0.1723508741 0.5023521703 0.4913613033
0.1825780702 0.5032236579 0.7388060274
0.1722779752 0.250900995 0.492614943
0.1623670423 0.2512465961 0.7386891315
0.1723725965 0.2498895748 -0.0095714245
0.1824363224 0.5020664474 0.2405265976
0.1624679226 0.0011333723 0.74098563
0.1624716044 0.250779937 0.2398942551
0.1825040668 0.251372861 0.7371805298
0.1824146 0.0025714244 0.2390842677
0.1925449658 -6.0172757456e-04 -0.0150499587
0.202391836 0.2519788019 0.2369267557
0.2026388822 0.4990849055 0.7374769116
0.1925018892 0.5014208046 -0.0107780849
0.2025943329 0.5021842512 0.2388265444
0.1925029937 0.5009124911 0.4892820287
0.1925442295 0.2504577665 0.4889248979
0.2026053782 0.2487785746 0.7376066937
0.1923737639 0.2504851022 -0.0123857075
0.2025291657 4.6143519759e-04 0.2371513431
0.212541347 0.2487011235 0.4872570601
0.222632318 0.2495550381 0.7410813558
0.2126046733 0.2486041469 -0.0100118367
0.2225553692 -0.0016430869 0.7384139198
0.2225435875 0.247898626 0.2441052695
0.2325922182 0.2483425054 0.4906718935
0.232577123 0.2459337111 0.9916344067
0.2324858153 1.4382060756e-04 0.4913622237
0.2225962367 0.4986215006 0.7423331546
0.2125582831 0.4993602149 -0.0066246625
0.2127246987 0.4991727702 0.4931469575
0.242643058 0.4963708628 0.7475235174
0.262442465 0.2501056569 0.7494748508
0.2624921688 -6.02573679e-04 0.2487249593
0.2625444498 7.3166793894e-04 0.7449315575
0.2524615787 0.2499527072 0.4961070934
0.2424619154 0.2489230632 0.7453070972
0.2525444183 0.2482865323 0.9972030705
0.2624152199 0.2490428195 0.2493379725
0.2425355506 0.0016002267 0.2398914938
0.2625842128 0.4987737994 0.2467266834
0.2524479561 -4.6088372767e-04 0.4921998244
0.242559482 6.117814482e-04 0.743759837
0.2525127551 5.973976727e-04 0.9953713943
0.242452711 0.250278132 0.2447136805
0.2723769611 0.2511099177 0.5018570839
0.2724112015 0.2505540922 0.9992096303
0.2726416797 -7.5949351026e-04 0.4968333208
0.2725113454 9.3037231258e-04 0.997534429
0.282561817 0.2485774621 0.7562474504
0.2725952895 0.4996153479 0.5020466946
0.2824881818 0.247297241 0.2536898142
0.312456613 8.6359514672e-04 0.501662871
0.2924815861 0.4986722669 0.5024139503
0.2926318019 0.2489985617 0.5057339784
0.3023814736 0.2474514923 0.7524561569
0.2924513956 0.2497014793 1.0039498978
0.2925924071 -0.001381901 0.4976037293
0.302455477 -2.6810208512e-04 0.7540604843
0.3125663295 0.4992404586 0.5049221501
0.3026174745 0.2485319026 0.2569895926
0.3125921018 0.2506360993 0.5049681721
0.3125689067 0.2481316301 1.0059840708
0.3225807198 9.2457975141e-04 0.253599611
0.332690836 -0.0014933915 0.5004488103
0.3226385235 -0.0022056878 0.7535965824
0.3325524018 -9.1660859639e-04 1.0005534731
0.3224993529 0.2478407004 0.2540736378
0.322698168 0.4960838381 0.7490753797
0.3225424295 0.5009723693 0.2503136392
0.3327250764 0.249611662 0.500090759
0.3224886758 0.2475491197 0.7503179741
0.3327213946 0.2495791196 1.0009216493
0.362583423 0.248495455 0.2482951137
0.3525340559 0.4989586407 0.496390589
0.3526316226 0.2482181931 0.4990221278
0.3425741556 0.2508261473 0.749293524
0.3626165588 0.4986071819 0.7432627993
0.3526886899 0.2478979751 0.9986205485
0.3625281965 0.4993882014 0.2443353795
0.3426065551 -0.0015451991 0.247965596
0.3425200337 0.2486920116 0.2464818463
0.3626570582 0.2482826272 0.7453586418
0.3426032415 0.5005851138 0.7488572354
0.3426095005 0.4999459795 0.2437380138
0.3826306125 0.2477938392 0.2421438112
0.3926597298 0.2488052594 0.4907574945
0.3925235047 0.2495459262 0.99042863
0.392549277 -3.1040730715e-04 0.9898027306
0.3825459319 0.4996817346 0.7434257172
0.3926450028 0.499004851 0.9940183471
0.3724910422 0.248214288 0.4943030305
0.3826158854 0.2489185072 0.7456623871
0.3725830863 0.2500438261 0.9959420673
0.3926118669 0.4998490029 0.4905375092
0.3726051768 -0.0025761513 0.4937332779
0.4125964665 0.4984802663 0.9836541894
0.4025047592 0.2506614824 0.7388317997
0.4024973956 6.8688948854e-04 0.7376941355
0.4026041667 0.2484668176 0.2390391661
0.4125081042 0.2506400044 0.4842297319
0.4125412401 0.2504649258 0.9879802588
0.4126406476 -6.5275418083e-04 0.4855128257
0.4127142828 -1.475647448e-04 0.988670589
0.4425660023 0.0030316401 0.7381129359
0.4423561419 0.2509582698 0.2353620072
0.4226329474 0.5012691567 0.736561994
0.4324706132 0.5018321415 0.9886521802
0.4325295214 0.4997891247 0.4862022355
0.4425512752 0.4998470504 0.7387866982
0.4426249105 0.5015203846 0.2379447626
0.4324669314 0.2506692926 0.4854916556
0.4223641788 0.2504375901 0.7346465577
0.4325184761 0.2507493471 0.9865627808
0.4226808103 2.3975583414e-04 0.2351981688
0.4324153868 1.9055160667e-04 0.9842432712
0.4224341323 0.2507623641 0.2357044109
0.4424040048 0.2502052368 0.7381644805
0.4724066764 0.2496962725 0.491304236
0.4624806484 0.2532746434 0.7420809539
0.4723772223 0.2492875389 0.9882840041
0.4723845859 8.3827709846e-04 0.9927573439
0.4624990572 0.2512186096 0.2413062105
0.4525583021 0.5002037159 0.9908980545
0.4525767109 0.5012066751 0.490541191
0.462594783 0.4989176372 0.7400642693
0.472583401 0.4998203655 0.9925456426
0.462624237 0.500354713 0.2388182604
0.4524331222 0.2516559805 0.4858147301
0.4525509385 0.2495713094 0.9885509318
0.4524625763 -0.0013276201 0.4880164233
0.4824357938 0.2498075678 0.7405088419
0.4823805674 0.004013642 0.7387627667
0.4924612294 0.4995723918 0.9916712244
0.492328686 0.4995600257 0.4926397949
0.4824063397 0.2519527679 0.245300001
0.4924354571 0.2499071477 0.4915684024
0.4924023213 0.2493096678 0.9893056928
0.4824505209 0.5022558446 0.2393714451
0.5025161192 0.2486562149 0.7427105351
0.5124642378 0.2489640667 0.4942975078
0.5124716013 0.2495003668 0.9945982245
0.5024829833 -5.2837682805e-04 0.7429765423
0.5025787091 0.2488397544 0.2404962231
0.5223534483 0.2474117905 0.2409490797
0.522434447 0.2494866989 0.7438169043
0.5125599636 0.4998463995 0.4924428206
0.5223239942 0.5004718659 0.7451423383
0.5424448189 0.5026027474 0.7432259817
0.5523745287 0.5005864155 0.9932543817
0.5424190465 0.5007204905 0.2449539154
0.5525586168 0.4981431262 0.4953642981
0.5324414738 -0.0020007222 0.4938510943
0.5324488373 0.2488273883 0.4964117592
0.5324967002 0.2477834256 0.9979026051
0.5324746097 0.4995320392 0.9927573439
0.5522751212 -0.0010687121 0.9911741866
0.5424300918 0.2500561923 0.2465545611
0.5525843891 0.2505020242 0.4981964929
0.5424558642 0.2494847464 0.7446241305
0.552554935 0.2483652851 0.9940183471
0.5724916717 0.2472874782 0.4949316912
0.5724069911 0.2518505846 0.9958040013
0.5623410562 0.4993602149 0.7433649681
0.5623705102 0.4991617058 0.2447633843
0.572440127 0.498689189 0.9967060327
0.5723186289 0.5001483937 0.4946003327
0.5624220549 0.250183108 0.2428424254
0.5623852373 0.2489035377 0.7458621227
0.6024427986 0.5010758543 0.7520704924
0.5922995467 0.4978092403 1.0023207185
0.5923363643 0.4985791954 0.4990736725
0.5823624733 0.2486594691 0.7449195918
0.6025017068 0.2496956216 0.2512046254
0.5925314976 0.2502280166 0.4994795866
0.6023728452 0.2501076094 0.7518256553
0.5924320901 0.2506784045 0.9972490925
0.5822483387 0.5009222538 0.7470016277
0.5823109287 0.4992001059 0.2500227801
0.5824508356 0.2497698185 0.2465039369
0.6123835538 0.5033154277 1.0019985644
0.6124535072 0.5004699134 0.5021065232
0.6223832171 0.5019245622 0.7526807443
0.6125271424 0.001020515 0.5025566185
0.6225010334 0.5027238054 0.2531872538
0.6124645525 0.2503217389 0.5023513603
0.6124093261 0.2507382826 0.9999183693
0.6224678976 0.0013325323 0.7524662817
0.6225599416 0.2523816778 0.251889433
0.6224237164 0.2506087636 0.753378438
0.6425371776 0.0013778314 0.2503587408
0.6524484786 9.53933067e-04 0.4988334376
0.6324491521 0.5017319107 0.5028622047
0.6425261323 0.248880758 0.2509367773
0.6526104761 0.2503308508 0.4989337656
0.6424561789 0.2500321109 0.7515182282
0.6324491521 -3.823261846e-04 0.5021028415
0.6524632057 0.2514796003 0.9956935484
0.6426108128 0.5025910321 0.7501642606
0.6524705692 0.4961007602 0.496668562
0.6324933332 0.2527578689 0.5033187431
0.6323681533 0.2501154196 1.0014370958
0.6825431943 0.4992951299 0.7417606407
0.6625917306 0.0018470939 0.247735486
0.6826646924 0.4973243574 0.2430633311
0.6625954124 -1.4691389523e-04 0.7459099855
0.6726576656 0.498624104 0.4949583839
0.6625659583 0.2494261699 0.2470469966
0.6624812778 0.2515056343 0.7477076054
0.6725766669 -4.6094881263e-04 0.9950308314
0.662540186 0.5000904681 0.7470007073
0.6624591872 0.4993114012 0.2439745669
0.6825358308 0.2491502097 0.2435465622
0.6725140769 0.249910402 0.4972475189
0.6826241931 0.2490434704 0.7421591914
0.6725950757 0.2503367085 0.9962181994
0.7026014291 0.2506367501 0.2450441186
0.6926128111 0.2497327201 0.4942146682
0.7025167486 0.2499338326 0.7469049815
0.6925870387 0.2511776061 0.9951412842
0.6925539029 0.4996576531 0.9959144541
0.6926201746 0.5012886821 0.4974822312
0.7323795133 0.5007549855 0.9890387651
0.7325930554 0.4992769061 0.485038799
0.7126195012 0.2507168046 0.4932445241
0.7125679565 0.2501889656 0.9944417496
0.7225197569 9.9350472084e-04 0.2385669802
0.7325746466 -0.001489226 0.4851648993
0.7326335548 0.0010189529 0.9854122304
0.7125790018 0.5013322891 0.9914963407
0.722534484 0.2517243197 0.2401344901
0.7325120567 0.2509276799 0.4893777545
0.7225602563 0.2518987474 0.7389008327
0.7324494668 0.2517568622 0.9857712021
0.7125826836 0.5023098651 0.4922900276
0.712715227 0.0014308756 0.4931902182
0.7126415918 2.4307516695e-04 0.9933648345
0.7525077015 0.4987002534 -0.0172419596
0.7424491301 2.2198764089e-04 0.2341212537
0.7424822659 -1.0252595458e-04 0.734333608
0.7425006747 0.2518792219 0.2371513431
0.7425853552 0.2477827747 0.7349981659
0.7624852743 9.2457975141e-04 0.2304560604
0.7525371556 0.0012380289 0.4819884598
0.7624484566 -0.0018746592 0.7287713874
0.7524672022 -0.0014923501 -0.0186975531
0.7624226843 0.2482871832 0.2292033412
0.7523751581 0.2508267982 0.4818577573
0.7624337296 0.2486243232 0.7314765614
0.752330977 0.2510096869 -0.0149832452
0.7825030097 -8.5406195274e-04 0.2270679197
0.7825066914 -0.0017238573 0.7256722649
0.7725659363 -0.0013446724 -0.0228790213
0.7825876902 0.2475400079 0.2250254627
0.7724333929 0.2505768719 0.4746774026
0.7825214185 0.2493064136 0.7248944929
0.7724554835 0.2506549739 -0.0236921383
0.7925652629 -0.0038857388 0.4806418557
0.7925210818 -0.0020057468 -0.0207363284
0.8125314536 0.4993140046 -0.0164434041
0.7924548101 0.2493142238 0.4799027421
0.7925063547 0.2503699018 -0.019280652
0.8025649262 -0.0024650318 0.2356547072
0.8124062738 -0.0024923089 0.4871226758
0.8025796532 -7.813620558e-04 0.732190823
0.8125204083 -0.0013246262 -0.012757234
0.8024949727 0.2478908158 0.2336693175
0.8124615002 0.2486366894 0.4885401538
0.8025428356 0.2493012068 0.7300489585
0.8124615002 0.2475126722 -0.0116191372
0.8324939626 -5.4230500884e-04 0.490133436
0.8225495257 -0.0029828087 0.7390260126
0.8325197349 -0.0021142694 -0.0104192788
0.8224574817 0.2481075487 0.2400553322
0.8324166456 0.2474632076 0.4889046482
0.8225311169 0.2494196614 0.7382841378
0.8326154607 0.2486060994 -0.0085416828
0.8225863433 -8.2828830978e-04 0.2369700163
0.8425967152 -0.0019522795 0.7400375765
0.8426188058 0.2501238806 0.2433836443
0.8425783064 0.2480444163 0.7466960416
0.8624634984 -4.3380838557e-04 0.2471013026
0.8425488523 0.4997246906 0.7385390997
0.8525706062 7.3876219925e-04 0.4928045537
0.8626365412 0.0024611054 0.7454138682
0.8525706062 -5.139279676e-04 -0.0068821925
0.8624487714 0.2480938808 0.2454408283
0.8425451706 1.1863272921e-04 0.2388992592
0.8525632427 0.2496272824 0.498326275
0.8625187248 0.2496578723 0.7480297595
0.852511698 0.2504590682 -0.0051307695
0.8724337076 -0.002521122 0.4966170173
0.8925177147 -8.2574999646e-04 0.5032138129
0.8725478422 -0.0018590062 -0.0015356034
0.8824407344 0.2490857756 0.2487903105
0.8925324418 -0.0017746887 4.522899275e-04
0.872488934 0.2495088278 0.5015763496
0.8923814895 0.2512094977 0.5059668498
0.882540142 0.2500640025 0.7521698999
0.8725552057 0.2515186513 -0.0015457098
0.8925029877 0.2499025918 0.0040966904
0.902532105 -0.0014012963 0.2577379106
0.9125464954 -0.0020719447 0.5096145547
0.9024879239 -0.0020512607 0.7579456628
0.9024547881 0.246998501 0.2589630166
0.9124323608 0.2504291291 0.511473844
0.9023995616 0.247933121 0.7555920969
0.9024695151 0.500921603 0.7555598815
0.9123476803 0.2517165095 0.0122337507
0.9225461587 0.001226574 0.2649274697
0.9224246606 -6.0621843659e-04 0.7610429443
0.9224982958 0.2503614407 0.259574189
0.9225645675 0.2508886289 0.7630927649
0.942442396 -5.9508890895e-04 0.266425026
0.9325679125 0.0010186275 0.5164884027
0.9424681683 0.0023575552 0.7653901838
0.9324979591 0.0022100077 0.0158723432
0.9426338475 0.2512225147 0.2658046493
0.9324979591 0.2485650959 0.5159039232
0.94253444 0.2527253264 0.7678818157
0.9325053226 0.2500841788 0.0165466578
0.9525046492 8.8520335244e-04 0.5164313354
0.952508331 -1.816041773e-04 0.0190930559
0.9624785402 0.2490454229 0.2666753858
0.9524972857 0.2506334959 0.5155164178
0.9725039758 0.2518993983 0.5154234533
0.962496949 0.2517386384 0.766536132
0.9525525121 0.2502241115 0.0183404118
0.9725923381 0.2518388693 0.0165354284
0.9624932672 0.0017190067 0.2651115577
0.9826325007 0.4996465887 0.7659065508
0.9825699108 0.4979791121 0.2672488201
0.9823526869 7.0413700214e-04 0.2664342304
0.9924664848 0.0015881209 0.520053268
0.9823379598 0.2516104211 0.2701730589
0.9924664848 6.4393341694e-04 0.0197230972
0.9924812118 0.2462545799 0.5140556791
0.9823858227 0.2491931658 0.7698110585
0.9924554395 0.2475517231 0.0129159811
0.0123427861 0.7514036633 0.0185425405
0.0024108672 0.4993745336 0.7678422367
0.0125491488 0.5001451395 0.0187766085
0.0223971235 0.7506226438 0.2695048192
0.0023569294 0.7502061001 0.2680035811
0.0124318111 0.7490085369 0.5208264378
0.0225449094 0.750414372 0.7692348629
0.0225679204 0.4992339501 0.2675903034
0.002474893 0.751032679 0.7707499076
0.0123977916 1.0019612222 0.018903169
0.0524403314 1.0003731492 0.5151546848
0.0523681689 1.0001648773 0.0129041074
0.0324082371 0.7487026376 0.0176546838
0.0424524497 0.50120277 0.7651858461
0.0424428771 0.7508634582 0.268413177
0.032527158 0.7501930831 0.5179804364
0.042386178 0.7514687483 0.764947452
0.0523232514 0.751885292 0.0144953646
0.0523365057 0.7486896206 0.5170839276
0.0522845929 0.4994565406 0.5144744794
0.0423821281 1.0027031907 0.2669966194
0.0323585333 1.0001518604 0.5190941692
0.0323857784 0.999911046 0.0184517851
0.0723888497 1.0003926747 0.5075315983
0.062386241 1.0015251529 0.7640969652
0.07242309 1.0004707766 0.0080559643
0.0724779483 0.7512604764 0.0083495848
0.0624521445 0.7499067093 0.2645500892
0.0724370807 0.7526923454 0.5060754618
0.062438522 0.7500498962 0.7633228749
0.0623313827 1.000633489 0.2607643182
0.0825019112 1.0011281347 0.2537836991
0.1025524143 1.0000802669 0.7495319181
0.082369736 1.0009133543 0.7536628541
0.0924474526 0.9996507062 0.0019791255
0.0924599706 0.7512409509 0.0037080805
0.0924220485 0.5029555079 0.0031756979
0.1024058802 0.751058713 0.253854573
0.0824183352 0.7511758659 0.256668359
0.0925741052 0.7519438684 0.504560417
0.1023801079 0.7512539679 0.750449597
0.0824518393 0.7476157188 0.7560946573
0.0924054805 0.5014487911 0.5045300425
0.1123956027 1.0013884745 2.2958019528e-04
0.1124386793 0.7522627847 0.0018968381
0.1222988039 0.5010791086 0.7521652977
0.1223974751 0.7525621755 0.2512405226
0.1123812439 0.752568684 0.4989530948
0.1224895191 0.7512149169 0.7508573521
0.1125325642 1.0009133543 0.49741688
0.1223816435 1.0005423701 0.7452325415
0.1524914544 0.9985377534 0.4928045537
0.1323470664 1.0004837936 0.4968176733
0.1424660188 0.9987655508 0.744654505
0.1524215009 1.0000347074 -0.0098026667
0.1324545738 0.9990128736 -6.2882241784e-04
0.152496977 0.7531349232 -0.0071608374
0.1324052382 0.7500759302 0.0010350299
0.1425433358 0.75180719 0.2471712561
0.1525061814 0.7510261705 0.4955244547
0.1323669479 0.7504534229 0.5002757675
0.1423386298 0.5031110609 0.2459102529
0.1424822185 0.7515793927 0.7490974703
0.1725423256 0.7502321341 -0.0118006296
0.1624101189 0.5038478227 0.7382896604
0.1725003536 0.502557188 -0.0111583556
0.1625518667 0.7503297615 0.2392398221
0.182615256 1.0012062367 0.7366936169
0.1725673616 0.7506551863 0.4926996235
0.1624277914 0.5041192269 0.2387510683
0.1625805845 0.75033627 0.7414900313
0.1825931654 0.7504664399 0.2386774331
0.1825758611 0.7505445419 0.7399372485
0.1624196915 1.0007050825 0.2359934292
0.1724495453 1.0018635947 0.4872708667
0.172457277 1.0024819018 -0.0102752115
0.1924672807 0.9996897572 0.4849430732
0.2025512563 1.0003275897 0.7370111688
0.192585097 0.7515468502 -0.0133047855
0.2025582516 0.7509741026 0.2367656786
0.1926591004 0.7509675941 0.4860439198
0.2024787256 0.7499717942 0.7361054556
0.2326503901 0.7501410151 0.993880281
0.2326135725 0.498342937 0.9918829256
0.2325642369 0.7497439969 0.4922338807
0.2325461962 0.4988525522 0.4962635683
0.2224717932 0.9988176187 0.2380276022
0.2126429636 0.9973792412 0.4851409678
0.2126234503 0.9994489428 -0.0147659016
0.2125770601 0.7511433235 -0.011703109
0.232562396 0.9979064293 0.9896646645
0.2225590509 0.7475831763 0.2378094579
0.21252257 0.7493404702 0.4865722525
0.2225804051 0.4984347068 0.241746181
0.2226024957 0.7492168087 0.7421536687
0.2525933857 0.7497635224 0.9959788849
0.2524394881 0.4985993717 0.9983904385
0.2424541837 0.7499783027 0.2460078195
0.2524637877 0.7497830479 0.4988730165
0.2426202311 0.4982414045 0.2459535136
0.2425465959 0.7503167445 0.7413501244
0.2524880873 0.4986683618 0.4995338926
0.2624616101 0.498818708 0.7458630431
0.2623209669 0.7500954557 0.249152964
0.2624258971 0.7501605406 0.7439632543
0.2826380294 0.50029874 0.7517547814
0.2825198449 0.7509936281 0.2513776682
0.2825684442 0.5004399743 0.2501654483
0.2825573989 0.751058713 0.7511003483
0.2725739353 0.7507202713 0.9955738912
0.272573199 0.4997910773 1.0045389796
0.2726078075 0.7500759302 0.4955226138
0.2825923756 1.0003275897 0.2504342169
0.2825099041 0.9988566697 0.7509254647
0.3125968881 0.9999566055 1.0051004482
0.2925577985 0.7488718585 1.0023207185
0.30255378 0.5015705 0.7528961273
0.2925843072 0.4995014492 1.0056619167
0.3025228533 0.7477784312 0.2540257749
0.2925603757 0.7492558597 0.5018451182
0.3025431029 0.499325069 0.2516252666
0.3024411182 0.7501149812 0.7544746824
0.3025721889 0.9996702317 0.2532572073
0.3126359148 0.7471796496 1.0048335205
0.3127055001 0.4986599007 1.0017040235
0.3125979927 0.7509155261 0.5013683301
0.2925898298 0.9989477886 1.0013910738
0.3326477594 0.7497570139 0.9992280391
0.3324522579 0.5000859121 0.9990347467
0.3226142239 0.7508829836 0.2499657128
0.332586274 0.7502907105 0.49996742
0.3226293191 0.7472252091 0.7485360017
0.3324960708 0.4993660725 0.4998026612
0.3524843521 1.0016943738 0.4957168267
0.3426279093 1.0019026457 0.7490348803
0.3626717852 0.7486570781 0.2418557134
0.3526194728 0.9977111745 0.9927941615
0.3625944682 0.7468021568 0.745933917
0.3625355601 0.9998134186 0.2481570476
0.3526489268 0.7495943015 0.9946994729
0.3626607399 0.9975614791 0.7458271459
0.3526614448 0.501189753 0.9953805987
0.3425237155 0.7499913197 0.2467082746
0.3526065866 0.7499327433 0.493771016
0.342639691 0.7504599314 0.7477582296
0.3925161411 0.9988241272 0.4872681053
0.3725536322 0.7501930831 0.9914595231
0.3726788121 0.5002069702 0.9954266207
0.3825901131 0.7469388352 0.2427614266
0.3724836787 0.7499262348 0.491843614
0.382560659 0.498395005 0.2416679436
0.3826195672 0.7501214896 0.742149987
0.382652703 0.9978413444 0.2422220486
0.3826490213 0.9994229088 0.7416593923
0.3727156297 0.9987069743 0.9947178817
0.3725241781 0.4973731711 0.4975531051
0.392564004 0.7483056193 0.9889191079
0.3926523663 0.7483381618 0.4918334892
0.4126443294 0.7505901013 0.9880446896
0.4125522854 0.7490345709 0.4877448934
0.4126553747 0.4999954441 0.4871668569
0.4025158044 0.9970603249 0.2390584954
0.4026225755 0.5005662391 0.739012206
0.402615212 0.7508504412 0.236427877
0.4025489403 0.4995990767 0.2396963605
0.4026593931 0.7490280624 0.733463792
0.4326031566 0.7512800019 0.9844917901
0.422592448 0.7515403417 0.2370114362
0.4326289289 0.7499783027 0.4838790442
0.4225188128 0.5010986341 0.2352184185
0.4227029009 0.7504338974 0.7385869626
0.4425660023 0.7507853562 0.2361296544
0.4425917746 0.7480452795 0.7380300962
0.4325368849 0.9980821587 0.4869358264
0.4226513562 0.999898029 0.7343556986
0.4425365482 1.001499119 0.2345363722
0.4524957121 0.9989542971 0.9877961707
0.4625137842 1.0027878011 0.2404419171
0.4722999054 1.0018245437 0.4939569449
0.4624291037 1.0008352524 0.7400440196
0.452620892 0.7495552505 0.9876857179
0.4525030756 0.7503818295 0.4867186025
0.4724766299 0.7505445419 0.988007872
0.4624916936 0.7505770843 0.2396687473
0.4725723557 0.7498220988 0.4889046482
0.4624769666 0.7489239264 0.739112534
0.4725613104 0.4989931357 0.4904850441
0.4823989762 0.9999175545 0.2384620501
0.4924244118 0.999149552 0.4984367278
0.4925385464 0.9992992474 0.9950952622
0.4825020655 0.5010706475 0.7400983256
0.4925201376 0.7499262348 0.4903699891
0.4823437498 0.750401355 0.2421659018
0.4924207301 0.7484683317 0.9920209917
0.482325341 0.7508504412 0.7403799803
0.5123611485 0.9986939573 0.4921620864
0.5123464214 0.9978608699 0.9921498533
0.5024167116 1.0018570862 0.2441466893
0.5224675829 0.7493014192 0.743343798
0.5224381288 0.9951273017 0.2474869671
0.5223829023 0.99920162 0.7457406245
0.5025418915 0.7485008742 0.2447357711
0.5024093481 0.5016167103 0.2423803644
0.5026007997 0.7491517238 0.7434542509
0.5024277569 0.4977610775 0.7414035099
0.5124053296 0.749574776 0.9925272338
0.5126041447 0.498650138 0.9928677967
0.5125894177 0.7489369434 0.4919347376
0.5224639011 0.498221879 0.2466512073
0.5223976294 0.7471991751 0.2424254659
0.5323347027 0.7501865746 0.4942432018
0.532345748 0.4987074128 0.4925127741
0.5324046562 0.9976981575 0.9913490703
0.5424926818 0.9991300265 0.2461072271
0.5523450746 0.9996572147 0.494379427
0.5524150281 0.749535725 0.9926560955
0.5424705912 0.9990844671 0.7483730838
0.5425147723 0.7517486136 0.2435484031
0.5525659803 0.7529657023 0.4944521418
0.5424153648 0.7477914482 0.7436254528
0.5323420663 0.7497830479 0.9926652999
0.5623079203 0.9996181637 0.2428663568
0.5624220549 0.9997222996 0.7422898939
0.5624956901 0.7493795211 0.2416697845
0.5623926008 0.7508960006 0.7465800661
0.5722818113 0.9997483336 0.4920369065
0.572285493 1.0022541045 0.9941380043
0.5723885823 0.7499132178 0.9917264508
0.5723517647 0.7500564047 0.4921298709
0.602405981 0.9992211455 0.2526764094
0.5923842272 0.7508309157 0.9965863755
0.5922885014 1.0026966822 0.5022602368
0.6024243898 1.0009198628 0.7491674237
0.5923952725 0.9996702317 1.0002957499
0.602468571 0.7520805469 0.2501875389
0.6024280716 0.5004913914 0.251912444
0.5923179555 0.7506747118 0.4976920916
0.602391254 0.7513711208 0.7511159958
0.5823403827 1.0022280705 0.2480309473
0.5823661551 1.000646506 0.7496212008
0.5823698368 0.7506616948 0.2469844067
0.5824029727 0.7496463695 0.7471488982
0.6123614632 0.7501995916 1.0005902908
0.6123872355 0.7504664399 0.4989788671
0.6124792796 1.0004187087 1.0057263476
0.6224237164 1.0016357974 0.2548072287
0.6223721718 0.7498676583 0.2528420887
0.6224568523 0.7506226438 0.7543228098
0.6425114053 1.0008027099 0.751745577
0.6524852963 1.0012778301 1.0021090172
0.6324786061 1.0011021007 1.0058091872
0.6326258766 0.7496463695 1.0041892123
0.6325006967 0.5009287623 1.0016395927
0.6325706502 0.7512474594 0.5026164471
0.6526988384 0.7514687483 0.9978381743
0.6524816145 0.4989638475 0.9991451995
0.6425555864 0.7497570139 0.2519750339
0.6426402669 0.5008233247 0.2503302071
0.6527025202 0.7517355966 0.4978062262
0.642577677 0.7512930189 0.7538451013
0.6724993499 0.7478565331 0.9951596931
0.6725950757 0.4985876564 0.9940551647
0.6825468761 0.9988957207 0.241900815
0.6725656216 0.9994229088 0.4974665837
0.6826205113 0.9988046017 0.7452076896
0.682517422 0.7484813487 0.2451021063
0.6725030316 0.7508113902 0.494341689
0.6827236006 0.7497960649 0.7462864456
0.6625144136 0.750271185 0.2470110995
0.6624849595 0.7502581681 0.746619645
0.7025793385 1.0027357331 0.2422008785
0.702649292 0.500225194 0.743699088
0.6925649482 0.7505901013 0.9933832433
0.6924471318 1.0028203436 0.4958153139
0.7025830203 1.0002234538 0.7462174126
0.6925944023 1.0002039283 0.9971386397
0.7025351574 0.7524254971 0.247850541
0.7025498844 0.5028695958 0.2440831789
0.6925354941 0.7502191171 0.4941622031
0.7026787461 0.7499587773 0.7450180789
0.722549211 0.5001152004 0.7404306045
0.7324752391 0.7508374242 0.9845746297
0.7226154827 0.7523734292 0.2360173606
0.722641255 0.4989208914 0.2397543482
0.732537829 0.751911326 0.4836627407
0.7225823469 0.7517876645 0.7380632321
0.7225602563 1.0018635947 0.7352337986
0.712560593 0.7514947822 0.9926468911
0.7125716383 0.7518397325 0.4930162549
0.7424601753 0.4988844438 0.737755805
0.742526447 0.7484943657 0.2341672757
0.742357086 0.4992372043 0.2368052575
0.7425522194 0.7505835928 0.7355016468
0.7523714764 0.49980084 0.4814757746
0.7524340663 0.7466003935 -0.0168885106
0.7624300478 0.5007686533 0.7323095598
0.7625147283 0.7492688767 0.2307634875
0.7624484566 0.5001653158 0.2328547278
0.7525371556 0.7474595149 0.4825885869
0.7624963195 0.7484422978 0.7311047035
0.7825471908 0.7503297615 0.2285498286
0.7825729631 0.498243357 0.2286805311
0.7725917086 0.7484488063 0.4770521386
0.7824809191 0.74886535 0.7288367386
0.7725843451 1.0002169453 0.4757975785
0.7725107099 0.5002089227 0.4776126867
0.7725806633 0.7500238622 -0.0196761652
0.7825103732 0.4991506413 0.7270115055
0.7724591652 0.4999622507 -0.0220605658
0.7926168075 0.750349287 0.48071365
0.812571953 0.5009378742 0.4856407669
0.8125314536 0.7483772128 -0.0164687346
0.8025281086 0.499303591 0.7354077619
0.8026127891 0.7488588415 0.2335063995
0.8025317903 0.5001522988 0.230662239
0.792594717 0.5003586181 0.4825766212
0.7924953094 0.7467565974 -0.0203852724
0.8125093631 0.7493079277 0.4859104559
0.7926425799 0.4982179739 -0.0150328661
0.8025649262 0.7484227723 0.7331094225
0.8326007337 0.4975144055 0.4886036642
0.8326080972 0.7487156546 -0.0143554129
0.8225090264 0.4979713019 0.7368261603
0.8325565525 0.4984327542 -0.0137737038
0.8227262503 0.7501019642 0.2366524644
0.8225384804 0.4996472395 0.237769879
0.8324976444 0.7501735576 0.4887785479
0.822623161 0.7481949749 0.7345683203
0.8625297701 0.7483056193 0.7453614031
0.8624561349 0.5000182238 0.7443581232
0.852511698 0.7513320698 -0.0079107072
0.8524527898 0.4994337609 -0.0110925625
0.8625260883 0.7502776935 0.2448664736
0.8624119537 0.4979908274 0.2475136599
0.852511698 0.7512865104 0.4902668998
0.8425635794 0.7506356608 0.2422376961
0.8426077605 0.4988942066 0.2441807456
0.8424715353 0.7502061001 0.7386854497
0.8525558791 0.4999231998 0.492382992
0.8723932082 0.5005011542 0.4995357335
0.8825070061 0.7492558597 0.7509291464
0.8924919424 0.5009534946 0.5040790268
0.8724926158 0.7506226438 -0.0033721487
0.892620804 0.7485724677 0.0023889975
0.8825327785 0.4988805387 0.7486068756
0.872488934 0.5000442578 -0.0026226802
0.8923667625 0.4988466946 0.0054665817
0.8825033244 0.7483446703 0.2497567728
0.8824665068 0.4981105837 0.2509100845
0.8724815705 0.7501475236 0.5001469059
0.8924772153 0.7480973475 0.5035368874
0.8824701885 0.9995660957 0.2497190348
0.8825769596 0.9990519246 0.7483187778
0.9126311759 0.7493665041 0.5077193681
0.9124802237 1.0001193179 0.0093602282
0.9126054036 0.4982368485 0.5108028431
0.9026388761 0.7483967383 0.7537843522
0.9123955432 0.7466524614 0.0062842088
0.9124802237 0.4986722669 0.0107022301