POSCAR file written by Ovito 3.7.11
1
271.6271599926 0.0 0.0
0.0 15.3655525428 0.0
0.0 0.0 10.8650863997
Sr Ti O 
800 800 2400 
Direct
0.0123440195 0.2527007252 0.5165903917
0.0223887441 0.2518384068 0.7585599355
0.0023596351 0.2514127794 0.7651194784
0.0123731772 0.2532421962 1.0127060968
0.022268653 0.0017310976 0.2620401839
0.0023378405 1.0012250603 0.2662389541
0.0122633575 0.0030463123 0.5104266119
0.022307898 0.001709621 0.7605571585
0.0023800307 7.9634437981e-04 0.7678106673
0.0123377241 1.0046938584 1.0083342954
0.0222396426 0.2511023447 0.2563513198
0.0024729522 0.2508498318 0.2631943395
0.0324944714 0.2524709906 0.510254501
0.0424006972 0.2504124899 0.7600417461
0.0323788717 0.2514973842 1.004625167
0.0424772728 1.0007499716 0.2619472256
0.0324002245 0.0010891422 0.5073415007
0.0423837622 0.9991554959 0.7596689925
0.0324517658 -2.933658635e-04 1.0110770255
0.0423701406 0.2490920037 0.2570959067
0.0724087421 0.2507339883 0.5103943986
0.0523227536 0.2504925391 0.5112365456
0.0624163687 0.2507919101 0.7578733326
0.0723218583 0.247756549 1.0084263333
0.0524508704 0.250785402 1.01043276
0.062361146 1.00099077 0.2641230022
0.0724687508 0.9990188266 0.5127073116
0.0523363752 1.8133232778e-04 0.5107238944
0.0624104783 0.998140238 0.7619322051
0.072406165 -0.001420107 1.0112518976
0.052461915 1.0010493426 1.0133319546
0.0624259407 0.2518481689 0.2596287903
0.0924262543 0.2506116367 0.5097344867
0.102455811 0.2508524351 0.7550367238
0.0824088466 0.2485947876 0.758075816
0.0925146107 0.2502315658 1.0080213664
0.1023505196 1.0003399636 0.2577079588
0.0824287268 0.9992531169 0.2601893013
0.0924218365 -5.0051754198e-04 0.5074629907
0.1024532339 1.9011821423e-04 0.7573533183
0.08241216 0.998758504 0.7613367197
0.0922940879 1.0019344393 1.0068708924
0.102436299 0.2492084981 0.2556306629
0.0824382988 0.2497434609 0.2597769714
0.1124076877 0.2499191787 0.5038274927
0.1224814226 0.2494453916 0.749234653
0.1125387497 0.2506337641 1.0049012808
0.12244608 -0.0018744154 0.2514015203
0.1124548111 1.0004506007 0.50619931
0.1223293759 0.9992140685 0.7480933828
0.1123506242 3.8099973261e-04 1.0029132616
0.1225300186 0.24936339 0.2506615354
0.152405897 0.2490236691 0.4958846198
0.1324421349 0.2493770569 0.4951280681
0.1424588063 0.2466937821 0.7459332527
0.1525240737 0.25000899 0.9975842658
0.1325481626 0.2509832471 0.9993974129
0.1424087377 -0.0011276346 0.2425401089
0.1523352119 0.999057875 0.4918828109
0.1324321948 -9.5862016994e-04 0.4942270168
0.1424186778 -0.002947452 0.7433156941
0.1525262826 1.0004050442 0.9966086638
0.1323530422 8.8869380858e-04 0.9967927396
0.1424194141 0.2508778165 0.2479132829
0.1723950616 0.2496159029 0.5041137307
0.1623069688 0.2491063215 0.7512981433
0.1724510206 0.2488850473 1.0026831668
0.162506507 0.0012722791 0.2510931932
0.1723593509 8.4098969914e-04 0.5033534974
0.1624733733 0.9994874072 0.7476718491
0.1723924845 0.0011693215 1.0005202756
0.1624247773 0.2509546117 0.2515607459
0.1924950398 0.2496699198 0.5074427424
0.2024723189 0.2502413278 0.7577279127
0.1825126065 0.2456700637 0.7594398181
0.1924725825 0.2502380738 1.0064291103
0.2025061889 0.0015024042 0.2533214314
0.182475055 -5.683315693e-04 0.2555505899
0.1923775994 6.3923971382e-04 0.5051546796
0.2025547849 1.0008410845 0.7560187684
0.1824518615 0.9980035686 0.7567210178
0.1924534386 -1.0395238921e-05 1.0054443045
0.2024564884 0.2499289408 0.2522197374
0.1823300033 0.2507580681 0.2590876073
0.212595018 0.2507476552 0.5065306465
0.2224581701 0.2512839197 0.7500952076
0.2124985623 0.2510632963 1.0013670245
0.2225951226 1.0013161732 0.2510619003
0.212565934 1.0006458426 0.5013912488
0.2224629561 0.9995785201 0.7486879478
0.2125858142 1.0015114151 1.0018180103
0.2224964579 0.2516503237 0.249913267
0.2525611981 0.2492468957 0.5022886186
0.2325304324 0.2508081802 0.5000152819
0.2425235421 0.2507977673 0.7494988019
0.2526112668 0.2488004425 1.0041281622
0.2325175471 0.2487854739 1.0011093183
0.242477155 1.0012641087 0.2508934709
0.2524474392 1.6480184511e-04 0.4983098191
0.2324170417 4.7985722541e-04 0.5007129293
0.2425644069 0.9995264556 0.7492217677
0.2525880732 -0.0018943822 0.9988543891
0.2324579065 -8.9939678715e-04 1.0036311574
0.2425890731 0.250701448 0.2493693229
0.2725938046 0.247457178 0.5058155119
0.2624630062 0.248492611 0.7530772364
0.2725256965 0.2483865296 1.0043766646
0.2625771332 0.999565504 0.2534373992
0.272609267 -5.0819705755e-04 0.5015062963
0.262503871 1.0009972781 0.749935982
0.2725499945 -0.0012874726 0.9978511758
0.2624946672 0.2484952143 0.2522556322
0.2925524125 0.2504977456 0.5036415761
0.3025687158 0.2495644892 0.7484330027
0.282506289 0.2499387029 0.7555116395
0.2924408626 0.248896111 1.000014067
0.3026011131 -3.4666690801e-04 0.2483881986
0.2825747652 1.0002098023 0.2497485192
0.2926370874 -0.0013026364 0.4959886227
0.3027954972 -6.0223858296e-04 0.746467993
0.2826012722 1.0004896491 0.7528535842
0.2926091079 3.8415241399e-05 0.9967007017
0.3024104105 0.2501840569 0.248816175
0.2825368456 0.2503884101 0.2521221772
0.3323610237 0.2479791248 0.493730012
0.3125515172 0.2485720094 0.4944037296
0.3223881624 0.248993732 0.7463888404
0.3324504846 0.2503155198 0.994602237
0.3124863544 0.250076023 0.9965074221
0.3226653806 0.0012088906 0.2438884645
0.3326485502 -0.0019579594 0.4941073675
0.3126299335 -0.0027144308 0.4961331222
0.3227161856 7.1954922411e-04 0.7452576943
0.3327258621 -3.6606093885e-04 0.9939211564
0.3125875961 0.9995785201 0.9950164077
0.3225225378 0.2494213118 0.2465023416
0.3524079881 0.2483325127 0.4950645619
0.342421137 0.2483533385 0.7455144801
0.3523969436 0.2491388618 0.9933597251
0.3426320879 -0.0015997296 0.2440734607
0.3524300772 -2.4325377037e-04 0.4945776813
0.3426435006 1.0007760039 0.7449521284
0.352553408 7.1525390184e-04 0.9919975638
0.3424848273 0.2495657908 0.2446836722
0.3723964164 0.2484828489 0.4908667122
0.382612626 0.249790319 0.7391482169
0.3624857727 0.2504027278 0.7440032174
0.3723448751 0.2489052223 0.9918042841
0.3825316326 0.998244367 0.2429570407
0.3625446769 0.999162004 0.2428107004
0.3725620846 -0.00301688 0.4891750552
0.3826052629 -0.0016204903 0.7401910066
0.3624342314 1.0001707539 0.7405333877
0.3723743273 -0.0021646621 0.990083175
0.3824543207 0.2489078255 0.2403864215
0.362345875 0.2485980417 0.2413877941
0.3925048621 0.2472170305 0.4922435995
0.4024891361 0.2490197642 0.7352706591
0.3925011806 0.2478268361 0.9904881418
0.402573811 0.999773762 0.2358498722
0.3924864545 0.9969687864 0.4875119299
0.4025701295 -0.0014155513 0.7366871228
0.3925122251 0.9954914559 0.9858402266
0.4026069447 0.248667678 0.2359686011
0.432504544 0.2484418481 0.4866467734
0.4125212699 0.2492937537 0.4879196579
0.4225534036 0.2469931531 0.7319977906
0.4325855374 0.2490158594 0.9872944259
0.4125838557 0.2497831601 0.9859690797
0.4225313145 0.9987715202 0.2355378636
0.4325965819 1.0002488507 0.4803403348
0.412443958 -0.001186858 0.4826311587
0.4226159894 0.9994353427 0.7365702346
0.432504544 0.9975870525 0.9824256197
0.4125286329 -0.0010933371 0.9828397903
0.4225239515 0.248855761 0.2346901944
0.4524988627 0.2499243851 0.4874530256
0.4425182702 0.2488102046 0.7335016902
0.4525761745 0.2489234449 0.9841559326
0.442474092 1.000079641 0.2385493445
0.4524399584 -0.0011127311 0.4835579806
0.442588219 -0.0022181649 0.7353001113
0.4525761745 0.9985437379 0.9848094019
0.4425514038 0.2463215209 0.2349515821
0.4725226335 0.2489605408 0.4809339794
0.4825363597 0.2505387464 0.7318256796
0.4625899007 0.2480416022 0.7342637643
0.4724674107 0.2501905649 0.9874877055
0.4824332772 -3.6625618078e-04 0.2329865724
0.4625162704 -6.7109390053e-04 0.2359906902
0.4724710923 1.0012185522 0.4833665417
0.4824480033 0.9998323346 0.7301579525
0.4625199519 -5.8238898763e-04 0.7339581983
0.4724490032 -2.1696119164e-04 0.9828213827
0.482495863 0.2500883883 0.2276207614
0.4626598495 0.2491447191 0.2366616467
0.512319832 -8.9926662587e-04 0.4804931177
0.5124081884 3.708471527e-04 0.9791582733
0.4925132707 0.2505986206 0.4792377205
0.5023870992 0.2493308497 0.7293710282
0.4924470034 0.2503187738 0.9800050222
0.5123345581 0.2492494989 0.4837981996
0.5123492841 0.2504430778 0.981477629
0.5023466025 3.91607877e-04 0.2295885322
0.4923770545 9.1960711278e-04 0.4783596787
0.5024349589 -6.0256398617e-04 0.730717543
0.492480137 1.9252619793e-04 0.977400349
0.5023613286 0.2506259544 0.2286920828
0.5224550482 1.0009582297 0.2329865724
0.5323693734 -9.3317363953e-04 0.4826928241
0.5224403221 1.0012120442 0.7324883527
0.5324061886 1.0037176488 0.9809069939
0.5223850994 0.2494161053 0.2339014293
0.5323988256 0.2501118174 0.4849219827
0.5224808188 0.2520811576 0.7302932482
0.5324503668 0.251350302 0.9858862456
0.5423904626 0.0021168957 0.233820436
0.562432641 1.1839934848e-04 0.2327583183
0.5524962267 -3.5711608047e-05 0.4800384504
0.5425009081 1.0023704796 0.7330166504
0.5625872647 1.0014593506 0.731571655
0.5523894627 0.0017381914 0.9821495059
0.5424825005 0.2518650898 0.2372516098
0.562524679 0.249891194 0.2325208605
0.5524704561 0.2511570125 0.4849643201
0.5423683735 0.2507769415 0.7333387831
0.5622964249 0.2518807092 0.7326052409
0.5524446855 0.2516262439 0.9849198474
0.5823938261 0.0017790621 0.2305015484
0.572508953 0.0013346264 0.4821047018
0.5824232782 1.0011990281 0.7337023329
0.5723469662 9.9711815553e-04 0.9810450508
0.582485864 0.2507346391 0.2339032701
0.5724426857 0.2507925609 0.4863853857
0.5825447683 0.2492228158 0.7353737416
0.5725936279 0.2516848165 0.9853892408
0.6026237618 1.0022338102 0.2342060749
0.5925732205 1.0019734877 0.4821728099
0.6124386861 -0.0012723089 0.4894769395
0.6025022718 0.0014076468 0.7374961362
0.592348648 0.0017369549 0.9858310229
0.6125123164 2.9665522261e-04 0.9881411748
0.6024212784 0.2529955405 0.240450848
0.5923670555 0.2513385874 0.486017234
0.6124644567 0.2512611415 0.4872312142
0.6024323229 0.2496380303 0.7385840244
0.5924259598 0.2523362737 0.9902856584
0.6125417686 0.2510672012 0.990524957
0.6224192786 0.0010555606 0.2427287867
0.6325287242 -7.1059784927e-04 0.492693665
0.6225481317 -1.5666770796e-05 0.7392825923
0.6324330048 1.0002944072 0.9949335736
0.6225334056 0.2505843028 0.242554835
0.632491909 0.2509767391 0.4937125248
0.6224376862 0.2507398456 0.7426548618
0.6325250427 0.2499256867 0.9946114408
0.6425240428 1.0018433264 0.2473233198
0.6623269226 0.0013039083 0.2509238434
0.6523794637 -1.145242636e-04 0.4976287385
0.6423657376 1.0019474554 0.7469521125
0.6624484126 1.003535423 0.7486704606
0.6522726997 1.0010753748 0.9979892327
0.6424725016 0.2500571496 0.2469929037
0.6623306041 0.249995323 0.2500007031
0.6523647377 0.2522158745 0.4992845008
0.6424725016 0.2520635858 0.7474353116
0.6624631387 0.2502497883 0.7514684135
0.6523279225 0.2536118542 0.9984954412
0.6824464129 1.0025006409 0.2511613013
0.6723222412 1.0016220522 0.4972283735
0.6823359673 7.3952898072e-04 0.7505360693
0.672384827 2.3463337229e-04 1.0003822187
0.6825053171 0.2502790746 0.2510867506
0.6723590563 0.252062935 0.5009319796
0.6825053171 0.2493217384 0.7508480778
0.6724731834 0.250684527 1.0015603041
0.7023855088 2.6509111201e-04 0.2515156473
0.6924859096 1.0006979071 0.5028205978
0.7125869923 1.0024225441 0.502563812
0.7025290879 1.0006328265 0.752695279
0.6925079987 0.9997997943 1.001919252
0.7125391326 2.1231071262e-04 1.0026647592
0.7025474955 0.2506389706 0.2487848821
0.6925300878 0.2503122657 0.5004303729
0.7125649032 0.247779978 0.5006843976
0.7024775467 0.2507476552 0.7482728567
0.6924012347 0.2490191134 1.0013486169
0.7125464956 0.2485589933 1.0018640293
0.7224608208 -8.6418816068e-04 0.2541065149
0.742550859 0.9983680202 0.2515469402
0.7325518589 -4.9745875188e-04 0.5010065303
0.7224939545 0.9992466088 0.7511021025
0.7425029992 -0.0025696003 0.7527449795
0.7324892731 0.9997932862 0.9998483987
0.7224939545 0.25000899 0.2508170795
0.7425103623 0.2521605559 0.2509118785
0.7325076807 0.2488544594 0.5005555445
0.7225270881 0.2510079778 0.7496340976
0.7425029992 0.2519444882 0.7501743602
0.7324929546 0.2479309651 1.0002165504
0.7624641843 -6.7688607753e-04 0.2512395335
0.7525056809 0.0010136486 0.5005905189
0.7625451776 -2.4273312525e-04 0.7535770023
0.7525572221 0.9989472379 0.9998944177
0.7626445786 0.2503103133 0.2495497172
0.7524872733 0.2513418415 0.4999582184
0.7626408971 0.2511537584 0.7510431982
0.7524467766 0.2488785392 0.9998391949
0.782587356 -0.0012965189 0.2526108986
0.7725846744 0.9986869153 0.5020272309
0.7925974007 1.0005352055 0.5010092915
0.7824143248 3.5691989565e-04 0.7556671836
0.7724410953 0.9980035686 1.0016707496
0.7925311334 -0.001664615 1.0031341526
0.782579993 0.2483006231 0.2509855089
0.7725294517 0.2497493182 0.5016912925
0.7925863561 0.2501287383 0.4980843262
0.7825615854 0.2516724511 0.752054695
0.7724668659 0.2477051353 0.9996367115
0.7926084453 0.2497193811 1.0017996027
0.8026884387 1.0016480845 0.2486965257
0.8125549042 8.1606381386e-04 0.4966991555
0.8025595856 3.8024757557e-05 0.7504440314
0.8125990824 1.0009712458 0.9959551945
0.8026847572 0.2500870867 0.2483035237
0.812610127 0.2496211093 0.4981045746
0.8027804766 0.2496666658 0.7487974729
0.81261749 0.2491935295 0.9989740384
0.8225170891 0.9982769073 0.2469993464
0.8425629491 1.0010688668 0.241780796
0.8325860381 -0.0014946894 0.4922169086
0.8225575858 9.34770902e-04 0.745184064
0.84254086 -0.0024403762 0.7454758242
0.8325344968 -0.0017669217 0.9956974883
0.8226680313 0.2494909481 0.2443900712
0.8426292164 0.2498638601 0.2492791257
0.8326449423 0.249440836 0.498261039
0.8225354967 0.2501729932 0.7453506526
0.8427470249 0.2502022795 0.7485204387
0.8326118087 0.251857931 0.9940316019
0.8624247331 -2.8357495679e-05 0.2495533988
0.8525140894 0.9982053186 0.4943328604
0.8624983635 1.0006523507 0.7515033879
0.8525545861 -0.0024667729 0.9980260478
0.8625756753 0.2503487109 0.249939958
0.8525803568 0.2499237343 0.5019029797
0.8625904014 0.2490731304 0.7524845121
0.8525766752 0.2501001029 0.9993237826
0.8824264149 1.0009321974 0.2532836958
0.8724237332 -0.0018864488 0.504968763
0.892432778 -0.0018360113 0.5076406239
0.8823711921 1.0012380764 0.754166045
0.8724973636 6.4151753624e-04 1.0031433564
0.8824779561 0.2495273932 0.2570149133
0.8924806377 -2.0648320853e-04 1.0061069776
0.8725304972 0.2499692908 0.5040870397
0.8924843192 0.2486156134 0.5074979651
0.8825368604 0.2521507938 0.7593284522
0.8725746754 0.2504163948 1.0067420393
0.8925064083 0.2498527964 1.0072114327
0.9025606312 -0.0014266151 0.258545504
0.9224003262 -0.0030194767 0.2581653873
0.912600128 -0.0012885139 0.510562828
0.9024906824 0.9997216975 0.7585544132
0.922485001 0.9996501088 0.7606694447
0.9124123706 0.9989732702 1.0057940486
0.902531179 0.2499543222 0.2630599642
0.9225365423 0.2483539893 0.2636398031
0.9126479877 0.2488381892 0.511244829
0.9025385421 0.2502393754 0.7574444359
0.9225328608 0.2497135239 0.761002622
0.9125559498 0.2488603167 1.0132491205
0.9424977273 1.0011729958 0.2598358757
0.9325281793 1.0015179232 0.5072844371
0.9424277785 1.0011339474 0.7593413375
0.9325944467 0.9997802701 1.0132307129
0.9425234979 0.2507177181 0.2594207846
0.9325024087 0.2506578439 0.512628159
0.9424830012 0.2509051504 0.7631756374
0.9326165358 0.2482602732 1.0131018598
0.9624810014 8.4352784412e-04 0.2613259697
0.9525298611 0.9993312137 0.5121210301
0.9724137342 0.9987910444 0.509587226
0.9625656763 1.0011534716 0.7622837899
0.9524488677 1.0011990281 1.0089877646
0.9625730394 0.251071106 0.2645252079
0.9724026897 -0.0013249591 1.0124115754
0.9524856829 0.2508498318 0.5139001231
0.97247632 0.2510854238 0.5153211887
0.9625214981 0.2507710843 0.7638861702
0.9525593132 0.2508420222 1.0158537938
0.9725020906 0.2518520737 1.0146296894
0.9824605941 0.0011143935 0.2638413661
0.9924559126 1.0010623587 0.5146410284
0.9824495495 1.0024420683 0.764276411
0.982453231 0.2509253254 0.2619987669
0.9923528302 7.1922382091e-04 1.0134239926
0.9925700397 0.2502881859 0.5166189234
0.9825563135 0.2499185279 0.762397917
0.9926399885 0.2497916206 1.016820192
0.0123308029 0.7522981187 1.0147309311
0.0225175972 0.4991253162 0.7621328477
0.0024244298 0.5006716322 0.7664797989
0.0123481797 0.5021008031 1.0111598596
0.022405495 0.7531962316 0.2598671686
0.0022533865 0.7506125302 0.2628050191
0.0122273523 0.7522395462 0.5161891063
0.0223908425 0.7496948931 0.7595024039
0.0224542751 0.5017200813 0.259574488
0.0023979228 0.5010211152 0.2652108904
0.0023513148 0.7521939897 0.7638585588
0.0123124689 0.502037024 0.5142296189
0.0324234181 0.7500463286 1.0075611768
0.0425181376 0.4995171016 0.7569888482
0.032425627 0.5001360185 1.00635548
0.0426411003 0.7507296753 0.2565252715
0.032437776 0.7516473123 0.510322609
0.042487581 0.7507557076 0.7580730549
0.0424853721 0.5016153015 0.2600052254
0.0324602332 0.5017051128 0.5094086724
0.0724628604 0.7490896432 1.0088865229
0.0623876529 0.4988448186 0.7571499145
0.0525447491 0.7510160301 1.0094203429
0.0724046924 0.497962976 1.0079477361
0.052461915 0.4998223299 1.0081502195
0.0624866857 0.7518685865 0.2598864965
0.0725040934 0.7506515785 0.5089843776
0.0523776082 0.7505734818 0.508977935
0.0623942796 0.4999876347 0.2598073439
0.0725438538 0.499936221 0.5076028884
0.0624425075 0.750287127 0.7601945291
0.0524736958 0.4979512614 0.5076295794
0.0925109292 0.7501699818 1.0066315938
0.1023700317 0.5010504015 0.7558779504
0.0824125282 0.5017317958 0.7574573212
0.0925352272 0.4986912283 1.0096228263
0.1024900491 0.7502090302 0.2574622176
0.0824298313 0.7510811108 0.2586246566
0.0925017254 0.7488488448 0.506145928
0.1025014618 0.749584256 0.7564495059
0.1024723778 0.4990895218 0.2549468211
0.082555371 0.5004666282 0.258198521
0.0824324083 0.7509769817 0.7574517989
0.0924538657 0.4992912718 0.5108702347
0.112486104 0.7486991593 1.0000876973
0.1225289142 0.4996440089 0.7460713096
0.1124769002 0.5001477331 1.0009252424
0.1224195731 0.7497469576 0.2483035237
0.1125218147 0.7489529738 0.5020014603
0.1225885547 0.4977254316 0.2499970215
0.1225388543 0.7497534657 0.7457905939
0.1124492888 0.4978035284 0.5037593846
0.1524342447 0.7509899979 0.9907826632
0.1426480363 0.4978197985 0.7401523507
0.1325091385 0.7510811108 0.9927614786
0.1525343819 0.5009449709 0.9957250997
0.1324598062 0.499818425 0.9964982183
0.1424658012 0.7486405868 0.2396271086
0.1524279861 0.7494736189 0.4895275604
0.1326600807 0.7486080464 0.4923623285
0.1425681473 0.4991214114 0.241030687
0.1424024791 0.7501764899 0.7403115763
0.1524938853 0.4978581961 0.4923356375
0.1324789501 0.4991402847 0.4945546718
0.172473846 0.7516733446 0.9976394885
0.162431404 0.4995685154 0.7465397826
0.1723748132 0.5013517249 1.0022781999
0.1624741096 0.749779498 0.2444416124
0.1725264917 0.7483216916 0.4967019166
0.1624785274 0.4999570468 0.2438995091
0.1624328766 0.7495126673 0.7438762051
0.1724513888 0.5001106371 0.4975090892
0.1925436358 0.7495321915 0.9991397067
0.2025717199 0.4994194807 0.7550606536
0.1825343275 0.4991266178 0.7539782876
0.1924821545 0.5002160677 1.0045239253
0.2024811546 0.751712393 0.2492469125
0.1824132056 0.7500983931 0.2520964066
0.1925491581 0.7501049012 0.499001024
0.2024829953 0.5000787476 0.2517558663
0.202533064 0.7503847479 0.7498706351
0.1825302778 0.5003475306 0.2501516453
0.1824345584 0.7507036431 0.7517721386
0.1924306132 0.499801504 0.5014915702
0.2125725608 0.7508923769 0.9977591378
0.2225049254 0.501378408 0.7471684016
0.2125920728 0.5018821321 0.9996827305
0.2226753796 0.7512373043 0.2488382641
0.2125386908 0.7502220463 0.4999793871
0.2226212613 0.4992593823 0.2478258469
0.2225988041 0.7490375787 0.7452576943
0.2125390589 0.5009644951 0.498353077
0.2526370374 0.746629595 0.9956882846
0.242678534 0.5006475524 0.7461440195
0.232483309 0.7506711027 0.99686637
0.2526517634 0.4989951549 0.9948507394
0.2326103213 0.4980280566 0.9999128253
0.2425765559 0.7505018931 0.2430941772
0.252641087 0.7491677399 0.4943061694
0.2326957325 0.7497079093 0.4958883014
0.2425511535 0.5017005571 0.249017738
0.2426825836 0.7505018931 0.747710505
0.2525063435 0.4981120106 0.4962720995
0.2325679839 0.5011961822 0.5000300079
0.2726648579 0.74876424 0.9934149478
0.2626098987 0.4988695493 0.7464376205
0.2725106023 0.4992209847 0.9963601614
0.2625874414 0.7492458367 0.2424581952
0.2725882823 0.7477750142 0.4931952717
0.2627063544 0.4990953791 0.2481673076
0.2624306088 0.7491091674 0.7447257151
0.2725831282 0.4987745315 0.4967313687
0.2927412744 0.7493174254 0.9956054504
0.302620257 0.4987120541 0.7432024875
0.2826402962 0.4999524911 0.7487974729
0.2926996732 0.5003071806 1.0000692897
0.30273917 0.7492653609 0.2420311392
0.2825957499 0.7500528366 0.2454052495
0.2927265483 0.7488032884 0.4954078634
0.3026563359 0.4992645888 0.2432119858
0.302882381 0.7480613691 0.7418605745
0.2827301253 0.4986320049 0.2477577388
0.2826193116 0.7509899979 0.7437906098
0.2926934146 0.5000494613 0.4978505499
0.332711136 0.749883627 0.9933413175
0.3226230432 0.5006299806 0.7423999168
0.312793761 0.7502545866 0.9953109291
0.3326838928 0.5001145419 0.9945378105
0.3128383074 0.5006605685 0.9938843412
0.3228317852 0.7500137883 0.2443053963
0.3328738591 0.7490571028 0.4926826204
0.3128618691 0.7483216916 0.4927875437
0.3227161856 0.4993674162 0.2418387799
0.3228321534 0.7496428286 0.7447579284
0.3326168892 0.4993895436 0.4953020198
0.3127812439 0.4993602573 0.4940898803
0.3527091362 0.7488553529 0.9893100564
0.3425695022 0.4994533226 0.7437482724
0.3525659252 0.4995828331 0.9925129762
0.3427498965 0.7490571028 0.2432432787
0.3527025095 0.7480678771 0.4937171267
0.3426681668 0.4991637138 0.2490204992
0.3426545452 0.7503847479 0.7451767009
0.3525545125 0.4995144984 0.4946991714
0.3725841737 0.7474300868 0.9914821514
0.382520588 0.4987758332 0.7361910384
0.3625704476 0.4984517316 0.7409944977
0.3724663652 0.4984543348 0.9913901135
0.3825095435 0.745314966 0.2373694183
0.3625152248 0.7484843932 0.2370656932
0.3726578041 0.7489334496 0.4878800816
0.3824101425 0.497498951 0.2374909084
0.3825868554 0.7455102079 0.7330562267
0.3624415945 0.4983807937 0.2399667286
0.3625925367 0.7491677399 0.739162943
0.3724921358 0.4996876129 0.4879251801
0.3926300337 0.7477099336 0.9873588524
0.4026290338 0.4996817557 0.7372145001
0.3926594858 0.4971872147 0.9821126907
0.402581174 0.7483542319 0.2315618253
0.3925748109 0.748770748 0.4885418342
0.402573811 0.4981263284 0.2321352216
0.4025149067 0.7485429658 0.7347773359
0.3926815749 0.4985447969 0.4844930859
0.4324714103 0.7477294578 0.9859874873
0.422527633 0.4983925082 0.7317373232
0.4125139068 0.7494215544 0.9825084538
0.4325965819 0.4971501188 0.9819930414
0.4126059448 0.5003605467 0.9795172212
0.4224576842 0.7485885222 0.2332976606
0.4325008625 0.7502415705 0.4847848462
0.4124770917 0.7492913932 0.4833794271
0.4224540027 0.498981488 0.2326533951
0.4224540027 0.7490831351 0.7319738607
0.4326149895 0.4985786388 0.4830996318
0.4124770917 0.4998223299 0.4782170199
0.4525688115 0.747748982 0.9866317528
0.4425992635 0.4996309928 0.7358412943
0.4525872191 0.49800658 0.9831343117
0.4425072256 0.7470526191 0.2308080347
0.4525393594 0.7495386996 0.4865722227
0.4425550853 0.4986892759 0.2332359951
0.4426287157 0.747853111 0.7360318128
0.4525099072 0.497862101 0.4830683389
0.4726073084 0.7501309334 0.9843492123
0.4824480033 0.4983645235 0.7293710282
0.4625935822 0.4985844961 0.7357492564
0.4725741747 0.5005258516 0.9815604632
0.4824884999 0.7497664818 0.2331108236
0.4624647291 0.7493239335 0.2344923128
0.4724784553 0.7498250544 0.4822050231
0.482510589 0.4994162267 0.2323947685
0.4824811369 0.7512242882 0.7314685725
0.4625751746 0.5000689855 0.2338379232
0.4625089073 0.7480678771 0.7332283376
0.4725631302 0.4997305661 0.4840310556
0.4924838185 0.500793333 0.979305534
0.5022840167 0.7501244254 0.2262374314
0.4923549654 0.7508663447 0.4806652287
0.5023981437 0.501300962 0.2317992831
0.5023539655 0.7497990222 0.7292973979
0.4924175512 0.7510290463 0.9795356288
0.4924285958 0.5016335241 0.4794613726
0.5022950613 0.5003540387 0.73017636
0.5124118699 0.751608264 0.9843492123
0.5123308765 0.5013705983 0.9809438091
0.512327195 0.7502806189 0.4828005085
0.5123492841 0.5006065516 0.4777393431
0.5223666918 0.5027171167 0.7328739916
0.5324982265 0.7513284172 0.9832447572
0.5323583289 0.4999238557 0.982720141
0.5223482842 0.4985324316 0.2341729412
0.5223409212 0.7491807561 0.2325926501
0.532487182 0.7516538204 0.4826836203
0.5323399213 0.5002941645 0.4845593532
0.5224734558 0.7502350624 0.7307525174
0.5424935451 0.5012274209 0.7347690525
0.5523379215 0.7530986106 0.9840362833
0.5624805007 0.4996420565 0.7320281631
0.5525109528 0.5010985612 0.9797105009
0.5424567299 0.5025160176 0.2334900198
0.5423757366 0.7521939897 0.234677309
0.5623737368 0.5020578499 0.2323459884
0.5624215965 0.7507622156 0.228034932
0.552441004 0.4992645888 0.4813536723
0.5525404049 0.7510615866 0.4805575443
0.5424309593 0.7505279253 0.7296038841
0.5624731377 0.7495191754 0.7289853893
0.5824306412 0.5000195242 0.7360732298
0.5724169151 0.7506841189 0.9821403021
0.5724169151 0.5008056983 0.9812659418
0.5823054697 0.5029904554 0.2328706046
0.5824821825 0.7528057477 0.2332516416
0.5725531312 0.5003371177 0.4804599841
0.5723764184 0.7505669737 0.4797650978
0.5824085521 0.7521614494 0.7314777763
0.6023881447 0.5029091046 0.7390939145
0.5922676546 0.7529749574 0.986180767
0.6123356036 0.7525779655 0.9868802552
0.5924370044 0.4999661581 0.983962653
0.612523361 0.5009742572 0.9878282458
0.6023108329 0.7504237963 0.2350261328
0.6024949087 0.5033594627 0.2374761823
0.5922602915 0.7516928688 0.4819335113
0.5924185968 0.500410008 0.4844581115
0.6124018709 0.7506125302 0.4880393072
0.6124202785 0.5012801362 0.4878764
0.6021304386 0.750293635 0.7332513471
0.6224119156 0.5014057418 0.7389190425
0.6324403678 0.7514911188 0.99252218
0.6323925081 0.5006579653 0.9894389095
0.6224266416 0.7499031512 0.2366321946
0.6224229601 0.5010367346 0.2416160482
0.6323409668 0.751211272 0.4920733294
0.6323151962 0.5010100515 0.4916343085
0.6224266416 0.7486210626 0.7381201533
0.6423951897 0.4995489912 0.7436755624
0.6523500116 0.751718901 0.997841972
0.6622569738 0.5010601636 0.7453561749
0.6522616552 0.5008284766 0.9941052323
0.6422921072 0.7495582238 0.2452625907
0.6422000693 0.4991246654 0.24407162
0.6622532923 0.7488228125 0.2452184125
0.6622716998 0.5000026032 0.2465538828
0.6523352855 0.7503587157 0.4970258901
0.6523647377 0.5011141806 0.4958441231
0.6423657376 0.7499552157 0.7431785576
0.6622054325 0.7493629819 0.744055679
0.6824905911 0.5009605903 0.7469226604
0.6722817445 0.7499487076 0.9937646919
0.672285426 0.4993836863 0.9947494977
0.6822844261 0.7493564738 0.2447701878
0.6824427313 0.500137971 0.2451364988
0.672292789 0.7516668365 0.4982131793
0.672292789 0.501805337 0.4949495145
0.6823506934 0.7492913932 0.7467560717
0.7024517761 0.4999186492 0.746521375
0.6923496935 0.7498055302 0.9959828059
0.7124470947 0.7499942641 0.9962405121
0.6924380499 0.500178321 0.9968019434
0.7124581392 0.5011389112 0.9998115836
0.7023597382 0.7503847479 0.2479316905
0.702543814 0.4991435388 0.2497227485
0.6923055153 0.7501179173 0.4973139688
0.6923901902 0.5002863548 0.4970976797
0.7123992349 0.5025823998 0.499328679
0.7125059989 0.7518490623 0.4960143933
0.7023118784 0.7512568285 0.747108577
0.7224792284 0.5008180637 0.7497841194
0.7324414134 0.7499356915 0.9972529293
0.7424551395 0.4994006073 0.7488112786
0.7324892731 0.503005424 0.9980352516
0.7224240057 0.752734159 0.2492441513
0.7224497763 0.4998939186 0.2473932687
0.7424993177 0.7485820142 0.2470508876
0.742444095 0.5000136669 0.2487904044
0.732467184 0.5010783862 0.4964368474
0.7324082797 0.7489529738 0.4976959262
0.7225344512 0.749890135 0.7456746261
0.7423962352 0.7496558447 0.7444146269
0.7524430951 0.5015489192 0.4996609359
0.7524246875 0.748972498 0.9987623512
0.7624568212 0.5006950612 0.7482719363
0.75252777 0.4994240363 0.9996827305
0.762504681 0.748256611 0.2496196661
0.7623684648 0.4988246436 0.2492441513
0.7524909548 0.7504563366 0.5017695247
0.7625856743 0.7478726352 0.7479626889
0.7725846744 0.5001737653 0.5002214468
0.7724999995 0.749375998 1.0033550436
0.7926747126 0.5002941645 0.5020907371
0.7926268528 0.7487056674 1.0038428446
0.7824511399 0.4978868316 0.7471039751
0.7725589038 0.5002551161 0.9996183039
0.7925421779 0.4991480944 0.9953937632
0.7825321333 0.7495256835 0.2522482692
0.782465866 0.4992326992 0.2499187893
0.7725404962 0.7491482157 0.5033801884
0.792556904 0.7493109173 0.4982812874
0.7825468594 0.7492913932 0.7527146069
0.8126690312 0.4980599461 0.4968289289
0.8125733118 0.7502676028 0.9961024552
0.802647942 0.4985500033 0.749642381
0.8126653497 0.4992678428 0.9977775454
0.8025964008 0.751204764 0.251323288
0.8025485411 0.4984387154 0.2466081852
0.8126322161 0.7491872641 0.499896553
0.8025964008 0.7499942641 0.7477086642
0.83278484 0.4993459396 0.5008233749
0.8326007641 0.7499356915 0.9993974129
0.8226238531 0.5009631935 0.746822339
0.8427543879 0.5000208258 0.7513128694
0.8326559869 0.5010094007 0.9992685598
0.8225833564 0.7499421996 0.2484259342
0.8226459422 0.5011421652 0.250447087
0.8427470249 0.7488618609 0.249578249
0.8426660315 0.5012710249 0.2505529306
0.8326228532 0.751100635 0.4969329318
0.8227416617 0.7499031512 0.7477537628
0.8425960827 0.7484062964 0.7496064862
0.8527312989 0.4996108178 0.5007561872
0.862601446 0.7490115464 0.7533800411
0.862730299 0.5009657967 0.7530404212
0.8527055283 0.7517644575 1.0004834604
0.8527423435 0.4979805477 1.0030421147
0.8624762744 0.7494736189 0.2503541287
0.8626640317 0.4997325186 0.2534999849
0.8525693122 0.7492198045 0.5023401598
0.8726446243 0.4987667219 0.5035863533
0.8824705931 0.749890135 0.7539442336
0.8926094908 0.4999453323 0.5115089779
0.8725120896 0.7478726352 1.0056743993
0.8924033259 0.749480127 1.0070733758
0.8825294973 0.4997357726 0.7577978615
0.8726298982 0.499821679 1.0077452526
0.8926941657 0.4989365823 1.0087300584
0.8826252168 0.7500137883 0.2559067767
0.8825810386 0.4998978234 0.2573720204
0.8724310963 0.74815899 0.5043723572
0.8925874017 0.7489464658 0.5048362284
0.9125449052 0.4997754718 0.5111804025
0.9024538672 0.7514976269 0.7589225649
0.9226138541 0.7494671109 0.7573229458
0.9125743574 0.7514260382 1.0101014235
0.902744707 0.5000631282 0.757801543