POSCAR file written by Ovito 3.7.11
1
271.5788746439 0.0 0.0
0.0 15.362821111 0.0
0.0 0.0 10.8631549857
Sr Ti O 
800 800 2400 
Direct
0.0223796063 0.4974685639 0.8065413357
0.0124098691 0.2478685736 0.5567409781
0.0224165017 0.2478125943 0.8032669646
0.0024959905 0.2485520418 0.8114349416
0.0124895882 0.2480599447 0.0590896966
0.0223625579 -0.0022420716 0.3059353877
0.0023432172 8.6380980518e-04 0.3120873757
0.0023761727 0.4994369524 0.31472289
0.0124402839 0.4988940833 0.5589972287
0.0122363652 -3.0453029787e-04 0.5578898156
0.022233866 -7.8712395345e-04 0.8081513652
0.0023766882 1.9550807037e-04 0.8113152711
0.0224415404 0.2499788631 0.3073438183
0.0024941863 0.2494151646 0.309591784
0.0323336574 0.4992553451 0.05311657
0.0425568385 0.4983206209 0.3045297187
0.0324768939 0.497986047 0.5537528959
0.0324253435 0.2475444144 0.5555995049
0.0424898229 0.2488794557 0.8013595998
0.0323590644 0.2486809244 0.0527213809
0.0523355814 0.4985549529 0.0516245541
0.0424205981 -0.0012970563 0.8038800462
0.0424530012 0.248257825 0.3001580605
0.0523120155 0.248048879 0.5576762497
0.0524548837 0.2475470181 0.0543859065
0.0623499833 0.2490903544 0.3014946888
0.0624954291 0.4976814154 0.7991374093
0.0725341333 0.4971313862 0.0491598005
0.0623658166 0.4984944171 0.3015195435
0.0724339782 0.4995814571 0.5504914125
0.0722587069 0.2496820426 0.5489145225
0.0623912236 0.2491424282 0.8034381856
0.0722726991 0.249243972 0.0501409151
0.0925047588 0.2493936841 0.5440503739
0.1024554591 0.2487303945 0.792798551
0.0824811515 0.2498076706 0.7986430777
0.0924845069 0.2501318298 0.0474339667
0.1025710793 -0.0015975871 0.2895276313
0.0923232277 -8.3288377809e-04 0.5423722242
0.1024090638 0.2475183775 0.2912251124
0.0823835739 0.2482675889 0.2951411018
0.1025843351 0.4963242428 0.789095207
0.0824933026 0.4981878328 0.7954110517
0.1025390444 0.4966802972 0.2908495309
0.0824785739 0.4972745891 0.2946872742
0.1226492242 0.2468440222 0.2869574756
0.1124639696 0.4970480682 0.0374257324
0.1124956363 0.2469820177 0.5394255665
0.1226087204 0.4983746475 0.2852553918
0.1125759076 0.4961341736 0.5358142767
0.1225682165 0.2480879344 0.7845035391
0.1126097836 0.2457322472 0.0364018126
0.1224360265 -0.0020162276 0.2842050524
0.1526556082 0.2484693747 0.5263133537
0.1327162812 0.248993367 0.5311627736
0.1425484156 0.2506935756 0.7784850297
0.1526221005 0.2510424698 0.0272251968
0.1326061843 0.2483567652 0.033560649
0.1425119621 5.9289602119e-04 0.2785989462
0.1425808187 0.2488508151 0.2794375608
0.1426073304 0.5005903864 0.7784979173
0.1526084764 0.4998919469 0.0234464603
0.1324611067 0.498269849 0.03029309
0.1524921198 0.4981129768 0.527049788
0.1324780447 0.4976762081 0.5292010967
0.1825522635 0.2473296101 0.2657076637
0.172584257 0.4975310524 0.5195814236
0.1824635232 0.4973494452 0.7619889013
0.1726810981 0.2471681814 0.5209953774
0.1625864249 0.2488638335 0.7720246598
0.172514664 0.2493188281 0.0211916825
0.1824760426 0.4992579488 0.2637901729
0.1624196225 -0.0011883523 0.7748682167
0.1625687504 0.2495004354 0.2746516584
0.1827172248 0.2482682398 0.7640481557
0.182536062 6.3885112246e-04 0.2642099404
0.1925813941 0.0033407637 0.012037528
0.2025792263 0.2507957704 0.2554638625
0.2024249433 0.5010974547 0.7563386091
0.1925305802 0.4998392222 0.0098289615
0.20245661 0.4996445965 0.2556175932
0.1924469949 0.4986304599 0.5113352004
0.1926230027 0.2490994673 0.5081897054
0.2026086836 0.249846075 0.7517966505
0.1925604058 0.2486268979 0.0068508211
0.2024098464 0.0035723618 0.2552116338
0.2125383956 0.2512859147 0.5046189196
0.2225527975 0.2496325725 0.7493443242
0.2126989383 0.247899167 4.0764693304e-04
0.2225715766 0.0010585657 0.7473476667
0.2225159758 0.2501715361 0.2509522819
0.2324839823 0.2505256377 0.4945076765
0.2325222769 0.2503127862 0.9970651755
0.2324442149 8.8535532716e-04 0.4963229871
0.2224670029 0.4996035884 0.7481982483
0.2124422909 0.50050121 0.0043942604
0.2123668064 0.5009822415 0.5017468258
0.2423400509 0.4981565886 0.7430027043
0.2625043586 0.2504084717 0.7385362303
0.2624535446 -0.0011703218 0.2358010666
0.2624520718 -4.2462542797e-04 0.7412048841
0.2527175149 0.2512032476 0.4891528786
0.2425410974 0.2486607458 0.7450407863
0.2525473986 0.2495466508 0.9940457948
0.2626505408 0.2485891444 0.2348998551
0.2424958067 -0.0012107441 0.2431967081
0.2624911028 0.4985393308 0.2356013088
0.252488852 0.0018002915 0.492349924
0.2425749734 -0.0011355626 0.7434095843
0.2524306737 0.0011421441 0.9907962784
0.2426545083 0.2483899622 0.2438677838
0.2725386442 0.2501949693 0.4863599515
0.2725960861 0.2514564563 0.9812686596
0.2723390705 0.0019438198 0.4898000202
0.2724086636 0.0013707479 0.9851073234
0.2825501004 0.250155263 0.7256035233
0.2724289155 0.5008702829 0.4843789432
0.2824377942 0.252688001 0.22909215
0.3122589649 -3.4391108579e-04 0.4734300062
0.2924127968 0.5014483017 0.4763389217
0.2924827581 0.2493162244 0.475476373
0.3023914817 0.2527576496 0.7233877766
0.2924411496 0.2518463587 0.9728733085
0.2924533007 -0.0013449642 0.4778927981
0.3024176251 8.8522514274e-04 0.7264596282
0.3124430735 0.5020992238 0.4716901801
0.3024319856 0.250489186 0.220934299
0.312510089 0.2524139627 0.4691669721
0.3125122983 0.2496189032 0.969964393
0.3224420103 7.0921577687e-05 0.2234657919
0.3323418967 -0.0017543942 0.4690739972
0.3224085025 -0.0012210937 0.7201760025
0.3323220129 -0.0022780545 0.9708204979
0.3225020297 0.250030286 0.2175365752
0.3224423785 0.4989162147 0.7187344323
0.3224243359 0.5016507385 0.2218051326
0.3325201138 0.2493149226 0.463852678
0.322409239 0.2499495716 0.7181287151
0.3323923424 0.2498096234 0.9682153615
0.3624944629 0.2509721703 0.2072467469
0.3524844796 0.4993132772 0.4617529197
0.3525338207 0.2493227336 0.459537173
0.3426015312 0.2521034729 0.7140497896
0.3624134551 0.5020849035 0.7105020173
0.3524248284 0.2522505813 0.9611732085
0.3623655869 0.5008488024 0.2067478127
0.3424524033 -0.001054002 0.2132763028
0.3424317831 0.2478952614 0.2153226696
0.3625018272 0.2515248031 0.7093927631
0.3423360466 0.5007908704 0.7166466411
0.3423286823 0.4990711341 0.2154994138
0.3824997008 0.2496970138 0.2032792071
0.3924562926 0.2478802902 0.4535665318
0.3925115252 0.2500686904 0.9527778574
0.3925630756 0.001574096 0.9508171011
0.3823855535 0.4994610365 0.7094673271
0.3923679205 0.5014033881 0.9525201054
0.3724952408 0.250715056 0.4566770462
0.3824555147 0.2476772025 0.7069809408
0.3723553182 0.2476674387 0.955023982
0.392463657 0.5001952766 0.4545266581
0.3724805121 2.7518093717e-04 0.4575147403
0.4126309104 0.4991720271 0.9463340572
0.4025749 0.2506909719 0.698174107
0.4026264504 0.0024219221 0.6987291944
0.4024828457 0.2464053007 0.1985393318
0.4126493213 0.2492745654 0.4447624597
0.4125683135 0.2466767352 0.943001692
0.4125093988 -4.862677522e-04 0.4439118781
0.4125167631 -0.0024570126 0.9452478166
0.4425154145 5.2611141225e-04 0.6878842787
0.4427032053 0.2502704762 0.1840021186
0.4226169596 0.4972264209 0.6899205196
0.432628784 0.4982002004 0.9400007222
0.4325588227 0.4987645498 0.4408013637
0.4425853758 0.4985660186 0.6824816125
0.442482275 0.5002811984 0.1864921871
0.4325551406 0.2481972893 0.4359657519
0.4225875022 0.2476889191 0.6888996375
0.4327024274 0.2500062018 0.9363737832
0.4225875022 5.554029074e-04 0.1901274109
0.4325993266 3.1950873316e-04 0.9370457795
0.4226316883 0.2502242607 0.1904873432
0.4425596006 0.2520077873 0.6895955679
0.472514066 0.2495629239 0.435526653
0.4625685207 0.2499508735 0.6878686295
0.4725398412 0.249762757 0.936926109
0.4724661978 -3.5360982529e-04 0.9402492688
0.4626753037 0.2502203552 0.1875931564
0.4525051459 0.4986975048 0.9374047913
0.452571425 0.4984000334 0.4364628451
0.462553792 0.4976664442 0.6858646076
0.4725398412 0.5006548276 0.9384910319
0.4624948773 0.5001965785 0.1837011011
0.4526045645 0.2521041238 0.4344551411
0.4525051459 0.248467422 0.9350850232
0.4525824715 5.5436143202e-04 0.4386058689
0.4826547664 0.2507410929 0.6895164012
0.4823786035 4.575042214e-04 0.6849551113
0.4925745365 0.4998437787 0.9415012071
0.4925671721 0.4986031211 0.4410609568
0.4824706578 0.2505171757 0.1915257156
0.4924714357 0.248383453 0.4380434172
0.4924751178 0.246745082 0.9405438425
0.4824890687 0.4987385129 0.1865290088
0.5025863609 0.2476908719 0.6922135919
0.5125392705 0.2482181188 0.4376374578
0.5124177588 0.2495010863 0.9398626408
0.5025753144 -0.0011190942 0.6857513808
0.5024280275 0.2479564481 0.1928678671
0.5224111724 0.2475242358 0.1918138455
0.5223780328 0.2473035732 0.6896830195
0.5124361697 0.498370091 0.4395549486
0.5224700871 0.4962584997 0.6890699379
0.542453232 0.4998685137 0.6892844244
0.5525460642 0.5002434449 0.9407279511
0.5424790072 0.4973305684 0.186007061
0.5526086611 0.5002981223 0.4415911895
0.5325666015 -0.0014763854 0.43954022
0.5325702836 0.2500602284 0.4370197735
0.5324745472 0.2485494381 0.9394576019
0.5324745472 0.499699274 0.9350113798
0.5524687386 -0.0016997818 0.9432042114
0.5425894724 0.2480208894 0.1900823043
0.5524724207 0.2502730799 0.4420726334
0.542453232 0.2495225667 0.6901110719
0.5525055603 0.252270109 0.9437933589
0.5723266896 0.250272429 0.4456010743
0.5724187439 0.2491587012 0.9450084755
0.5624952916 0.5010505883 0.6935446969
0.5624106017 0.4980420263 0.1938197084
0.5723929687 0.5009249603 0.9466102201
0.5724076974 0.4989487608 0.44901905
0.5623811443 0.2500446062 0.1946527997
0.5624326947 0.2492016621 0.6965254147
0.6025057675 0.4983154136 0.7050680527
0.5924202997 0.4998222983 0.9528699117
0.592342974 0.4990867563 0.4518635275
0.582445297 0.2487785627 0.6954005113
0.6023327054 0.2486835281 0.2065683068
0.5923908423 0.2496162995 0.4475231678
0.602387938 0.2491398245 0.6985460064
0.5923908423 0.2492953949 0.9470152589
0.5822354132 0.4969510808 0.7002112684
0.5823090566 0.4987437203 0.1997443224
0.5823311497 0.2501214151 0.1994120064
0.612499181 0.5006613369 0.9588166187
0.6126611965 0.499356889 0.459301514
0.6225441449 0.4999655011 0.7072405339
0.6125396849 -8.6725246573e-04 0.4573011743
0.6226067418 0.5000123675 0.2092314373
0.6125396849 0.2501318298 0.4517797581
0.6124071267 0.2509298603 0.9550147766
0.6225183697 6.6352107059e-04 0.7072736734
0.6224005402 0.2500615302 0.2080384138
0.6225110054 0.2501350844 0.7063752236
0.6425714759 -4.6439679531e-05 0.2145926791
0.6526090755 -0.0023288265 0.4705708
0.6326480236 0.4999017108 0.4648625136
0.6424904681 0.2492218407 0.2148292586
0.6524176025 0.2504247448 0.4681764679
0.6425383363 0.2499398078 0.7167930074
0.6325817445 -6.8440846996e-05 0.4624580555
0.6526274863 0.2493383558 0.9672579969
0.6425604294 0.5013825586 0.7156653423
0.6526532615 0.4994766586 0.4658106727
0.632548605 0.2499560808 0.4608765629
0.6326148841 0.249253085 0.9597923942
0.6825966804 0.4990529083 0.7265268278
0.6625509386 -4.7676431548e-05 0.2224881754
0.6826371843 0.5004608529 0.2285168107
0.6624404734 0.0012033959 0.7214675241
0.6726143134 0.5002792456 0.475079619
0.662602489 0.2508751829 0.221514241
0.6625362099 0.2504488289 0.7225961097
0.6726290421 8.0548718373e-04 0.9747235997
0.662517799 0.5003085371 0.7202478048
0.6625067525 0.498252925 0.2206286788
0.6826187734 0.2521451319 0.2298801347
0.6727395072 0.2512208225 0.4765138248
0.6827513316 0.2527862902 0.7303093385
0.6725480343 0.2505555801 0.9766015072
0.7026313757 0.2491157404 0.2398671045
0.6924501714 0.249645591 0.4840567532
0.7026461044 0.2504462252 0.7381496022
0.6925974583 0.2500699922 0.9864973432
0.692656373 0.499448018 0.9853466646
0.6925680009 0.5001178169 0.4870761338
0.7326889419 0.5012465158 0.9931804845
0.7326005697 0.5009509972 0.4952008453
0.7125437814 0.2485650603 0.4917432863
0.7125585101 0.2487076122 0.992075833
0.7224893267 8.2468938611e-04 0.2387688968
0.7325379728 0.0031808322 0.4910906214
0.7324496007 0.0021765244 0.9908791273
0.7126910683 0.4987567388 0.9900414333
0.7225887454 0.2508634663 0.2420846923
0.7324532829 0.2485442308 0.4954162524
0.7225519236 0.2500999346 0.7419311924
0.7324790581 0.2490011781 0.9955831014
0.712749983 0.4995026955 0.4925266683
0.7124738202 -7.7085090059e-04 0.4874553975
0.7125032775 3.1345513134e-05 0.987482324
0.7525837146 0.5003391304 -0.0015937882
0.7424246034 0.0014310884 0.2445692375
0.7425129755 7.6727805562e-04 0.7456952922
0.7424835181 0.249996438 0.2478298004
0.7424982468 0.251543029 0.7446882183
0.762488756 -0.0013507574 0.2540038815
0.752462203 0.0023249347 0.4991260402
0.7625255778 -5.1217445235e-04 0.7524382689
0.7524143347 0.0013786892 -4.6534990927e-04
0.7624813917 0.2489328313 0.2527095982
0.7525321642 0.2496293179 0.4974847122
0.7625329421 0.2495850552 0.7534352168
0.7525321642 0.2496879009 -0.0021196483
0.7825087226 5.1029400487e-04 0.2619325174
0.7824608544 -0.0024433302 0.7628265953
0.7724748052 0.0014769784 0.0089794845
0.7824461257 0.25032255 0.2602037378
0.7724821696 0.2482005439 0.5046980862
0.7824203505 0.2516562894 0.7582487355
0.7724416657 0.2481302443 0.0020992549
0.7925242292 -9.265514965e-05 0.516724979
0.7924542679 0.0017468507 0.015478149
0.8124558237 0.4996133523 0.0209810623
0.7924469036 0.2498799229 0.5130078268
0.7925720974 0.2495466508 0.0151890986
0.8025544644 7.9774092287e-06 0.2688135754
0.8125736532 0.0015280758 0.522262965
0.8023814024 -4.0971933771e-05 0.7704606574
0.8125662888 -9.3429744351e-04 0.0244953268
0.8024513636 0.2490630157 0.2691504941
0.8124447772 0.2486600949 0.5207201351
0.8023924489 0.2480300023 0.7635657912
0.8123674516 0.2490766851 0.0201227481
0.8326672632 -5.9262842568e-04 0.5312971728
0.8224897411 0.0025889487 0.7764589148
0.8327040849 0.0023595637 0.0318166805
0.8224345085 0.2495922154 0.2712566962
0.8325383872 0.251383553 0.5273995943
0.8225412915 0.2497432293 0.7748976741
0.8326304415 0.2503192954 0.0281201485
0.8226333458 0.0026720063 0.2815041796
0.8425980798 0.0010762057 0.788001602
0.8425759868 0.2507332818 0.2831206529
0.8426054442 0.2496970138 0.7819867748
0.8627027364 0.0026331463 0.2896242883
0.8426385837 0.4994792623 0.7814408929
0.8525694003 6.5733731051e-04 0.537183124
0.8625112634 0.0022064018 0.7904944322
0.8525288964 0.0010393635 0.0400247011
0.8625038991 0.2541506229 0.2893748212
0.8426091263 0.0022950574 0.2839914864
0.8525546716 0.2512852638 0.5378468354
0.8625407208 0.2514024298 0.7893115345
0.8526467259 0.2539371205 0.0378436589
0.8725525452 0.0023848846 0.5439960619
0.8925025506 0.0031964543 0.5437898603
0.8725230878 0.0029051016 0.0415145998
0.8826196022 0.2527752245 0.2947443478
0.8925430544 0.0016492775 0.046776607
0.8726666925 0.2529698502 0.5417103539
0.8926277444 0.2521985075 0.5451826417
0.8825459587 0.2531794471 0.7947243267
0.8725930491 0.2530056509 0.0394534122
0.8925467366 0.2540484282 0.0460833462
0.9025143749 0.0028924086 0.2976109184
0.9125041063 0.0014658477 0.5482093867
0.9025070106 0.0016952977 0.7997781071
0.9024885997 0.25200258 0.2970714803
0.9126366645 0.2534508817 0.5475576423
0.9025143749 0.2516055175 0.7983798025
0.9025880184 0.5015244596 0.7967145404
0.9124783311 0.2519042907 0.0523296899
0.9225564346 0.0027669108 0.3008613553
0.9225085663 0.0010382569 0.8016928363
0.9226668997 0.2511108167 0.3009810259
0.9226337602 0.2513991752 0.8009674485
0.9426242694 0.0043012644 0.3077700296
0.9326750419 4.8061195646e-04 0.5564003772
0.9425984942 0.0027449747 0.8077785453
0.9325572124 6.7406572114e-06 0.0536148598
0.9425764012 0.2531117512 0.3143178511
0.932612445 0.2517747572 0.5541450472
0.9426537268 0.2503238518 0.8102345537
0.9326271737 0.252612494 0.0529361436
0.9523893883 6.4783384764e-04 0.5618196132
0.9524961713 0.0015356916 0.0585789794
0.9626000499 0.2516810244 0.3141420275
0.9525587682 0.2537060431 0.55866031
0.9725271844 0.2521203969 0.5640325983
0.9624895848 0.2540438717 0.8150738476
0.9526360938 0.2498564898 0.0644664955
0.9725750526 0.251484446 0.0600308596
0.9625705926 8.5306956414e-05 0.3100759895
0.9824543188 0.5012022531 0.8104959879
0.9824543188 0.5017574897 0.3123211936
0.9823954041 0.0020007755 0.311974149
0.9924219572 1.6751841946e-04 0.5651271237
0.9823659467 0.2494236265 0.3152936266
0.9923299029 0.0011168883 0.062663244
0.992591337 0.2499756085 0.561944807
0.9825021871 0.2515293596 0.8151806306
0.9924771897 0.2518645845 0.061925521
0.0123973866 0.7490037456 0.0603769837
0.0024345719 0.4989858633 0.8090452123
0.0124040881 0.5003026788 0.0605617367
0.0223326586 0.7493357159 0.3062281203
0.0022785583 0.7522778839 0.3139201766
0.012244061 0.7484114065 0.5567382165
0.0223878175 0.7479297241 0.8070154153
0.0223892904 0.4983447051 0.3067675584
0.0024141358 0.7516009249 0.8110952613
0.0124276172 0.9987560517 0.0619922603
0.0525193217 0.9999212023 0.5531757155
0.0524497287 0.9998496008 0.0551281403
0.0323944133 0.7474610602 0.0526650437
0.042534009 0.4983512143 0.8034050461
0.0423130787 0.7490623286 0.3031323346
0.0324555373 0.747278802 0.5543116654
0.0423244934 0.7458858287 0.8030248619
0.0524530427 0.7483528235 0.0504889724
0.0523370542 0.7491404393 0.5543797856
0.052370562 0.5011072185 0.553873487
0.0424717803 0.9990489666 0.303183885
0.0324260799 0.9979098529 0.5555102122
0.0323774753 0.9981572033 0.0554656113
0.0725422341 0.9996933795 0.5471157817
0.0624957973 0.9997194164 0.8014783498
0.0724568077 0.9970831818 0.047931244
0.0722804317 0.7488019598 0.0490273344
0.0624309911 0.7480989639 0.3027530709
0.0724037844 0.7497653245 0.5499731468
0.0623109523 0.7492315684 0.8022764605
0.0622682391 0.9987625609 0.3031884877
0.0824196592 0.9996608334 0.2976109184
0.1023685599 0.9975778827 0.7890188019
0.0825356476 1.000207608 0.7976065465
0.0924127045 0.9981506941 0.0438140239
0.0924683053 0.7491144024 0.0440724203
0.0924539448 0.4991733289 0.0440952497
0.1026086375 0.7474675694 0.2890213327
0.082466791 0.7489126165 0.2956492415
0.0925448945 0.7492576052 0.5428048794
0.1024661374 0.7489516719 0.789256302
0.0824940391 0.7485676278 0.7951266039
0.0925839255 0.4984137028 0.5411285708
0.1124529231 0.9996998887 0.0380343033
0.1125405587 0.7477019014 0.0375110668
0.1226348638 0.4999049654 0.7838425893
0.1224444955 0.7500907856 0.2831804882
0.1124440858 0.7477604844 0.5366602557
0.1224224025 0.7505854864 0.7846443821
0.1123895897 0.998235314 0.5398434929
0.122467325 1.0001555342 0.7830665716
0.1525274687 1.0002010988 0.525450805
0.1325686261 0.9999342207 0.5338581231
0.142496497 1.0006176889 0.7773776166
0.1525989028 1.0002727002 0.0262504339
0.1324743625 1.000031859 0.0286118105
0.1524799687 0.7493357159 0.0247368773
0.1324007191 0.748014344 0.03048981
0.1423241714 0.7532412486 0.2768370272
0.1524486702 0.7484309342 0.5249445064
0.132441223 0.7482031114 0.532255458
0.1426312645 0.5012907786 0.2778128026
0.1424243264 0.7510801872 0.7759019864
0.1723298189 0.74913393 0.0213577485
0.1626250877 0.499205875 0.772491375
0.1726026679 0.4985295669 0.0203817889
0.162417045 0.7510606595 0.2752454085
0.1824510038 0.9990815127 0.767253486
0.1723493344 0.7490362917 0.5225768701
0.1624538667 0.4997122924 0.2726089737
0.1625094675 0.7505073757 0.7731799411
0.182359686 0.7507742538 0.266454224
0.1824782519 0.748248676 0.7646446675
0.1625437117 0.9972394032 0.2781340721
0.1725223965 0.9988016162 0.5215421799
0.1724704779 0.9979098529 0.0223872836
0.1925073825 1.0010147514 0.5061332126
0.2025243619 1.0018869871 0.7554337154
0.1923468398 0.7502339884 0.0091773092
0.202312637 0.7484439526 0.2591754914
0.1923512584 0.7485806462 0.5079052576
0.202377075 0.7532152117 0.7555874461
0.2323179164 0.7487954505 0.9967613963
0.2323915598 0.4995755988 0.9968350397
0.2324026063 0.7508067999 0.4994058852
0.2323812497 0.5008175582 0.4963073379
0.2224802587 1.0001555342 0.2480866319
0.2124176204 1.0016852012 0.5038677566
0.2123664382 1.0003963754 0.0053362519
0.2124669615 0.7518808214 0.0018162801
0.2325178583 0.998795107 0.9970099429
0.2222549098 0.7500387118 0.2526819819
0.2123826397 0.7537750047 0.5003678525
0.2224235533 0.5008924142 0.2525291718
0.2221588052 0.7514512128 0.7552891902
0.2523581349 0.7507742538 0.9932633333
0.2525238327 0.4993028624 0.9892221501
0.2424803416 0.7491469485 0.24277602
0.2524015846 0.750162387 0.4900991967
0.242484392 0.4989350914 0.2456674452
0.2423831323 0.7508523644 0.7472151085
0.2525356156 0.4983837604 0.4887671711
0.2624675369 0.500526596 0.7410244577
0.2623452888 0.7515618695 0.2354208823
0.2624719555 0.7512884822 0.7373395245
0.2823932399 0.5001269298 0.7297155884
0.2824639376 0.7524991974 0.2340768897
0.2823869802 0.5024110155 0.2300357065
0.2824396352 0.7508653829 0.7303056563
0.2724233923 0.7526293818 0.984647052
0.2725463768 0.5007628807 0.9805230199
0.2723762605 0.7513210284 0.4856824319
0.2823873484 1.0000448775 0.2310989335
0.28245105 0.9998235639 0.7288521191
0.3122232479 0.998176731 0.9732231148
0.2923844441 0.7517636554 0.979538039
0.3023863266 0.5014274722 0.718437097
0.2924963821 0.5034661603 0.9754968557
0.3024562879 0.749485428 0.2253906471
0.292419793 0.74971976 0.4815353862
0.3024069468 0.5007453058 0.2222635629
0.3023616561 0.7500322026 0.7246130192
0.3023863266 0.9972133663 0.2264833315
0.312398151 0.7498564536 0.9731034442
0.3123550696 0.5014424434 0.971317591
0.3125001472 0.7510346226 0.4754524389
0.2923358394 1.001118899 0.9786082907
0.3323680401 0.7528181492 0.9701208853
0.332408544 0.5019176165 0.965757512
0.3224629987 0.750897929 0.222652032
0.3324284277 0.7479622702 0.4693207027
0.322336332 0.7492641145 0.7243810424
0.3325355789 0.4987860303 0.4642411471
0.3524318245 0.9997714902 0.4617501581
0.342553663 0.997942399 0.7130648087
0.3624281838 0.7511322609 0.208299848
0.352496999 1.0000383682 0.9636862905
0.3624245016 0.7519524228 0.7105765813
0.3624245016 0.999029439 0.2096696158
0.3524159912 0.7529157875 0.9657483066
0.3624834164 1.0008455117 0.7092095751
0.3525036269 0.5022196444 0.9614769876
0.3423268412 0.7511127333 0.2163555187
0.3524425028 0.7518547845 0.4626771448
0.3424918025 0.7504032282 0.7182345775
0.3925483469 0.9989968929 0.4499128971
0.3724068686 0.7504032282 0.9622686545
0.3724510547 0.4986675624 0.955539486
0.3825217938 0.7509174566 0.2079684525
0.372436326 0.7528962599 0.4619020476
0.3824628791 0.501053192 0.2082667084
0.3823450496 0.7481835838 0.7086581699
0.3824481504 1.0008910762 0.2058843434
0.3824334217 1.0011644635 0.7077532763
0.3724547369 0.9991010404 0.9557051838
0.3724289617 0.4995814571 0.4563603795
0.3925593934 0.7515032865 0.9561654552
0.3926072616 0.7499020181 0.4565159512
0.4126345926 0.7483853696 0.9450084755
0.4125867244 0.7500517302 0.4461036907
0.4124946701 0.5001803054 0.4445415294
0.4026632721 0.998118148 0.1992987797
0.4025270317 0.5000305933 0.6998485745
0.4024276131 0.7468101381 0.1979455816
0.4026080395 0.5002122006 0.1997332759
0.4025749 0.7500712579 0.697572072
0.4327466135 0.7515813972 0.9343762052
0.4225359518 0.7505659587 0.1935389428
0.4325588227 0.7494203358 0.4362732133
0.4226169596 0.4983661855 0.1917309966
0.4225911844 0.7478320858 0.6877968271
0.4426663836 0.7487173399 0.1858404427
0.4426148332 0.7492120407 0.6882580191
0.4325809158 0.9971743109 0.4383103747
0.4227347891 0.9982157863 0.6912295315
0.4425485541 0.9997975271 0.1884796392
0.4525051459 0.9987690701 0.9380031441
0.4625795672 0.9985542658 0.1843289113
0.4723704613 0.9987495425 0.4404303849
0.4624212338 0.9977080671 0.6858084545
0.4526156111 0.7477995397 0.9322405457
0.4526045645 0.7525707988 0.4332639586
0.4723925543 0.7502535161 0.9368340547
0.4624948773 0.7495700479 0.1858809466
0.4723041822 0.7495960847 0.4316318361
0.462531699 0.7492576052 0.6895495408
0.4724183295 0.5016585495 0.4375619733
0.4824596113 1.0013922862 0.1849502777
0.4924603892 0.9991075496 0.4385800937
0.49256349 0.999088022 0.9399270788
0.4824006965 0.5003111408 0.6862788519
0.4923830636 0.7508784013 0.4362529613
0.4824669756 0.7489777087 0.1878361797
0.4924088388 0.7484374434 0.9381780473
0.4824154252 0.7496676862 0.6878539008
0.5125392705 0.9999667668 0.439864251
0.5123846193 1.0007348549 0.9414183582
0.5024906244 0.9995046121 0.1880746003
0.5223964437 0.7495114649 0.6869876699
0.5224848158 0.9973891152 0.1882936895
0.5224369476 0.9974607167 0.6863607802
0.5024832601 0.7489061073 0.1916150082
0.5024832601 0.4993549362 0.1876575944
0.5024943066 0.752017515 0.6906891729
0.5025274461 0.5007811065 0.6851502663
0.5125245418 0.7491664762 0.9383161287
0.5124987666 0.5007531169 0.9423941337
0.5123109759 0.7459183748 0.4378593087
0.5225069088 0.4998991071 0.1855550744
0.5223043894 0.7499150366 0.1921461615
0.5324303611 0.7503251175 0.4354428836
0.532470865 0.5000221314 0.4381529618
0.5325040045 0.9994915937 0.9373495587
0.5424974181 0.9989513283 0.186737972
0.5525092425 0.9969009237 0.4422272846
0.5523803664 0.7497913614 0.9415840559
0.5425931545 0.999589232 0.6906449868
0.5423832707 0.7477865213 0.1882973717
0.5524540099 0.750162387 0.4387835337
0.5424790072 0.747454551 0.6876624279
0.5324377254 0.7499606011 0.9345603138
0.562502656 1.0003963754 0.19378841
0.562480563 1.0001034605 0.6947644162
0.5624253304 0.7489646903 0.1948820149
0.5624032373 0.7488930889 0.6930991541
0.5725255269 0.9987820886 0.449490368
0.5723966509 0.9978577792 0.9479726235
0.5725181625 0.7486652661 0.9459290183
0.5725881238 0.7492836421 0.4478738947
0.6024431706 0.9990554759 0.19890939
0.5924718501 0.7489646903 0.9520690394
0.5923650671 0.9981572033 0.4468382839
0.6024063488 0.9989318007 0.7045709595
0.5923871601 0.9977991962 0.9516640005
0.6024284419 0.7497002323 0.2053412231
0.6024284419 0.5010688141 0.203535118
0.5923871601 0.747838595 0.4503842151
0.6024210775 0.7489777087 0.7051877233
0.582316421 0.9994395199 0.1996338573
0.582445297 1.0004354307 0.7005978965
0.5825704908 0.7491404393 0.1979630719
0.5825263048 0.7481119823 0.696520812
0.6125875531 0.7480859454 0.9571688469
0.6125580957 0.7504032282 0.4562618814
0.6125396849 0.9989773652 0.955603924
0.6224557728 1.00094315 0.211854064
0.6227135248 0.7482616944 0.2110688409
0.6226693388 0.7497783429 0.7106842848
0.6426340728 0.9994655568 0.7186460602
0.6526937654 0.9973370415 0.9677642955
0.6326406593 0.9984370998 0.9618359994
0.6325081011 0.7490753471 0.9625079957
0.6327511244 0.5003859968 0.963373306
0.6325633337 0.7515683788 0.4639520966
0.6526274863 0.7502014423 0.9699735984
0.652620122 0.499398548 0.9702037342
0.6426561658 0.7479883071 0.2171453445
0.6426082976 0.5017659517 0.2162680671
0.652642215 0.748925635 0.4691310709
0.642681941 0.7486847938 0.716677019
0.6725590808 0.7510671687 0.9796577096
0.6726216777 0.5023062171 0.9769697243
0.6824862152 1.0003052463 0.2297374506
0.6726106312 1.0001685527 0.4745309754
0.6826629595 0.9994395199 0.7317490676
0.6826187734 0.7506961431 0.2295128381
0.6725995847 0.7505269034 0.4755555397
0.6826224556 0.7510997148 0.7305468386
0.662580396 0.7483528235 0.2210622545
0.6626503572 0.7501168224 0.7244012943
0.7025061818 0.9988471808 0.2365568323
0.7025761431 0.4989018944 0.7349405898
0.6927557916 0.7487824321 0.9839106177
0.6926379621 1.0007934379 0.4849671701
0.7024546314 0.9989187822 0.7354303186
0.6926821482 1.0001099697 0.9875927892
0.7026313757 0.750103804 0.2392751954
0.7026129648 0.4993106735 0.2374506794
0.6925900939 0.7522193009 0.4815878572
0.702509864 0.7508198183 0.7389872963
0.7225408771 0.5004530418 0.7434077432
0.7325600659 0.7498889997 0.9937512211
0.7226734353 0.7514707404 0.239986775
0.722474598 0.5000273387 0.242357173
0.7325048333 0.7518938398 0.4933247789
0.7226623888 0.7499540919 0.7411625391
0.7223346755 1.0007283457 0.7398848256
0.7125253706 0.7512884822 0.9878781575
0.7126247892 0.7485415909 0.486554186
0.7425755724 0.5006138196 0.7496296925
0.7425092933 0.7513470652 0.2426775219
0.7426860376 0.5005298506 0.2481556726
0.7425903011 0.7505594495 0.7474737811
0.7525284821 0.501488008 0.5017569517
0.7525137534 0.7478906688 7.8705788735e-04
0.7625292599 0.5014066427 0.7538540638
0.7625844925 0.7518612937 0.256548262
0.7625108491 0.4974151883 0.2536522341
0.7524769317 0.7483528235 0.5014227947
0.7625071669 0.7516855447 0.7548832308
0.7824534901 0.7503186083 0.2635434674
0.7824424436 0.4982021531 0.2613893971
0.7724453479 0.7497978706 0.5114438245
0.7824608544 0.7522062824 0.7632969927
0.7724195727 1.0002336449 0.5093790468
0.7725484487 0.5010942001 0.5097500256
0.7724895339 0.7488475243 0.0066582436
0.782409304 0.4998203455 0.7631984946
0.772577906 0.5008032379 0.0093028712
0.7924579501 0.7491209116 0.5159471203
0.8125883819 0.501947559 0.5183230414
0.8125147384 0.7508849105 0.0225936693
0.8024513636 0.5001568722 0.7669487863
0.8026244257 0.7505854864 0.2690409495
0.8025434179 0.5017086706 0.2681645927
0.7924542679 0.499423283 0.5158946493
0.7924616323 0.7516399802 0.016319065
0.8125626067 0.7519914781 0.5225216375
0.7924689966 0.4991707252 0.0155591568
0.8025323714 0.7492836421 0.7702958802
0.8326341237 0.5006606859 0.5306426668
0.8325899376 0.7512168808 0.0284186806
0.8224271442 0.5020113493 0.7738850769
0.8325825733 0.501378653 0.0297727071
0.8226075706 0.7504553019 0.2769014652
0.8225707489 0.4999140783 0.2745586835
0.8325899376 0.7491144024 0.5302845756
0.8227364466 0.7509500027 0.7765316377
0.8624523487 0.7491729854 0.7880402648
0.8624192092 0.5019267295 0.7891200616
0.8525509895 0.7528767322 0.0343749613
0.8526540903 0.5011130768 0.0350664731
0.8625333565 0.7510085857 0.2860083959
0.8625186278 0.501562864 0.2864659057
0.852455253 0.7521216626 0.5364374843
0.8426275372 0.7499215458 0.2840292287
0.8425723046 0.5004758241 0.2799236074
0.8424912968 0.749368262 0.783406252
0.8526209507 0.4994011517 0.5331400997
0.872633553 0.5042407576 0.5397661673
0.8826601061 0.7505529403 0.7907402171
0.8924878219 0.5022873403 0.5449212075
0.8724715374 0.7550638305 0.0415117461
0.8925246436 0.7530264443 0.0429753172
0.8825643696 0.5030847199 0.7932081926
0.8726298708 0.5030599849 0.0364163572
0.892576194 0.5036698989 0.0442724542
0.882464951 0.7492055315 0.2918078161
0.8826932456 0.501830393 0.2889955575
0.8726298708 0.7540418828 0.539168735
0.8924988684 0.7527009832 0.5446735814
0.8823913075 1.0008455117 0.2928351419
0.8824686331 1.0005851428 0.7911655079
0.9125151528 0.7542436686 0.5489449004
0.9125703854 0.9996998887 0.0485303333
0.9126550753 0.5025789534 0.548506722
0.902580654 0.7535667096 0.7939372625
0.9125114706 0.7528897506 0.0484219854
0.9124488737 0.5028386713 0.0463931089
0.9025953827 0.7527009832 0.2962301041
0.9026727083 0.5018798631 0.2982930407