POSCAR file written by Ovito 3.7.11
1
271.5984739233 0.0 0.0
0.0 15.3639298137 0.0
0.0 0.0 10.8639389569
Sr Ti O 
800 800 2400 
Direct
0.0124470064 0.2488624299 0.5321021722
0.0226309369 0.2499506932 0.7782697925
0.0026053458 0.2502813377 0.7859778623
0.012569577 0.2496506397 1.0314735348
0.0225351337 -6.9156090163e-04 0.2763487101
0.0023786508 1.0008614393 0.2833737864
0.0124923674 -0.0022035113 0.5336200379
0.022454905 -2.4759896724e-04 0.7766101734
0.0024016996 4.9283659436e-04 0.7874349765
0.0125518302 0.9997419341 1.0325136732
0.0225342501 0.2485350397 0.2784704083
0.0026562297 0.2501784995 0.2864325297
0.0326637989 0.2513884764 0.5256643599
0.0425861669 0.2509797268 0.7758231661
0.0325772741 0.2490511837 1.0284267577
0.0425644436 1.0012194206 0.2789159189
0.0325897926 -4.8458260646e-04 0.5267275102
0.0426170949 1.000789843 0.773773265
0.0325559191 -2.9778144069e-04 1.0268619477
0.0426413955 0.2491162712 0.2748115144
0.0725425208 0.2507740502 0.5271711798
0.0526466063 0.251629951 0.5293619138
0.0625660288 0.2520061569 0.7780267867
0.0727012109 0.2508209132 1.023879604
0.052535781 0.2517432033 1.0281230005
0.0626845861 0.9991561464 0.2767307078
0.0726504006 1.0011478244 0.5272153627
0.0526134692 0.0015549347 0.5264357191
0.0626845861 1.0011022631 0.7753141426
0.0727056292 0.0014811254 1.0271012716
0.0525600815 1.0025472059 1.0268435382
0.0626411397 0.250274829 0.2770703636
0.0926829138 0.2534569576 0.5223847023
0.1025379029 0.2497287448 0.7674348641
0.082625788 0.2485487081 0.7730184743
0.0925503651 0.2511841016 1.0221675178
0.1026446781 1.002963766 0.268124253
0.0826291017 1.0001650029 0.274750763
0.092689173 5.9124891584e-04 0.5212966991
0.1025898177 0.0015264263 0.7691202565
0.0827410317 1.0008679481 0.7736775354
0.0924896137 1.0051702328 1.0195257504
0.1025080794 0.2526004059 0.2700103092
0.0826320473 0.2505859473 0.2771219103
0.112516604 0.2541599027 0.5153347731
0.1225689432 0.2502761307 0.7642997213
0.1126211701 0.2515479408 1.0178873023
0.1224938324 0.0025708206 0.2599817183
0.1125987105 1.0048708302 0.515670747
0.1226131261 1.0011413156 0.7608414913
0.1125733053 0.0012114028 1.0155677017
0.122554952 0.2536385517 0.2625553705
0.1526051945 0.2483287123 0.5135370826
0.1324526512 0.2496675625 0.5096637177
0.1425333411 0.2504876652 0.7615060753
0.1525639571 0.2480097835 1.0133033296
0.1325524309 0.2509725671 1.0096306285
0.1423879059 0.0029327072 0.26079634
0.1525297154 0.9999046529 0.5122281651
0.1325446989 -7.3894461197e-04 0.5101506497
0.1425477006 6.0745570688e-04 0.7582834872
0.1524571819 0.9989999364 1.0140397107
0.132585568 -5.2910246618e-04 1.0113519195
0.1426058747 0.251327945 0.2618650131
0.1725754834 0.2483117896 0.5142384857
0.1625485493 0.2485298327 0.7623391065
0.1724856449 0.2478210297 1.0128154771
0.1624502424 4.6022774975e-04 0.2632742626
0.1725618604 -0.0016107268 0.5115571377
0.1625437628 1.0010762281 0.7652855516
0.172451035 -3.2244960857e-04 1.0134598106
0.1625393446 0.2470835882 0.2662372763
0.1924666114 0.2500177333 0.5129240453
0.2024103344 0.2489001807 0.7590594489
0.1825829034 0.2475632832 0.7638440855
0.1923683045 0.2502208064 1.0112322576
0.2024813952 -0.0012766326 0.2564424863
0.1824871739 -9.7573298865e-04 0.2607337476
0.1926002646 -5.8644456619e-04 0.5096839682
0.2024567264 0.9990520064 0.7552192211
0.1825718577 0.9991236027 0.7621053055
0.1924382607 -0.0014099318 1.0084524187
0.2025093777 0.2478216806 0.2598151121
0.1825096335 0.2500359578 0.2653738694
0.2125399937 0.2487290005 0.5085131221
0.2224947624 0.249722236 0.7518447544
0.2125068565 0.2492757357 1.0101092763
0.2225330543 0.996995241 0.2510991205
0.2124475779 0.9994620578 0.5002021402
0.2225492546 0.9985573413 0.7496061557
0.2124818196 0.9995792153 1.0055805321
0.2224796666 0.2491032537 0.2525277
0.2524397024 0.2484959872 0.4945982796
0.2325927573 0.2488630808 0.5020642641
0.2424481146 0.2489086421 0.747717338
0.25237711 0.2505651193 0.9968268011
0.2325209602 0.2482506073 1.0010149689
0.242589868 0.9990194627 0.2443603124
0.252408038 -0.0017080326 0.4942172023
0.232472359 7.7069519251e-04 0.4969712679
0.2426126958 0.9973271873 0.7460337866
0.2526064928 6.7957267262e-04 0.9943139003
0.2325662476 -0.0012835318 1.0007664403
0.242489352 0.2478132192 0.2468244279
0.2725042481 0.2483534456 0.4939410594
0.2624213491 0.2469078519 0.7464995477
0.2724004184 0.2484185331 0.9934026287
0.2624589045 0.999429514 0.2427108186
0.2725256032 -0.0018423797 0.493602324
0.2625163422 0.9989023051 0.7417581735
0.2725513765 -0.0035740005 0.9933566048
0.2624180354 0.2483957525 0.2454971008
0.2924237268 0.2496167942 0.4908344513
0.3025740047 0.250087377 0.7399614034
0.2825293413 0.2478815611 0.7438853946
0.2926000901 0.2483866402 0.9924729474
0.3025717956 -0.0019923935 0.2396898149
0.2826250708 0.9975419761 0.2415850759
0.2924981013 -0.0021469503 0.4903300303
0.3026616341 -5.0488991089e-04 0.738766625
0.282463067 0.9977958174 0.7438927584
0.2925452297 -0.0019938449 0.9885701273
0.3024720159 0.2505123984 0.2433293788
0.2823544508 0.2484061665 0.2462730625
0.3323713003 0.2486645639 0.4906227418
0.3125674335 0.2516904824 0.4915211268
0.3225457664 0.2477305581 0.740642556
0.332482862 0.2495289261 0.9876220365
0.3125276689 0.2485037977 0.9898035657
0.3225693306 -0.0014482683 0.2406719633
0.3324710799 -0.0022243198 0.4882193777
0.3126027798 -1.0224802929e-05 0.4871645117
0.3226385505 -0.0012410297 0.7410144285
0.33258706 -8.8135609305e-04 0.9890027512
0.3125810565 0.9972686085 0.9898587943
0.3225074746 0.2507506187 0.2401215183
0.3524244321 0.2481341007 0.4788765417
0.3422542719 0.2453763427 0.7378792857
0.3524155955 0.2483885928 0.9806264155
0.3423956571 -0.0016714534 0.2346548087
0.3525116933 -6.8264391219e-04 0.482991992
0.3424663496 0.9988242001 0.7371373817
0.3523622079 1.6818007351e-04 0.982246454
0.342422535 0.2480677114 0.2343740634
0.3724271218 0.2488676369 0.4697656658
0.3824750428 0.2487296514 0.7220102716
0.3623202904 0.2481594848 0.729815912
0.3723976666 0.2515961055 0.9731245324
0.3824860885 1.0009070006 0.2190913928
0.362489658 1.0018572783 0.2263484292
0.3723461199 -1.3078134831e-06 0.4763976987
0.382309357 -7.7168363162e-04 0.7205080541
0.3623976104 0.9988567439 0.7261321652
0.3723718932 0.0017784452 0.9750667377
0.3824050866 0.2481614374 0.2236081708
0.3624344294 0.2486958059 0.2290942104
0.3924714171 0.2488800036 0.4675362718
0.4024788371 0.2476296724 0.718087201
0.3924272342 0.2483169966 0.9646929681
0.4025119742 1.0015383495 0.2163778282
0.3924530075 1.0014277007 0.4709162614
0.4025046104 -4.6283285799e-05 0.7160814828
0.3924088247 0.9996703378 0.9690100026
0.4024383361 0.2495738365 0.2187949994
0.4325158247 0.2494957315 0.4666480121
0.4124310285 0.24912278 0.4671321827
0.422339037 0.2507122171 0.7205669646
0.4323943218 0.2496259065 0.9658711779
0.4124568018 0.2505221616 0.9661105018
0.4224347666 1.001863787 0.2139993171
0.4325342342 0.9996182678 0.4642759442
0.4125525314 -6.2738461263e-04 0.4694573062
0.4224237209 1.0010501931 0.7136449816
0.4326226 1.0007963518 0.9638829488
0.4124936209 -6.7828304873e-04 0.9687062454
0.4225894066 0.2505468948 0.2191337347
0.4525822114 0.2504479618 0.4633333764
0.4423906961 0.2504746477 0.7142055518
0.4524901637 0.2515251601 0.9632570248
0.4426263381 1.0014927882 0.2133200054
0.452479118 3.0499402837e-04 0.4579246567
0.4425342904 -4.1402774106e-04 0.7105917612
0.452519619 1.0037187812 0.96148971
0.4424606523 0.251583088 0.2169715355
0.4724092742 0.2492444936 0.4555866465
0.4826412904 0.2502976096 0.7069319469
0.4626006771 0.2498153111 0.7095939648
0.4725381409 0.2489359788 0.9555434321
0.482541879 -0.0011436588 0.2058420547
0.4625307209 -1.8127479026e-04 0.2076535524
0.4726044152 0.9997679691 0.4557145927
0.4825308333 1.000399318 0.7047117577
0.4626559057 -4.9472573995e-05 0.7066650087
0.4726228247 -0.0021069995 0.9551660368
0.4825860618 0.2483703683 0.2011218515
0.4625159933 0.2514067009 0.207766771
0.5125715028 -4.124005532e-04 0.4596551524
0.5124647275 1.8132775138e-04 0.9550555796
0.49266712 0.2491670395 0.4533508092
0.5024867628 0.2504681389 0.7052732483
0.4926965752 0.2512954012 0.9571450612
0.5125862304 0.2495796943 0.4593771686
0.512523638 0.2493596985 0.9568965325
0.5025861742 0.002004429 0.2052465065
0.4923578399 -0.0010729086 0.4527690681
0.5024757171 5.214100131e-04 0.7043638176
0.4925897999 -0.0014200204 0.9540522603
0.5024978085 0.250676419 0.208060403
0.5225899685 0.9989478664 0.2058512595
0.5325237504 -2.2358167449e-04 0.4593302243
0.5225347399 0.9968650659 0.7100919425
0.5326636628 0.9999371966 0.9604955955
0.5226341514 0.2505000318 0.2083162954
0.5324501123 0.2508358834 0.4612871572
0.5226562428 0.2491891693 0.7051738368
0.5325163866 0.2482584178 0.9604403669
0.5425201247 -0.003154518 0.2147780401
0.562638058 -0.0012883483 0.2162609277
0.5525643637 -5.9711891852e-04 0.462546369
0.5425311704 0.9990064452 0.7119770783
0.5625975571 0.9990585152 0.7141079813
0.5525901371 -1.9260001773e-04 0.9668376782
0.5426268999 0.24933106 0.2118711755
0.5625423285 0.2481126218 0.2162655301
0.5525128171 0.2488025494 0.4632588178
0.5425716714 0.2471460722 0.7141457208
0.5625975571 0.2500789156 0.7168224664
0.5525975009 0.2483345702 0.9610294718
0.5826013514 -0.0012261247 0.2201747936
0.5726160228 -0.001324537 0.4707708261
0.5825608504 0.9997484428 0.7202945035
0.572568158 -6.6467975826e-04 0.9691664836
0.5826271247 0.2491930745 0.2205521889
0.5724871561 0.2480149905 0.4664583939
0.5824945761 0.2492659725 0.7219927826
0.5725571123 0.248762846 0.9695991076
0.6025793723 0.9990975677 0.2249631121
0.5925719523 1.0019484008 0.4730968701
0.6125241999 0.0014537236 0.4782045939
0.6024063227 0.00108292 0.7243142242
0.5925130418 -2.987577534e-04 0.9725170179
0.6125426094 0.0013404062 0.9793653627
0.6025388713 0.2505657702 0.2246197744
0.5924614951 0.2479284241 0.471927865
0.6125794285 0.2483840367 0.4776182504
0.6024394599 0.2510578318 0.724302258
0.592546179 0.249571233 0.9734835182
0.6125131542 0.2493753196 0.9779846481
0.6225205742 -2.1681257302e-04 0.2316402483
0.6326752704 4.8281311718e-04 0.4849507659
0.6224395723 6.9161386275e-04 0.7343428152
0.6325095847 1.0018833133 0.9862045028
0.6225168923 0.2516533825 0.2325183828
0.6325169485 0.2518447398 0.4872409113
0.6224690275 0.2517763979 0.73131905
0.6325169485 0.2500222894 0.9871986174
0.6423807741 1.0011933856 0.2380937087
0.662399296 -7.725297693e-04 0.2413218196
0.6524507865 -2.0223296984e-04 0.4900916269
0.6425280504 0.9997744778 0.7382631244
0.6623919322 1.0011543331 0.7384895616
0.6524029218 1.0013300694 0.9908989327
0.6426495533 0.2543421478 0.2412067601
0.662517117 0.2518226101 0.243026542
0.652509697 0.250764938 0.4888066417
0.6425464599 0.2515876442 0.7418677102
0.6624766161 0.2512485382 0.7420370778
0.6525943809 0.2512980047 0.9895274228
0.6824288637 1.0001064241 0.2437620027
0.6723404417 1.0018247345 0.4898283706
0.6824693646 0.0012481772 0.7433423134
0.6723809427 -2.515693056e-04 0.9912303042
0.682377317 0.252135681 0.2422358527
0.672410398 0.2498934162 0.4911612205
0.6823994084 0.2493662073 0.7429327014
0.6723809427 0.2499324687 0.9914512186
0.7024584313 0.0030154334 0.2482502459
0.6924399656 0.9999306879 0.4936004831
0.712476897 0.9994685665 0.4984081316
0.7022706541 1.0018182258 0.7471843822
0.6923626456 1.0019223658 0.9929055714
0.712476897 -0.0013645658 0.9975447727
0.7023737475 0.2504297373 0.2424015385
0.6923663275 0.2512491891 0.4948127506
0.7124069408 0.250066549 0.4955730641
0.7023958389 0.2516260458 0.7412841281
0.6923000532 0.2509719163 0.9925097665
0.7123848494 0.2535897361 0.9950963053
0.7223738598 0.00286417 0.2468640084
0.7424697018 1.0009785968 0.2484288183
0.7324070532 -0.0021851046 0.4981006925
0.7224695894 1.002677381 0.746936774
0.7425138846 6.0953850733e-04 0.7473813641
0.7325064646 0.9985443238 1.0002877925
0.7224879989 0.2521480477 0.2435318836
0.7423997456 0.2508502026 0.2506941109
0.7324512361 0.2521753844 0.4933436702
0.7224769532 0.2502546519 0.7430578862
0.7424328827 0.2502416344 0.7483138068
0.7324954189 0.2530612255 0.9976736394
0.7626134085 0.0011447531 0.2486083112
0.7523372093 -9.113614371e-04 0.502460069
0.7624992694 0.002223839 0.7530570219
0.752388756 0.9977697824 1.0002601782
0.7624035398 0.2500294491 0.2548298116
0.7525249865 0.2511574157 0.5005114203
0.7623888122 0.2486163991 0.7567435301
0.7523298455 0.2484439172 0.9989531017
0.7824441532 0.0010252525 0.254969724
0.7723594132 0.9986679901 0.5021148903
0.7926393504 1.0010697194 0.5075613495
0.7825472465 0.0011184578 0.7567426097
0.7724661884 1.0003147042 1.0033437744
0.792499438 -9.659593428e-05 1.0058658798
0.7824441532 0.2502689711 0.2559868505
0.7725250989 0.2494130703 0.5059578795
0.7924442094 0.2503262481 0.5064797896
0.7824625627 0.249633717 0.7579898553
0.7726061009 0.2507193767 1.0051294987
0.7925951675 0.2495412927 1.0098975667
0.8024442656 1.001941892 0.2550838631
0.812473777 0.0016001705 0.5058124442
0.8024553113 0.0025682822 0.7564627848
0.8124700951 1.0003277217 1.0027454647
0.8026394066 0.2500203368 0.2554667813
0.8124958684 0.2518850941 0.5047152363
0.8025584046 0.2483417298 0.7541855261
0.8125363694 0.2486235588 1.0056817845
0.8224296503 0.9993839527 0.2572635513
0.8422898503 0.9987851476 0.2627164538
0.8324260246 -2.3763005884e-05 0.5108354842
0.8223376027 6.3193913094e-05 0.7552726088
0.842378216 -0.0024025619 0.7602818416
0.8324223427 -1.2054813951e-04 1.0073018231
0.8224517418 0.250326899 0.2563292677
0.8425549475 0.2513754589 0.2598105097
0.8324996627 0.2507213293 0.5073128208
0.8225401075 0.2514698358 0.7547286072
0.8423450789 0.2524858519 0.7562547571
0.8324959808 0.2505403861 1.0100908668
0.8624446027 -0.0026025498 0.268064422
0.8523893179 1.0003537567 0.5149454116
0.8623488731 0.9987395864 0.7679659791
0.8523819541 -1.2477882793e-04 1.0130363914
0.8624004198 0.2479557609 0.2629944377
0.8523966817 0.2516312528 0.5122833937
0.8624188294 0.2497280939 0.7646071605
0.8524776837 0.2487992951 1.0127142247
0.8824152598 0.9989608839 0.271760135
0.8723967941 8.5094809752e-04 0.5223966685
0.8923453598 0.0023084528 0.5269162078
0.882371077 1.0015839107 0.7756031722
0.8724115217 1.594583466e-04 1.020869646
0.8823563493 0.249060296 0.2761103067
0.8923527236 0.0013635123 1.0279573147
0.8724630684 0.2514001921 0.5149960378
0.8924079522 0.2531744778 0.5286568288
0.8824005322 0.2482460512 0.776078138
0.8723931122 0.2511320316 1.0183015167
0.8923232684 0.2498960197 1.0255180521
0.9023601436 -0.0010266314 0.2783019611
0.9224081208 0.0010359268 0.2775259995
0.9123749274 -9.6024216027e-04 0.5263013296
0.9023012331 1.0002561254 0.7817804897
0.9223160731 1.0012714907 0.7755985698
0.9125148398 1.0025732409 1.0291263198
0.9024669189 0.2488207739 0.2787032889
0.9225038503 0.2521766862 0.2783682354
0.9124338379 0.2482623231 0.5290507927
0.9024816465 0.2491039046 0.7764960343
0.9224596674 0.2516436194 0.7783148958
0.9124927484 0.2529564346 1.0262176142
0.9424560979 0.9990520064 0.2846486463
0.9325664989 0.9995792153 0.5308125847
0.9425849646 1.0006531593 0.7834410292
0.9324339503 1.0010241581 1.0303597583
0.9425076446 0.2499864913 0.2801281864
0.9325517713 0.2503295025 0.528433153
0.9426217837 0.2519059221 0.7820971336
0.9325922722 0.249706615 1.0273313907
0.9627065799 -0.0011424872 0.2905176042
0.9525482018 1.0003147042 0.5336458112
0.972592497 1.0012454556 0.5404849512
0.9625556218 1.0003667742 0.7881649143
0.9525445198 1.0012389469 1.0358365932
0.9627323532 0.2493479828 0.2895925253
0.9724967675 4.1707472783e-04 1.040181242
0.9525887027 0.249133194 0.5360169585
0.9725372684 0.2502364274 0.540671808
0.9625887589 0.2500177333 0.7924055494
0.9525739751 0.2514724393 1.0369963935
0.9725483141 0.2502344747 1.0392883799
0.9825741437 -3.4295217555e-04 0.2880350792
0.9924158779 1.0020460321 0.5398801982
0.9824673684 1.0014797707 0.7875721275
0.982640418 0.2505436404 0.2917261897
0.9923864227 -1.2731724098e-04 1.0415343424
0.9926036551 0.2504681389 0.5398350949
0.9825704618 0.2480546939 0.7894839571
0.9926110189 0.2483567 1.0406322755
0.0123848558 0.7506650347 1.0310501156
0.0225863859 0.5009450707 0.7805093117
0.0025734236 0.5012418698 0.7866387644
0.0125209022 0.4992163463 1.0338391593
0.0225046107 0.7501638608 0.2809455695
0.0024831065 0.7502354571 0.287729481
0.0124089355 0.7503851584 0.5316870373
0.0224277326 0.7516999262 0.7805939955
0.0224690804 0.5010654826 0.2791957438
0.0024869357 0.5015523372 0.2847140001
0.0024386659 0.7514916461 0.7834032897
0.0124811008 0.4999147354 0.5352824183
0.0325496598 0.7500597208 1.0269816097
0.0426049446 0.5010069038 0.7774791032
0.0324925903 0.5003456147 1.0296417866
0.0425559753 0.7502354571 0.2770639203
0.0324719716 0.7504046847 0.5267726135
0.0425861669 0.7514591024 0.7781749834
0.0426723235 0.5014065412 0.2778058243
0.0325629147 0.4996947396 0.5292238423
0.0728201365 0.7511206473 1.0261992047
0.0625608741 0.5001262698 0.7774809442
0.052690421 0.7511857348 1.0269355859
0.0725649804 0.5010453055 1.026226819
0.0524639838 0.5000318929 1.0275799194
0.0626315667 0.7502745096 0.2771044213
0.0727266161 0.7502614921 0.5254084674
0.0525998461 0.7514591024 0.5281855449
0.0626116844 0.4997708919 0.2790328194
0.0724802966 0.5006482716 0.5255704713
0.0625203731 0.7511987523 0.7798935129
0.0526057372 0.4999160371 0.5273635594
0.0925407922 0.7528975364 1.022590937
0.1025592579 0.5011637648 0.7698686039
0.08263352 0.5001451452 0.7711710781
0.0925842387 0.5009463725 1.021965013
0.1026027044 0.7523182576 0.2696945858
0.0825613547 0.7518756625 0.2724412876
0.0926008073 0.7492005656 0.5228173262
0.1025629398 0.7517389787 0.7691110518
0.1024874607 0.5029784047 0.2714885944
0.0826106922 0.4999205932 0.2740751333
0.0825926509 0.7500727383 0.7731316929
0.0926899094 0.4994545666 0.52265072
0.1123936283 0.7519212237 1.0163961305
0.1224949369 0.5015679582 0.7669460911
0.1125998151 0.5009580882 1.018448793
0.1224503859 0.7528845189 0.2642453652
0.1124893579 0.7526892564 0.5166528954
0.122579989 0.5022702525 0.2626483386
0.1224949369 0.7518951887 0.7650416254
0.1126090198 0.5012203909 0.5150319364
0.1523824392 0.7489532331 1.0112782814
0.1423982152 0.5012503311 0.7618715045
0.1324099411 0.7501117908 1.0101829144
0.1524520272 0.4978612243 1.0140581203
0.1325192937 0.4976145426 1.0110665718
0.1423945333 0.7501443346 0.2624863347
0.1524604956 0.7521555388 0.5103108126
0.1324758472 0.751023016 0.5110177385
0.1424913674 0.5005636579 0.2618410807
0.1424630167 0.7505478772 0.761030189
0.1524652821 0.4988609685 0.515201304
0.1323988954 0.4993042145 0.5123238946
0.1724543487 0.7493177232 1.0091335712
0.1623324215 0.5004712336 0.7639471789
0.1724716537 0.5004126548 1.0136899297
0.1624090051 0.7481656742 0.2633479007
0.1723998565 0.7491615131 0.5120910141
0.1624160007 0.4976047795 0.2649421659
0.1624366194 0.7494999682 0.7621936712
0.1722897675 0.4996101258 0.5161852933
0.1924507792 0.7483869717 1.0024048884
0.2025093777 0.5010661335 0.7537216059
0.1823586754 0.5022546315 0.7610642466
0.1923786138 0.4997409517 1.0084063949
0.202444208 0.7508733148 0.2554787475
0.1824183222 0.748666848 0.2628158653
0.1924386289 0.7500792471 0.5084919512
0.2024162255 0.5030402378 0.2588320432
0.202442367 0.7480875691 0.7519920307
0.1824356272 0.5015523372 0.2624255833
0.1824536685 0.7514200499 0.7616018049
0.1924710297 0.5003208814 0.5112285276
0.2124140725 0.7494544069 1.0039144698
0.2225772371 0.499270369 0.7500185292
0.2125020701 0.4994649806 1.0045219842
0.2225868101 0.7508863323 0.2473509404
0.2126394052 0.7492200919 0.5020808327
0.222580919 0.4999140845 0.2487482237
0.2224627299 0.7479053241 0.7473316584
0.212503911 0.4995691207 0.4995568862
0.2525151815 0.7494739332 0.9881835272
0.2425015022 0.4993100723 0.7438559393
0.2323920935 0.7528649927 0.9941850336
0.252541323 0.4991538623 0.9929147761
0.2324830365 0.500417211 0.9986861635
0.242417923 0.7481201129 0.23921669
0.2524831489 0.7500857558 0.4911593795
0.2324985005 0.7487774968 0.4933335449
0.2423748447 0.4970521865 0.2432879573
0.2424337552 0.748484603 0.7468318397
0.2524205565 0.4993979405 0.4928088733
0.2324756727 0.4988401405 0.4992172304
0.2725189758 0.748588743 0.9914788329
0.2624692139 0.4968595274 0.7402596378
0.2724140415 0.4990965853 0.993117281
0.2624128807 0.7473130277 0.2430357468
0.2725263396 0.749897002 0.4913858167
0.2623970485 0.4974622378 0.2420167793
0.2625605251 0.7469550464 0.7410862257
0.2725344398 0.4993575862 0.492470138
0.2926486912 0.7482502879 0.9909633661
0.3025592771 0.4993458705 0.7391854418
0.2824435529 0.497148516 0.7445904795
0.2926950832 0.4994740929 0.991239509
0.3025368175 0.7479508854 0.2392231333
0.2825352323 0.7482893404 0.2400598464
0.2925212973 0.7482958492 0.4902609945
0.3026347562 0.4993100723 0.2424383576
0.3026763617 0.7496952307 0.7381268939
0.2826062931 0.4975520586 0.2399042859
0.2825223457 0.7467858189 0.7415437025
0.2925798396 0.4990542784 0.4937247474
0.3326890488 0.7482047267 0.9847225357
0.3226061497 0.5002636044 0.7386865435
0.3126002025 0.7480745516 0.9897575419
0.3326135697 0.4988075967 0.9889935464
0.3126057253 0.4996947396 0.9931080762
0.3226761059 0.7474497115 0.2343492105
0.3326036285 0.7510099985 0.4858077294
0.312703664 0.749923037 0.4870255198
0.3225424527 0.4992482392 0.2393556819
0.3226797878 0.7491550044 0.7388798436
0.3325016398 0.5013310397 0.4865505539
0.3127106596 0.5003605848 0.4915432182
0.3525610308 0.7467272401 0.9818506492
0.342662227 0.4989826822 0.7356471303
0.3525757584 0.4979432346 0.9796046866
0.3427487518 0.747410659 0.2342028547
0.3527370259 0.7466296088 0.478222083
0.3427435972 0.4997513657 0.2338107318
0.3425639202 0.7494934595 0.7341679246
0.3525120615 0.4993061671 0.4770411117
0.3725154876 0.7483999892 0.9715873367
0.3823240846 0.4979503942 0.7154279445
0.362452839 0.4976672635 0.7241540613
0.3725486247 0.4995971083 0.9713756271
0.3825486809 0.7505934384 0.2178294196
0.3626295705 0.7494999682 0.2262941211
0.3725964895 0.7480159729 0.4717916345
0.3824124504 0.4984763013 0.2156709023
0.3825486809 0.7496041082 0.7192120232
0.3624749304 0.4989690138 0.2223010942
0.3626442981 0.7484780942 0.7244789895
0.3725302152 0.4999908877 0.4729578781
0.3925376914 0.7497342833 0.9666443782
0.4024493818 0.4977935333 0.7153773183
0.3924051428 0.496413678 0.9657054922
0.4025856123 0.7493307407 0.214569092
0.3925892381 0.7505543859 0.4675841366
0.402364698 0.4975038938 0.2158890552
0.402559839 0.7496822132 0.7177843642
0.392394097 0.4988551106 0.4676807866
0.4324974152 0.7499035108 0.9608914003
0.4224899952 0.5013739974 0.7159793099
0.4125341218 0.7505543859 0.9630913391
0.432386958 0.5003124201 0.966220959
0.412489939 0.4997461587 0.9675372403
0.4226225438 0.7489467243 0.2160998443
0.4325084609 0.7488556018 0.4622444527
0.412489939 0.7502224396 0.4629845158
0.422534178 0.4989091333 0.2123065609
0.4224936771 0.7504502459 0.7132777115
0.4325268704 0.5001868012 0.4670870793
0.4125230761 0.4986383692 0.4672978684
0.4525527561 0.7506129647 0.9599156953
0.4424753799 0.5003338989 0.7124879427
0.4523907523 0.5013089099 0.96148971
0.4425342904 0.7496952307 0.2105070294
0.4526558495 0.748510638 0.4591719023
0.4424164694 0.498957298 0.2161090491
0.4425195628 0.751810575 0.7134921825
0.452479118 0.5027076406 0.4617225426
0.4726228247 0.7496691957 0.9558748037
0.4824976961 0.4993881774 0.7056920651
0.4626117228 0.5001913573 0.7087011026
0.4725528685 0.5004256723 0.9546781843
0.4826339266 0.7492461269 0.2070211851
0.4626338142 0.7509384023 0.2075449362
0.4726559619 0.7481852004 0.4581069111
0.4826007895 0.5006020595 0.2032076511
0.4825566066 0.7508017185 0.7068150464
0.4624681285 0.4997943235 0.2082408164
0.4625896314 0.7511922436 0.7062857724
0.4726191428 0.4991167624 0.4553657322
0.4926155733 0.4993309004 0.9572094945
0.5025788104 0.7498839845 0.204816644
0.4926192552 0.7493437582 0.4548585496
0.5027739514 0.5009606917 0.2066870521
0.5025309456 0.7496561782 0.7043058275
0.4926155733 0.7500141596 0.9572371088
0.4926229371 0.4984860644 0.4541350552
0.5025898561 0.5007179153 0.7064551401
0.5124242266 0.749740792 0.9568136896
0.5126377771 0.5006541295 0.9588295331
0.5126156857 0.7510099985 0.4560505667
0.512718779 0.5007380924 0.4588386898
0.5226120599 0.5002753202 0.7081580215
0.5325973885 0.7476840266 0.9606152574
0.5326968 0.4998255655 0.9629440628
0.5226930619 0.4988407914 0.2095396086
0.5225273761 0.7506715435 0.2077704529
0.5325605695 0.749532512 0.4574929533
0.5325863428 0.5011540016 0.4603731241
0.5225678771 0.7499295458 0.7096795691
0.5425348523 0.4974362028 0.7126453442
0.5525790914 0.7489402156 0.9625758722
0.5624134618 0.4990171785 0.7160962104
0.5525201809 0.4992814338 0.9635791916
0.5425348523 0.4994617263 0.2133531426
0.5426453095 0.7496041082 0.2116870802
0.5625202371 0.4983252983 0.2167865198
0.5625202371 0.7479573941 0.2139017466
0.5525422723 0.5000846138 0.4651016116
0.5525128171 0.749688722 0.4623954108
0.542509079 0.7492396181 0.7125385689
0.5625276009 0.7492591444 0.7145461281
0.5824651208 0.4986331622 0.7192239894
0.572332516 0.7493437582 0.9662117542
0.5725644761 0.499358888 0.9700777553
0.5825056218 0.4990399592 0.2211136796
0.582457757 0.7505739122 0.2172918613
0.5725792037 0.4997207746 0.4667446621
0.572413518 0.7477230791 0.4656272037
0.5825166675 0.7509579285 0.7197514224
0.6024320961 0.4988147564 0.7225551937
0.5923841751 0.7509579285 0.9694150123
0.6124395161 0.7507561572 0.9766131382
0.5924578132 0.4993465214 0.9694886504
0.6125131542 0.501329087 0.9751863997
0.6024983704 0.7499620896 0.2218031164
0.6024468237 0.4982582581 0.2195580744
0.5924320399 0.7491745306 0.4684779193
0.5924762228 0.499457821 0.4709705695
0.6123511503 0.7513354361 0.4734199573
0.6125389275 0.5004269741 0.4764842234
0.6025204618 0.7498774758 0.7216881049
0.6225168923 0.4999160371 0.7305219174
0.6323365351 0.7522011 0.9833970496
0.6324801294 0.4998431391 0.9854681216
0.6225132104 0.7513679799 0.2280227758
0.622410117 0.5000768033 0.2285170717
0.6323218075 0.7513289274 0.4827471452
0.632458038 0.5021667633 0.4835884607
0.6225721209 0.7521034688 0.7276132118
0.6424323208 0.5003332481 0.7359076251
0.6523624208 0.7501898959 0.9846396928
0.6623808865 0.4999082266 0.7397984791
0.6524397408 0.5014325762 0.9890579798
0.6424028656 0.7515697512 0.2348269378
0.642424957 0.5002629536 0.2365850478
0.6622630655 0.75204489 0.2385217303
0.6624839799 0.5024987097 0.236243551
0.6522004169 0.7488425843 0.4862734905
0.652355057 0.5008409307 0.4897068677
0.6423770922 0.7517715224 0.7363927162
0.6623698408 0.7504958072 0.7384895616
0.6822374046 0.5016115669 0.7383450468
0.6723073046 0.7512508223 0.9902085754
0.6724398532 0.5008617587 0.9919390711
0.6823110427 0.7493372494 0.2424742561
0.6824251818 0.5003072131 0.2406627585
0.6722042112 0.7504046847 0.4879561215
0.6723073046 0.5004243706 0.490203925
0.6822815874 0.7510099985 0.7377412142
0.7023737475 0.5024388292 0.7447985072
0.6922705979 0.7525720989 0.989361737
0.7124474418 0.7521425213 0.9934762668
0.6922742798 0.5007198679 0.9917917949
0.7123848494 0.4998509496 0.9895918561
0.7023222008 0.7521815738 0.2456084785
0.7022669722 0.4995476418 0.2436920465
0.6923037351 0.7494544069 0.4926928933
0.6923184627 0.5014748831 0.4921249593
0.7123738037 0.4995482927 0.4920522417
0.712440078 0.7535419028 0.4962118748
0.7023369284 0.7500792471 0.7428820752
0.7223259951 0.5004881564 0.7429207352
0.7324512361 0.7527673614 0.9960628056
0.7423555627 0.4984346453 0.7424245984
0.7323923256 0.5005805806 0.993430243
0.7224106789 0.7513028923 0.2456425361
0.7224254065 0.5003566796 0.2423104113
0.7423739722 0.7489922856 0.2466707083
0.7424255189 0.5011878471 0.2476574591
0.7325248742 0.4999642019 0.493231372
0.7323886437 0.7509058585 0.4974489951
0.7223922694 0.7500597208 0.7447451196
0.7425138846 0.7496431607 0.745686767
0.7523813922 0.499249541 0.4980730782
0.7524734399 0.7505218422 0.9952896054
0.7623630389 0.5016167739 0.7472552589
0.7524550303 0.4983565403 0.9972962441
0.7624661322 0.7491159519 0.2492839409
0.7624403589 0.5009515795 0.2480735144
0.7524255751 0.7522531701 0.4994188148
0.7624072217 0.7487254268 0.7474918213
0.772289457 0.5011292684 0.4995900234
0.7724882799 0.7521425213 1.0025889837
0.7923632074 0.5004419442 0.5057885118
0.7924552551 0.7510946123 1.0069244278
0.7823962884 0.5003286919 0.7534288944
0.7723410036 0.5017352331 1.0047981272
0.7925325751 0.5021264091 1.0053872321
0.782411016 0.7494088457 0.2528912882
0.7824478351 0.5033402912 0.2549439507
0.7724477789 0.7510555598 0.5006863108
0.7924147541 0.7480289904 0.5076147371
0.7824956999 0.7511727173 0.7531987753
0.8125584608 0.5003762058 0.5077095462
0.8125105961 0.7505674034 1.0056725798
0.8024369017 0.4989943979 0.7583442387
0.8125400513 0.5010700387 1.0081394567
0.8024332198 0.7505934384 0.258136163
0.802584178 0.4997663358 0.2568198817
0.8123633198 0.7505153334 0.507991212
0.8025731323 0.7510360335 0.757745929
0.8324849351 0.5021921475 0.5084753826
0.8323671141 0.748770988 1.0104590573
0.8224738332 0.5011696226 0.7575599927
0.842418717 0.4992202516 0.760168623
0.8325769827 0.5018680117 1.0115728338
0.8226468828 0.7499620896 0.261772045
0.8224701513 0.5009424672 0.2582125625
0.842455536 0.7496496695 0.2610439481
0.8425512656 0.5008422324 0.2593097705
0.8324738894 0.7506259822 0.5096094096
0.8225621989 0.7512312961 0.7606491117
0.8425402199 0.7505283509 0.7656058774
0.8524960932 0.5016714474 0.5127804509
0.8624225113 0.7491419869 0.7685412768
0.8625992427 0.5014058903 0.7640097713
0.852462956 0.7506064559 1.0166814782
0.8524335008 0.4997715428 1.0129995724
0.8625145589 0.7486017605 0.2694092381
0.8625771513 0.4986233991 0.2650710326
0.8524482284 0.7487774968 0.5164246172
0.8724520227 0.4985902044 0.5173938789
0.8824962618 0.749818897 0.7745179304
0.8925073637 0.5026972266 0.5244207962
0.8724888418 0.7475798865 1.0200596267
0.8924889541 0.749506477 1.0290342722
0.8824631246 0.4986618007 0.7707798756
0.8724299313 0.5013141169 1.0201332649
0.8925515465 0.5006638926 1.0284635768
0.8824594427 0.7499751071 0.2711848372
0.8824410332 0.5002967991 0.2727652953
0.8724593865 0.7494674244 0.5220772631
0.892374815 0.7501508433 0.5260362324
0.9125111579 0.5002798763 0.5280750877
0.9023932808 0.7508863323 0.7753721326
0.9225075322 0.7502745096 0.7757209932
0.9124338379 0.7507756835 1.0285003958