POSCAR file written by Ovito 3.7.11
1
271.6077899452 0.0 0.0
0.0 15.3644568075 0.0
0.0 0.0 10.8643115978
Sr Ti O 
800 800 2400 
Direct
0.0223317452 0.5002291002 0.7764718235
0.0123244475 0.2479644059 0.5286300734
0.0224833976 0.2507402931 0.7775643916
0.0024661515 0.2515297776 0.7799069238
0.0123048604 0.2487838296 0.0251268417
0.0226427451 0.0021913826 0.2767356045
0.0025803603 -9.5158562711e-04 0.2747962272
0.0023630248 0.4990100529 0.2789612403
0.012488213 0.4991272064 0.5323808863
0.0124773886 5.0007649668e-04 0.5278605815
0.022548602 0.0016181766 0.7776380272
0.0026160735 -0.0011918154 0.7769624207
0.0224788322 0.2489673701 0.2786970726
0.0024489207 0.2497054372 0.2770982598
0.0324898485 0.5007992473 0.0272633784
0.0423621721 0.5034065636 0.2737450791
0.0324725441 0.5011663282 0.5289264567
0.0325207754 0.2507084013 0.5234074692
0.0424442758 0.2482130316 0.7731600629
0.0324169493 0.2518272173 0.0226525938
0.0524215301 0.5005896727 0.0216158047
0.04256467 3.7068695659e-04 0.7707328497
0.0425009752 0.2522763058 0.2710233236
0.0524907476 0.2512557686 0.5211109592
0.052526829 0.2498141296 0.0216264819
0.0625250695 0.2480620338 0.2689449591
0.0626473046 0.4995144638 0.767179012
0.0723635208 0.5012828309 0.0171591947
0.0624065162 0.4975918446 0.2687323363
0.0724920149 0.4993465438 0.5187785519
0.0724817059 0.2488254841 0.5151372719
0.0625545237 0.2502261194 0.7677855852
0.0725538688 0.2492231552 0.0156505855
0.092619199 0.2502762351 0.5161276706
0.1025887216 0.251227131 0.7616719903
0.0826165404 0.2513846374 0.7671863756
0.0924266419 0.2515564626 0.0141132585
0.1025312858 -0.0014921189 0.2650790906
0.0925139001 0.0012065121 0.5160135355
0.1024852636 0.2514796619 0.2639073642
0.0825079279 0.250457823 0.2673470667
0.10256479 0.5011305313 0.7643468031
0.0825690454 0.5003599216 0.7655903242
0.1025640537 0.5017371262 0.2627650921
0.0824928326 0.5000013017 0.2669144576
0.1224832173 0.2511262489 0.2595370919
0.112487554 0.5016746443 0.0146216202
0.1124728269 0.2522385563 0.5112934941
0.1224508176 0.5029945738 0.2607815334
0.1124087639 0.5029542209 0.5133543702
0.1223985363 0.2504376466 0.759840305
0.1125361535 0.2531367332 0.0113961972
0.1225354985 0.0045604869 0.264202827
0.1524157166 0.2495264526 0.5086039542
0.1324450081 0.2527019635 0.5084428763
0.1424859572 0.2509654882 0.7567107924
0.1524193984 0.2507057979 0.0069460303
0.1324549489 0.2536216186 0.0081385587
0.1425687973 1.2284220375e-04 0.2562409788
0.14257432 0.2521454844 0.2607898174
0.1425573838 0.500680792 0.7586345222
0.1524959794 0.4993660694 0.0067808105
0.1324936076 0.4980142481 0.010191611
0.1525674059 0.4979947225 0.5076724639
0.1324129766 0.4994155342 0.5130589074
0.1823964473 0.2502482484 0.2540797742
0.1724652152 0.5002629445 0.5049589924
0.1823666249 0.5011428975 0.7557894271
0.1725042421 0.2480939256 0.5048531413
0.162552392 0.250864606 0.75447135
0.1724961422 0.2489237629 0.0074333138
0.1824502013 0.49983208 0.2550692525
0.1625159424 0.0012950932 0.7532416356
0.1625634374 0.2496052058 0.255428226
0.182491069 0.2481446921 0.7551073774
0.1825161051 0.0013562734 0.2546568932
0.1925739904 0.0015737233 0.0054810503
0.2023491151 0.2510273192 0.255577338
0.202357215 0.5007458773 0.7564585905
0.1925386454 0.5005538757 0.0031045536
0.2023281289 0.5016421017 0.2551935125
0.192484155 0.498425587 0.505266421
0.1923821697 0.2494860998 0.5032313174
0.2023450651 0.2521090366 0.7541096151
0.1923586063 0.2527520792 0.0052689798
0.2024555185 -0.0014660848 0.2547056767
0.212493154 0.2506823672 0.5044591909
0.2223131964 0.2520491581 0.7563352509
0.2123801234 0.2511373134 0.0050496377
0.2225698164 0.0011946015 0.7558888351
0.2222969966 0.252372632 0.2526033806
0.2324303583 0.2498160821 0.5023679401
0.232479326 0.2502313262 0.9989728056
0.2323519364 6.2881518395e-04 0.4989512487
0.2223761548 0.5035425919 0.7572032304
0.2124629634 0.4995912644 0.0031600564
0.2124184139 0.5021725467 0.5011152146
0.2423464951 0.5019603687 0.7465371151
0.2624666839 0.2488131179 0.7427430413
0.2624306025 -0.0012675747 0.2444445572
0.2623275126 2.8933035442e-04 0.7438383707
0.2523867079 0.2505821359 0.4955198302
0.2423799993 0.2524552903 0.7479776113
0.2524268393 0.2502547569 0.995042506
0.2624663157 0.2486198147 0.2459724957
0.2425832336 9.7624041784e-04 0.2493302786
0.2624758883 0.5027693787 0.2450143126
0.2524198439 -1.3684807037e-04 0.4981182461
0.2424900845 6.7971187426e-04 0.7480309972
0.2523462083 0.0015636351 0.998181223
0.2424245489 0.2503322084 0.2499285678
0.2724638198 0.2491671819 0.4923139206
0.2723968114 0.2472998851 0.9937814965
0.2722985079 0.0010376158 0.492567043
0.2723485801 8.5798046093e-04 0.9932936607
0.2823921065 0.2495856802 0.7405487007
0.2724200067 0.4998913076 0.4912489659
0.282537905 0.2498447197 0.2412137957
0.312393087 0.0013698762 0.4884765859
0.2926057311 0.5001750794 0.4895765176
0.2924459419 0.2484011281 0.4880725106
0.3025141361 0.2504890639 0.7417112226
0.2923273886 0.2480327454 0.9925849181
0.2924363692 0.0019760805 0.4918270053
0.3024585413 -4.5989017069e-05 0.7371633044
0.3125915349 0.5009378789 0.4900846031
0.3024511777 0.2509004029 0.2393250428
0.3125120084 0.2518857941 0.4914533047
0.3124972813 0.2484486404 0.989096432
0.3224830038 0.0014236366 0.2386871745
0.3325250574 0.0020006828 0.4912655339
0.3224207817 0.0016419978 0.7400323311
0.332375209 0.0011638162 0.9928334382
0.3225010445 0.2520725889 0.242184865
0.3225304987 0.5008897158 0.7405726323
0.3225161398 0.5010660969 0.2431246392
0.3326141565 0.2509804578 0.493134037
0.3226129706 0.2498095736 0.7399163551
0.3324819806 0.2528425477 0.9888018897
0.3626342822 0.2500503891 0.2318639166
0.3527932537 0.5005857675 0.4844349125
0.3525804468 0.2503107303 0.486571265
0.3424191035 0.2509596305 0.7377450256
0.3625790555 0.4989065673 0.732728601
0.3525782378 0.2492700166 0.9853962436
0.362553283 0.4986683551 0.2328313041
0.3424765393 -0.0014022361 0.2365673899
0.342631174 0.2508678603 0.2347228184
0.3625753737 0.2500165448 0.7275207239
0.342564902 0.4981652459 0.7371734293
0.3425925153 0.500818122 0.2368462847
0.3826116179 0.2506140277 0.2274568265
0.3925045595 0.2505502441 0.4776889719
0.3925892404 0.2494724318 0.9789163116
0.392729148 0.0010684663 0.9754646433
0.382626345 0.5017976555 0.7275667461
0.3925818769 0.5009879946 0.9778854134
0.3726155865 0.2494385875 0.479524339
0.3825968908 0.2491782464 0.7286906093
0.3725677234 0.2495407714 0.9814935573
0.3925340137 0.50119822 0.4768973893
0.3725124967 0.0026340276 0.4796237471
0.4125665761 0.5008838581 0.9743969273
0.4026110443 0.2522821635 0.7274977127
0.4026220896 -1.2344050233e-04 0.7232507801
0.4025558176 0.2511132318 0.224259201
0.4125665761 0.2487538903 0.4755378922
0.4125003041 0.248436925 0.9739367048
0.4125813032 -0.0022643037 0.475750515
0.4126549388 9.0210828195e-04 0.9739919315
0.442543625 -0.0023056459 0.7222401316
0.442359536 0.249405394 0.226371622
0.4224411088 0.5003651284 0.7253852917
0.432473958 0.4987458066 0.97318194
0.4324776398 0.499208563 0.4765651087
0.4424184445 0.4991278572 0.7220146226
0.4425141708 0.501936938 0.2238836594
0.4325255029 0.248649103 0.4740679418
0.422437427 0.2517484641 0.7263094184
0.4325255029 0.2485221867 0.976339066
0.4224153364 -0.001945516 0.2226336953
0.4326801377 -0.0023455822 0.9731359178
0.4224337453 0.2499761919 0.2252652472
0.4424037174 0.2472972817 0.7267733226
0.4725464464 0.2523173095 0.4646563929
0.4626387777 0.2505626103 0.7182159466
0.4724544019 0.2486699303 0.9670241638
0.4725611735 -0.001267835 0.9681471065
0.4625209607 0.2504454568 0.2215733428
0.4525433382 0.5004666615 0.9718564994
0.4525875196 0.4987581728 0.4726256046
0.4625614603 0.5031559853 0.7176885316
0.4726127184 0.4978782198 0.9664442835
0.4625025518 0.499619902 0.2158960388
0.4525065204 0.249573314 0.4717152846
0.4525433382 0.2515506049 0.9731359178
0.4525654289 -8.842874458e-04 0.4715873428
0.4824762058 0.2511405676 0.718065914
0.482387843 -7.2814785492e-04 0.7131627042
0.4924317376 0.5000123662 0.9702457209
0.4925569181 0.5022962087 0.4671268669
0.4826013863 0.2515994189 0.213879344
0.492358102 0.2483490599 0.4642385109
0.4924501465 0.2516436768 0.9629097752
0.4824835693 0.5028728643 0.2117678435
0.5024424961 0.2510396854 0.7155273271
0.5125232085 0.2503465272 0.4676588841
0.5124090733 0.2514269429 0.9679538131
0.5024314508 0.0017120946 0.7165747933
0.502494041 0.2507591679 0.2166655307
0.5225266034 0.2502664723 0.2207164086
0.5224382407 0.2505456881 0.7228623523
0.5126042076 0.5000891668 0.470056643
0.5226112844 0.5012099354 0.7218544652
0.542706437 0.5007367654 0.7254681318
0.5526325146 0.5014077946 0.9751793054
0.5427138006 0.500831139 0.2235955602
0.5525809697 0.5019356363 0.4749736595
0.5325263166 -3.4251756065e-04 0.4737236954
0.5325299984 0.248826135 0.4703576284
0.5326404518 0.2496833082 0.9740747716
0.5325520891 0.497037318 0.9756763457
0.5525699244 -4.2930008827e-05 0.9733936424
0.5424523942 0.2502729808 0.2248326381
0.5524889252 0.251377478 0.4752396681
0.5426143925 0.2537270567 0.724370041
0.552558879 0.2491938668 0.9767072439
0.5725619872 0.2499137101 0.4762254646
0.5725840779 0.2516729652 0.9779406401
0.562562274 0.4997357538 0.7256632661
0.5625033655 0.5026561303 0.2249430915
0.5723778982 0.503024513 0.9784560892
0.5725030787 0.5031266969 0.4766884483
0.5625254562 0.251549954 0.2267839813
0.5623929121 0.2514744551 0.7241215209
0.6026163535 0.5015620468 0.7328491793
0.5924840962 0.5016323389 0.9813094683
0.5924104606 0.500897526 0.4824265017
0.5826022 0.2509778544 0.7245835842
0.6024506734 0.2505072878 0.2309434717
0.5925061869 0.2494600656 0.4801318326
0.602590581 0.2510038885 0.7261032387
0.5925835042 0.2477522278 0.981548784
0.5825212008 0.5004041796 0.7314151262
0.582384975 0.502494068 0.2291099455
0.5824991101 0.25130263 0.2294836461
0.6124356594 0.5023847247 0.9876145158
0.6125056133 0.5010992904 0.4860521341
0.622295465 0.4982856537 0.7397571181
0.6124246141 0.0011075825 0.4804190114
0.6224316909 0.5003853049 0.2360031572
0.6125682035 0.250798219 0.4822074358
0.612476159 0.2503211439 0.9843837542
0.6223654188 0.0010391779 0.7361213608
0.6224905993 0.2518356784 0.2342957319
0.6223875095 0.2508841316 0.7319756771
0.6425047528 0.0019209533 0.2397825039
0.6523866491 0.0013804851 0.491756131
0.6323761774 0.5020221997 0.4883035423
0.6424789804 0.2496676877 0.2384653473
0.6524529211 0.24893678 0.4912158299
0.6424716168 0.2502534552 0.7384629726
0.6324498129 0.0016983616 0.4887904576
0.6524971025 0.250612726 0.9897407434
0.642467935 0.5002037169 0.7406214159
0.6524418758 0.5013537739 0.4922927504
0.6325197668 0.2503803715 0.4848647602
0.6323135871 0.2494600656 0.9856539682
0.6823268802 0.5007100804 0.7407677666
0.6623937258 -0.0011090269 0.2430878214
0.6823710615 0.5005825133 0.241216557
0.6624968157 9.6628236974e-04 0.7413283175
0.6724597111 0.4994116291 0.4929867659
0.6624526343 0.2470545136 0.242669019
0.6623937258 0.2499345373 0.7423444887
0.6723308488 7.6631653718e-05 0.9911950464
0.6623384991 0.5011656774 0.7410632294
0.6624452707 0.5010049167 0.2403752704
0.6824115611 0.2493357528 0.2399113662
0.6723455759 0.2499299814 0.4890555458
0.6825109692 0.2489465428 0.7425635546
0.6724707564 0.2502554078 0.9916368599
0.702503032 0.2480229826 0.2425337136
0.692348684 0.2501688444 0.4952243674
0.7022489892 0.2469549331 0.7434545452
0.6924112743 0.2496774505 0.9942417189
0.6925180459 0.4993354793 0.9924192381
0.6924186379 0.4984119191 0.4910363432
0.7323401733 0.4982602704 0.9959261331
0.7324027635 0.4970418739 0.498194643
0.7124143825 0.2485859703 0.4964439568
0.7123996553 0.2493923769 0.999617117
0.7223699143 -0.0019439865 0.2467686805
0.7325021716 -0.0011148846 0.4994041076
0.7325831707 0.0012639824 0.9995434814
0.7125211541 0.4985772357 0.9926493493
0.7224030503 0.2487213477 0.2505673566
0.732310719 0.2508977995 0.4970045078
0.7224730041 0.2505600069 0.7512764858
0.7323733093 0.2492042805 0.9970398714
0.7124953816 0.4965674022 0.4935914981
0.7125358812 -3.5898413693e-04 0.4971462563
0.7123775647 -0.0011739169 0.9958985197
0.7523432814 0.4975638579 -9.5697385602e-04
0.7423987949 -0.0018552167 0.24850556
0.7425571114 -0.002129486 0.7470590074
0.7423987949 0.251665155 0.2508011496
0.7424687487 0.2470076522 0.7503357911
0.762604401 -0.0013057797 0.250150395
0.7525273704 9.9086075916e-05 0.5024268486
0.7624497662 -8.1119667441e-04 0.7531946929
0.7524058717 -8.7947113495e-04 -9.0063342483e-04
0.762453448 0.2480425082 0.2512650538
0.752450053 0.248764304 0.497969134
0.762387176 0.2483627278 0.7498461145
0.7524390077 0.2506185837 -6.6793202325e-05
0.782375557 -0.0018415227 0.2534198152
0.7824639197 -0.0010341788 0.752543018
0.7724163434 8.2667444042e-04 2.4563340376e-04
0.782375557 0.2472771053 0.2536959487
0.7724273887 0.2499078524 0.5024158032
0.7823866023 0.2468071896 0.7547125065
0.7724862972 0.2485592853 0.0026572174
0.7925188596 -0.0025501062 0.5021010111
0.792412088 -0.0019825755 0.002836428
0.8125366949 0.4986058733 0.0046640634
0.7924636329 0.2462578698 0.5050887752
0.7924673147 0.2482273504 0.0049932145
0.8025001639 -0.0018913585 0.2506419126
0.8124483322 -0.002919732 0.5045346673
0.8025590724 -3.5475359361e-04 0.7508457176
0.8125698309 -0.0027524563 6.4924848425e-04
0.8024559825 0.2473037903 0.2546651772
0.8124630593 0.2493227357 0.5039768777
0.8024375736 0.2468878953 0.7528486057
0.8123820601 0.2469965877 0.0016360759
0.8326981196 1.1783063706e-04 0.5120436567
0.8225179992 -0.0027829097 0.7533879864
0.8324845764 -0.0024533244 0.0046078242
0.8225769076 0.248259893 0.2515421077
0.8324146225 0.248636086 0.507862996
0.8224149093 0.2487122358 0.7541142174
0.8324919399 0.2491060017 0.0077169029
0.8225621805 -0.0029118307 0.255645451
0.8426499696 -0.0017331297 0.7601882331
0.842476926 0.2497080406 0.2574209891
0.842410654 0.2503660528 0.753536178
0.8627046227 -3.188265181e-04 0.2584233536
0.8424695624 0.4979660849 0.758954837
0.8526055015 2.4448659531e-04 0.5047868692
0.8626088964 8.851861087e-04 0.7579506316
0.8525686837 5.0988052715e-05 0.0098352148
0.8625021248 0.249750346 0.258984825
0.8425542434 -0.0021033803 0.2595085581
0.8526570464 0.2489530513 0.508640772
0.8624800341 0.2511008656 0.7566215092
0.8525686837 0.2477698009 0.008203358
0.8725533829 0.0013528889 0.5087466231
0.8925969907 -3.0639522929e-04 0.5108949415
0.8726307003 -8.9984282813e-04 0.0049702954
0.8826193681 0.2506771604 0.2599052699
0.8926006724 0.0010243384 0.0112599714
0.8726380639 0.2501167761 0.5071017881
0.8926006724 0.2489641158 0.5125029587
0.8825751868 0.2506179328 0.7580187446
0.8726601545 0.2512023986 0.0094704425
0.8925859453 0.2489087933 0.0113969336
0.9024383873 1.4178202073e-04 0.2629445789
0.9124933272 -0.0021341006 0.5150369434
0.9024199784 -0.0021819708 0.7658784234
0.9026924301 0.2487675582 0.2621290647
0.9126037806 0.2475940706 0.5149485807
0.9026666577 0.2500679622 0.7618165001
0.9025046594 0.4966734913 0.7639758638
0.9125559175 0.2480997833 0.013832891
0.9225151311 -0.0023343159 0.2665610068
0.922599812 -0.0017469278 0.7664352926
0.9226550387 0.2497594579 0.2671574551
0.9227029018 0.2481765839 0.7656160966
0.9425071939 -7.9323313665e-04 0.2682601481
0.9325811163 -0.0020444196 0.5194707264
0.942455649 -3.4193179311e-04 0.7697829506
0.9324485722 -0.0019385388 0.0215045229
0.9425476935 0.2484167486 0.2684037375
0.9326952515 0.2478296793 0.5153784285
0.9425918748 0.2501590816 0.7668596176
0.9326473883 0.2475647822 0.0141919565
0.9526394512 -0.0022053039 0.5256901725
0.9525510885 -0.0013986564 0.0226271895
0.9626133919 0.2494281739 0.2744280492
0.9525179524 0.2474007673 0.5208504733
0.9724032437 0.2472862172 0.5267799792
0.9624513936 0.2486250215 0.7743041758
0.9524001355 0.2513924477 0.0216530827
0.9724437432 0.2489458919 0.0245210049
0.9626060283 0.0010814833 0.2732692091
0.9825207738 0.500853268 0.777575437
0.9825539098 0.4986501313 0.2748100338
0.9825023649 -0.0018811401 0.2775354711
0.9925168052 -5.881081757e-05 0.5265977311
0.9823955933 0.2474612966 0.2753181194
0.9926530311 6.9331469814e-04 0.0300514059
0.9922848531 0.2486627709 0.5239799859
0.9824213657 0.2469770621 0.7749613735
0.9923805794 0.2483139138 0.0255177547
0.0124650178 0.7501357548 0.0291428348
0.0024017939 0.500618961 0.7745738662
0.0124238555 0.4990198157 0.0292284361
0.0224642156 0.7480139746 0.2799359914
0.0025872452 0.7492050352 0.2796534148
0.0125252886 0.7495369702 0.5283861555
0.0225326967 0.7503635532 0.7802336818
0.0222819307 0.4997754558 0.2772878715
0.0025452729 0.7500120927 0.7807113927
0.0125965678 1.0011241267 0.0294544054
0.0525242518 0.998872176 0.5183487041
0.0525802148 1.0003105607 0.0193423059
0.0323963313 0.7507410479 0.0281072422
0.0424814618 0.500190049 0.7700066187
0.0426232103 0.7495890384 0.2728375205
0.0325189346 0.7515155627 0.5270045678
0.0425919152 0.7503245021 0.7741145642
0.0527385314 0.7491269329 0.022539103
0.0525794785 0.7487299127 0.5225210808
0.0524469344 0.499026975 0.5176123482
0.0425057615 1.0005513762 0.2694088633
0.0325513342 1.0013389081 0.5246427062
0.0326470605 0.9987875651 0.0247861851
0.0725663868 0.9994904861 0.5148114344
0.0624175615 0.999451435 0.7660661942
0.0725369326 1.0013974849 0.0137148899
0.0724113839 0.7505392835 0.0196440277
0.06248052 0.7490358135 0.2669319461
0.0725652823 0.7514830201 0.5190408787
0.0624727882 0.7500316183 0.7702468548
0.0625276468 0.9977722347 0.2700228
0.082512346 0.9998159125 0.2670221497
0.1025426994 1.0003040522 0.7636748784
0.0824302423 0.9978243029 0.7674763157
0.0926162536 0.9997638443 0.0147905218
0.0926140445 0.7528563195 0.0127831236
0.0924932821 0.4999908881 0.0132585334
0.1025831989 0.7515285798 0.2648425362
0.082586718 0.7477666505 0.2665628477
0.0925032229 0.7487754724 0.5157383224
0.1026395302 0.7498623966 0.7634429262
0.0825984997 0.7494783934 0.7664187245
0.0925341499 0.501308865 0.5180477186
0.1126458705 0.9998875064 0.0118132508
0.1125659759 0.7496866663 0.0111480453
0.1225575892 0.5020469321 0.7609052597
0.1226643608 0.7529864901 0.2616577969
0.1125899075 0.7518474977 0.5128444437
0.1225568529 0.7509297952 0.7604882982
0.1125818076 1.0023672556 0.5099680535
0.1226205476 1.001644809 0.7609236686
0.1525545197 1.0001478475 0.5093108558
0.132581234 1.004306797 0.5092639131
0.1425960425 1.0014820958 0.7594500363
0.1526112191 1.0000762537 0.0070690938
0.1326357243 1.000967922 0.01020192
0.1527209361 0.7493937825 0.006339181
0.1326938964 0.752504859 0.0114416672
0.1424693892 0.7496866663 0.2607327498
0.1526679185 0.751912583 0.5049369018
0.13269721 0.7515415968 0.510109802
0.142537134 0.4992430582 0.258283446
0.142547443 0.7519060744 0.7587348507
0.1725845049 0.7499014477 0.0044970947
0.1625417149 0.4994246461 0.7550144125
0.1725145511 0.4986332091 0.0065985624
0.1625015835 0.7499470074 0.2565704981
0.1825057962 1.0012477887 0.7541952165
0.1724534335 0.7514179348 0.5030426262
0.1624905381 0.4978404704 0.2556003492
0.1624901699 0.750780099 0.7546793705
0.1826055724 0.7510794913 0.2516175842
0.1824652966 0.7515611224 0.7537230283
0.1624967971 0.9995230288 0.2553076477
0.1726113819 1.0021719997 0.5028419692
0.1724711061 1.0020808804 0.0041327826
0.1924237738 1.0004797824 0.5065081012
0.2023748875 1.0002324583 0.7566712133
0.1923556609 0.7518084465 0.0024889601
0.2025589765 0.7529344219 0.2526935842
0.1924403418 0.7511706107 0.5038461746
0.202417228 0.7502659253 0.7516474251
0.232338682 0.7542231105 1.0012923267
0.2323762362 0.5024166165 0.9998196149
0.2324240993 0.7508256587 0.5037449256
0.2324336719 0.4984008546 0.501008443
0.2224383769 1.0016057578 0.2543200103
0.2124246729 1.0011696864 0.5066618155
0.2123039106 1.0012933484 0.0067215338
0.2124482363 0.7498298539 0.0019250035
0.2323257958 1.0034021116 0.9997275704
0.2223658458 0.7528237769 0.2527230385
0.2124747451 0.7506889797 0.5056530079
0.2224663584 0.5014995649 0.2541552507
0.2224346951 0.7502789424 0.74991975
0.2525052612 0.7498949392 0.9939103588
0.2523487856 0.499783266 0.9964139688
0.2424179217 0.7518344806 0.2476983299
0.2523808171 0.7506824711 0.4959809731
0.2423564359 0.5000631327 0.2471819603
0.2425648247 0.7523030946 0.7471151545
0.2525991466 0.5009300687 0.5004331649
0.2623764803 0.5017748756 0.7449640748
0.2624722066 0.750780099 0.2460654606
0.2623823711 0.7504937238 0.7464211391
0.2824720011 0.4987067555 0.7404446904
0.2825445322 0.7515220713 0.2408677084
0.282424138 0.500990598 0.2427178026
0.2823943156 0.7504611812 0.7430872877
0.2723923933 0.7499990757 0.9931832073
0.2724479882 0.5003774946 0.9932568429
0.2724008614 0.749608564 0.4895581087
0.2824392333 1.0000372025 0.241417214
0.2824705284 0.9983514937 0.7405201669
0.3125672351 1.0002389669 0.9890688187
0.2924812869 0.7516847845 0.9879182626
0.3025955035 0.5032926644 0.7406646768
0.2925644952 0.4992079121 0.9887374585
0.3024964636 0.749152967 0.2400264218
0.2924746597 0.7493091717 0.4894982798
0.3025465358 0.4994409174 0.241475202
0.3025785673 0.7509363037 0.7404060318
0.3024695866 1.0010980926 0.2386383909
0.3124972813 0.7515220713 0.9908084595
0.3125407263 0.4991649558 0.9874488357
0.3125911667 0.7517954294 0.4879335235
0.2925100048 1.0001218134 0.9874856535
0.3323895679 0.7516717674 0.9896855168
0.3324948668 0.4983312134 0.9888571164
0.3224229908 0.7520102109 0.2376443104
0.3325394164 0.7521013303 0.4919061636
0.3226936015 0.7492896461 0.7387050496
0.3326182064 0.4994903822 0.4890794773
0.3525984876 1.0021524742 0.4855210374
0.3424272034 1.0002064242 0.7391606698
0.3625937826 0.751814955 0.2341549039
0.3525233793 0.9994839776 0.9859761239
0.3626858271 0.7488470662 0.729964505
0.3624686021 0.9997638443 0.2355466165
0.3524747798 0.7507540649 0.9834449005
0.3624170572 1.0001348304 0.7326328747
0.3525594607 0.5013550756 0.984153643
0.3426120288 0.7505262664 0.2390728409
0.3525399473 0.7503375191 0.4821862656
0.3425361841 0.750545792 0.7373335867
0.3925929222 1.0008117174 0.4757928555
0.3726192683 0.7497777857 0.982800589
0.3727518123 0.500322823 0.9823311622
0.3825858454 0.7503700618 0.229218558
0.3725529962 0.7495695128 0.4803637848
0.3826521175 0.5000143188 0.2291725357
0.3826410721 0.7514244433 0.7306005324
0.3824901192 0.9992236365 0.2301380824
0.382493801 0.9995685885 0.7305029653
0.3725419509 1.0019442013 0.9805270902
0.3726634496 0.5011767419 0.4791294682
0.3925487408 0.7515025457 0.9747559008
0.3925082413 0.7512682387 0.4765466998
0.4123898507 0.7504937238 0.9752437366
0.4124082596 0.7492505949 0.4739528862
0.4124782134 0.4990126563 0.4736390144
0.402699407 0.9991390256 0.2245500615
0.4025521358 0.5008122643 0.7262035672
0.402482182 0.7512877642 0.2229070674
0.4023349108 0.5002928838 0.2284260549
0.4025410905 0.7518800403 0.7292410353
0.4324702762 0.7477861761 0.9768453107
0.4226178342 0.7494523593 0.2237115363
0.4326396381 0.7481962134 0.4714069356
0.4225073808 0.4988512448 0.2232816885
0.4227098787 0.7488861173 0.7250787836
0.4426283059 0.7496345981 0.222455129
0.4426319877 0.7470507124 0.7256641865
0.4324334584 0.9995360458 0.472543685
0.4224889719 0.9986053263 0.7215221846
0.4426025335 0.9989893295 0.2234261983
0.4526390645 0.9987810566 0.9710557124
0.4624620523 0.9968935834 0.216200706
0.4726568998 0.9990934659 0.467033902
0.4625135972 1.0001673731 0.7201102221
0.4526280191 0.7497647687 0.9710741213
0.4525948831 0.747538852 0.4691085847
0.4726274455 0.7487559468 0.9631859086
0.4626461412 0.7514309519 0.2156963022
0.4725648553 0.7508061332 0.4616971626
0.4626461412 0.7507475564 0.7170497429
0.4726127184 0.4992150715 0.4674573066
0.4825130235 0.9984816643 0.2133556109
0.4924170105 0.9995295373 0.4659845948
0.4923360113 1.0023412215 0.9639038556
0.4824246608 0.4989729543 0.7124889385
0.4924869643 0.7511641022 0.4614882216
0.482571932 0.7524397737 0.219616477
0.4923949198 0.7526024869 0.9625876194
0.4826271587 0.750767082 0.7192081861
0.512563708 1.0010720585 0.4679976078
0.5124900724 0.9995816055 0.9716171837
0.5023909512 1.0004407313 0.2171542869
0.5225376488 0.7499014477 0.721231324
0.5226039208 1.0030897022 0.2206041143
0.5225486941 1.000278018 0.7219087714
0.5025308588 0.7519256 0.2178584272
0.502460905 0.4980422347 0.2200260749
0.5026302669 0.7511901363 0.7189799158
0.5025087682 0.5000416546 0.7191078576
0.5126373436 0.7496150725 0.9668584837
0.5124863907 0.4986553381 0.9712305969
0.5125673898 0.7515285798 0.4704367867
0.5227143742 0.497187665 0.221602797
0.5225302852 0.7507410479 0.2224873446
0.532537362 0.7510078975 0.4730895089
0.5325447255 0.4993003332 0.474856763
0.5325263166 1.0013714508 0.9752161232
0.5425444387 1.0033890945 0.2221845182
0.552492607 1.002926989 0.4736970025
0.5524815617 0.7500576524 0.9760813414
0.5425444387 1.0013714508 0.7245191531
0.5425775747 0.7496150725 0.2234390846
0.5525183794 0.7510534572 0.4732515072
0.5426475285 0.7519906853 0.7229083746
0.532603634 0.7507345394 0.9715895704
0.5624702295 1.0007596491 0.2240603849
0.562444457 0.9997443187 0.7257921284
0.5624334117 0.750877727 0.2278949582
0.5624665477 0.7520232279 0.7236493327
0.5724957152 1.0025885455 0.4784547821
0.572348444 1.0056670794 0.9766336083
0.572447852 0.750187823 0.9796066453
0.5726135321 0.7494067996 0.4777073808
0.6025537632 0.9994254009 0.2330199953
0.5926313674 0.7490813732 0.9814475351
0.5924472784 1.0018270478 0.4817867925
0.6024985365 1.0003105607 0.7328270886
0.592454642 0.9998744893 0.9797907343
0.6024911729 0.7504546726 0.2333403102
0.6025206272 0.4981235913 0.233869566
0.5925466864 0.7509232867 0.480960233
0.6024764458 0.7529018792 0.7319130868
0.5824917466 1.0010980926 0.2319421544
0.5825727457 0.9990218721 0.7305646351
0.5824733377 0.7508191502 0.2312591843
0.5826242906 0.7516001736 0.728561747
0.6124945679 0.7509558293 0.9864823686
0.6123546603 0.7497973113 0.4857861255
0.6124467048 1.000375646 0.9810885616
0.6223506917 1.0030181084 0.2369521359
0.6224537815 0.7520818047 0.2385601531
0.6225090082 0.7513528495 0.7368733643
0.6423942994 1.0013193826 0.7407410737
0.6524197851 1.0002194413 0.9957696574
0.6324682218 1.0026991905 0.9883968939
0.6324129952 0.7512812557 0.9936434297
0.6324277223 0.4999694099 0.9889583653
0.632431404 0.751001389 0.49094706
0.6524639664 0.7498168369 0.9925941226
0.6524087398 0.5006970634 0.9939931988
0.6423317092 0.7495825299 0.2420035374
0.6424384808 0.4991122368 0.242544759
0.6524271487 0.7490032709 0.4920966957
0.6424237537 0.7525569272 0.7412436366
0.6724008026 0.7485802165 0.9923732158
0.6725075742 0.5008265831 0.992603327
0.6823784251 1.0007010724 0.243680588
0.6723566212 0.999353807 0.4952206856
0.6824041976 0.9992236365 0.7424429763
0.6824189247 0.7502138571 0.2399831609
0.6723897572 0.7489056429 0.4928238471
0.6823784251 0.7506369114 0.7425350208
0.6623274538 0.7500186013 0.2415957803
0.6623090449 0.7497061919 0.741420362
0.7024220328 0.9997703528 0.2462320612
0.7024625324 0.4986332091 0.7460989833
0.6923634112 0.7493937825 0.9929162783
0.6923928654 0.9998354381 0.4921758539
0.7023594426 0.9976680982 0.7454537515
0.692348684 1.0005318506 0.9929070738
0.7023815333 0.7501617889 0.2443110927
0.7024109875 0.5010934327 0.2425061003
0.6923376387 0.7482612986 0.4913575784
0.7024367599 0.7475844117 0.7439350174
0.7223146876 0.499031531 0.747782477
0.732343855 0.7510534572 0.9969110091
0.722392005 0.7503179935 0.2475317293
0.7224509134 0.4998965144 0.2489271238
0.7323254461 0.751567631 0.4993755738
0.7224472317 0.7521403814 0.7469108157
0.7224730041 0.9990804489 0.7470875411
0.7125137905 0.7512682387 0.9977394095
0.7124401549 0.7493286973 0.497267755
0.7424724305 0.5001913507 0.7465822169
0.7424871576 0.7478968211 0.247996554
0.7424024767 0.5012522408 0.248906874
0.7423987949 0.7482547901 0.7466567729
0.7524353259 0.4984561771 0.498653945
0.7524684619 0.7506694541 -0.0017422146
0.7624681751 0.4998249206 0.7509948297
0.7624829022 0.746946576 0.2502286328
0.7624571298 0.4992977298 0.2510478288
0.7524426895 0.748118111 0.4993562444
0.7624497662 0.7472394597 0.7494991067
0.782375557 0.7483198754 0.2536977896
0.7825044193 0.4985987139 0.2527755038
0.7724457976 0.7489772367 0.5008666945
0.7823902841 0.7472785109 0.7528228332
0.7724126616 0.9987420054 0.497468412
0.7723905709 0.4964469945 0.501225668
0.7724973425 0.7489642197 2.1270909036e-04
0.7823792388 0.4984555263 0.754603894
0.7723611167 0.4970314603 0.0035258412
0.7924525876 0.7496345981 0.5016260615
0.8125219678 0.4994884297 0.502936775
0.8123857419 0.7489512026 0.002379151
0.8023602563 0.5001835405 0.7492459844
0.8024412554 0.7476690226 0.2524910864
0.802448619 0.5006078965 0.2515798459
0.7923274071 0.4992827602 0.5026293464
0.79247836 0.7490488306 0.0010656762
0.8124225597 0.7463868425 0.5046607683
0.7925225414 0.4979888648 0.0055521086
0.8025443452 0.7497387345 0.7521822036
0.8323778047 0.4982335855 0.5020936475
0.8325582119 0.7480660428 0.0061235208
0.8224112276 0.4994103273 0.7555114527
0.8324440768 0.4987366947 0.0076463968
0.8224959085 0.7502529083 0.2548713568
0.8225290445 0.5003696844 0.2552910797
0.8325839844 0.7484370289 0.5072067188
0.8223854551 0.7497647687 0.7543691806
0.8625205337 0.751001389 0.7598826454
0.8624174439 0.4987366947 0.7564549087
0.8525539565 0.7503700618 0.0054023522
0.8525613201 0.4999153891 0.0078983226
0.8625426244 0.7500836865 0.2582272989
0.8625610333 0.4994363615 0.2543641917
0.8525429112 0.7476625141 0.5093053332
0.8425910611 0.7485671995 0.2575793057
0.8424585171 0.4999752676 0.2573777282
0.842661015 0.7486257762 0.7584439901
0.8525024116 0.5012763224 0.5027425612
0.8725239287 0.5000260341 0.5067382124
0.8824205521 0.7518084465 0.7600971091
0.8924754919 0.4984874181 0.5143714618
0.8725975643 0.7496866663 0.0047661407
0.8923319025 0.7488665918 0.0147222248
0.8825015512 0.4982511585 0.7599028952
0.8724466113 0.5008890649 0.0073210196
0.8925454458 0.4996055832 0.012703229
0.8824463245 0.7511055255 0.2617544436
0.8825089148 0.4996120917 0.2571319694
0.8726343821 0.7506238944 0.5043054766
0.8924165835 0.747180883 0.5127385926
0.882604641 1.0002389669 0.2574458412
0.8826451406 1.0016252834 0.7620033505
0.9124601912 0.7477406164 0.5135642316
0.9125448721 0.9987354969 0.0132755616
0.912596417 0.499354354 0.5171208306
0.9025598861 0.7470051527 0.7648594909
0.9125117361 0.7472134256 0.013801872
0.9125890535 0.4980519975 0.0154884031
0.9025414772 0.7485346568 0.2621861323
0.9024899322 0.498713264 0.264587573