POSCAR file written by Ovito 3.7.11
1
271.5901388033 0.0 0.0
0.0 15.3634583081 0.0
0.0 0.0 10.8636055521
Sr Ti O 
800 800 2400 
Direct
0.0223921251 0.4996641381 0.8102990092
0.0124164316 0.2481823479 0.5586587976
0.0223097952 0.2498297634 0.8092505543
0.0023335176 0.2477482008 0.8083806774
0.0124540986 0.2503042659 0.0593347956
0.0222801549 -9.7223200994e-04 0.308395661
0.0025423249 -1.6603331746e-04 0.3093244502
0.0024227698 0.5003345601 0.3098629455
0.0124614258 0.5006945051 0.5592479206
0.0123279527 -3.5004136716e-04 0.5592451591
0.0224454776 -7.5040695391e-04 0.8093821865
0.002535145 -6.2393803259e-04 0.8069640206
0.0223934875 0.2484876177 0.3074512232
0.0025319048 0.2495772161 0.3097156647
0.0322374384 0.5001978721 0.0568065374
0.0424756599 0.5003124297 0.3009662675
0.0322595305 0.4998112404 0.5571418058
0.032305924 0.2517388388 0.559223067
0.0423950237 0.2505802455 0.8032626712
0.0323239659 0.2479896829 0.0577468329
0.0524859645 0.50004361 0.0507222775
0.042253266 -4.4604839699e-04 0.8073036869
0.0424395761 0.2504233797 0.3076279601
0.0522355872 0.2512539219 0.550320866
0.0523813951 0.2497978695 0.0527250195
0.0625967881 0.2497666266 0.2985609887
0.0626523866 0.5002902992 0.7972775497
0.0724844814 0.4969603198 0.0440036057
0.062534562 0.4999049693 0.2954386368
0.0726052517 0.4976893223 0.540835065
0.0725087828 0.2485090972 0.5469739109
0.0625316164 0.2494470371 0.796570602
0.0724329332 0.2479389131 0.0468419819
0.0924763708 0.2479838248 0.5373666033
0.1024325496 0.249007032 0.7843545841
0.0824251958 0.2477996215 0.7911276577
0.0924642201 0.2471226906 0.0374950851
0.1025212863 -0.0017804485 0.2867711645
0.0924649565 -0.00319444 0.5401704606
0.1024100893 0.2487121765 0.2866266453
0.0825857318 0.2486340691 0.2899782029
0.1024844661 0.4993836023 0.7833604391
0.0825544347 0.4985934157 0.7906176981
0.1025691525 0.4995788709 0.2836663022
0.0824263004 0.4981618722 0.2889196225
0.1222598527 0.2502333184 0.2840151734
0.1124741513 0.4991675051 0.0333033829
0.1125249632 0.2477169578 0.5313851637
0.1224568407 0.5020548759 0.2834315735
0.1124417496 0.4989292775 0.5347450059
0.1224200206 0.2466228032 0.7822687205
0.1124616325 0.2503094731 0.0338148153
0.1224796693 -0.0020796194 0.28207567
0.152485177 0.247734532 0.5271802982
0.1323732538 0.248783124 0.5338438318
0.1423316419 0.2494157941 0.7805501382
0.1523754528 0.2483665512 0.0249909492
0.1323935049 0.249304491 0.029515414
0.1424144873 -0.0033471465 0.2808366707
0.1423761943 0.2489484514 0.2796455376
0.1426284126 0.4975669541 0.7797851988
0.15252347 0.4983571407 0.0264973552
0.1323854045 0.4991024156 0.030150194
0.1524844406 0.4988472647 0.5291133581
0.1325238484 0.5002779322 0.53015629
0.1824350862 0.2494105869 0.2687946282
0.1724730161 0.5016610843 0.5210690675
0.1823445085 0.4984632366 0.7672589708
0.1723923799 0.2504904219 0.5183535787
0.1622657235 0.2489185102 0.774727946
0.172332363 0.2480703939 0.0187889568
0.1824023162 0.4997995243 0.2648843242
0.16248554 -0.0027606445 0.7735128797
0.1623931214 0.2487616445 0.2731863561
0.182400107 0.2488957289 0.7678057506
0.1824214627 -0.0011236302 0.2711842584
0.1923386122 -2.532532632e-04 0.0132707152
0.202415193 0.2483756637 0.2607006303
0.2024943564 0.4982217545 0.7527647037
0.1925241859 0.4986493926 0.0126779101
0.2025587918 0.5002564527 0.2543960936
0.1924645372 0.4990809361 0.511967117
0.1923404532 0.2508737992 0.5139075409
0.2023853687 0.2497353836 0.7580704928
0.1922568713 0.2496572762 0.0137736789
0.202364013 -2.0365505525e-04 0.2589166922
0.2124939831 0.2496247314 0.4998993004
0.2224004547 0.2496774539 0.7507165808
0.2123905184 0.2501649744 0.0018104316
0.2225499447 -0.0018228217 0.7468338919
0.2224074506 0.2473895576 0.2483115575
0.2324324832 0.2484745998 0.4958334311
0.2324689352 0.2496065064 0.9959767743
0.2324059727 3.3033929911e-04 0.4962559428
0.2226199031 0.4987288018 0.7455976541
0.2125584185 0.4983760167 0.0035014908
0.2125679917 0.4994499936 0.5028173003
0.2426033238 0.502265115 0.7414424959
0.2624571374 0.2508737992 0.7413338763
0.2624622922 9.5780219234e-04 0.2318437284
0.2624740747 7.7509593287e-04 0.7341787933
0.2524140629 0.2510573516 0.4919838804
0.2423713566 0.2506303644 0.7421273514
0.2524044896 0.2520805587 0.991604377
0.2622413711 0.2514101367 0.2412245918
0.2424427877 0.002539217 0.2452821766
0.2624457231 0.5026380779 0.2395520348
0.2524383642 8.0874721044e-04 0.4906252155
0.2425639262 8.3836293829e-04 0.7430727097
0.2524162721 -1.9031170534e-04 0.9922671403
0.242377616 0.2505281739 0.2432045974
0.2724471908 0.2515012621 0.4866559992
0.2724236259 0.2499599424 0.9909416136
0.2725407141 9.4550027462e-04 0.4839773305
0.2725432915 -8.3629995589e-05 0.9827675318
0.2824136794 0.2501812468 0.7336577876
0.2726257687 0.5020236329 0.4848646971
0.2825020478 0.2525003861 0.2328148609
0.3125660996 -1.0432846032e-04 0.4672987058
0.292639382 0.4999466266 0.4766694437
0.292493574 0.2502066317 0.4844062857
0.3026099207 0.2525928132 0.7262394402
0.2926158171 0.2489041905 0.9814051849
0.2924851054 -5.6047575864e-04 0.4758943787
0.3025712595 6.8904759834e-04 0.7223631949
0.3125138149 0.5007205409 0.4725142855
0.3023919452 0.2505600677 0.2274289878
0.312557631 0.2493526573 0.4731328646
0.3124545344 0.2480235294 0.9746210652
0.3225826636 -4.5462388182e-06 0.2181300493
0.3323554779 -2.4205786718e-04 0.4705784641
0.3224869311 -0.0015912333 0.7186406739
0.3324545242 1.2166232446e-04 0.9688771158
0.3225108642 0.2509649245 0.2222631154
0.3224953997 0.5010629117 0.7228170037
0.3225145462 0.5006879961 0.2215662934
0.3323959801 0.2500517186 0.4697012231
0.3224298598 0.2487238926 0.7199919748
0.3324821393 0.2510436828 0.9701750275
0.3626327186 0.2506642109 0.2140945567
0.352502012 0.4997253223 0.4627560151
0.3524777107 0.2501727851 0.4665374484
0.3423683599 0.2502775792 0.7202092139
0.3625333041 0.4992683939 0.7159546412
0.3525723386 0.249118335 0.9671741821
0.3624522997 0.5019279513 0.2153096229
0.3425252139 -0.0018001055 0.2160589138
0.342556511 0.2507703068 0.2170097951
0.3626143085 0.2495733107 0.7153480286
0.3425428875 0.5010902493 0.7167278651
0.3425885446 0.5006476406 0.2187651976
0.3825450763 0.2483314028 0.2059572951
0.3926117157 0.2515155817 0.4514466943
0.3925012552 0.248473298 0.9528327189
0.3923834306 -0.0021342555 0.9534862772
0.3826260807 0.5006007762 0.7047290863
0.392475481 0.5008975844 0.9512034256
0.3725631233 0.2488202251 0.4633561842
0.3824493438 0.2516262339 0.7033317602
0.372500529 0.2500510677 0.9611632864
0.3924791631 0.502891927 0.4490754742
0.372500529 -2.5149584638e-04 0.4577254569
0.4124946173 0.5010433849 0.947171615
0.4024942542 0.2495980447 0.6989768524
0.4026562631 -0.0019505404 0.6984466417
0.4025237104 0.2507833247 0.1983704954
0.4125498476 0.2496898209 0.4476330433
0.4124946173 0.2509564628 0.9483130408
0.4124798893 -6.3519851812e-04 0.4472583979
0.4124872533 -0.0015661087 0.9470887695
0.4426245773 -0.0017150986 0.6913716426
0.4425104347 0.2484361969 0.1904403474
0.4226275331 0.4992072097 0.6919331505
0.4324437952 0.4980915755 0.9425875015
0.4325432098 0.4990848415 0.4433830731
0.4425288448 0.4973736382 0.6915032748
0.4424809785 0.4984762545 0.1886453632
0.4325726659 0.2500933759 0.4420124416
0.4225575747 0.2501291751 0.6938680513
0.4324437952 0.2486041279 0.9414092555
0.4225796668 -0.001780123 0.1943018646
0.4327015366 -0.0018293307 0.9413356151
0.4225281186 0.2484693926 0.1938664659
0.4424957066 0.2479870793 0.6902412628
0.4724452476 0.2511888324 0.4372322607
0.4626694877 0.2503055677 0.6891292931
0.4724194735 0.2485201624 0.936410915
0.4725372981 -6.0942307147e-04 0.9407649022
0.4625811192 0.2487492775 0.1888616818
0.4524997517 0.5004556266 0.9395130158
0.4524887057 0.4984593313 0.4417694284
0.4624890687 0.5012074104 0.6896733114
0.4725814823 0.5018641636 0.9394577855
0.462529571 0.4999869821 0.1893790054
0.4524923877 0.2486640102 0.4361359396
0.4525144798 0.2513535089 0.9382519244
0.4524960697 -0.001056588 0.4401649887
0.4824124725 0.2497431943 0.6905118912
0.4823461962 -1.4025787081e-04 0.6853450983
0.4924533378 0.5035629999 0.9389975332
0.4923870615 0.4999791714 0.4372083276
0.482511887 0.2493819476 0.1901899701
0.492479112 0.2488130652 0.4361193705
0.4924422918 0.2509004859 0.9364845554
0.4824087905 0.5004634373 0.1853619229
0.502273282 0.2478106867 0.6882336421
0.5122994192 0.2487642481 0.4378305888
0.5123804236 0.2478139412 0.9379665679
0.5022843281 -0.0013867871 0.6861404144
0.5023947886 0.2492394015 0.1857153967
0.5221930038 0.2493923619 0.189192143
0.5223623766 0.2497444961 0.6922829422
0.5124135618 0.4993575665 0.4415420637
0.5224212889 0.5008663414 0.6901823505
0.5423152366 0.4995163849 0.6952745825
0.5522750975 0.4966615589 0.9474017411
0.5424404252 0.4972844656 0.1940082236
0.552381876 0.4962892469 0.444622993
0.5322449151 -0.0048267483 0.4420345337
0.5322485971 0.2510274104 0.4410597193
0.5322927814 0.2483867289 0.9428636529
0.5323885139 0.4981846535 0.9455975519
0.5523192817 -0.0033618633 0.9441247444
0.5422489602 0.2488846637 0.1977362676
0.5524923366 0.2483704565 0.4435275924
0.5423152366 0.2468792558 0.6959704841
0.5523229637 0.2477006855 0.9459657538
0.5726440255 0.2480677903 0.446578145
0.5725041088 0.2496032519 0.9476134572
0.5624116952 0.4981540614 0.6963810292
0.5623527829 0.497666541 0.1949314898
0.5725114728 0.498634422 0.9492703657
0.5725998413 0.496419426 0.4468009071
0.562367511 0.2476980819 0.1976101585
0.5623969672 0.2463845755 0.6976126645
0.6025898845 0.4996387532 0.7042053192
0.5927147101 0.499087445 0.9541950658
0.5926410697 0.5001353862 0.4517679505
0.5826591167 0.2495101739 0.7020089949
0.6026745709 0.2492524194 0.2047854927
0.5925858394 0.2485527072 0.4526396684
0.6025567463 0.2490298133 0.7074307676
0.5926152955 0.248069743 0.9522159807
0.5826554347 0.5006222557 0.6986114121
0.5825928403 0.4992527724 0.197315597
0.5825449741 0.2502626086 0.2031709274
0.6126381138 0.4989377392 0.962065381
0.6127007082 0.5002102391 0.4613273918
0.6224875142 0.5000039054 0.709074789
0.6125939296 -4.0888228578e-04 0.4598573458
0.6225243344 0.5005871074 0.2103775587
0.6125755195 0.2484225282 0.4585493086
0.6127043902 0.2472242302 0.957168296
0.6225316984 -0.0021110251 0.7107906098
0.6227047533 0.2500738491 0.2121163921
0.6225758826 0.2489783926 0.7119688558
0.642425646 -9.9240975858e-04 0.214932216
0.6524886034 -3.0786336355e-04 0.4693274982
0.6325394255 0.4989833018 0.4633478996
0.6425434706 0.2494118887 0.2198799288
0.6526248381 0.2505372864 0.4676512591
0.6424440561 0.2496592289 0.7137896141
0.6325136514 2.1155094018e-04 0.462057352
0.6524922855 0.2500543222 0.9683340181
0.6425692448 0.500918413 0.7158064399
0.6525070135 0.4998952059 0.4710239883
0.6325578356 0.247970156 0.4670299184
0.6325062873 0.2487785678 0.9606570088
0.6824896927 0.4999277506 0.7291997834
0.6623195937 -0.0016802757 0.2168036021
0.6823829142 0.4978767801 0.2245367621
0.662393234 -9.6806628119e-04 0.7201650297
0.6724525094 0.5002831394 0.475655968
0.6624779205 0.2507065191 0.2217743275
0.6625515608 0.2478054796 0.7248678882
0.6723935971 -0.0024238583 0.9738938665
0.6625257867 0.500397046 0.7220051186
0.6625478788 0.5018407314 0.2239209444
0.6825007388 0.2488586279 0.2268877311
0.6724561914 0.2496794066 0.4719960413
0.6825117848 0.2488989834 0.7261565948
0.6724230533 0.2497457979 0.9737281756
0.702516193 0.2504285869 0.2325037303
0.6924348255 0.2495674527 0.478988195
0.7024941009 0.2479974936 0.7327059858
0.6924863738 0.2469456471 0.9771616582
0.6925636962 0.4989618223 0.9811014183
0.6924753277 0.4989598696 0.4819798353
0.7325725126 0.4996921266 0.9949273989
0.7326387889 0.5015107276 0.496491592
0.7124576438 0.2484817596 0.4874899765
0.7124834179 0.2500920741 0.9868453676
0.7226421078 -0.0019230596 0.2419913722
0.7325172823 -0.0012753539 0.4963314241
0.7325209643 -0.0015055104 0.9960872349
0.7124797359 0.5013662289 0.9897449575
0.7225426933 0.2494958542 0.2435019205
0.7326166968 0.2494223031 0.4964492487
0.722469053 0.2494001726 0.741856723
0.7324951902 0.2488937762 0.9964738468
0.7124650079 0.5001184629 0.4882512339
0.7125202381 -0.0020000735 0.4882871335
0.7126086066 -5.8976603892e-04 0.9891282193
0.7526800173 0.5031106278 0.0032512056
0.7425397375 4.1866576655e-04 0.2489798439
0.7425618296 -6.4600337707e-04 0.7504220193
0.742440323 0.2490968555 0.2486337342
0.7425876037 0.2507110754 0.7507948237
0.762595694 6.5077496544e-04 0.2549355094
0.7524664602 0.0014047068 0.501882988
0.7626325142 0.0022292607 0.7516214369
0.7525327366 2.9495575825e-05 0.0026181745
0.7625846479 0.2530985587 0.2561238809
0.7525032804 0.251141968 0.5043747942
0.7625478277 0.2513509053 0.7545283908
0.7525437826 0.2506056304 -3.6760217229e-04
0.7825117337 0.0012550009 0.2612989584
0.7825927381 0.0022532137 0.7644284188
0.7726476053 0.0022903798 0.0063015741
0.7826737425 0.2525426942 0.2629641514
0.7726034211 0.2526409794 0.5083900357
0.7826590145 0.2515689551 0.7630320132
0.7726586514 0.2519158822 0.0101687064
0.7926115113 0.002387298 0.5167684696
0.7927109258 0.002438914 0.0181549131
0.8126343296 0.500701014 0.0300599845
0.792548917 0.2504455102 0.5194093975
0.7926115113 0.2499371611 0.0178197574
0.802527188 0.0015962001 0.2716178161
0.8126232836 -0.0016078962 0.526158538
0.8026081924 7.9644529272e-04 0.7709096924
0.8124944129 -0.0019975025 0.0221362801
0.8026118744 0.2495427186 0.2719280262
0.8125422791 0.2501330805 0.52311627
0.8027002429 0.2490187481 0.775235144
0.8126527397 0.2493396394 0.0245260023
0.8325172312 7.918890269e-04 0.5259376169
0.8224616378 -1.1773689974e-04 0.7756493712
0.8324399088 2.3608968611e-04 0.0257847005
0.822693605 0.252550505 0.2822606915
0.8325908716 0.2524066572 0.5301351183
0.8225720984 0.2494554987 0.7798192575
0.8325761435 0.2500269846 0.0280407654
0.8225831444 8.0236843829e-04 0.2756579112
0.8424918201 0.0035270805 0.7784062827
0.8426059627 0.2513300766 0.2783595925
0.8425765066 0.2529124027 0.7748752267
0.8626103709 0.0023241612 0.2803644518
0.8425360044 0.5031379654 0.7816648694
0.852635782 2.2229070962e-04 0.5288372067
0.862621417 0.0042795152 0.7796093824
0.8526136899 0.0031493661 0.0273484538
0.862614053 0.2545988719 0.2841145879
0.8425433684 0.0014403758 0.279730224
0.8525731877 0.2545253208 0.5299528584
0.8626435091 0.2521254705 0.7816795975
0.8524848192 0.2516151687 0.0324590039
0.8727211946 0.0013211318 0.537601332
0.8926482804 0.0011013897 0.5441010157
0.8726954205 9.4686715437e-04 0.037538625
0.882589005 0.2515676534 0.2886885758
0.8927071927 7.1905386326e-04 0.0407834041
0.8725702318 0.2497347327 0.5358192349
0.8926740545 0.2501447966 0.5411029319
0.8827031476 0.2525739372 0.7909039751
0.8725555037 0.2492140166 0.0345469847
0.8926151422 0.2510287122 0.0418915076
0.9024608605 -0.0022712039 0.2954782185
0.9125606381 -0.0013831421 0.5484043752
0.9025087268 2.5815503059e-04 0.7939904274
0.9026560075 0.2517928631 0.2951974646
0.9125900943 0.2519334564 0.548274584
0.902549229 0.2508360472 0.7969682601
0.9025050448 0.5018212045 0.7957559554
0.912538546 0.2519529833 0.0488499709
0.9224947249 0.001404902 0.29987639
0.9225499552 6.2766818877e-04 0.8019785672
0.9225610012 0.2516223285 0.3025955609
0.9225610012 0.2508223784 0.8007349653
0.9425433173 1.888598541e-05 0.3028210845
0.9324214476 0.0019024463 0.5521526703
0.9424623129 0.0048139652 0.8014142978
0.9324693138 -1.8328203807e-04 0.054841536
0.9424586309 0.2513190114 0.3053165728
0.9325834564 0.2530432326 0.5538703321
0.9425101791 0.2542597556 0.8067826812
0.9325503183 0.2544699947 0.0523436544
0.9524810861 0.0021817454 0.5537911687
0.9523411694 0.0041604665 0.0555435129
0.962448311 0.2521215651 0.3085088831
0.9525252703 0.2513665268 0.5574179572
0.9726401391 0.2526572518 0.5563989585
0.9625771817 0.2508210767 0.8065654421
0.9523890356 0.2524307403 0.0536636582
0.9726033189 0.2515084219 0.057411401
0.9625771817 0.0022337519 0.3059066163
0.9824269451 0.5015400178 0.8059026787
0.9824969034 0.5009926151 0.3089442818
0.9826 -0.0017669099 0.303513304
0.9924714924 -0.0016108903 0.5573424758
0.9824416731 0.2504136163 0.3083606818
0.9924714924 -9.7236218897e-04 0.0584950192
0.9923058015 0.2492504667 0.555998539
0.9824748113 0.251085991 0.8082665348
0.9924420362 0.2502222532 0.056951701
0.0125208904 0.748622408 0.0622625529
0.002347767 0.4985517584 0.8085297991
0.0123656934 0.5005539117 0.0598864541
0.0223033885 0.7495727149 0.3083726484
0.0024555765 0.7490910525 0.3067544011
0.0124901824 0.7506466918 0.560601983
0.0223988632 0.7488567303 0.8077547342
0.0225204803 0.4984925269 0.3073739008
0.0024177254 0.750496986 0.8080069525
0.0123346539 0.9997312354 0.0594841015
0.0524837553 1.0003951484 0.5515690703
0.052439571 1.0002844962 0.0510856007
0.0324156481 0.7503277532 0.0554801822
0.0424554088 0.4971829259 0.8031015829
0.0424638775 0.749156142 0.3048526384
0.032342376 0.7492082136 0.5547715062
0.0424023878 0.7504384054 0.8045587419
0.0524270522 0.7479975487 0.0487367488
0.052476023 0.7475679579 0.5514374382
0.0525091612 0.4984677929 0.5448337374
0.0422687305 1.0016774118 0.3056985822
0.032355263 1.0007075781 0.5586385465
0.0322772042 1.0012803658 0.0556192704
0.0723714435 0.9988915807 0.5455876308
0.0623666619 0.999119394 0.7983020714
0.0725231426 0.9999460308 0.0459857285
0.0724712262 0.7486874975 0.04470457
0.0624480346 0.7494490448 0.2993802379
0.0725478122 0.7479324592 0.5476247077
0.0624082688 0.7502105921 0.7968826531
0.0623835992 0.9991454298 0.3010822511
0.0824517064 0.9981235244 0.2951542008
0.1025437466 0.9977460053 0.7855760939
0.082383589 1.0015472328 0.794312604
0.0924343958 0.9986182047 0.0408795048
0.0924642201 0.7465851063 0.0384167865
0.092482262 0.4975916881 0.0369740795
0.1023953613 0.750093431 0.2866275658
0.0824631206 0.7483815768 0.2890530957
0.0924690067 0.7499502341 0.5404898757
0.1024288676 0.7495011164 0.7874898232
0.0824336645 0.7480691472 0.7908073221
0.0924899942 0.4969115027 0.5372432557
0.1124778334 1.0010850972 0.0363598267
0.1125511055 0.7485963722 0.0328866704
0.1225267991 0.4979047686 0.781790058
0.122501025 0.7516230345 0.2846346731
0.1123839419 0.7490585077 0.5332501063
0.1226111173 0.7483750679 0.7851811974
0.1123728958 1.0011501867 0.5363034204
0.1225326903 0.9977329874 0.7823543274
0.1525908509 0.9981495602 0.528312519
0.1324509444 0.9993537162 0.5309911877
0.1424332656 0.9984880257 0.7819437823
0.1525367252 1.0005058006 0.0285344321
0.1324700909 1.0009614272 0.0321627855
0.1525238382 0.7498330729 0.0299783358
0.1325168525 0.7484727021 0.0337810328
0.1426379858 0.7479064234 0.2803230291
0.1525529261 0.7486354259 0.5287782944
0.1325139069 0.7499502341 0.5337600659
0.1425006465 0.4964669413 0.2816807735
0.1425768643 0.7473596715 0.7812257886
0.1723831748 0.7494620627 0.0194000798
0.1624641843 0.4991421202 0.7726282747
0.1725230915 0.4995573913 0.0184966045
0.1624811216 0.7494165001 0.2749325535
0.1824004752 1.0000176292 0.7686608995
0.1724203632 0.7499697609 0.5229146795
0.1625879002 0.4979568402 0.2743287024
0.1624450378 0.7477632265 0.7755978229
0.182478534 0.7508029067 0.2716666028
0.1824899482 0.7508224335 0.7670481752
0.1624586613 0.999653128 0.274639833
0.1724616018 0.9996791638 0.5177819452
0.1724873759 1.0013389463 0.0177427111
0.1924991482 0.9996010564 0.5137593397
0.2023231426 0.9981235244 0.7566869743
0.1924082023 0.748095183 0.0131021708
0.2024590091 0.7508419604 0.2587040556
0.1924741105 0.7505100039 0.5136415151
0.2025267582 0.748895784 0.758296937
0.2326246846 0.7513301317 0.9962621308
0.2326777057 0.5007843286 0.9943382759
0.2325698225 0.7494685717 0.4929227952
0.2324884499 0.4995300537 0.4968146891
0.2225550995 0.999776798 0.2481394231
0.212466368 0.998976197 0.5052906964
0.2123772631 0.9989957239 0.0063988714
0.2125790378 0.7484401574 0.0018141136
0.2324766674 1.0014951611 0.9965290771
0.2226066478 0.7496247865 0.2494667909
0.2126931804 0.749162651 0.4995117679
0.2225639364 0.4998841407 0.2442346422
0.2226990665 0.7494034822 0.7492667859
0.252552875 0.750894032 0.9920462192
0.2525403561 0.4996752033 0.9908955883
0.2426777005 0.7538621137 0.2436574857
0.2525429335 0.7523129833 0.4912815353
0.2424475744 0.5021629245 0.2421837577
0.242682119 0.7524366534 0.7408211552
0.252558398 0.5002636125 0.4895933297
0.2624740747 0.5008956317 0.7400608183
0.2625594975 0.7537384436 0.2362860841
0.2625734892 0.7528076636 0.7405045016
0.282420307 0.5002089373 0.7322043107
0.2826316549 0.7522023312 0.2286633846
0.2825653785 0.4999700588 0.2327669946
0.2826404917 0.750894032 0.7292181934
0.2725296681 0.751557945 0.9824361501
0.2724648645 0.5001458005 0.9844336453
0.2725200948 0.7515969987 0.4872331557
0.2826323913 1.0016839207 0.2284535096
0.2825572781 1.0013064016 0.7293166874
0.3125510033 0.9992951357 0.9708101757
0.2926629469 0.7520786611 0.9781834184
0.3026294354 0.5000162724 0.725699104
0.2924803188 0.5005233197 0.9779717023
0.3024876777 0.7505425486 0.2234965917
0.2926585285 0.7513561675 0.480246525
0.3025620545 0.4981189131 0.2243950043
0.30257936 0.7512780601 0.7228354138
0.3025281799 0.9988915807 0.2233870517
0.3125252292 0.7489608735 0.9719239864
0.3124545344 0.4987509323 0.974584245
0.3125907691 0.7504384054 0.4679955279
0.2926279677 1.0023738696 0.9774193995
0.3324420053 0.747958495 0.9675792042
0.3325005494 0.5005018401 0.9647164346
0.3225204375 0.7472685462 0.2188848632
0.332497972 0.7497419476 0.4636378586
0.3224762532 0.7495141343 0.7169616733
0.3324386915 0.4991004629 0.4706824811
0.3525881713 1.0006750333 0.4658479904
0.34240518 0.9997312354 0.7167370702
0.362511212 0.7515969987 0.2108884388
0.3525668156 0.9995554937 0.9668243904
0.3625369861 0.7488697482 0.7123398192
0.3625075299 1.0008963376 0.216892891
0.3525443552 0.7489608735 0.9648913305
0.3625406681 0.9988785628 0.7150249314
0.352494648 0.4989312302 0.9633080624
0.3425119586 0.7496573313 0.216301927
0.3524755015 0.7501585205 0.4638624618
0.3424327952 0.7514082391 0.7192601736
0.392464435 1.0003300589 0.451973223
0.3725115751 0.7509721394 0.9570762456
0.3725483952 0.4992319438 0.960095501
0.382486164 0.752228367 0.2007592051
0.3724858009 0.7489673824 0.455777669
0.3827181312 0.5015979475 0.2050404725
0.3824530258 0.7511804258 0.7035738529
0.3824788 0.9997312354 0.2028312612
0.3824567079 0.9998614144 0.7072153695
0.3725778514 1.0017945729 0.9606385988
0.372695676 0.4993041931 0.4608864701
0.3925380754 0.7505555665 0.9490862647
0.392471799 0.7493904643 0.4516261927
0.4125314375 0.7504318964 0.946011779
0.4126161239 0.7492537763 0.4466057601
0.4125203915 0.4984847162 0.4481255134
0.4025458025 1.0012803658 0.1984781944
0.4025458025 0.4982113402 0.6982321641
0.402442706 0.7508094156 0.1972806178
0.4026231249 0.4981410435 0.1988243042
0.4024132498 0.7490910525 0.6960551705
0.4324953435 0.747685119 0.9410134385
0.4225318006 0.7481016919 0.1944933296
0.4324364312 0.7500478683 0.4407872499
0.4226201691 0.4975428709 0.1932672173
0.4224912984 0.7500543773 0.6970796923
0.4424367943 0.7473531625 0.1922730722
0.4424147022 0.7486614617 0.6924044489
0.4325063896 0.9980193812 0.4418329432
0.422406612 1.0001608262 0.6927671277
0.4423962921 0.9989696881 0.1890365777
0.4525255258 1.0016904297 0.9393197098
0.4624890687 0.9984619899 0.1870188314
0.4725115239 1.0016578849 0.442673364
0.4624743407 1.0003691126 0.6888347316
0.4525218438 0.7514407839 0.9394669906
0.4524445214 0.7480561293 0.4382567824
0.472518888 0.7499892878 0.9409582082
0.4625774372 0.746891027 0.1921165864
0.4723752893 0.7507443261 0.4374246462
0.4625074788 0.7533934692 0.6944396848
0.4725851643 0.5008012519 0.438664566
0.4825229331 1.0014300716 0.1880065329
0.4924386098 1.0004016573 0.4399440676
0.4923318312 1.0003235499 0.9365766058
0.4824161545 0.4978396791 0.6831671842
0.4926006186 0.7479389681 0.4391229774
0.4825339792 0.7501910652 0.1928051239
0.4924017896 0.7510372289 0.9390251483
0.4825855274 0.7502886995 0.6905708035
0.5121815946 1.00044722 0.4385485824
0.5123141473 1.0004927827 0.9408385426
0.5024537009 1.0006359796 0.1854815885
0.5223918328 0.7491301062 0.6976991919
0.5222040498 0.9989631791 0.1878592522
0.5222519161 0.9986637674 0.6871741411
0.5023947886 0.7490454898 0.1881068679
0.5024352908 0.4981202149 0.1852183242
0.5024021527 0.7488306945 0.6904723095
0.5024131987 0.4988693952 0.6851140516
0.5123914697 0.746487472 0.9377364417
0.5123141473 0.4995059706 0.9417406372
0.5123656956 0.7509981752 0.4391156133
0.5223623766 0.4986832392 0.1910478805
0.5223476486 0.7492667942 0.1946240412
0.5323111915 0.7491170883 0.4435110233
0.5323075094 0.4986832392 0.4434383034
0.5323553757 1.0005969259 0.9446494321
0.5423336467 0.999776798 0.1931779284
0.5524113321 0.9991584477 0.4460249216
0.5524997006 0.7481147098 0.9490954698
0.5420869514 0.9996075653 0.6934915649
0.5424809274 0.7488046586 0.2005318404
0.5524334243 0.7495466791 0.4482663506
0.5423189186 0.7482969605 0.698593002
0.5324069239 0.7482904515 0.9442904352
0.5624080132 0.999379752 0.1949066362
0.562371193 1.0003235499 0.6932476312
0.5624006492 0.7485052469 0.1981863944
0.5624448334 0.7481082009 0.6999691565
0.5724120583 0.9999330129 0.4468579784
0.5724672886 1.0007661586 0.9496293625
0.5724856987 0.7498916535 0.9494728767
0.5724562426 0.7480300935 0.4484808282
0.6026708889 1.001378 0.2083515279
0.5926373877 0.7497484566 0.9536151479
0.5926631618 1.0013064016 0.4535684577
0.6026340687 1.0002975141 0.7055667456
0.5926668438 0.9990282687 0.952271211
0.6027003451 0.747418252 0.2048526895
0.6026598429 0.4992384527 0.2012691647
0.5926557978 0.7499502341 0.4548691308
0.6026082946 0.75115439 0.7069382976
0.5826186145 0.998442463 0.2032740239
0.5825523381 0.9989176165 0.6975371831
0.582530246 0.7512259885 0.1999022152
0.5824971079 0.7500088146 0.7017659817
0.6126896621 0.7500673952 0.9561281257
0.6125276533 0.7502105921 0.4549409302
0.612671252 0.9994122968 0.9586411036
0.6225280164 1.0001087545 0.2120584003
0.6226127028 0.7491691599 0.2107163045
0.6225722006 0.7479389681 0.7137040072
0.6423998719 1.0001347904 0.7137850116
0.652407599 1.0011632046 0.9677725102
0.6325062873 0.9999330129 0.9615775136
0.632635158 0.7514147481 0.9611724915
0.6324621031 0.499739642 0.9613105672
0.6324952413 0.7502040832 0.4630386101
0.6524849214 0.7514082391 0.9692084975
0.6524849214 0.5008012519 0.9678461506
0.6426318391 0.7495336612 0.2155047699
0.6424514202 0.5013538618 0.2140126318
0.6525291056 0.7501585205 0.4685441487
0.6425987009 0.747691628 0.714637399
0.6724782836 0.7492017047 0.9731022324
0.6724782836 0.4981729374 0.9769775572
0.6825081028 0.9979933454 0.225217015
0.6724893296 0.9999004681 0.4731733668
0.6824418265 0.9981430513 0.7228031962
0.6825265129 0.7490910525 0.2282583626
0.672570334 0.7500999399 0.4758216589
0.6827032498 0.7488762571 0.727568649
0.6625994271 0.7511804258 0.2221185962
0.6624705564 0.7504318964 0.7219351602
0.7026229716 1.000180353 0.2335126034
0.7022694978 0.4989930653 0.7346464097
0.692530558 0.7492147226 0.9786712859
0.6926041984 1.0010134988 0.4817174915
0.7024535987 0.9997963249 0.7311751864
0.6924053694 0.9989306344 0.9769499421
0.7024941009 0.7516620882 0.2354686759
0.7024830549 0.4990685691 0.2345582968
0.6924421896 0.7494099911 0.4776589862
0.7024572807 0.7501455026 0.7359148652
0.7224874631 0.4979984975 0.7411249218
0.7324951902 0.7490064361 0.9990052348
0.7224469608 0.7493318837 0.2452186617
0.7224175047 0.4985061957 0.240677812
0.7324915082 0.7475289042 0.497877872
0.722483781 0.7496768581 0.7425737962
0.7225905596 1.0012998926 0.7410429969
0.7125349662 0.7495271522 0.9881708944
0.712498146 0.7513040959 0.4901861347
0.7425102814 0.4989800474 0.7478105474
0.7425912858 0.75208517 0.2479415146
0.7425507836 0.5011585933 0.2485269556
0.7426244239 0.7523260012 0.749681013
0.752624787 0.5024753541 0.5023607299
0.7525290545 0.7481863083 0.0027766854
0.7625551918 0.5016129181 0.7555280589
0.7627024725 0.7508549783 0.2547431239
0.7626214681 0.5015276508 0.2568584437
0.7525953309 0.7492017047 0.5043158819
0.7625588738 0.752488725 0.7553273888
0.7825964201 0.7507247992 0.2627929375
0.7826553324 0.5014495434 0.2671183891
0.7724745504 0.7493969732 0.5084029228
0.7827179268 0.7502691727 0.7615960259
0.7726034211 1.0038969641 0.5082648471
0.7726107851 0.5030357748 0.5116918861
0.7726549694 0.750887523 0.0083303664
0.7826369224 0.4996120665 0.7659684232
0.7725997391 0.5022644641 0.0082952032
0.7925820552 0.7504253875 0.5180811093
0.8126269656 0.4991577417 0.5258059847
0.8125533252 0.7509135588 0.0269482184
0.8026008283 0.5007407186 0.7740854337
0.8025124599 0.7464614362 0.2723330483
0.8027886113 0.4990718236 0.2734100388
0.792740382 0.5002655652 0.5202535004
0.7926483315 0.7489218198 0.0182287376
0.8125975094 0.7495271522 0.5245577803
0.7926961977 0.5021479539 0.0192458032
0.8025713722 0.7490324719 0.7717740464
0.8324693649 0.5016090127 0.5286650723
0.8325614154 0.7517336867 0.0276964046
0.8226052366 0.4992026535 0.77874779
0.8326313738 0.5004439105 0.0323027943
0.8223659053 0.7495662059 0.2751166545
0.8226825589 0.5014794846 0.2782693831
0.8325061851 0.7527295562 0.5293987146
0.822491094 0.7493774464 0.7782424329
0.8627576517 0.7529508605 0.7862508238
0.8625698687 0.5015374143 0.7861017021
0.8525069113 0.7522999654 0.0320562831
0.8526173719 0.5036235331 0.0316992193
0.862621417 0.7508289425 0.2808228631
0.8625220025 0.5006255102 0.2828010277
0.8525547776 0.7530810396 0.5334544583
0.8425801886 0.7518964105 0.2777557415
0.8424144978 0.5021199654 0.278947795
0.8426206908 0.7520656432 0.7798827723
0.8525768697 0.5020555268 0.531442235
0.8725260476 0.4997025409 0.5393143912
0.8825595489 0.7525473056 0.7907401253
0.8924457694 0.5010909002 0.5447030258
0.8727469687 0.7511283542 0.0364350319
0.8925378198 0.749553188 0.0431936536
0.8825632309 0.5007159846 0.7875754301
0.872607052 0.499838578 0.0364152411
0.8924715435 0.5012399552 0.0415847955
0.882581641 0.7545520625 0.2914997972
0.8826442353 0.5003963951 0.2887456471
0.8726586003 0.7509005409 0.5345857586
0.8926151422 0.7513301317 0.5424468687
0.8827178757 1.0015277059 0.2878233014
0.8826810555 1.0016839207 0.7862103216
0.9123802192 0.7517532135 0.5484191033
0.9125606381 1.001247821 0.0472852049
0.9123065788 0.5010700716 0.545635497
0.9025160908 0.751557945 0.7957605579
0.912538546 0.7521372416 0.0481555421
0.9125164539 0.5023035178 0.0499727105
0.902545547 0.750353789 0.2926946123