POSCAR file written by Ovito 3.7.11
1
271.5991357585 0.0 0.0
0.0 15.3639672527 0.0
0.0 0.0 10.8639654303
Sr Ti O 
800 800 2400 
Direct
0.0224807742 0.4985531081 0.7657028005
0.012307951 0.2491572368 0.5141924272
0.0224805165 0.2487764757 0.7672114577
0.002437706 0.2502806445 0.7665330682
0.0123617067 0.2466051615 0.0178870925
0.022386849 -1.5219855599e-04 0.2638924776
0.0024486413 -0.0020529837 0.2667082082
0.0024620066 0.4960199082 0.2637461222
0.0124504772 0.498589557 0.5199868124
0.0122825091 -0.0013431019 0.5171885708
0.0223756929 -0.0012711153 0.7692263757
0.0024580301 -4.8108496384e-04 0.7662191865
0.0225460174 0.2510122264 0.2686366017
0.0023946647 0.2482980837 0.2665986718
0.0323453491 0.4997097104 0.0172988174
0.0424308009 0.4979269677 0.2648147928
0.032469429 0.4988713853 0.5163150408
0.0325901952 0.2496362797 0.5161751287
0.0423258668 0.2465758722 0.7627710901
0.032576204 0.2471994091 0.01490089
0.052435251 0.4986370708 0.0108859656
0.0424477376 -0.0022031988 0.7655472403
0.042398032 0.248692513 0.2650955374
0.0525029979 0.2478398687 0.5105639179
0.0524470331 0.2481958965 0.0113686623
0.0624459603 0.2517034541 0.2578412802
0.0624673153 0.4981671401 0.7620825754
0.0725435624 0.5003358508 0.0064143019
0.0625000842 0.4993640965 0.2610288823
0.0723197031 0.4985869535 0.5082102654
0.0723325897 0.2509139445 0.5073339739
0.062437492 0.2479759013 0.7555923117
0.0724680835 0.2498933748 0.0072396911
0.0924490013 0.2503991035 0.504672883
0.1024991069 0.2493303691 0.7504266105
0.0824283508 0.2488923312 0.7542005547
0.0924913431 0.2507199842 0.0031887762
0.1024784883 0.0017141163 0.2514927695
0.0923580584 -0.0019391654 0.50691884
0.1024869566 0.2504355524 0.2564265113
0.082566422 0.247235858 0.2530649395
0.1023709769 0.4982413397 0.751316709
0.0824445512 0.498327255 0.7560967316
0.1024862203 0.4983415742 0.2529793354
0.0825060389 0.4996374634 0.2590158052
0.1223636767 0.252224153 0.2497300614
0.1124656335 0.5008370234 6.3817895482e-04
0.1125679902 0.2490856407 0.4999536117
0.122424428 0.4999531371 0.2498395978
0.1124928795 0.4992527972 0.501924347
0.1224697154 0.2501504698 0.7504919641
0.1125274893 0.2481958965 -9.2618537504e-04
0.122360363 -0.001790968 0.2501820143
0.152419737 0.2500821281 0.4940625767
0.1324656971 0.24939806 0.4982415297
0.1424215462 0.2498367488 0.747945012
0.152462447 0.2484803283 -0.0046034706
0.1324999388 0.2495711923 -0.0050367471
0.1424071868 0.0011190226 0.2483060878
0.1424845066 0.2505162607 0.2442145799
0.1425699266 0.5012848244 0.7450712915
0.1524307827 0.499660244 -0.0089369021
0.1323850636 0.4998450921 -0.0034944649
0.1524760701 0.5009183826 0.4932534799
0.1323475082 0.5010791484 0.4957995116
0.1826252823 0.2509998598 0.2455621542
0.1723527902 0.498357846 0.494659044
0.1824190961 0.498146963 0.7431806375
0.1723627313 0.2494768157 0.493676898
0.1624197689 0.250391293 0.7448862762
0.1723829817 0.2497254494 -0.0084139575
0.1824724836 0.5023906586 0.2423690292
0.1623707996 7.6240896489e-04 0.7491471513
0.1624459103 0.2513168352 0.2436466474
0.1824754291 0.2534269673 0.7436215446
0.1825041479 -5.7663320186e-04 0.246763373
0.1924515286 3.2359001344e-04 -0.0071844343
0.2025307212 0.2515179551 0.2462561917
0.2024913249 0.4995164009 0.7449267771
0.1923841499 0.4991707871 -0.0035015249
0.2025590718 0.5012444702 0.2449822554
0.1924290691 0.5024160426 0.4958989228
0.1925351077 0.2518258183 0.4967098606
0.2024191598 0.2492405486 0.7468358406
0.1924077141 0.2504492208 -0.0059000966
0.2024699699 0.0032989934 0.2456882592
0.2125005615 0.2497482299 0.4939668474
0.2224895476 0.2523419611 0.7468763414
0.2125060843 0.2520620854 -0.0065081067
0.2222910934 5.5360872813e-04 0.7467336679
0.2225838042 0.2521558112 0.2465258907
0.2326305961 0.2509074358 0.4938950504
0.2325160891 0.2503314127 0.9958867067
0.232461597 0.0018443561 0.5012533213
0.2224762928 0.5021758703 0.7464925037
0.2124353919 0.4997565733 -0.0048271643
0.2124350237 0.49880044 0.4987303015
0.2423913046 0.5025709505 0.7509853383
0.262400573 0.2498653872 0.7532009197
0.2624208234 5.2848500887e-04 0.2548957627
0.2625147118 -5.3829674941e-04 0.7560727993
0.2525043707 0.2507525278 0.4983363385
0.2425363714 0.2508104556 0.7502222652
0.2525139436 0.2510376105 0.9989518858
0.2623884228 0.2515478953 0.2519263129
0.2425028661 -0.0012970851 0.2502243561
0.2623622813 0.5004263222 0.2553771707
0.2523600403 0.001666212 0.5006504107
0.2424752519 -0.0010105706 0.752157102
0.2523880227 0.0022807017 1.0003694161
0.2425525717 0.2511970745 0.248675198
0.2725298394 0.2492822045 0.5063435437
0.2726064229 0.2511781992 1.0066010265
0.2725136391 0.0015307001 0.503529654
0.2724160688 -3.7473222479e-04 1.0045759832
0.2827301664 0.2511456555 0.7525621106
0.2723781453 0.5004705816 0.5049517866
0.2825398124 0.2503893404 0.2547079859
0.312546167 6.6041707867e-04 0.5020099511
0.2926153231 0.5022988854 0.5033216268
0.2927011113 0.2508814008 0.5030905878
0.3025314076 0.2523224349 0.7528124796
0.2926510375 0.2508045977 1.0058370329
0.2923969866 6.2930532269e-04 0.5019740526
0.3023705087 5.2783413531e-04 0.7523863001
0.3124997751 0.502125753 0.5004571111
0.3025998909 0.2524291781 0.252173
0.3126264324 0.2505377396 0.5002766981
0.3126065501 0.252620535 0.9990071143
0.3224026049 7.9371598294e-04 0.2502363222
0.3325211938 0.0014013064 0.4995384778
0.3224732973 0.0014166671 0.7532699553
0.3324895295 0.0020688424 1.0007744248
0.3225362577 0.254133816 0.2507039231
0.3226489238 0.5021342144 0.749604627
0.3225130618 0.5000286384 0.2496785149
0.3323938002 0.2504967345 0.4991251849
0.3224898658 0.2509712214 0.7502388337
0.3324869521 0.2525769264 0.9994581466
0.362493675 0.2501036069 0.2392440192
0.352559181 0.4987535771 0.4922105826
0.3524895931 0.2491858752 0.4937937983
0.3425845542 0.2504140736 0.7476274484
0.3624531742 0.5007315819 0.742092637
0.3525260439 0.251420975 0.9924441332
0.3625525854 0.5032947219 0.2412092316
0.3424788838 0.0010728106 0.2480704464
0.3424597379 0.2508013434 0.2461797924
0.3625157664 0.2502754375 0.74155508
0.3425330077 0.5011279639 0.7455996437
0.3425779268 0.5006137738 0.2451939645
0.382552649 0.2522859859 0.2386144149
0.3924900886 0.2530598746 0.4923035505
0.3923501765 0.2534972616 0.9924349284
0.3925637265 0.0029451134 0.9889003074
0.382589468 0.503505605 0.7392842702
0.3924827248 0.5044649926 0.9885505272
0.3725378896 0.2522072302 0.4932902989
0.3824385102 0.2516904366 0.7391590857
0.3725157982 0.2492880623 0.9918734391
0.3926447282 0.5029738413 0.4881025062
0.3724421603 0.0014563704 0.4896829604
0.4126668833 0.5041115683 0.9849790873
0.4024164825 0.2527630763 0.7386905643
0.4024348919 0.0027021423 0.7392815087
0.4024864385 0.2532264982 0.2374168779
0.4124201962 0.2525795299 0.4835286699
0.4124938341 0.2527962708 0.9856602382
0.4123355126 0.0035691059 0.4873541607
0.4125232893 0.0019231118 0.9849514731
0.4425197029 2.4001784885e-04 0.7309190005
0.4423871546 0.2497905367 0.2328365982
0.4226558694 0.5019376506 0.7335036921
0.4327589943 0.5012073704 0.9833406432
0.4327037659 0.5006606367 0.4808187938
0.4425822951 0.5011989091 0.730580266
0.4426007046 0.5006398087 0.2317762119
0.4325233529 0.2499161553 0.4864594598
0.4225306849 0.25231137 0.7383140903
0.4323392581 0.2512042341 0.9827331302
0.4224349556 0.0038500229 0.2338933026
0.4324681245 0.0012128786 0.9806988822
0.4224055004 0.2533521168 0.2357526605
0.4424828839 0.2510317526 0.7311712105
0.4725639811 0.2479296892 0.4796194159
0.4624129915 0.2504498716 0.7344103592
0.4726449828 0.2500769211 0.9799901171
0.4724719337 -1.0494513583e-04 0.984491236
0.4625455398 0.2508748921 0.2358014457
0.4525197347 0.498296013 0.9822820979
0.4525381442 0.497904838 0.4852214219
0.4626044501 0.5017495481 0.7308738973
0.4726523466 0.4987242878 0.9846569213
0.4626044501 0.5025000053 0.2311502895
0.4525344623 0.2483879042 0.4782304203
0.4525381442 0.2492203715 0.9819967509
0.4524608243 9.0924603913e-04 0.477474711
0.4825419215 0.2519468808 0.7363507188
0.4824277827 0.0013632954 0.7327663923
0.4925677266 0.5009151282 0.9853564817
0.4925714085 0.4980291549 0.4848035267
0.4824498741 0.2510831716 0.2354203693
0.492446224 0.2517301399 0.4831070927
0.4924020413 0.2480331781 0.9864334366
0.4826081957 0.4994897151 0.234788924
0.5024573015 0.2503620037 0.7386546658
0.5124867885 0.2489990745 0.4871461335
0.5125530627 0.2503418266 0.9866267361
0.5024536196 -0.0016321548 0.7363304684
0.5024462558 0.252424622 0.236432891
0.5223064074 0.2492320872 0.2391335623
0.5224868204 0.2492307855 0.7351430567
0.5124978342 0.4994096577 0.4847050359
0.5225457307 0.4998639674 0.7337439359
0.5424647926 0.4983454794 0.7362918085
0.5523911865 0.4990230388 0.9894710015
0.5423580176 0.498064302 0.236593974
0.5523543675 0.4988531608 0.4890064119
0.5324242599 2.5882809462e-04 0.4871534973
0.5323432582 0.2488500244 0.4869399473
0.5324095323 0.2479036543 0.9865715077
0.5324095323 0.4993660492 0.9843531648
0.5524869158 9.3176626416e-04 0.9879614238
0.5423469719 0.2496479954 0.2377850676
0.5523285942 0.2477279184 0.4888342832
0.5424611107 0.247040596 0.7385883916
0.5523212305 0.2504407594 0.988881898
0.5722955208 0.2513213913 0.493535145
0.5723397036 0.2479192753 0.9941009867
0.5622770795 0.4987392579 0.741735493
0.5623838545 0.497961464 0.2407554379
0.5723360217 0.497961464 0.9879706285
0.5722734294 0.4985407415 0.4883722052
0.5623470356 0.2491214387 0.2415065448
0.5624133097 0.2497475791 0.7414289751
0.6025386215 0.4981144193 0.7468229539
0.5923397672 0.4991180663 0.9953436269
0.592277175 0.4964878863 0.494765819
0.5824722837 0.2483879042 0.7411353438
0.6024539378 0.24656676 0.2468508181
0.5924281327 0.2479641855 0.4964484459
0.6024208008 0.246968349 0.7491167757
0.5924465422 0.2481919913 0.9972582133
0.5823213259 0.4984697963 0.7423199941
0.5823839182 0.5000006509 0.2421803319
0.5823728725 0.2480520535 0.243248082
0.6124466059 0.4971335529 0.9973686702
0.6123177395 0.4985153574 0.4947842285
0.6224981842 0.5005063796 0.7490035573
0.6123251033 -3.6451350996e-04 0.4983068833
0.6224282282 0.5005851353 0.2488730999
0.6123398309 0.2471883443 0.5024379716
0.6123840136 0.2470679326 0.998408806
0.6223398627 -0.0018183047 0.7482414047
0.6223472265 0.2474311201 0.2499684642
0.6223840454 0.2487348198 0.7500169994
0.64263816 -3.89962666e-04 0.2514909286
0.6524725064 -2.3616124472e-04 0.4986014351
0.6324319419 0.4976119449 0.4966288588
0.6425166574 0.2504362033 0.2518950168
0.6526750108 0.2498204769 0.5005638861
0.6426271143 0.2501146718 0.7508270167
0.6324577152 0.0011955002 0.4981365956
0.6526234642 0.2495054541 1.001124205
0.642601341 0.5003163245 0.7469361723
0.6527081478 0.4991909642 0.4976542671
0.6325203074 0.2493687707 0.5001846507
0.6325608083 0.2512504461 1.0002221402
0.682538876 0.4988186645 0.7455158806
0.6626161322 -0.002004435 0.2475595832
0.6825094209 0.4987965348 0.2452952167
0.6624835839 8.9264876345e-04 0.7490661496
0.6726640287 0.501389615 0.4928493917
0.6625424943 0.2502129537 0.2457075891
0.6625645857 0.2485506226 0.7419702139
0.6724725701 -0.0013196054 0.9920023055
0.6627192253 0.499531371 0.7480260137
0.6625977227 0.5002818282 0.2479664328
0.6825609674 0.2493219078 0.2412773467
0.6726014365 0.2499662726 0.4941012367
0.6826198778 0.2493303691 0.742876881
0.6725498899 0.2487445829 0.9954356743
0.7025205302 0.2481269039 0.2402537794
0.6926015001 0.2500118337 0.4903190081
0.7025094845 0.249825033 0.7416977535
0.6926493648 0.2508052486 0.9898668054
0.692498407 0.5008858389 0.9919746913
0.6924763156 0.4994037998 0.4926119094
0.7324985343 0.4996361617 0.9865530982
0.7324948524 0.5005447812 0.4856328739
0.7126825655 0.2520764047 0.4895614579
0.7126494284 0.2495132646 0.988311204
0.7225021843 -0.0026870647 0.2388371696
0.7324985343 1.4229812275e-05 0.4888821479
0.7325574446 -4.8355828335e-04 0.9871145875
0.7126715198 0.4994773485 0.990308633
0.7225205938 0.2524083502 0.2383290678
0.7324948524 0.2471707707 0.4867070673
0.7225058662 0.2488565332 0.7382735895
0.7325648084 0.2474415341 0.9837640614
0.7124874249 0.500865011 0.4882111222
0.7126052456 -7.6961721121e-04 0.4900428659
0.7125463353 4.7439741636e-04 0.9883204087
0.752531735 0.4972474557 -0.0162753598
0.7424175644 -0.0028741713 0.2337515496
0.7425574764 -0.0017098041 0.7340219191
0.7424322919 0.2475931876 0.2345118613
0.7424617471 0.2496180552 0.7329845447
0.7625023116 -0.0023889255 0.2391114709
0.7525501445 -5.1082988535e-04 0.4855877707
0.762631178 -0.0039098088 0.7376946112
0.7525170074 -0.0026880475 -0.0120616866
0.7625722677 0.2496226114 0.2307342351
0.7523439582 0.248878012 0.4835010557
0.7625722677 0.2476771503 0.7328446326
0.7523991867 0.245598911 -0.0181509456
0.7825870589 -6.1959085655e-04 0.2397226658
0.7825760132 -9.9800874201e-04 0.7399746258
0.7726938021 -3.0014211527e-04 -0.0122602236
0.7826165141 0.2515882495 0.2392329735
0.7724765702 0.2498308909 0.4839723384
0.7825391942 0.251240683 0.7394085342
0.7724066141 0.2485148246 -0.011503824
0.7926791381 3.230693146e-04 0.4922262307
0.7926460011 6.2279658713e-04 -0.0094131969
0.8124987888 0.5003983346 -0.0035894855
0.7925355442 0.2506828844 0.4912652556
0.7925502718 0.2496343271 -0.0091452874
0.8025760768 0.001844291 0.2439522448
0.8124361966 5.5471521317e-04 0.4939742112
0.8026276234 4.1223899177e-04 0.744268638
0.8124251509 -0.001799169 -0.0075504323
0.8025318941 0.249881659 0.2429654964
0.8126129276 0.2508898622 0.4972538608
0.8025650312 0.2503815299 0.7416471275
0.8126055638 0.2508573185 -0.0061297273
0.8326424465 -1.4406263654e-04 0.502778547
0.8226055957 0.0014558497 0.747712132
0.832443624 4.7719617266e-04 0.0010341301
0.8225466853 0.250854715 0.2492412896
0.8325430352 0.2521122027 0.4991058549
0.8225650948 0.2490127428 0.7453152172
0.8324362602 0.2486489045 -6.0621013006e-04
0.8224914569 8.3823573417e-04 0.2492431306
0.842473111 8.7911059348e-04 0.7496755035
0.8426351145 0.2499747339 0.2538611497
0.8426240688 0.2512003289 0.7507727088
0.8626646333 -7.1383734746e-04 0.2533466046
0.8424620653 0.4985348836 0.7547224636
0.8525946454 -3.5924143416e-04 0.5033768553
0.8626278143 -9.9520998572e-04 0.7498503936
0.8524878704 7.5010745468e-04 -0.0016356409
0.8626499057 0.2487947002 0.2495082271
0.8425762041 3.6205733124e-06 0.2516971148
0.8524952342 0.2515283691 0.5015570778
0.8626314962 0.2485447647 0.7468284768
0.8524584153 0.2498790555 0.0030959924
0.8725799815 -0.0026173236 0.5011806038
0.8926610469 4.3280659614e-04 0.5042862838
0.8726499375 5.1969821586e-04 0.0018030943
0.882661015 0.2476107612 0.253225102
0.89255059 -2.0609088643e-04 0.0039028801
0.8726425737 0.2494117283 0.5003880755
0.8925579537 0.24876476 0.5046682806
0.8825468762 0.2480364325 0.7550078106
0.8725762996 0.2475131302 -0.0015107785
0.8925284986 0.2495633819 0.0036759832
0.902613214 -0.0019662157 0.2553688864
0.9125248803 -3.7629432132e-04 0.5060793676
0.9025690313 0.0015691667 0.755814146
0.9026389873 0.2528177496 0.257167493
0.9125985183 0.2493863443 0.5046636782
0.9025911226 0.2488923312 0.7568395543
0.9026463511 0.4985413924 0.7565680144
0.9126316553 0.2501999362 0.0084474453
0.9226979613 8.7364325561e-04 0.2589688611
0.9226169596 7.555097052e-04 0.7593414032
0.922602232 0.2510825207 0.2562111203
0.9225249121 0.2535389175 0.7574139302
0.9425323396 -7.4078351268e-04 0.2619843346
0.932664856 8.3830082152e-04 0.51202379
0.942694343 0.0013040009 0.7629745149
0.9325654448 -0.0020438584 0.0098484991
0.9425470672 0.2518388358 0.2613933901
0.9325728086 0.2503685124 0.5126220982
0.9425212939 0.2505188642 0.7591932068
0.9326538103 0.2506789791 0.0121808887
0.9525544628 -7.4299648277e-04 0.5154553179
0.9526686016 -9.0311137755e-04 0.0148540379
0.962576586 0.2505006398 0.2649473411
0.9525360533 0.2499825444 0.5134947078
0.972499298 0.2499395868 0.5115874852
0.9627054524 0.2492665835 0.7658537582
0.9525360533 0.2487693161 0.0114355808
0.9724772066 0.2497391177 0.0141019184
0.9624587653 8.2580404925e-04 0.2649178859
0.9825840134 0.4992755777 0.7626946907
0.982598741 0.5020671744 0.2612599214
0.9825508763 -7.3180145761e-04 0.2635307312
0.9925104073 -8.549467344e-04 0.5197069882
0.9823667815 0.2483358343 0.2623377967
0.9924367694 -0.0030812597 0.0169044862
0.9925545901 0.2496733795 0.5143470669
0.9825582401 0.2484992036 0.7637099738
0.992447815 0.2473426013 0.0111511542
0.0123724578 0.7499940241 0.0170839787
0.0024485308 0.4982569606 0.7651956192
0.0125561477 0.5002909405 0.0174201359
0.0225488525 0.7508987384 0.2695313026
0.0025316312 0.7456787324 0.2684690754
0.0125087248 0.7496881136 0.5159413282
0.0224024235 0.7509052471 0.7674765543
0.0223013186 0.501801618 0.2677262527
0.0025629642 0.7487833993 0.7693119798
0.0123897627 0.9988685457 0.0182523366
0.052276193 1.0003069763 0.5126533944
0.0523704496 0.999180965 0.0129651328
0.0324918886 0.7510028781 0.0147810443
0.0424234371 0.5001555588 0.7637265423
0.0425313167 0.7505733016 0.2655585359
0.032531653 0.7480999821 0.5144722514
0.0423722587 0.7507815811 0.7655638089
0.0525501262 0.7487638731 0.0120369266
0.0526322325 0.7494017292 0.5139816386
0.0524610243 0.501307605 0.5104783138
0.0425000206 0.9975407637 0.266181697
0.0324362919 0.9980354276 0.515414817
0.0323957911 0.9987774234 0.0174541934
0.072366095 0.9985691439 0.5073072802
0.0624687881 0.9976188685 0.7606724089
0.0724898067 1.0002549064 0.0101401054
0.0724938568 0.7503845483 0.0102055511
0.0624282872 0.7478266152 0.2598212202
0.072536935 0.7484644713 0.5101736368
0.0624257099 0.7492259933 0.7583288816
0.0623568584 0.9984064255 0.2593425736
0.0826069228 0.9990117379 0.2546702465
0.1024696517 0.9988164758 0.7516848987
0.0824909431 1.0022921406 0.757205903
0.0923871454 1.0001833103 0.0065391182
0.0925160118 0.751178614 0.003764901
0.0926345689 0.5006560805 0.0071098122
0.1024125823 0.7492715545 0.2566087652
0.0824861566 0.7477224754 0.2586586613
0.092444583 0.7500200591 0.5054838207
0.1025182528 0.7499354455 0.7558712154
0.0825041979 0.7488419779 0.7593634946
0.0925693993 0.5009196843 0.5012441165
0.1124210825 1.0019862301 0.0039732963
0.1123566493 0.7494277641 0.0024083981
0.1223548402 0.4997305383 0.7475390829
0.1223647813 0.7500851464 0.2523911524
0.1123102574 0.750293426 0.5030197113
0.1222543244 0.7503715308 0.7502047762
0.112295898 1.0003199938 0.5035379383
0.1224583015 1.0001507666 0.7524461309
0.1524893249 1.0007430616 0.4959845269
0.1322845478 0.9998578735 0.5025944522
0.1424182325 1.0017584243 0.7477066092
0.1524907976 1.0015501448 -0.003524546
0.1324108368 0.999304631 -0.0015844717
0.1523851272 0.7503454958 -0.0016135955
0.1323475082 0.7494993602 -7.4284532184e-04
0.1424856112 0.7519075924 0.2458511831
0.152342049 0.7501241988 0.4972649065
0.1323673905 0.7502218299 0.4987579157
0.1424440057 0.5010186171 0.2449205837
0.1423604267 0.7493691855 0.7455480972
0.1723734088 0.7523436777 -0.0064615675
0.1624333919 0.4985745869 0.7400270928
0.1724201689 0.4984470157 -0.0091535449
0.1624580606 0.7535803374 0.2456081779
0.1824253553 1.0011986731 0.7441830339
0.1723785634 0.7515431032 0.4945485871
0.1624761019 0.4990653456 0.2407223008
0.1624175597 0.752187468 0.7467898169
0.1823837499 0.7499679892 0.2465065607
0.1823984775 0.750488688 0.7453308652
0.1623707996 1.0026956822 0.2496914015
0.1724194325 1.0006193956 0.4941030776
0.1725273121 1.0000401181 -0.0056458985
0.1925218529 1.0026696473 0.4915432388
0.2023823408 1.00090578 0.7420742275
0.1924224416 0.7502869172 -0.0062395307
0.2023495719 0.7516602604 0.2450006649
0.1924169188 0.7503389871 0.4928300618
0.2022939753 0.7498378145 0.7445024385
0.2325090935 0.750143725 1.0021183171
0.2324453967 0.4994155155 0.9995686035
0.23242846 0.7513478411 0.5011999338
0.2324163097 0.5016304383 0.5044952314
0.222484393 1.0003460287 0.244140942
0.2124718427 1.0003330112 0.4959292984
0.2124795747 1.0021945096 -0.0066375161
0.2124225053 0.7513413324 -2.6823040953e-04
0.2323618176 1.0010684983 0.9967979762
0.2224461013 0.75016976 0.2460905064
0.2125649947 0.7503129522 0.4950106652
0.2226014773 0.5002981001 0.2466483138
0.2224313737 0.749948463 0.7461233935
0.2524767565 0.7499094106 1.0026429874
0.2524031185 0.5008715197 1.0049533777
0.2424380647 0.7492910807 0.254279045
0.2523611449 0.750046094 0.5047870218
0.2425002888 0.5014761812 0.2502676184
0.2424174461 0.7480153685 0.7527425236
0.2524189507 0.5019675908 0.5018617547
0.2623998366 0.498316841 0.7542852384
0.2623339307 0.7504366181 0.2585491248
0.2624226644 0.7492650457 0.7554137397
0.2825685311 0.5016089594 0.7529505508
0.2825287667 0.7482887354 0.2528716399
0.2826219187 0.5010869588 0.2504305423
0.2824602834 0.750267391 0.7558436012
0.2724190143 0.7497466922 1.0066286407
0.2723748316 0.5002388706 1.0056161191
0.2724429466 0.751054948 0.5104921209
0.2824989433 0.999747225 0.2559092048
0.2825140391 1.0018755816 0.7562753036
0.312520762 1.0004631859 0.9996882652
0.2926226869 0.7523697126 1.0022840025
0.3027269164 0.4998704762 0.7502738117
0.2924257054 0.5004484519 1.0042814315
0.30251263 0.7513543499 0.2518361064
0.292617164 0.7515496119 0.4989153168
0.3026238232 0.4993940367 0.2506615813
0.3024975342 0.7516537517 0.7506953889
0.3024931159 1.000189819 0.2521518291
0.3125023525 0.7525454485 0.9982155065
0.3124519105 0.499809294 0.9991267759
0.3126172276 0.7514194372 0.5004193716
0.2924084005 1.0016217409 1.0041525651
0.332533344 0.7517709089 1.0000472501
0.3325745813 0.5020535061 0.9987493815
0.3227026795 0.7478461414 0.2526212709
0.3325900453 0.7532093395 0.4965414138
0.3225171119 0.7537755995 0.7495816151
0.3324917386 0.500118459 0.4995937063
0.3526055729 1.0011986731 0.4929303935
0.34247152 0.9997927862 0.7476651878
0.3626188595 0.7504561443 0.2416271269
0.3525912135 1.0031122413 0.9960155731
0.3624899931 0.7503520046 0.7429422347
0.3625562673 0.9995584717 0.242250288
0.3525768541 0.7505863191 0.9930608509
0.3624973569 0.9989531593 0.7448706281
0.3526464419 0.4995346254 0.9932633552
0.3426497238 0.7506839501 0.2477151434
0.3526151458 0.750931282 0.4906319694
0.342708266 0.751523577 0.7486712661
0.3925710903 1.0040364818 0.4866702484
0.3725378896 0.7523046252 0.9889831501
0.3725084344 0.4994688872 0.9908701223
0.3825636947 0.7528057979 0.2357471377
0.3724716155 0.7510158956 0.4888738636
0.3825305576 0.5033539514 0.2399159654
0.3825784223 0.7510224043 0.7371828275
0.3824900568 1.0025850337 0.2423754725
0.3824900568 1.0005738344 0.7413682238
0.3723832499 1.0014394963 0.9878049431
0.3726225732 0.5021530897 0.4902407678
0.3925600446 0.7555459756 0.9880718807
0.392688911 0.752506396 0.4884467636
0.4126153367 0.7506774414 0.9817666323
0.4125932453 0.7522655728 0.4838094145
0.4126006091 0.5039150044 0.4852048534
0.4024496195 1.00538379 0.2361908063
0.4025122118 0.5053247966 0.7398476004
0.4027846721 0.7527472193 0.2348616415
0.4025932135 0.5024882896 0.2397797352
0.4027588989 0.754452508 0.7393680333
0.4324681245 0.7522004855 0.9846753308
0.4225711858 0.751718839 0.2338408356
0.4325270348 0.7521809593 0.4795338118
0.4226595513 0.5038108647 0.233612558
0.4226742789 0.7526821319 0.732688152
0.4426007046 0.750293426 0.2306845295
0.4425933408 0.752877394 0.7323926797
0.432449715 1.0020187737 0.4817604389
0.4224644108 1.0023246843 0.7320797185
0.4425565218 0.9987253535 0.2325365236
0.4524902795 1.0011791469 0.9822544836
0.4625602674 0.9973064492 0.2316004014
0.4723430673 1.0009448324 0.4845780105
0.4623503992 0.9985366002 0.7309088753
0.4525528718 0.7490242225 0.9820427746
0.4524829157 0.7497727271 0.4814704895
0.4726008001 0.7489005565 0.9804043305
0.4625124027 0.7483017529 0.2313021677
0.4726265733 0.7468242699 0.4808546923
0.4624387648 0.7512632276 0.733845188
0.472567663 0.4990926823 0.4839392014
0.4826155595 1.0012377255 0.2325448079
0.4923504947 1.0022921406 0.4869482316
0.4924314964 1.0012963041 0.9873539108
0.4824646017 0.5009489736 0.7334125652
0.4924609516 0.7509703345 0.4811271527
0.4825271939 0.7501632512 0.2354433812
0.4925088163 0.7518099613 0.9837364471
0.4824866931 0.7507230025 0.7368901167
0.5125015161 0.9996365765 0.4874535719
0.5125088799 1.0021945096 0.9860100184
0.5025162119 1.0017323894 0.2343609035
0.5223874091 0.7512827538 0.7363461165
0.5224168643 0.9992395437 0.2367302041
0.5225678221 0.9992330349 0.7387494746
0.5023836636 0.7516277167 0.235004315
0.5025751222 0.50043218 0.2375126072
0.5022805705 0.7493106069 0.7340734656
0.5026340326 0.4985498537 0.7375537786
0.5124720609 0.7521093632 0.985595805
0.5123763316 0.5004588659 0.983349848
0.512398423 0.7510940004 0.4861759537
0.52242791 0.4992885952 0.2330906491
0.5224205462 0.7497987621 0.2340783179
0.5324500332 0.7487833993 0.4840975229
0.5325457625 0.500236918 0.4865671552
0.532350622 0.9992655786 0.9867924215
0.542450065 0.9981395673 0.2391602561
0.5523396399 0.9980224101 0.4872621133
0.5524390512 0.7489265915 0.9896735058
0.5424022004 0.9994608407 0.7378547737
0.5423837909 0.7480544209 0.2370864277
0.5523470037 0.7470000058 0.4900575935
0.5424537469 0.7495709563 0.7359098117
0.5323653496 0.7490632749 0.9868200357
0.5624243554 0.9998969259 0.2416041151
0.5623507175 0.9986081963 0.7372444993
0.5624133097 0.7480218772 0.2383115788
0.562332308 0.7475662658 0.7378842289
0.5723728407 0.9995649804 0.489359874
0.5723065665 0.9985235827 0.9880994949
0.5722513381 0.7491739234 0.9870869733
0.5723028846 0.7493431506 0.4945329391
0.6023913456 0.9991484214 0.2456781339
0.5922329922 0.7490437487 0.9935947259
0.5923581767 0.9967597154 0.4937422517
0.6025864861 0.9991354039 0.7447629327
0.5923544948 0.998862037 0.995840683
0.6021520223 0.7477940715 0.2459321848
0.6024244827 0.4997956257 0.2432738553
0.5922845388 0.7470846193 0.4917751983
0.6022808887 0.7483603315 0.747500423
0.5824133733 0.9989531593 0.2412322435
0.5825238302 0.9998058036 0.7412559259
0.5822660975 0.7478201064 0.2392845201
0.5823029164 0.7498508319 0.7403032351
0.6123435128 0.749382203 0.9980498211
0.6122846024 0.7496165175 0.4961658603
0.6124245145 0.9994217883 0.9983627823
0.6223729998 0.9981656023 0.2506173986
0.6223766817 0.7513348236 0.2462884083
0.6222846342 0.7507555462 0.7491084914
0.6426528876 1.0009969023 0.7468846257
0.6525350987 0.9995129105 1.0036094853
0.632395123 1.000118223 0.9995225798
0.6324798066 0.7516732779 0.9997066747
0.6324503514 0.4992039816 1.0000196359
0.6325129437 0.7484774887 0.4990773202
0.6525424625 0.7484514538 0.9999367932
0.6526566013 0.4985387889 0.9984272155
0.642531385 0.7500981639 0.2495910698
0.6426786608 0.5015653509 0.2511926949
0.6526345099 0.7479698074 0.5017172403
0.6425534763 0.7476964405 0.751619545
0.6724872977 0.7491153448 0.9973502607
0.672689802 0.5003332473 0.9941101915
0.6824873295 0.9977685694 0.2457315214
0.6725903908 1.0013874264 0.4938609929
0.682645651 0.9983608644 0.7445098022
0.6826161959 0.751966171 0.2459579581
0.6724909796 0.7486792595 0.4938296968
0.6825609674 0.7493040982 0.7455094372
0.6625572219 0.7490632749 0.248568423
0.6626050865 0.7518099613 0.7484273405
0.7027009431 0.9986277225 0.2387948278
0.7025831224 0.4984828137 0.7420493747
0.6925646811 0.7495514301 0.9907228464
0.692568363 0.9982111634 0.492966292
0.7024726655 0.9993371747 0.7386767572
0.6925904544 0.9975147287 0.9904467041
0.7025904862 0.7507034763 0.2408364396
0.7025868043 0.5000416559 0.24087602
0.6925057708 0.749824797 0.4929036997
0.7026457147 0.7518164701 0.7429956222
0.722550049 0.5011774303 0.7401136174
0.7324801248 0.7490502575 0.9923797
0.7225905499 0.7498768669 0.2396269365
0.7225353214 0.5014149991 0.240786734
0.7323917593 0.7479112287 0.4914208158
0.722586868 0.7522590641 0.7429173819
0.7225831861 1.0001637841 0.7398301114
0.7125500172 0.7489981876 0.9921311719
0.7125978818 0.7513934023 0.4896525848
0.7423807454 0.4981105141 0.7347270023
0.7426495239 0.7497206572 0.2364457776
0.7425280213 0.4967300113 0.2332305612
0.7425648402 0.7501502338 0.735112681
0.7524765065 0.4970469867 0.4838950186
0.7524801884 0.7473775124 -0.0120621008
0.7625280849 0.4960062399 0.7333251201
0.7626274961 0.7495969913 0.2364246067
0.7625170392 0.497626915 0.234967496
0.7524912341 0.7492194846 0.4893267369
0.7625391306 0.7484970149 0.7375399715
0.7825907408 0.747214794 0.2421140578
0.7824692382 0.4992436849 0.2420505451
0.77255389 0.7481715782 0.4868543432
0.7825796951 0.7491674147 0.7403050761
0.7726864383 0.9988360021 0.4868027966
0.7726643469 0.5007843026 0.4904874549
0.7725870271 0.7468503048 -0.0094484327
0.7825097391 0.4999921895 0.7386160059
0.7726827564 0.4992599568 -0.0098997228
0.7927049114 0.7488224517 0.4920218854
0.8125024707 0.4986312129 0.4946884992
0.8126423828 0.7493691855 -0.0051480324
0.8025061208 0.5005701652 0.744606452
0.802535576 0.7492715545 0.2435076558
0.8026165777 0.4993745105 0.2462341004
0.7925613174 0.4987073651 0.4924922477
0.792576045 0.7519075924 -0.0102593612
0.8124803794 0.7508922296 0.4956255419
0.7925613174 0.5005128884 -0.0071323078
0.8026165777 0.7506839501 0.7428934495
0.8324141688 0.5015126301 0.500012522
0.8324657154 0.7494537991 -9.0379023751e-04
0.8226166414 0.5000982819 0.7524626994
0.8325246258 0.4993354581 0.0017078252
0.8225098663 0.7505798103 0.2479701147
0.8224804112 0.4992391288 0.2476681992
0.832480443 0.7486467159 0.500996509
0.8224988207 0.7511916315 0.7458481717
0.8624584471 0.750833651 0.7520981916
0.8625799497 0.4981482647 0.7551339156
0.8526866929 0.7510614568 0.0077917916
0.8526277825 0.5003163245 0.0027365472
0.8624584471 0.7478005802 0.2534717891
0.8624474014 0.4985557116 0.2537875117
0.8525357351 0.7506709326 0.5061456417
0.8424952024 0.7511070179 0.2513013109
0.8424952024 0.4981235315 0.2534874371
0.8424436558 0.7511916315 0.7549461388
0.8525909635 0.4986019236 0.5013840286
0.8725505263 0.4978495138 0.5061438007
0.8825689676 0.7480869646 0.7567447454
0.8924953615 0.4983135866 0.5072382446
0.8725762996 0.7477745453 0.0030443538
0.8925358624 0.7508987384 0.0051949497
0.8824879659 0.4979393343 0.7511215685
0.8726609832 0.4993497773 0.0049937341
0.8925358624 0.4995665182 0.0055838501
0.8826462875 0.7482757179 0.2539771294
0.8825505581 0.4973223062 0.2555925617
0.8727125298 0.7495384126 0.506223882
0.8924695882 0.7515561207 0.5035526658
0.8825836952 0.9990182466 0.2552703957
0.8826462875 0.998614705 0.7511620694
0.9126684743 0.7527276931 0.5077086069
0.9126758381 1.0014590225 0.0075284439
0.9126206096 0.4998730797 0.5081154565
0.902650033 0.7505212317 0.7579496462
0.9126647924 0.7512957712 0.0065199723