POSCAR file written by Ovito 3.7.11
1
271.617429531 0.0 0.0
0.0 15.3650021048 0.0
0.0 0.0 10.8646971812
Sr Ti O 
800 800 2400 
Direct
0.0225203727 0.4981744226 0.7636093755
0.0122746384 0.2504302327 0.5143534639
0.0225450765 0.2465148411 0.7658294098
0.0024950009 0.2500566564 0.7683890761
0.0124337225 0.2495861065 0.0159371795
0.0224387873 -8.7848654447e-04 0.2623574852
0.0024214784 -0.0023026191 0.2663198598
0.0024938964 0.4990458836 0.2662066491
0.0125320225 0.4991435081 0.5156475635
0.0124798904 -2.4705155124e-04 0.5146783694
0.0223193915 1.1825916995e-04 0.7660180943
0.0023705244 0.0016799251 0.7681764609
0.0224810159 0.2491513523 0.2676516962
0.0024650323 0.2485890354 0.2685803922
0.0323021087 0.4992053369 0.0142191381
0.0424314292 0.4993680443 0.2651003136
0.0324000406 0.4985688254 0.5122825364
0.0325031267 0.251610187 0.5167971583
0.0423427015 0.2473023451 0.7658284894
0.0323308256 0.2473654755 0.0138356023
0.0523895531 0.4994864954 0.014281358
0.0424144936 -0.0015226778 0.7653066156
0.0423831996 0.2470420132 0.2643050774
0.0523350647 0.2494748147 0.5106147495
0.0521822762 0.2507139944 0.012883712
0.0623417863 0.2504068028 0.2636653909
0.0624408226 0.4989476083 0.7610487887
0.0725605708 0.5011955742 0.0137077571
0.0624824253 0.5006970386 0.2619028015
0.0723150049 0.4989326393 0.5151155652
0.0723323086 0.2500722763 0.5085208117
0.0624168919 0.2485890354 0.7633995215
0.0724007873 0.2513290285 0.0084030533
0.0924606193 0.251396064 0.5081139895
0.1024820675 0.2493941118 0.7532087175
0.0823618564 0.2489007829 0.7598117547
0.0925324114 0.2509300699 0.0075375897
0.1023948124 0.0011371331 0.2541980309
0.0924871271 -8.8362809925e-04 0.5037935746
0.1025409739 0.2496934934 0.2545256976
0.0824675198 0.2501939815 0.2589427558
0.1024967941 0.4978808984 0.7543500286
0.0824192902 0.4985343315 0.7582709847
0.1025442873 0.4997279532 0.2544005216
0.082347498 0.4965395384 0.2609510953
0.1225017695 0.2502792402 0.2506811358
0.1124921026 0.4970107391 0.0026118196
0.1124972569 0.2515210233 0.5024635789
0.1224852021 0.5013693457 0.2518555818
0.1123595632 0.4979941428 0.5040420859
0.1227064692 0.2494715605 0.7508607459
0.1125694172 0.2496140922 0.0026677807
0.1224480174 -7.6517709042e-04 0.2492195212
0.1525797362 0.251216435 0.4995357477
0.1323781607 0.2509300699 0.5028713215
0.1425122674 0.25197335 0.7524134813
0.152545865 0.2489528492 0.0020592042
0.1326009005 0.2489743266 0.0024632651
0.1425509247 6.880605888e-04 0.2508007894
0.1424563063 0.2486716908 0.2484629424
0.1423767827 0.4995314026 0.7521171086
0.1522693732 0.4998867556 0.0023403901
0.1323483394 0.4993804101 0.0022648242
0.1522660597 0.5002603319 0.5029283871
0.1323995143 0.4996771885 0.4991344479
0.1825884879 0.2504009454 0.2430242266
0.1723082198 0.5008682068 0.4949962746
0.182392256 0.4992931989 0.7483922003
0.1724934067 0.2506150683 0.495579816
0.1624833716 0.2494338124 0.75182994
0.1725559947 0.2514416221 -0.0017607735
0.1824084552 0.5007816465 0.2494873612
0.1624631225 0.002002997 0.7476853238
0.1625106158 0.2510927773 0.2496162189
0.182528477 0.2524855529 0.7444767668
0.1825277407 0.0010367101 0.2447242279
0.1923588476 0.0011045916 -0.0047708067
0.202521303 0.2518002292 0.2474422052
0.2025165168 0.4995997397 0.7485044906
0.1924022911 0.5020475103 -0.0032768765
0.2025404475 0.5020520661 0.2482282373
0.1924704016 0.5054591597 0.4978154972
0.192634235 0.2506781988 0.4959360155
0.2025021584 0.2486521659 0.748002866
0.1926051499 0.2496889376 -0.0045023777
0.202516885 0.0039500191 0.2491228779
0.2127010621 0.2493036464 0.4965057507
0.2224798896 0.2507178994 0.7463599302
0.2126193295 0.2515483581 -6.6471898156e-04
0.2225288555 0.0019979205 0.7514406056
0.2225358507 0.2509971054 0.2463110186
0.2327196596 0.2498802816 0.5010341787
0.2326441858 0.2513374893 0.9997098353
0.2324976562 6.7458841362e-04 0.5046928173
0.2224504364 0.4995554833 0.7512648069
0.2125294972 0.5012294173 -0.001696363
0.2125630002 0.4993647902 0.4994998516
0.2425459804 0.5013133744 0.7504962627
0.2624695914 0.2496427287 0.7527669196
0.2625030944 9.3446472036e-04 0.2513962961
0.2625218708 -7.2781946456e-04 0.7510024894
0.2526697784 0.2522818432 0.5006623322
0.2424263268 0.2512307532 0.7486821302
0.2524783327 0.2499303955 1.0010352289
0.2624758502 0.2516642058 0.2553733973
0.2425839014 6.4380416792e-04 0.252787039
0.2625244479 0.502128864 0.2517929938
0.2525306121 0.0030561696 0.5047498829
0.2425618115 0.0038923556 0.7520489981
0.2524919548 0.0010896225 1.0044499582
0.2425842695 0.2493407437 0.245735761
0.2724770493 0.248697724 0.5045906515
0.2726099568 0.2504647267 1.0050574303
0.2725893396 7.3928088767e-04 0.5034889181
0.2726210018 1.5685337227e-04 1.0046892654
0.2827216054 0.2511012381 0.7526951275
0.2724678452 0.5008174421 0.5013139841
0.2825415728 0.2498379776 0.2529324641
0.3125709417 -0.002087598 0.4980584861
0.2926108824 0.4994904003 0.5001165278
0.292567439 0.2511910526 0.5019601134
0.3025277718 0.2482174116 0.7516145635
0.2925170004 0.24867104 1.0044867747
0.2925387221 -3.4617291742e-04 0.4997971447
0.3025274036 2.2271733982e-04 0.74821272
0.3125249211 0.5001913439 0.4977786807
0.3025513344 0.2497709422 0.2486599106
0.3125503245 0.2478653128 0.4981551293
0.3125175578 0.2505239522 0.9985225035
0.3225964397 -4.193912608e-04 0.2430960187
0.3325722355 0.0015767686 0.4945471135
0.3225242794 0.0018168597 0.7488386003
0.3324489003 0.0011591311 0.9976757243
0.322447333 0.2484966176 0.2442373299
0.3224418105 0.5019973964 0.7483719513
0.3223608142 0.5002785551 0.2468614251
0.3323984617 0.2510127253 0.4951895612
0.3224609551 0.249420145 0.7461307475
0.3323557545 0.2512008151 0.9954575309
0.3624624381 0.2541067698 0.2434623428
0.3523099232 0.4992964531 0.4901438614
0.3524049097 0.2521887746 0.4938927004
0.3424766073 0.2515906621 0.7438241945
0.3625544793 0.5013472175 0.7449756302
0.3525576982 0.2540807366 0.9895024638
0.3625728876 0.5019192968 0.2452819977
0.3425480312 0.0037379788 0.2433546546
0.3423300776 0.2515626764 0.2436850826
0.362547116 0.2535001965 0.7418885676
0.3423506949 0.5010263585 0.7424500191
0.3425001698 0.4995047186 0.2445695987
0.3825200611 0.2525259044 0.2397263896
0.3925378276 0.2505968451 0.4862983792
0.3924752396 0.2514435746 0.98529618
0.3926740487 0.0010102864 0.9899994864
0.382531106 0.5013706474 0.7383440602
0.3924310598 0.5004445167 0.989815404
0.3725207028 0.2544315338 0.4911636782
0.3823507052 0.2509951529 0.7424840743
0.3724397065 0.2522343327 0.9945923434
0.3924936479 0.50090205 0.4917030397
0.3725170211 0.002912141 0.4921181456
0.4125034094 0.4999563944 0.9833725185
0.4024709163 0.249412335 0.7357521794
0.4025445492 8.6033521538e-04 0.7356969547
0.4025666391 0.250650864 0.2360116059
0.4124997278 0.2512242449 0.4844253403
0.4125623158 0.2500885471 0.9852869759
0.4124739562 -0.0015893228 0.4842016802
0.4124003232 -9.5704169154e-04 0.9837222751
0.4424757128 0.0035662899 0.7303401556
0.4425235742 0.2525551917 0.2356029429
0.4225543108 0.5000624797 0.7334962491
0.4324763545 0.5013706474 0.9836302339
0.4324542646 0.5001399284 0.4834708729
0.4425493458 0.4994715263 0.7307129225
0.4423836716 0.5028454275 0.2323170713
0.4325794407 0.252657372 0.4827805637
0.4225174943 0.2499850652 0.7336241864
0.4324689912 0.2530686964 0.979120214
0.4224254531 3.8588035034e-04 0.2317777097
0.4324100848 0.0015395411 0.9834553556
0.4225653558 0.2525206977 0.2310211309
0.4425346192 0.2523996434 0.7330811431
0.472407518 0.2507777758 0.4833631846
0.4623382084 0.2544126597 0.7264900713
0.4723707015 0.250042989 0.9823784733
0.4725179675 -0.0022016169 0.9810806921
0.462415523 0.2518490415 0.2304780877
0.4523462134 0.5026417178 0.9835934174
0.4523793482 0.5009254799 0.4865358455
0.4624302496 0.5042154241 0.7314207195
0.4724848327 0.4995196877 0.9807217313
0.4623602983 0.5032359254 0.2321293072
0.4524088014 0.2514852277 0.480193285
0.4524677078 0.2534201444 0.9802707293
0.4524677078 0.0010592939 0.4836347062
0.4823516516 0.2508356996 0.7288325204
0.4822964269 -0.0021743536 0.7307865555
0.4925166841 0.499965506 0.9822772279
0.4924577777 0.4971890664 0.4855850597
0.4824436928 0.2503553873 0.2279589194
0.4923583732 0.2490368063 0.4806037888
0.4922479237 0.2490634903 0.9828939041
0.4823553333 0.4992840873 0.23231431
0.5024276828 0.2481328038 0.7347949507
0.5124270411 0.2506378474 0.4842605865
0.512522764 0.2497943721 0.9848727904
0.5023798214 -0.001917022 0.7296194728
0.5023982297 0.2502844468 0.2334869152
0.52231595 0.2470185833 0.2352982865
0.5224853058 0.2472997417 0.7342399421
0.5124270411 0.4994565572 0.486782516
0.5224595343 0.4992333226 0.7346292765
0.5425171573 0.4999889359 0.7382888355
0.5523802946 0.4960533686 0.9872198415
0.5423809363 0.4991265865 0.2379159388
0.5524134294 0.4982154249 0.488968495
0.5325435705 -0.0024174255 0.4843360603
0.5324515293 0.2494546389 0.4826949654
0.5324625742 0.2477696408 0.9837498875
0.532444166 0.4968233001 0.9848359739
0.5525570137 1.2632945846e-04 0.9870909838
0.5424177528 0.247260692 0.2355247079
0.5523876579 0.2475646294 0.485105525
0.5424729775 0.2469079423 0.7362151467
0.5524023845 0.2490621886 0.9871646168
0.5723826928 0.2495516126 0.4885497075
0.5724526442 0.2472893285 0.9907358162
0.5624348776 0.4987321837 0.7411200234
0.5624716941 0.4976667755 0.2405151829
0.5725078689 0.4989027011 0.9949328959
0.5725189139 0.4990615035 0.4905396387
0.5624017428 0.2515789471 0.2407876249
0.5623649263 0.2481744569 0.7403505588
0.602546442 0.500393752 0.7433685905
0.5926391249 0.5001926456 0.9938284012
0.5925618103 0.4980683374 0.4946115423
0.5825698152 0.25031048 0.7396933845
0.6024396741 0.2493335846 0.2447067401
0.5925249938 0.2485961945 0.4918245341
0.6024654457 0.2516232036 0.7420873767
0.5924513608 0.2510641408 0.9933037663
0.5824925006 0.4980839573 0.7410104944
0.5824814557 0.4973381064 0.2423734951
0.5824740924 0.2503293541 0.2427757153
0.6125089838 0.5005297754 0.9953010608
0.6125016205 0.5004692482 0.4924135979
0.622394211 0.5002225838 0.7428596025
0.6125715718 5.146795517e-04 0.4948002268
0.6223389862 0.5008656035 0.2422989418
0.6123469912 0.2484237247 0.4921199864
0.6122844032 0.2481451695 0.9917482696
0.6224678439 -0.0022422416 0.7434661542
0.6224457541 0.2492847724 0.240205004
0.622530432 0.2480573075 0.7412856976
0.6425438752 -0.0016636475 0.2421360288
0.6525285069 -4.3045536602e-04 0.4953036923
0.6323567528 0.4980110644 0.4902552313
0.6425659651 0.2493784919 0.2433141564
0.6524291024 0.2493850002 0.4939875028
0.642503377 0.2502597153 0.7458868383
0.6324377491 -0.0013577575 0.4910421837
0.6524548739 0.249209927 0.9933313786
0.6424776055 0.499315978 0.7405659353
0.6526720912 0.4985981128 0.492538774
0.6325040187 0.2480442909 0.4898797031
0.6326034233 0.2488090159 0.9901467524
0.6824676754 0.4988428248 0.7494580377
0.6624284607 8.5522435089e-05 0.2465889831
0.6823535443 0.4997949886 0.2481122653
0.6623327378 0.0015826911 0.7465071961
0.6725235419 0.4993621869 0.50025551
0.6626199064 0.2499909226 0.2522881755
0.6625683633 0.2510511242 0.7484483455
0.6724351823 8.5877322406e-04 0.9976020913
0.6624689588 0.5008343637 0.7465071961
0.6624210974 0.4990003256 0.2452240118
0.6824860837 0.2486638808 0.2494174098
0.6724867254 0.2496772227 0.4997437608
0.6825597167 0.2497188758 0.7532142399
0.6723578677 0.2486983748 0.9980254809
0.7025547516 0.2491747822 0.2427701928
0.6923823558 0.25122034 0.4964468443
0.7024222123 0.2504211211 0.7432701064
0.6923823558 0.2508858135 0.9974640295
0.6923749925 0.4982121708 0.9999675507
0.6923713109 0.4992150994 0.495684743
0.7325307366 0.5001060852 0.9888765835
0.7325123284 0.5018333873 0.4890301626
0.7124252522 0.2521783613 0.4922322767
0.7123516192 0.2484953159 0.990570142
0.7224098839 -0.0011776079 0.2401865957
0.7324423771 0.0015426651 0.4922893423
0.7326264595 -1.4389504081e-04 0.9912604512
0.7125872448 0.4992899448 0.9947856299
0.722597648 0.2503963895 0.2401764712
0.7322803845 0.2515340399 0.4874525761
0.7225608315 0.248422423 0.7388318787
0.732453422 0.2510817132 0.9879561713
0.7125467466 0.5016452975 0.4917499807
0.7125909264 -2.385907649e-04 0.4911765639
0.7124841586 4.8945804889e-05 0.991849515
0.7526251761 0.4998926131 -0.0113979864
0.7424895968 0.0030005887 0.235297366
0.7425006418 0.0019616042 0.7378102211
0.7424822335 0.2487296146 0.2365399225
0.7425595481 0.2517709419 0.73546317
0.7626466243 0.0010585129 0.2399380844
0.7526104495 -0.0020452941 0.4912695256
0.7626539876 -5.2710357927e-04 0.741837945
0.7525404982 -0.0016517373 -0.0095651787
0.7625472198 0.2506768972 0.237708846
0.75252209 0.2510374568 0.4871322727
0.7626208528 0.2468942748 0.7377089758
0.7526546293 0.250975628 -0.0149946168
0.7826269327 4.4321844857e-04 0.2421157797
0.7826637492 -0.0014795278 0.7418545124
0.7725981212 -3.0406423462e-04 -0.0098944654
0.7826563859 0.2491767347 0.2405832934
0.7726717542 0.2488565264 0.4874470536
0.7826195694 0.2484588695 0.7409773595
0.772642301 0.2501933307 -0.0110943884
0.7926925607 -0.0013293163 0.4928277834
0.7925968378 9.9505696718e-04 -0.0055068236
0.8126655057 0.4971109669 7.6426700314e-04
0.7926410176 0.2522974632 0.4937086179
0.7926336543 0.2506397999 -0.0068251116
0.8025299264 -8.6234596745e-04 0.2439722512
0.8127280938 -9.2033489539e-04 0.4992844751
0.8025372897 -0.0013479951 0.7453879749
0.8126691874 -0.0018587012 -0.0032507552
0.802765552 0.248689914 0.2455940175
0.812547693 0.2487634578 0.495720639
0.8026477392 0.2473986679 0.7449958793
0.8126250076 0.2489242127 -0.0037781237
0.8326089976 -4.6553508786e-04 0.5002334201
0.8226685457 -7.1564894882e-04 0.7481114746
0.8324727766 -1.080343233e-04 0.0019080725
0.8226538191 0.2500683714 0.2461941263
0.8327157654 0.2520703236 0.4983511771
0.8226648641 0.2488402557 0.748364588
0.8326531774 0.2483547367 -4.6776917575e-04
0.8225139164 -7.5261607685e-04 0.250648001
0.8425789027 4.9463399636e-04 0.7508147253
0.8425494495 0.2515171183 0.2538501151
0.8426267642 0.2501542809 0.7484142902
0.8626586156 2.6248303564e-04 0.2492756664
0.8427593035 0.5008799218 0.7513642114
0.8525635344 4.3218503363e-05 0.5044627143
0.8625702561 5.0673942913e-04 0.7521548455
0.8525561712 4.6407568986e-05 0.0037041649
0.8626512523 0.2496505387 0.2495563921
0.842586266 -0.0013054959 0.2542974354
0.8526040326 0.2519629367 0.4968831197
0.8625702561 0.2501432168 0.7478896553
0.8526003509 0.2504894582 -0.0015997934
0.8725512061 -7.3979473139e-04 0.5037659622
0.8923952935 -5.2280810312e-04 0.5043034829
0.8725512061 2.0826892006e-04 0.0012118727
0.8825505644 0.2496127906 0.2529913705
0.8923695219 -0.0013704487 0.0047608901
0.8726101125 0.2503130833 0.5001634688
0.892568331 0.2505747169 0.5093151275
0.8825505644 0.2488571773 0.752406118
0.8725180713 0.2492476751 2.0324814561e-04
0.8924799714 0.2511064448 0.0064546327
0.9024830114 -0.0030005299 0.2563315464
0.9124345082 -2.1223216129e-04 0.5064066249
0.9023615169 6.781028941e-04 0.7564660563
0.9024425132 0.2498073886 0.2576955973
0.9124308266 0.2491279224 0.5025510181
0.9025382361 0.2479538256 0.7553836515
0.9025787342 0.4993914742 0.7566344917
0.9124860513 0.2481438679 0.0059312863
0.9224559564 -7.1740618906e-04 0.2546876902
0.9223675968 -3.7506975694e-04 0.7528598812
0.9226105857 0.2482096017 0.2577646282
0.9225479976 0.2495145153 0.7582617805
0.9425319877 -0.0029150889 0.2554737222
0.9326246706 -8.1320832367e-04 0.5057430076
0.9425246244 -3.663830314e-05 0.7587201458
0.9324810863 -0.0011517699 0.004206894
0.9424767629 0.2483514826 0.2605138995
0.9325142211 0.2479928754 0.5050803108
0.9425688041 0.249412335 0.7588177095
0.9325694458 0.2489775808 0.0050384865
0.9522883571 -8.0800168592e-04 0.5107960707
0.9525460726 -3.5163988706e-04 0.0103774295
0.9625601575 0.2495952182 0.2644330147
0.9524650763 0.2475041023 0.5072994247
0.9725484708 0.2494051759 0.5196403117
0.9625527942 0.2496446812 0.765255993
0.952531346 0.2463540862 0.0082853326
0.9726957368 0.2469678186 0.0185739764
0.9625491125 -0.0012913729 0.2646263013
0.9825404658 0.4994669705 0.7692781943
0.9825367842 0.5019967456 0.2683189951
0.9825846456 2.544778301e-04 0.2703365387
0.9924477829 1.5594221067e-04 0.521188445
0.982444743 0.2497761488 0.2654804438
0.9924477829 4.3775147893e-04 0.0188992501
0.9924809178 0.2501868224 0.5198915842
0.9825515108 0.2502082998 0.7658432159
0.9924661912 0.2504888074 0.0197926022
0.0124253651 0.7490725334 0.014723616
0.0024170236 0.5010569475 0.7653461934
0.0125639424 0.4985460464 0.0159994914
0.0222542263 0.7508297736 0.2632907832
0.0024777708 0.7482329631 0.266956785
0.0124312926 0.7477773823 0.5183498938
0.0222891651 0.7499316286 0.7593184138
0.0223970374 0.499365441 0.2667358861
0.0024197112 0.7511421719 0.7652744012
0.0124921134 0.9984249236 0.0157788686
0.0524609771 0.9989390791 0.5124067921
0.0525136246 0.9982752328 0.0136637614
0.0322034405 0.7479791395 0.0129181354
0.042410812 0.4993791084 0.7629549624
0.0423861449 0.750289585 0.2612391843
0.0322387844 0.7482785211 0.5131458831
0.0422572872 0.7495476391 0.7636719635
0.0523103976 0.751298371 0.0101721776
0.0523748265 0.7491701579 0.5110316962
0.0524521411 0.5021008783 0.5122963426
0.0425249431 1.0005726617 0.2650570542
0.0325734462 0.9983598406 0.5112912525
0.0325012859 0.9970581812 0.0125476695
0.0724865697 1.0003709044 0.5117661852
0.0623830207 0.9997526162 0.760946623
0.0724784701 0.9995964171 0.0086135516
0.0723083779 0.7501203693 0.00979352
0.0624227825 0.7471330608 0.262075839
0.0722608846 0.7475495919 0.5072690511
0.0623624035 0.7489814172 0.7617989247
0.0623826526 0.9998307158 0.2594894807
0.0823729014 0.9967522912 0.2579385861
0.1024290517 0.9998372241 0.7556809447
0.0824671516 1.0005336119 0.7606778626
0.0924046582 1.0030653395 0.0027670932
0.0924650372 0.7487731517 0.0059645132
0.09238625 0.5005720793 0.0102470992
0.1023885536 0.7472957683 0.2500138369
0.0822860145 0.7481939133 0.2567006317
0.0924160713 0.7491441247 0.5089294747
0.1023351697 0.7497559046 0.7492638307
0.0823968321 0.7491115832 0.7598329242
0.0924569376 0.4970100883 0.5055506415
0.1125970295 1.0014968399 -0.0013732339
0.1124873164 0.7501203693 0.0023250192
0.1224458084 0.4994923528 0.7508211682
0.1223475084 0.7519817422 0.2503617528
0.1123518317 0.7506149998 0.4985527474
0.1223213687 0.7478489735 0.7489646967
0.1125392277 0.9988805044 0.4993912429
0.1223975788 0.9992124275 0.7505137505
0.1524221616 0.9995118092 0.4995237823
0.1324735154 0.9975723367 0.4990598945
0.1423867231 1.0008720433 0.7510669182
0.1524685504 0.9996289586 0.0010623057
0.1324897147 0.9996549918 -4.4396731587e-04
0.1523882904 0.7500878278 6.0630585877e-04
0.1323387671 0.7494500146 -0.0020764472
0.1423694194 0.7487471185 0.2500893107
0.1523934447 0.7503416514 0.5006715363
0.1323247768 0.7489228426 0.4984680695
0.1424356891 0.5011285387 0.2510281312
0.1422924729 0.7504067343 0.7483737921
0.1724926704 0.7515912444 -0.0020097542
0.1624671724 0.4990764726 0.7487557632
0.1724727895 0.5011213796 -0.0046439463
0.1624056888 0.7500813195 0.2510373353
0.182591065 1.0021867194 0.7461868927
0.1724801528 0.7517409353 0.4975016367
0.1625651042 0.5009996744 0.2515454029
0.1623176974 0.7506670662 0.7505570099
0.1824968148 0.7514675868 0.2454531944
0.1824426946 0.7507451658 0.7487244692
0.1625595817 1.0024080015 0.2492701439
0.1724691078 0.9982947576 0.4987128991
0.1725088696 0.9984184153 -0.0034898322
0.1924854963 0.9992514773 0.4962738068
0.2025857318 1.0011193586 0.7500139667
0.1924416847 0.7513699623 -0.0031185195
0.2025584876 0.7502505352 0.2481251511
0.1924291671 0.7516302942 0.4979425141
0.2023865546 0.7513439291 0.7481096338
0.2325226914 0.7512658296 0.9991391797
0.2325849112 0.5011968759 0.9966264544
0.2325543536 0.7513829789 0.499788861
0.2325370498 0.5031988281 0.5000244865
0.2226050657 1.0032540801 0.2512794037
0.2124389287 1.0008720433 0.5003751636
0.2123590369 1.0011453918 8.2783067072e-04
0.2124750088 0.751734427 4.2118334993e-04
0.2326467629 1.0009436346 1.0007314929
0.2224633222 0.7526651135 0.248901979
0.2125151388 0.7521900078 0.4973129522
0.2226249466 0.5000468597 0.2482089086
0.2224997705 0.7519947588 0.7475426599
0.2525556473 0.7517669684 1.0006578599
0.252485696 0.5024712004 0.9980715016
0.2425452441 0.7514220287 0.2499475673
0.2525512293 0.7518255431 0.5032146353
0.2426527482 0.5028519358 0.2497165438
0.2424995916 0.7524308148 0.7496697325
0.2525766327 0.5032547994 0.498719342
0.2625299704 0.500722421 0.7504345951
0.2624795318 0.7535827834 0.2549214749
0.2625030944 0.7510315309 0.7506076325
0.2824694125 0.5028773182 0.751394585
0.2825459908 0.749983695 0.2491965109
0.2824241282 0.500840872 0.2515647315
0.2824955522 0.7511031221 0.7522791011
0.2724884624 0.7511031221 1.0046524489
0.2725712995 0.5008076797 1.0026091338
0.2724608501 0.7511096304 0.5030047813
0.2825658717 0.9992840188 0.2486405819
0.2825334732 1.0013406407 0.7491441771
0.3124943634 1.0001886721 0.9927147025
0.2926274499 0.7521574663 1.0002712867
0.3025977231 0.500363163 0.7489757417
0.2925950513 0.4996121055 0.9994797322
0.3024876418 0.7512918627 0.2468577435
0.292520682 0.7525284392 0.4988794938
0.302512677 0.5020527169 0.2492922338
0.3024364669 0.7524828811 0.7467621503
0.3026481617 0.9994402179 0.2472977005
0.3125746234 0.7503937177 0.9936167064
0.3124781642 0.5012528472 0.9959821658
0.312696486 0.7509208898 0.4960262159
0.2925759068 1.0019198792 0.9975100501
0.3324165017 0.7495866889 0.9962766977
0.3325008115 0.5029541161 0.9922360881
0.3225555734 0.748057239 0.2454964538
0.3325818078 0.7495150976 0.4938890187
0.3225684592 0.7512723379 0.7447280393
0.3324194471 0.4998958672 0.4927771608
0.3526571027 1.0028765989 0.4915907494
0.3425432451 1.0001561306 0.7432664247
0.3625986591 0.7520403169 0.2463257452
0.3526011416 1.0044581151 0.9925030076
0.362410895 0.7551447747 0.7449627444
0.3625507977 1.0016985971 0.2425621797
0.3525945147 0.7522420741 0.9929908261
0.3625692059 1.0021737028 0.7399225671
0.3525039461 0.502675561 0.9942425867
0.3425391953 0.7511096304 0.2427195701
0.3525098367 0.7520077754 0.4932870691
0.342643386 0.7511747134 0.7437763331
0.3925635992 1.0004685289 0.4907559355
0.3724802047 0.752391765 0.9923833541
0.3724470698 0.5023983075 0.9955219597
0.382542151 0.7513959955 0.2428815627
0.3724617964 0.7543702873 0.4915134348
0.3825200611 0.5022089161 0.2411060875
0.3823801584 0.7519361842 0.7407270074
0.3824353832 1.0030783561 0.2393361348
0.3824869263 1.0005271036 0.737303074
0.3723623919 1.0015554145 0.9905149173
0.3724397065 0.5038672302 0.4937316282
0.3925083745 0.7516563274 0.9852409553
0.3925746441 0.7508688234 0.4877544713
0.4126396304 0.7490009421 0.9827466382
0.4125475892 0.7480051727 0.4842164068
0.4125218177 0.4993068663 0.4810308601
0.4024856429 0.9999543734 0.2354584382
0.4026181822 0.5006156849 0.7345795742
0.4026108189 0.7473218015 0.2354381891
0.4025187777 0.5004946306 0.2357106311
0.4025555942 0.7515131448 0.7379390788
0.4324984444 0.7520077754 0.9817249806
0.4223996816 0.7521834995 0.2357621742
0.4324542646 0.7528668707 0.478855926
0.4224917228 0.5001516433 0.2306575681
0.4224217714 0.7524893894 0.7307791922
0.4425640724 0.7543117126 0.2331804179
0.4425972072 0.7545004533 0.7334124915
0.4325389425 1.003514412 0.4828716845
0.4225579925 1.0034558373 0.7335026919
0.4425383008 1.0030588312 0.2327883223
0.4525045243 1.0017897132 0.9838143163
0.4624044781 0.9997526162 0.2315789007
0.4722676154 0.9997591245 0.481660422
0.4622829837 1.0021476696 0.7334907266
0.4525229325 0.7520598418 0.980325954
0.4524161647 0.7535827834 0.4817036814
0.4723743832 0.748844743 0.9787060285
0.4624302496 0.749502081 0.2305259491
0.4725142858 0.7510054977 0.4817165672
0.4625738339 0.7542726629 0.7329697733
0.4723743832 0.5011200779 0.480057064
0.4823295617 1.0015814477 0.2308453322
0.4923583732 0.9990432118 0.4799769881
0.4924835493 0.9979237847 0.9794423583
0.4823811048 0.5007191668 0.7311731286
0.4924283245 0.7482720128 0.4819273416
0.4825835955 0.748844743 0.2326079215
0.4924467328 0.7508362819 0.9848543821
0.4825136442 0.7504262592 0.7304736153
0.5124123146 0.9976178947 0.484659125
0.5124638576 1.0010152259 0.9843205431
0.5023650948 0.9988024048 0.2306023433
0.522452171 0.75088184 0.7350499049
0.5224043096 0.9980669672 0.2330340724
0.5223527665 1.0000259647 0.7350811989
0.5025049975 0.7484347203 0.2338265473
0.502468181 0.4996479011 0.2316313642
0.5022767352 0.74908555 0.7334594326
0.5024718626 0.4981535961 0.7346246744
0.5124196779 0.7491571413 0.9853237924
0.5122981834 0.5003878945 0.9864466953
0.5123202733 0.7488056932 0.486101411
0.5223638114 0.5010178977 0.2343677497
0.5223306766 0.7502440269 0.236335591
0.5326024769 0.7488317264 0.4845173815
0.5324625742 0.4984952817 0.4844630772
0.5324883458 0.9991408363 0.9858944479
0.5424766591 0.9985355646 0.235071865
0.5523876579 0.9980083926 0.4887770493
0.5525091523 0.7493328653 0.9871922292
0.5424729775 0.9995964171 0.7353886166
0.5424177528 0.7482655046 0.2400089562
0.5524318377 0.7466709717 0.4854175447
0.5426312884 0.7473673595 0.7354981456
0.5323889413 0.7479856478 0.9827926588
0.5624091061 0.9969605567 0.2378975305
0.5624422409 0.9965765672 0.7370646872
0.5624459226 0.7497884461 0.2414135052
0.562504829 0.7467490713 0.743646555
0.5725078689 1.0003123298 0.4910072081
0.5724526442 0.9992579856 0.9906621832
0.5724011011 0.7484737701 0.9919047397
0.572496824 0.7482459797 0.4922911831
0.6023881311 0.9988870127 0.2417384107
0.5924255892 0.7494695395 0.9972891512
0.5925360387 0.9983728572 0.4901144082
0.6024764906 1.0002928049 0.7454671303
0.5925802185 1.0005531368 0.9894564432
0.6023660412 0.7486560024 0.2447509199
0.6025059438 0.5018509597 0.2426072799
0.5924034994 0.7462023743 0.4955752139
0.6024801723 0.7489749089 0.7422788224
0.5824593658 0.9966351419 0.2410048422
0.5824961823 0.9991408363 0.7412829364
0.5825072272 0.74877966 0.2439796145
0.5825403621 0.7477122993 0.7432811513
0.6124832122 0.7483175709 0.9932393374
0.6123064931 0.7493719151 0.4944477089
0.6125089838 0.9999543734 0.9920243933
0.6223168963 0.9978391768 0.2439823757
0.6223721211 0.7500162365 0.2423274745
0.6225230687 0.7483370958 0.7429175885
0.6425659651 0.9989390791 0.7444868913
0.6524990537 1.0004099542 0.998780219
0.6324082959 0.9992514773 0.9922360881
0.6324377491 0.748057239 0.9873579034
0.6325629251 0.5001854865 0.9912972676
0.6323420262 0.74728926 0.4924715839
0.6523775593 0.7497038382 0.9948592629
0.652569005 0.4986618941 0.9921164345
0.6425622834 0.7496582802 0.2422924989
0.6425475568 0.4999765701 0.2410582261
0.652359151 0.7512332881 0.4969751609
0.6425401935 0.7478099237 0.7420606847
0.6723100062 0.7529319536 0.9977401532
0.6725861299 0.497958998 1.000363328
0.6823535443 1.0004034459 0.2497413949
0.6724719988 1.0009501429 0.5016066751
0.6825854882 1.0005205953 0.7487097426
0.6825229002 0.7510705806 0.2495407451
0.6724204557 0.7514545702 0.4966640616
0.6824050874 0.7501724356 0.7468882468
0.662435824 0.7491636496 0.2453823227
0.6624505506 0.7510445475 0.7480212742
0.7026099763 0.9986657306 0.243402516
0.7024884819 0.4986020178 0.7435324239
0.6925774832 0.7501398941 0.9928987849
0.6925112135 1.0016204975 0.4944559926
0.7023080811 1.0006442529 0.7403054586
0.6925112135 0.9999869149 0.9930368467
0.7024443022 0.7492873072 0.2392569794
0.7024369389 0.4989788482 0.2440422025
0.692422854 0.7510640723 0.4936773239
0.7026467928 0.7509794645 0.7416925198
0.7223841124 0.5021204032 0.7389966325
0.7325970063 0.7484151954 0.993506257
0.7225534682 0.7477903989 0.2441710602
0.7225056068 0.4990452328 0.2409081989
0.7325012834 0.7498860706 0.4904972997
0.7226013297 0.7500617946 0.7443994522
0.722461427 1.0038528434 0.7418158551
0.7125725182 0.7489553841 0.9921164345
0.7125393833 0.7472697351 0.4898060701
0.7423460125 0.4998958672 0.7373859111
0.7426074096 0.7480897805 0.2391778239
0.7424969601 0.5000357956 0.2385915214
0.74251905 0.7513309125 0.7400440616
0.7524852735 0.5012391798 0.4893587498
0.7526988091 0.7511291553 -0.0093815565
0.7626429427 0.4993517736 0.7409801208
0.7625361749 0.7506019832 0.2393793942
0.7627018491 0.4998887081 0.2408796661
0.752647266 0.7518645929 0.4913376361
0.7625913996 0.7492352408 0.7425991259
0.7826858391 0.7475105421 0.2433252014
0.7826490226 0.4991923203 0.2451577421
0.7726533459 0.7515001283 0.4929934576
0.7825974795 0.749742888 0.7438011842
0.7726533459 0.9996680084 0.4910882044
0.7726754358 0.4992749757 0.49199389
0.7726901624 0.7490595168 -0.0058198834
0.7826784758 0.4998607224 0.7448440113
0.7726275744 0.4983781323 -0.0094525111
0.7927514671 0.7468466958 0.4965545325
0.8127943635 0.4981789784 0.497131631
0.8126581424 0.7487080688 -0.0010025379
0.8026440575 0.498375529 0.7455361612
0.8027692336 0.7500878278 0.2475949936
0.8027839602 0.4987217704 0.244172901
0.7926446992 0.4972684677 0.4935392621
0.792626291 0.750048778 -0.0036743013
0.8125440113 0.7498795623 0.4955402382
0.7926925607 0.4983286693 -0.0064504762
0.802754507 0.7510510557 0.7505910651
0.832605316 0.5001848356 0.4990000678
0.8325869077 0.7484347203 0.0012089273
0.8226575008 0.4994643671 0.7503931765
0.8327673085 0.5000767979 0.0017302488
0.8226390925 0.7496517719 0.2498371178
0.8226648641 0.4997728604 0.2468089616
0.8326531774 0.747530067 0.5025445752
0.822675909 0.7488642679 0.7505790998
0.8625702561 0.7491831745 0.753234489
0.862654934 0.4988545397 0.7525855984
0.8526960738 0.7498209876 6.703481407e-04
0.8526298041 0.5025597133 0.0045690762
0.8625371212 0.7504067343 0.2545901265
0.8626402074 0.5001991539 0.2497800522
0.8525745794 0.7495866889 0.5018156087
0.8426083559 0.7492938155 0.2529269416
0.8427813934 0.5016010411 0.2483285622
0.8425825844 0.7499771867 0.7553900944
0.8525966693 0.5009313373 0.5013793333
0.8726395657 0.5017520336 0.5038543218
0.8826794221 0.750641033 0.7535971314
0.8926750988 0.4987354379 0.5062280649
0.8724628465 0.7508948566 0.0033845057
0.8925020613 0.7506540496 0.0082478718
0.8824990213 0.5023527494 0.7546537646
0.8725401612 0.4992085911 0.0029560538
0.8926419639 0.5007328343 0.0039356485
0.8826241974 0.74877966 0.2538372293
0.8825836993 0.5009482589 0.2561023638
0.8725880226 0.7516302942 0.5061295808
0.8925351961 0.7505629335 0.5057853466
0.8825358378 0.9983272991 0.2568727488
0.8825910626 0.9996224503 0.7534185715
0.9125744109 0.7485844111 0.5075525381
0.9124529165 0.9985615978 0.006578152
0.9126517255 0.4971226818 0.5076961224
0.9024719664 0.7490465002 0.7579239892