POSCAR file written by Ovito 3.7.11
1
271.6091070812 0.0 0.0
0.0 15.3645313159 0.0
0.0 0.0 10.8643642832
Sr Ti O 
800 800 2400 
Direct
0.0226053337 0.5030550883 0.7613614534
0.0124932649 0.2492894563 0.5082762356
0.0224160176 0.2489523162 0.7643041014
0.0025516984 0.2518310242 0.7614249638
0.0125003338 0.252979123 0.0080623383
0.0224546392 5.2592934985e-04 0.2612318684
0.0025696285 0.0022203514 0.258441093
0.0026171601 0.5005838121 0.2591811271
0.0125996678 0.5006443412 0.5092344141
0.0125233449 1.5598640248e-04 0.5105948251
0.0225351594 8.4985722618e-04 0.7594469373
0.0025466912 0.0019331314 0.7603848661
0.0225399825 0.2497639257 0.2648013363
0.0025297551 0.2505273723 0.2590504246
0.0326095638 0.4999329625 0.0119847952
0.0425690973 0.5000488137 0.2644368419
0.0325278287 0.5013173197 0.5140547606
0.0324880657 0.2499637365 0.5134399064
0.0424358176 0.2493415243 0.7670249233
0.0325605964 0.2502644291 0.0168299935
0.0525949025 0.4985694324 0.0144628969
0.0426217465 -1.9820598309e-04 0.7681561445
0.0424593808 0.2471605271 0.2643898995
0.0524557319 0.2494144194 0.5133312944
0.0524929177 0.2492321815 0.0152408531
0.0625120958 0.2497795461 0.2688816487
0.06235783 0.498666409 0.7626123319
0.0724164028 0.4981769701 0.0118216931
0.0623887568 0.499151292 0.2630018753
0.0724458569 0.4969162743 0.5122626631
0.0723471857 0.2477423866 0.5147303639
0.0625478089 0.2503282124 0.7663999442
0.0725460009 0.2479591196 0.0152041276
0.09238186 0.2521362727 0.5092703113
0.102438592 0.253143788 0.7581251849
0.0824028132 0.2482272696 0.7640500598
0.092348356 0.2484765451 0.0096502821
0.1023922018 0.0012652946 0.254710548
0.0923660285 6.6039488983e-04 0.5071183216
0.1024768824 0.250541691 0.2577424788
0.0824904391 0.2504831146 0.2637750453
0.1023984608 0.4996413818 0.7568356478
0.082297883 0.5013231774 0.7625966844
0.1023226165 0.5031390479 0.2557920655
0.0822724788 0.4979615389 0.2636765581
0.122485048 0.2504961316 0.2519243749
0.1124349432 0.5005903206 0.0037040529
0.1125634366 0.2508176513 0.5037550323
0.1224651665 0.5025545849 0.2522741422
0.1124688154 0.5002460212 0.5035258426
0.1225266519 0.2513572057 0.7482691089
0.1123642533 0.2506230472 0.0036455129
0.1226024962 0.0015101442 0.2508115624
0.1524137204 0.2489744451 0.4975254916
0.1325031215 0.2508658142 0.4995541422
0.1424026423 0.2482162052 0.7485783768
0.1524332338 0.247684461 -0.0037801862
0.1325123259 0.2484830536 -0.0021691117
0.1425057316 -0.0023084689 0.245719686
0.142613239 0.2483997448 0.2481791028
0.1424243647 0.4970978614 0.7456035134
0.1523824255 0.5002538314 -0.0040611874
0.1324585722 0.5007810196 -0.0013932632
0.1524255021 0.4989514812 0.4947503637
0.1324563631 0.4993582622 0.4990350139
0.1825397353 0.2499852146 0.2396760742
0.1724741671 0.4990686341 0.4926913385
0.1823950421 0.5020378103 0.7427271371
0.1724671717 0.249576481 0.4931533996
0.1624918067 0.2503392768 0.7457001597
0.1724148907 0.2496278981 -0.0065946997
0.1824911361 0.4999186438 0.2413798095
0.1624873885 -0.0011359502 0.7421702707
0.1624012353 0.249940306 0.2444734097
0.1825018132 0.2494007516 0.7424795386
0.1824822998 0.0016973286 0.238860564
0.1924970597 0.0021814956 -0.0089422609
0.2024683749 0.2507746952 0.2402430655
0.2024046804 0.4977864603 0.7405456933
0.1926226078 0.500545412 -0.0068748909
0.2024661658 0.4983832894 0.2395076336
0.1925839493 0.4993999166 0.4910492728
0.1924164292 0.2496825695 0.4912241565
0.202493779 0.2494280873 0.7405917153
0.1924525104 0.2502754935 -0.0078998593
0.2023402496 0.0013382548 0.2395527352
0.2124595715 0.2488247496 0.4854032913
0.2225015765 0.2510207164 0.7323381261
0.2123796773 0.2492796935 -0.0110091319
0.2224584999 -0.002136638 0.7361156136
0.2224573953 0.2496422168 0.2358534852
0.2325041866 0.2481556762 0.4869790853
0.2324136153 0.24837306 0.9882840726
0.2323790067 -2.9101714477e-04 0.4901122644
0.2223598287 0.4986006732 0.7399740998
0.2123907226 0.4982277364 -0.0111654411
0.2124054496 0.4991955498 0.4883836773
0.2425542914 0.5016141072 0.7402870496
0.2624844037 0.2515889081 0.7442329776
0.2625090715 0.0017537572 0.2457537423
0.2624192365 8.5200503006e-04 0.7440212763
0.2524740619 0.249983262 0.4927263152
0.2425038513 0.2488852787 0.7386486656
0.2524821618 0.2502579206 0.9897659817
0.2625072306 0.2511378693 0.2458991719
0.2424994332 -5.2226402936e-04 0.2377974554
0.2624740948 0.5017514364 0.2457463788
0.252639373 -0.0011848941 0.4913557794
0.2425682821 2.1677576083e-04 0.7376637944
0.2525193476 0.0011038838 0.9946995424
0.2426135678 0.2500105977 0.2377919327
0.2723489478 0.2511528389 0.4980934033
0.2723382706 0.2481081642 0.992665369
0.2724744958 8.9561195736e-04 0.4972300302
0.2723312753 -1.857096696e-04 0.9979302882
0.2822819726 0.2494528196 0.7474434738
0.2727060786 0.5012828247 0.4970072836
0.2823213674 0.2520607742 0.2475145448
0.3123468702 5.5671453882e-04 0.5014585335
0.2925290516 0.4991499903 0.4973441648
0.2924436348 0.2495491453 0.5011317771
0.3022783566 0.2500001841 0.7500777743
0.2923637406 0.2516565965 0.9986022097
0.2924145489 0.0014742824 0.5007948959
0.3024672309 -5.7966896947e-04 0.7497049959
0.3123884741 0.4989156845 0.5010682667
0.3023589871 0.2506581931 0.2539281737
0.3124466459 0.2503002258 0.501589236
0.312455114 0.2496610915 1.0029466885
0.322505587 5.0158247583e-05 0.2481478078
0.3325391239 -0.0024166075 0.4971158956
0.3224360017 -0.0016499912 0.7491518112
0.3323995851 -4.818462654e-04 0.9962826999
0.3224194338 0.2510402419 0.2494281405
0.3224599332 0.49803899 0.750375997
0.3224039704 0.5003586182 0.2507241206
0.3326414769 0.2491514762 0.5012514344
0.3224382108 0.2513448395 0.7504882907
0.3324467117 0.2480619538 0.997470068
0.3625834037 0.2477658172 0.2450836617
0.3524615045 0.4966871752 0.4917662959
0.3525366124 0.2506555897 0.4953136732
0.3426492415 0.2474475518 0.749124198
0.3624839961 0.5002317025 0.743493864
0.3525572303 0.2480196486 0.9943313662
0.3625760401 0.4981580955 0.2419909819
0.3426477688 -0.0035284019 0.245109434
0.3424935029 0.246887821 0.2493186081
0.3625208137 0.2486691966 0.7457415795
0.3425984331 0.5011253191 0.7453605171
0.3425030755 0.5000410035 0.2453653165
0.382553279 0.2485631081 0.2344930743
0.3925750342 0.2485370741 0.4877292442
0.3925934431 0.2506243489 0.985900132
0.3925455802 -1.3247016732e-04 0.9850625312
0.3826674136 0.4978561012 0.7363420419
0.3924719449 0.4983963064 0.9813715651
0.3726162042 0.2504395076 0.4890620419
0.3826121872 0.2483678532 0.7384213168
0.3726272495 0.2477606104 0.9930335452
0.3926228971 0.4979706508 0.4831610984
0.3726640671 -9.266369238e-04 0.4901638091
0.4125780454 0.4994057743 0.9801289705
0.4025452449 0.2473102225 0.7343695381
0.4025636537 -0.0011437604 0.7318558153
0.402512109 0.2469151567 0.2316277432
0.4124418202 0.2496480745 0.4795014273
0.4125007284 0.2479031465 0.9795030711
0.4125301825 -3.4367088235e-04 0.4823805649
0.4125927725 -1.3331627188e-04 0.9847219682
0.4424886772 0.0016964174 0.7246745392
0.4424260873 0.2476180744 0.2312862598
0.4224598937 0.5004315133 0.7280783279
0.4325847383 0.5007263482 0.9794202314
0.4325442389 0.4979231387 0.4817316544
0.4424481778 0.4974616863 0.7289030425
0.4425291766 0.4981672074 0.2318330014
0.4325258301 0.2488286547 0.4775850704
0.4225961189 0.2482435409 0.7328370048
0.432466922 0.2494365483 0.9773216273
0.4225445742 -0.0014641086 0.2314169624
0.4324116955 -3.7152724785e-04 0.9774504889
0.4225666648 0.2494443585 0.2288590585
0.4424224055 0.2477651664 0.7332300329
0.4724287631 0.2505150062 0.4791295694
0.4623812355 0.248866404 0.7317536464
0.4724692625 0.2486496711 0.9805063511
0.4724066726 -0.0014771907 0.9843169744
0.4624438255 0.2483509311 0.2312862598
0.4524036614 0.498333174 0.9779843444
0.4525840677 0.499190343 0.4787761203
0.4625027337 0.4973516927 0.7327633696
0.4724471719 0.4987868162 0.9823380275
0.4624070079 0.5002655467 0.2319729084
0.4523778891 0.2482090459 0.4787733589
0.452363162 0.2498335666 0.9767509542
0.452503069 -0.0035212751 0.4782100494
0.482564653 0.2480892895 0.7306205843
0.4823805649 -0.0016952904 0.7350764364
0.4923139579 0.5020859732 0.9908336926
0.4925827265 0.4992951298 0.4901315937
0.4823695196 0.2470707098 0.2342638846
0.4924759554 0.2488091292 0.4832227679
0.4925275001 0.2493089818 0.9848692387
0.4826051524 0.4997116736 0.2341653975
0.5024130302 0.2487577121 0.737700612
0.5123464232 0.2520432012 0.4887895916
0.5122838332 0.2497561155 0.9913951613
0.5023357132 -4.1741214895e-04 0.7418508778
0.5023614855 0.2487941597 0.2374025864
0.5224933583 0.249628549 0.24202872
0.5224270866 0.2495888471 0.746095949
0.5123942861 0.4982303398 0.4898858361
0.5224344502 0.4999368676 0.7460204729
0.5424926877 0.5010719494 0.7556878586
0.5524776254 0.5018002502 1.0085337618
0.5424190525 0.5000149695 0.2555490692
0.5524518531 0.5002362584 0.5072030021
0.5324083425 0.001198192 0.4973321991
0.532308935 0.2501941373 0.4981431071
0.5324414784 0.2496090235 0.9989335683
0.5323825702 0.497973905 0.9974792724
0.552422399 9.6746575994e-04 1.0043733712
0.5425331871 0.2513448395 0.2548642616
0.5523892631 0.2523054936 0.506740941
0.5424558701 0.2496786644 0.7517474532
0.5524481713 0.2523172089 1.0069229911
0.5724180466 0.2492159103 0.5125323521
0.5724327736 0.2511456795 1.0091872745
0.5623999731 0.5020970376 0.7589425359
0.5624367907 0.4994838762 0.2596137341
0.5723480931 0.5001828888 1.014093222
0.572303912 0.5025663002 0.514040954
0.562462563 0.2506100303 0.2617841326
0.5625361983 0.2505573114 0.7618879453
0.6024059954 0.4996550497 0.7646925272
0.5923474225 0.4995405001 1.0164495494
0.5924762842 0.5011018885 0.5141532477
0.5825281641 0.2514125279 0.7665278854
0.6025569476 0.2484765451 0.2620989233
0.5924762842 0.2483196903 0.5140142612
0.602505403 0.2496344066 0.7646483461
0.5924726024 0.2498238039 1.0141576528
0.5824361201 0.5002499263 0.7657979762
0.5823514396 0.5002648958 0.2650590596
0.582406666 0.2514880264 0.2652376251
0.6123946148 0.5003345367 1.0114147403
0.6124719318 0.4976933888 0.5133331353
0.6224715965 0.5013654826 0.759412881
0.6125529306 -0.0015407787 0.5126814635
0.6224458242 0.500532395 0.2613082649
0.6123798878 0.2494755993 0.515499852
0.6124682501 0.250399155 1.0116080328
0.6225378682 -4.3433424014e-04 0.762834158
0.6224421424 0.2508885939 0.2610321328
0.6224237336 0.2500737301 0.7624761067
0.6424746077 -4.707167362e-04 0.2604025516
0.6525368623 0.0030661305 0.5062715164
0.6324454889 0.5027381245 0.5107982424
0.6424525171 0.2507018001 0.2558123152
0.6523969554 0.2527155289 0.5095924654
0.642331019 0.2512654359 0.7605597498
0.6323681719 1.1901814173e-04 0.5106371653
0.6524080007 0.2523048428 1.0090768217
0.6424672442 0.5027648094 0.7546652493
0.6524705906 0.4999160404 0.5068062923
0.6325559417 0.2514157821 0.5114287441
0.6324160348 0.2497925631 1.0077882051
0.682557947 0.499420093 0.7498863227
0.6625807082 0.001417333 0.2573733822
0.682572674 0.5004790254 0.2521968252
0.6626469799 -0.0010600611 0.7556501206
0.6725950999 0.4984665982 0.5045576564
0.6625181182 0.2510122553 0.2576347872
0.6624150289 0.2501863271 0.758254967
0.6724257389 0.0012859916 1.0052754028
0.6626543434 0.5018516673 0.7558047546
0.662536527 0.5013082078 0.2554542639
0.6825064023 0.2506406202 0.2530951751
0.6726208722 0.2511313608 0.5034733775
0.6825248111 0.2489061058 0.755504691
0.6725950999 0.2524675552 1.0038671289
0.7026198663 0.2500346792 0.2478330172
0.6925355211 0.2494385009 0.498151391
0.7026456387 0.2498179462 0.744482417
0.6925760205 0.2525059553 0.9985285745
0.6925465664 0.4994461269 0.9978842662
0.6926091564 0.4986442802 0.5009826658
0.7324126818 0.5012476788 0.9894346232
0.7324458176 0.4999570439 0.489331731
0.7125716681 0.2518687735 0.493555632
0.7125053964 0.2489178211 0.9914872053
0.7224866523 -0.0011481211 0.2398288674
0.7326372692 -4.474814033e-04 0.485538596
0.7324752717 -2.2280810028e-04 0.9844090185
0.7126268946 0.5010179289 0.9970006434
0.7227480574 0.2515003926 0.2422735571
0.7324789535 0.2513441887 0.4916843767
0.7224829706 0.2516923932 0.7422853257
0.7324642264 0.2491137269 0.9896923465
0.7125238052 0.5023762521 0.4966391074
0.7125716681 0.0019469945 0.4923360485
0.7125238052 2.1833780001e-04 0.9923432149
0.7525003735 0.5001893973 -0.0124502563
0.7425853893 8.4764433733e-04 0.2362345475
0.7424896635 6.6781457597e-04 0.7366632756
0.7425154358 0.2512960258 0.2374301996
0.7424933452 0.2484889112 0.738147946
0.7624374482 0.0014465562 0.2351024058
0.7524966917 9.5483927652e-04 0.4845205889
0.76237854 0.0011864116 0.7320003245
0.7524230565 6.8603836648e-04 -0.0177752526
0.7625221287 0.2483997448 0.2330157674
0.7525114187 0.250226029 0.4831233603
0.7625552646 0.2488423226 0.7340041233
0.7525555999 0.2509413127 -0.0152687737
0.7824846405 0.0014114754 0.2346099702
0.7824809587 2.594664019e-05 0.7372689254
0.7725733381 5.1141540241e-04 -0.0164327258
0.7825398669 0.2512049068 0.2351429052
0.7724628852 0.2512947241 0.4819746507
0.7825582757 0.252000896 0.7358919466
0.7725144299 0.2525658335 -0.018323651
0.7925063958 4.9058821325e-04 0.4889037262
0.792487987 7.2886427418e-04 -0.0083400716
0.8125830422 0.5015041136 -0.0099294185
0.7925947581 0.2534939451 0.488449949
0.7925174411 0.2524486805 -0.0146992604
0.8024876517 8.7400374861e-04 0.2382595164
0.8125904057 0.001153804 0.4929794363
0.802668058 6.3481649815e-04 0.7410381289
0.8125425428 8.0625029889e-04 -0.0084608181
0.8024692429 0.2524623484 0.235894905
0.8126714045 0.2521147947 0.4911072605
0.8024950152 0.2507987767 0.7374447295
0.8125609516 0.2504844163 -0.0115783967
0.8326928244 0.0013673478 0.4958871076
0.8225937522 -4.4123324655e-04 0.7428173403
0.8325860533 2.3779820488e-04 -0.0078355932
0.8225827069 0.2476480134 0.2434388347
0.8326560068 0.2501518321 0.4909563083
0.8225569345 0.2518817905 0.743462569
0.8324314193 0.249615532 -0.0050830143
0.8226232063 -5.0007515261e-05 0.2437066828
0.8425489004 0.0010056706 0.7475649719
0.8425341734 0.2510083502 0.245473008
0.8426409445 0.2500190588 0.7434367967
0.8625261392 3.2865681757e-04 0.2455254731
0.8427145797 0.5005232831 0.7431818347
0.8524822934 2.9286008621e-04 0.4969907157
0.8626145015 1.7948207524e-04 0.7448653202
0.8525743374 2.1091811388e-04 -0.0077789282
0.862592411 0.2510063977 0.2478606304
0.8425157646 5.3731921892e-04 0.2487783095
0.8525706557 0.2497040475 0.4932767386
0.8624745946 0.2506913865 0.7465856233
0.8525264745 0.2488136852 -0.0027349248
0.8724705775 -0.0031081223 0.497927724
0.8925472239 -9.7584115818e-04 0.4995108815
0.8725478945 -0.0027369297 -8.246611775e-04
0.8824555152 0.2520262791 0.2438613168
0.8925398604 -4.11554502e-04 7.7259748833e-04
0.8727319826 0.2505566606 0.4997649231
0.8924772704 0.2507506138 0.5006485459
0.8825991039 0.2498628548 0.7472363747
0.8727209373 0.2501531338 -7.438281e-04
0.8924699069 0.2495582572 8.2634200432e-04
0.9023922546 -1.4867632388e-04 0.2489531932
0.9124397822 0.0011161849 0.5019813436
0.902524798 0.0025412202 0.7489750867
0.9025726609 0.2497515596 0.2528899169
0.9125944162 0.2506393185 0.4985407373
0.9024879804 0.2501114794 0.7482120416
0.9026757503 0.5023300418 0.7503373385
0.9125244627 0.2508065869 -7.1062781413e-04
0.9224799463 -1.4054070312e-04 0.2503651488
0.9225020369 6.8415090247e-04 0.7521377199
0.9225278092 0.2510662759 0.2539327759
0.9224873098 0.2499676416 0.7523926819
0.9424682304 0.0010862458 0.2572859403
0.932571655 0.0020715671 0.5034678549
0.9422988694 2.7697935448e-04 0.7563597801
0.9324722475 0.0028509596 0.0054997402
0.9424424581 0.2495725759 0.2525668423
0.932571655 0.2509907773 0.4991675573
0.9423725046 0.2505442944 0.7582273537
0.9324280663 0.2514502772 0.0020035393
0.9524200322 4.10403535e-04 0.5082044413
0.9525967568 6.6052505977e-04 0.0080252446
0.9625301498 0.2497287798 0.2572003394
0.9525599392 0.2480170452 0.5056695484
0.9725887226 0.2497222713 0.5087014791
0.9624712416 0.2504831146 0.7589609448
0.9525304851 0.2486503219 0.0081500563
0.972614495 0.2491254422 0.0072385442
0.9624233787 0.0015303856 0.2586058519
0.9827503849 0.5000234306 0.7576999414
0.9825994326 0.4988590605 0.2575040847
0.9825294792 1.4166770993e-04 0.2599027524
0.9925770068 0.0017522603 0.5073097732
0.9826362502 0.2511743169 0.259715903
0.9924518269 0.0024264754 0.0091139415
0.992727959 0.2508170004 0.5109068544
0.9826620226 0.2527174815 0.7575370234
0.9926469602 0.2514925824 0.0086829913
0.0125074396 0.7529136698 0.0096010386
0.0027847539 0.5003423469 0.7589950011
0.0125580271 0.5001295191 0.0141901704
0.0225587963 0.7513516306 0.261022008
0.0025580678 0.7481819928 0.2617279858
0.012581664 0.7498676934 0.5103012046
0.0226030511 0.7501996267 0.7583203182
0.0226216439 0.4992970824 0.2608406812
0.0025120458 0.7500369143 0.7603333214
0.0125951392 1.0033476024 0.0075171615
0.0524594137 1.000340677 0.5130026972
0.0524122872 1.0000543031 0.012987615
0.0327443163 0.7503297967 0.0112896786
0.0425212344 0.4989592914 0.7655374915
0.0426552505 0.7502321692 0.2643613658
0.032653745 0.7511759012 0.5114858114
0.0424880986 0.7508179339 0.7643703731
0.0524822406 0.7513125796 0.0085199813
0.0525621349 0.7475051091 0.5103159316
0.0525580849 0.4966767616 0.5138117643
0.0425315434 0.9999176247 0.2627947762
0.0324759159 0.9998980992 0.5155679646
0.0325904187 0.9994945724 0.0147796205
0.0724569022 0.9992732835 0.51311315
0.0624141609 0.9976526679 0.761745277
0.0724381252 0.9977633123 0.0103001131
0.0724738383 0.748735215 0.0091780962
0.0625467043 0.7500238973 0.2632549964
0.0722805458 0.7510001718 0.5085229137
0.0624344106 0.7478565679 0.764873854
0.0626207077 0.998362094 0.2573623369
0.0825920557 1.0002951175 0.2574875168
0.102417606 1.0009459672 0.753048956
0.0824142267 0.9999762012 0.7557550508
0.092471695 0.9994034535 0.009326103
0.0922975477 0.7484162987 0.0044434427
0.0924831085 0.5002349567 0.0067965487
0.1024058244 0.748709181 0.2519713173
0.0823586321 0.7493665392 0.2593007844
0.0923605058 0.7505901365 0.5083360643
0.1024106106 0.7508960359 0.7511390421
0.0823667319 0.7485204346 0.7610982074
0.0922857661 0.4990829528 0.5083728819
0.1124739698 1.0024364129 0.0034176119
0.1124360477 0.7516380045 0.0021405008
0.1224335033 0.5018295384 0.751905769
0.1223547136 0.7491192163 0.2480888997
0.1124643972 0.7497830829 0.5002048936
0.1224242989 0.748748232 0.7485590476
0.1123568898 1.001258375 0.500941246
0.1223263641 1.000223524 0.7513857201
0.1524302884 0.9980236522 0.4947365571
0.1324983352 0.9981342966 0.4986373836
0.1425072043 0.9963119176 0.7459026565
0.1523113675 0.9977763293 -0.0081771227
0.1324062912 0.9982579581 0.002142894
0.1524052524 0.7493795561 -0.0034434062
0.1325119577 0.7497375235 -0.0042891805
0.1425193541 0.74767433 0.2474639206
0.1524439109 0.7502451862 0.4969060352
0.1324604131 0.7494381326 0.4987229845
0.1425116224 0.4981242513 0.2473884445
0.1423857062 0.7490020633 0.7461539368
0.1724771125 0.7507463404 -0.0060163041
0.162310664 0.4986943956 0.7454617656
0.1725518522 0.4996941007 -0.0087335353
0.1624910703 0.7485529771 0.2446906336
0.182399092 0.9989673842 0.7382086951
0.1724332995 0.748683147 0.4933061927
0.1624236941 0.5008142129 0.2473341385
0.1624892294 0.7462099183 0.7439678908
0.1825312673 0.7485659941 0.2405817876
0.1825485715 0.7486375875 0.7423037345
0.1624822341 0.9996898273 0.240985861
0.1723615052 1.000210507 0.4921473582
0.1724089999 1.002137022 -0.0092488172
0.1924631875 1.0002300325 0.4920921318
0.2024160939 1.0007832547 0.7403257081
0.1924274745 0.7509936633 -0.0096857503
0.2024127803 0.7503428136 0.2374651764
0.1925625951 0.7523929901 0.4878774351
0.2024569614 0.749731015 0.7386854832
0.2324581646 0.7503232882 0.9879435097
0.2325207545 0.4988564571 0.9865536447
0.2324401239 0.7489890464 0.4886266736
0.2324728916 0.4983683199 0.4907409252
0.2224883221 0.9992732835 0.2354981952
0.2123678957 0.9996312508 0.4874024879
0.2122769562 0.9998330142 -0.0133053454
0.2125586109 0.7490996908 -0.0117771382
0.2324353377 0.9975810744 0.9865996667
0.222429414 0.7480388058 0.2366220529
0.2124190722 0.7500108803 0.4881185905
0.2224842722 0.4985089034 0.2401510215
0.2223841283 0.749600845 0.7386698357
0.2525116159 0.7513060711 0.9906772177
0.2525572697 0.5003052485 0.9942853442
0.2423823532 0.7491387418 0.2418022916
0.2524552849 0.750687764 0.4930659577
0.2424305842 0.5002128278 0.2399973079
0.2424460476 0.7505250516 0.7402483911
0.2525454881 0.4973842352 0.4932159895
0.2626272561 0.5028904233 0.7467779954
0.2623485467 0.7502191522 0.2448130522
0.262566507 0.7522693286 0.7432204932
0.2825150281 0.5009118404 0.7512366088
0.2824852058 0.7509871548 0.2480548434
0.2825058237 0.5026157648 0.2493996068
0.2824973556 0.74867013 0.7486648982
0.2723323798 0.7492233522 0.9994674237
0.2724999 0.4978691182 0.9958777061
0.2724273693 0.7502516947 0.4975070828
0.2824056798 1.002176073 0.2481505692
0.2824042071 0.9980171437 0.7472971238
0.312350552 1.0016879358 1.0021919274
0.2923961401 0.7487287065 1.000406273
0.3024488221 0.5012893332 0.7505646873
0.2925938507 0.499194899 0.9991912916
0.3025544887 0.7501735927 0.2518341717
0.2924219124 0.7495943365 0.4993764972
0.3025935154 0.50176185 0.2500098588
0.3023807095 0.7504339326 0.7532293623
0.3023799732 0.9997288783 0.2496241943
0.312507395 0.7470234804 1.0041064434
0.3123085799 0.4993569605 1.0016672763
0.3124403869 0.7489434869 0.5014566926
0.2923372319 1.0016749188 1.0037934937
0.3325914049 0.7495422686 0.9954174859
0.3324084214 0.4978691182 0.9985285745
0.322419802 0.7512670202 0.2482554994
0.3324735885 0.7504534581 0.4995366539
0.3224485197 0.7475636856 0.748467924
0.332441189 0.4980370374 0.4969400915
0.352539926 1.0003341685 0.4950651543
0.3424750941 0.998427179 0.7447695944
0.3625539496 0.7452271353 0.2393299886
0.3526455926 0.9986679933 0.9928034351
0.3626202213 0.7479541954 0.7389616154
0.3626349483 0.9996377593 0.2405210385
0.3526205566 0.7481885013 0.9927850263
0.3625392225 0.9972035816 0.7419825008
0.352500163 0.4983344757 0.9923708281
0.3424253903 0.7478695849 0.243928509
0.3525561258 0.7497245065 0.4920599164
0.3426437188 0.749600845 0.7411209686
0.3925750342 0.998349077 0.4857401725
0.3727192936 0.7469974464 0.9900973403
0.37271193 0.4970015356 0.9883761167
0.382568006 0.7471080908 0.2336444282
0.3726603854 0.7490346058 0.4884554717
0.3827889117 0.4984652965 0.2391118443
0.3825569607 0.750544577 0.7350718342
0.3826085054 0.9979260247 0.2401059199
0.3826379595 0.9992016901 0.7389662176
0.3726014772 0.9994685384 0.991321526
0.3726824759 0.4971421191 0.4854649608
0.3925713525 0.7478500594 0.9810678198
0.3926376242 0.746860768 0.4861672568
0.4124823196 0.750622679 0.9830559711
0.4125485913 0.7482600947 0.4789648105
0.4125191372 0.4981906379 0.4783186614
0.402589426 0.997392328 0.2339767072
0.4025857442 0.4980279255 0.731884349
0.4026446524 0.7498611849 0.2330424602
0.402604153 0.50129454 0.2315090064
0.4026336071 0.7479737209 0.732927208
0.4326141924 0.7482731117 0.979411027
0.4225519378 0.7497960999 0.2306088157
0.4325847383 0.748709181 0.4804743328
0.4225445742 0.5014637609 0.2300464266
0.422688163 0.7500889823 0.7294543863
0.4426249024 0.749574811 0.2296405124
0.4426212206 0.7482210438 0.7313477322
0.4324926943 0.9996312508 0.4797904456
0.4224967113 0.9981473136 0.7294258526
0.442415042 0.9985898914 0.2289906814
0.4523263444 0.9968456143 0.9773860581
0.4623665085 1.0010305776 0.2266122634
0.4724250814 0.9988502312 0.4837133627
0.4623149638 0.9989738927 0.7302413628
0.4526282489 0.7487417235 0.978499791
0.4525730224 0.7507333234 0.4764925076
0.4724398084 0.748631079 0.9799909045
0.4625653236 0.7465939196 0.2333370011
0.4725760336 0.7496854555 0.4796486978
0.4625763689 0.745917036 0.7315253772
0.4725281707 0.4999505354 0.4831334852
0.4823547926 0.9973597855 0.2324607418
0.4925311819 0.9998330142 0.4854124957
0.4923949567 1.0000477946 0.9865536447
0.4825315172 0.4995144662 0.7335264147
0.4925385454 0.7494381326 0.4848795607
0.4824946995 0.7455785941 0.2354641389
0.492343412 0.7503883731 0.9858541099
0.4824689272 0.7480648398 0.7350976065
0.512442149 1.0001128796 0.4891154275
0.5124347855 0.9990454861 0.9927850263
0.5024130302 1.000301626 0.2393990217
0.5224160413 0.7514427496 0.7458695207
0.5223792237 0.9983165345 0.2458651156
0.5223571332 1.000379728 0.7449260693
0.5024351208 0.7504144071 0.2415758633
0.502291532 0.5023274384 0.2366699158
0.5025013925 0.7510327143 0.7401839602
0.502431439 0.4995652324 0.7384065898
0.5124311037 0.7480778568 0.9947731776
0.5123501049 0.4986520904 0.991754133
0.5124274219 0.7500434228 0.4930116518
0.5224270866 0.5018777013 0.2464762881
0.5224859948 0.7503818646 0.2459580801
0.5324672507 0.7512149522 0.4993516454
0.5324672507 0.4988746809 0.4985444191
0.5323126167 1.0002039985 0.9955371431
0.5423454173 1.0010696286 0.253011415
0.5524076719 1.00032766 0.5088837263
0.5523892631 0.7520935992 1.0099420357
0.542411689 1.0010240691 0.7539242948
0.5423601443 0.7518527849 0.2511061034
0.5523487637 0.7520220058 0.5059953843
0.5423822349 0.747830534 0.7511381216
0.5324967048 0.748761249 0.998675845
0.5623815643 1.000249558 0.2599855921
0.5625288348 1.0034257044 0.7594506191
0.5624441542 0.7494381326 0.25922899
0.5624515178 0.7505120346 0.7619919551
0.5722744579 1.0005033894 0.5127808711
0.5724364554 0.9999046077 1.0105035043
0.5726315888 0.7484162987 1.0106047528
0.5724401372 0.7514948175 0.5111544528
0.6024575401 0.996526698 0.2609962356
0.5923437408 0.7498156254 1.0125560865
0.5923989672 1.0009589842 0.5122424134
0.6025679929 0.998283992 0.760819314
0.5924136942 1.0002300325 1.0108716805
0.6025753564 0.7481103993 0.2627423111
0.6025164483 0.4971733599 0.2645067954
0.5922995596 0.7501475587 0.5131085478
0.6024869942 0.7484748751 0.760965664
0.5825355277 1.0024624469 0.2623630897
0.5823808937 0.9979715842 0.7649668185
0.5825428912 0.7505641025 0.2671604251
0.5825281641 0.7474986006 0.7672172953
0.6125124312 0.7491127078 1.0142036748
0.6124572048 0.7501475587 0.5133404988
0.6125124312 0.9975485319 1.0131359639
0.6225194594 0.9991235881 0.2639591333
0.6224863236 0.7489825379 0.2612631634
0.6225305047 0.7498872189 0.7624586183
0.6425187888 0.9994034535 0.7591616008
0.6526252246 1.0022606835 1.0088375072
0.6323939442 1.0012779005 1.0091504569
0.6326185317 0.7490801653 1.0077421831
0.6325154424 0.5010263899 1.0110557686
0.6325559417 0.7505120346 0.5081344878
0.6526473152 0.7507658659 1.0052109719
0.6524889994 0.5027127414 1.0079630888
0.6424746077 0.7505055261 0.2568726626
0.642485653 0.5029158065 0.2606989334
0.6526583605 0.7533952986 0.5046644274
0.6425703335 0.7518918358 0.7564610286
0.6726171905 0.751579428 1.0026245344
0.6726208722 0.4983696216 1.0020262481
0.6824622212 1.0026577018 0.2508189259
0.6724993741 1.0014471214 0.5061178029
0.6825432199 1.0020263776 0.7503465429
0.6825837193 0.7520024803 0.2482932374
0.6725435552 0.7513646476 0.5014327611
0.6827162627 0.7512605117 0.7488554294
0.6627132516 0.7528876358 0.2558914731
0.6627242969 0.7493470137 0.7550104145
0.702579367 1.0036079423 0.2435824234
0.7024799594 0.5009528439 0.7449969432
0.6925723387 0.7515599025 0.9959513413
0.6925207941 1.0011021711 0.4961945347
0.7024725959 1.0017790547 0.7424859817
0.6927159274 1.0028008887 0.9988691375
0.702686138 0.7504925091 0.2419191875
0.7026125028 0.5001679192 0.2458503886
0.6926165199 0.7483707392 0.4968462065
0.7026787745 0.7501150163 0.7438666423
0.72239829 0.5018861623 0.7432140501
0.7325304982 0.7516900724 0.9863419434
0.7226007869 0.7522042437 0.2399255136
0.7224424712 0.4999629016 0.2450661733
0.7323685006 0.7502647117 0.488257577
0.7225308335 0.7484032817 0.7380356523
0.7225418787 1.0009915266 0.7420110345
0.712527487 0.7507918999 0.993051954
0.7125238052 0.7514492581 0.4908780709
0.7424086647 0.4976582429 0.7363199514
0.7424786182 0.7485725026 0.2345538233
0.7423166207 0.5012112312 0.2378038984
0.7424786182 0.7501280333 0.7332107036
0.7524193747 0.500579907 0.4860080206
0.7522831495 0.7489044359 -0.0186871329
0.7625110834 0.5018262841 0.7334546203
0.76244113 0.7500499313 0.2353417203
0.7625589463 0.5007933857 0.2366082463
0.7523641483 0.7477068725 0.4832706308
0.762518447 0.7517551574 0.7331959766
0.7824220506 0.7540136057 0.2360964815
0.7824404594 0.5016173614 0.236241911
0.7722935242 0.7513841731 0.4828058084
0.7824073235 0.7509350868 0.7377042937
0.7724960211 1.0025861083 0.4838864055
0.7725733381 0.5007712568 0.4862933571
0.7722861607 0.751501326 -0.0165189987
0.7824625499 0.5015600866 0.7350340961
0.7724923393 0.5008799487 -0.015477502
0.7923885794 0.754527777 0.490080049
0.8126272233 0.5005916223 0.4903313293
0.812601451 0.7509546123 -0.0080555389
0.8024324252 0.5031885125 0.7406386578
0.8024729246 0.7507723744 0.2362225818
0.8026864668 0.5041166241 0.2360937201
0.7924511694 0.5012619975 0.4876482454
0.7924843052 0.7500629483 -0.0113231494
0.8125204522 0.7505641025 0.4878203678
0.7925763493 0.5010608849 -0.0101679322
0.8024140164 0.7536361129 0.7376196132
0.8325418722 0.497761728 0.4900202204
0.8325345087 0.7499327784 -0.0072379126
0.8226011157 0.4992189804 0.7400771891
0.8326560068 0.5007849247 -0.007905844
0.8225532528 0.7501215248 0.240985861
0.822766795 0.4996192529 0.2393180229
0.8325897351 0.7480192804 0.492784303
0.8225606163 0.7503558306 0.7396869224
0.8625555933 0.7475181261 0.7497151208
0.862684455 0.500571446 0.746992458
0.8525301563 0.751566411 -0.0064535317
0.8526111551 0.5002173838 -0.0045095708
0.8625703204 0.7512344777 0.2475633282
0.8625960927 0.5019753287 0.2464026528
0.8524160217 0.7510717653 0.49635193
0.8425930816 0.7512540032 0.2460197496
0.8426151721 0.49960168 0.243309973
0.8426225356 0.7499588123 0.746668463
0.852659018 0.5004894389 0.4972677682
0.872540531 0.5016876532 0.4973634941
0.882720602 0.749691964 0.7508398989
0.8925177698 0.5014221065 0.4982434351
0.8725699851 0.748774266 3.279695401e-04
0.8925693145 0.751644513 0.0019896406
0.8825365139 0.5020547324 0.7504809272
0.8725258039 0.5006404361 -5.4654090085e-04
0.8925104063 0.5013466079 5.6409932488e-04
0.8824960145 0.7513451221 0.2509542307
0.8827169202 0.5005948766 0.2494032886
0.8725957574 0.7497960999 0.4986972122
0.8924883157 0.7523148881 0.5033362319
0.882488651 1.001206307 0.2500337903
0.8825549227 1.001219324 0.7482921199
0.9126201885 0.7518397679 0.5041204472
0.9123919193 1.0001389136 7.7998862488e-04
0.912598098 0.5010289933 0.5005868764
0.9026168421 0.7530763822 0.7503161684
0.9125502351 0.7510131888 0.0031153393