POSCAR file written by Ovito 3.7.11
1
271.6135896601 0.0 0.0
0.0 15.3647848889 0.0
0.0 0.0 10.8645435864
Sr Ti O 
800 800 2400 
Direct
0.0224870774 0.499220295 0.76772096
0.0124962297 0.2482743802 0.5214335777
0.0225512126 0.2509180878 0.7691034387
0.0025414259 0.2516131838 0.7742348093
0.0123411196 0.2483589892 0.0215125311
0.0224758114 -2.232739073e-04 0.2728819493
0.0023269668 -4.0986942561e-04 0.2731359867
0.0025183784 0.4992710604 0.2745617253
0.0126747554 0.4990647445 0.5206907945
0.0123689165 9.7173143334e-04 0.5226080403
0.0224280229 -3.5832298316e-04 0.7710400134
0.0024046139 -0.0017944641 0.7725568741
0.0226139488 0.247612477 0.2703572229
0.0025693332 0.2503076009 0.2735280878
0.032642313 0.4973660549 0.0176510712
0.0423793074 0.5017566142 0.2699954958
0.0325841421 0.4992456777 0.5210469991
0.0325727288 0.2473905409 0.5194325732
0.0424985945 0.2468998084 0.7704914399
0.0325020402 0.2486232298 0.020901829
0.0524351371 0.5017286282 0.0208428297
0.0424415281 -0.0024064805 0.7711771567
0.0425604471 0.250933708 0.2685412239
0.0525470608 0.2508992135 0.5206199218
0.0525720963 0.2498233768 0.0207210575
0.0624250643 0.2499633071 0.2693180628
0.0625274156 0.5014611334 0.7657263985
0.0722415834 0.5030075266 0.0187258517
0.0623635799 0.5006807775 0.2679797645
0.0724466542 0.5007374005 0.5187579015
0.0724068918 0.2497394186 0.5154075537
0.0624202781 0.2516880303 0.7699511503
0.0724359773 0.2510742892 0.0135438577
0.0924515443 0.2503622714 0.5124631134
0.1025224689 0.2504351654 0.7555584611
0.0824641942 0.2532871415 0.7645316866
0.0923057489 0.2528471744 0.0098834186
0.1024352126 -0.0010512712 0.2610213498
0.0924217225 0.0018884381 0.509864753
0.1024466259 0.2503987184 0.2556110903
0.082420382 0.2512955744 0.2630094683
0.1024838111 0.4995854156 0.7585783762
0.0823607384 0.5021926763 0.7656058228
0.1024723978 0.4996641671 0.2573414898
0.0824126504 0.5010413423 0.2638691455
0.1224334756 0.2486538192 0.2554085968
0.1125090826 0.5012463565 0.0068441745
0.1124225627 0.2495428652 0.5061195428
0.1223745684 0.501474801 0.2534223191
0.1123426698 0.5017357874 0.5066478668
0.1223642596 0.2474771025 0.754562561
0.1125171824 0.2509324063 0.005711131
0.1224216942 0.0028848724 0.259603895
0.1523774854 0.2520876454 0.5044204378
0.1324502793 0.2514192338 0.5006292063
0.1423993396 0.2490430209 0.74958214
0.1524286611 0.2529851523 0.0026155569
0.1325121318 0.2521188857 8.3283131623e-04
0.1424670829 -2.9655836967e-04 0.2513578054
0.1424965365 0.2511972977 0.2550514718
0.1424784962 0.5012860577 0.754008465
0.1524305019 0.5010595658 0.0031844718
0.1324057307 0.4984965621 0.0044245607
0.1525214399 0.4996778347 0.5024313989
0.1323192107 0.4983611876 0.5070841484
0.1824636089 0.2521136789 0.2521521323
0.1725233846 0.5001718215 0.5049266717
0.1825111029 0.5012821527 0.751337391
0.1725333252 0.2506746741 0.5013001963
0.1624369968 0.2500934749 0.750727149
0.172521912 0.251285161 0.0010740287
0.1825604377 0.5003826933 0.2518106546
0.1623784578 0.0013664652 0.7523544608
0.1625334574 0.2499164467 0.2511212561
0.1824639771 0.2479964719 0.7528616151
0.1825236207 0.0015814373 0.2536459825
0.1926361485 7.3554198934e-04 0.0039977595
0.2024287366 0.2503062993 0.2506113405
0.2025719548 0.4996374827 0.7532150584
0.1926505072 0.4990380601 0.0027748825
0.2025612779 0.5005883584 0.2519128218
0.1926059586 0.496605875 0.5057983143
0.1925264339 0.2493710437 0.4983585172
0.2024802804 0.2515917061 0.7495075856
0.1924410184 0.2525347717 0.0018137745
0.2025524418 -0.0026267439 0.2526132654
0.2125659319 0.2519451117 0.4990782898
0.2224325222 0.2510280796 0.7510318098
0.2125062883 0.2507150261 -0.0037533346
0.2226107165 5.2629727663e-04 0.7511017621
0.2224457763 0.2512500157 0.2481179086
0.2325284824 0.2498272818 0.4982158513
0.2325667721 0.2499594021 0.9968635816
0.232466998 2.0393675965e-04 0.4964569187
0.2225672724 0.5011539374 0.7509489715
0.2126229983 0.4990764596 1.4075438357e-04
0.2125199106 0.5015034379 0.5000806328
0.242430417 0.5005532131 0.7492498665
0.2626035608 0.2508282721 0.7459980042
0.262519618 6.6219244308e-04 0.2500876185
0.2624342025 0.0022031187 0.7495029835
0.2523842636 0.2517583209 0.5002417072
0.2425103099 0.2519353491 0.7504105228
0.2525182775 0.2500225335 0.9975815133
0.2625380265 0.2502932825 0.2479595954
0.2426726729 6.2151501059e-04 0.2505763643
0.2625601167 0.5041425897 0.2483949566
0.2525628261 9.6040683613e-04 0.4997446776
0.2425360818 -2.9844580341e-05 0.7498665514
0.2525057597 8.0348957257e-04 0.9996340616
0.2425544903 0.251786307 0.2519339916
0.2724697829 0.2525464868 0.4964449532
0.2724605786 0.2500661397 0.9988885171
0.2724451155 0.0018407966 0.496232335
0.2725018137 0.0019642608 0.9979865004
0.2823938077 0.250505456 0.7467380261
0.2724911368 0.5005200203 0.4958650853
0.2825123585 0.2513209571 0.2453124525
0.3123738982 -3.2454444323e-04 0.4947642567
0.2924923451 0.5000637822 0.4941687416
0.2924411695 0.2496248709 0.4938392294
0.3024811678 0.2506701182 0.7454466695
0.2923818941 0.2508484481 0.9975539005
0.2924875589 0.0016173636 0.4970229802
0.3024572368 0.0015348373 0.7457743409
0.3124420097 0.5002727015 0.4947743814
0.3024318331 0.2493638845 0.2438581806
0.3124320691 0.2506883417 0.4963851255
0.312518589 0.2484227714 0.9913502345
0.3224433502 -2.9629803411e-04 0.2425456542
0.3324837167 0.0011911943 0.4880313462
0.322464704 0.0010150773 0.739445497
0.3323467575 3.8317779816e-04 0.9925928086
0.32242126 0.2506174003 0.2433832412
0.3224183146 0.5018184439 0.7386714194
0.3224334096 0.5015854436 0.2430675353
0.332445427 0.2510222221 0.4931378653
0.3224779582 0.2513932003 0.7389889661
0.3323169357 0.2534563596 0.9906783241
0.3625783081 0.2512461107 0.2411475283
0.3526583332 0.500989926 0.4905993326
0.3523391297 0.2519997821 0.4944632777
0.3423727654 0.2531263843 0.7383170557
0.3624862656 0.502238235 0.7394593034
0.352478298 0.2514556808 0.9936605018
0.3625856715 0.5024211208 0.2356894067
0.3424025871 -0.0017828792 0.2389247014
0.3424603898 0.2517069046 0.2365242324
0.3624825839 0.2515825944 0.738793836
0.3424379315 0.5001431846 0.7400759883
0.3423646656 0.5026443585 0.2384212288
0.3825846709 0.2497914857 0.2355228098
0.3926393961 0.2510098561 0.4830859014
0.3925952156 0.2490410684 0.9855699641
0.3925105365 -2.6824687666e-04 0.9835082116
0.3826251696 0.503070658 0.7333624067
0.3924700378 0.4994604545 0.9833609435
0.3726293516 0.2507521239 0.4841453109
0.3825699441 0.2487846379 0.7356192894
0.3726477601 0.2516548375 0.9858552959
0.3925326267 0.5007543223 0.4822216221
0.3725299457 0.0030744618 0.4863423659
0.4126199869 0.4988415067 0.9782801963
0.4025137179 0.2497088291 0.7346519224
0.4025578983 -7.8071744211e-04 0.7347292382
0.4024953094 0.2487983055 0.2306114207
0.4126126235 0.2492499877 0.4809532762
0.4124690371 0.2485887353 0.9795043618
0.4124690371 -0.0022542168 0.4847684388
0.4124653554 -2.493074641e-04 0.9847968069
0.4424969898 -1.9457191094e-04 0.7227204502
0.442555897 0.2503694306 0.2238849532
0.4226452585 0.5013583008 0.724440725
0.4326116228 0.4999733156 0.9723434536
0.4326631666 0.4998691814 0.4751711649
0.4426405761 0.5009944819 0.7202067689
0.4426958016 0.5022766345 0.2196022146
0.4326778934 0.2487989563 0.4727716163
0.4225605793 0.2518793769 0.7276760196
0.4326410764 0.2491028981 0.9750034825
0.422380176 0.0011531853 0.229525319
0.4326373947 2.7813239651e-04 0.9748378059
0.4224832636 0.2498806506 0.225512265
0.4425853506 0.2497251001 0.7246505819
0.4725212607 0.2520251648 0.4750929288
0.462731618 0.2505275845 0.7222436699
0.4725985764 0.2492187474 0.9796056086
0.4725433509 -8.2028844843e-04 0.976154014
0.462595395 0.2491998731 0.2268293935
0.4527173915 0.5013244572 0.9737793169
0.452809434 0.500460794 0.4735466144
0.462632212 0.5032359711 0.72211389
0.4726574836 0.4980435782 0.9733651256
0.4626248486 0.4982778802 0.2229157454
0.4526327124 0.250295235 0.4727808206
0.4526879379 0.2509057219 0.9728496874
0.4524707175 1.4744394141e-04 0.4743786788
0.482487625 0.2502015142 0.7238350852
0.4824397629 4.9264890447e-04 0.7251476115
0.4924797613 0.5000156201 0.9752704058
0.4925423502 0.5018203965 0.4727927861
0.4825686225 0.2491380434 0.2218047922
0.4924024456 0.247204401 0.4730063248
0.4925497136 0.2513912477 0.9701988628
0.4825833493 0.5016544325 0.2254036548
0.5024976695 0.249632681 0.7206476526
0.5124603521 0.2505842075 0.46940286
0.51241249 0.252953912 0.9690667398
0.5023945819 0.0032628797 0.7214907621
0.5024682159 0.2492714654 0.2210647703
0.5224488067 0.2514120746 0.2230243556
0.5223678093 0.2518676618 0.7254044102
0.5125045326 0.4998574663 0.4720684115
0.5224598518 0.5027100933 0.7241756425
0.5424073073 0.5018887345 0.7290934745
0.5524767593 0.5009105236 0.9806548934
0.5424404426 0.5005994226 0.228601212
0.5525319848 0.5006840317 0.4809946953
0.5324114894 4.8451332156e-07 0.4797171451
0.5322936749 0.2499717681 0.472825001
0.5324004443 0.2512031553 0.9746813336
0.5323820358 0.4990035656 0.9789889237
0.5524141704 -6.5835972519e-04 0.9796792426
0.5423115831 0.2511348172 0.2279983335
0.5523368547 0.2509616941 0.478641168
0.5424367609 0.2540993885 0.7274146189
0.5522926743 0.2478448265 0.9811427187
0.5723505808 0.2491250266 0.4848034149
0.5724278965 0.2523291066 0.9858645002
0.5624210335 0.4986111097 0.7303516958
0.5623069008 0.5026079116 0.2317886446
0.572409488 0.5018958938 0.9861222192
0.5724463051 0.5003097993 0.4853694764
0.5625204394 0.2501390337 0.2348499789
0.562439442 0.2495454686 0.7320682888
0.6025184381 0.501494977 0.7381256072
0.5924526678 0.500468604 0.9865180021
0.5923716704 0.4998834998 0.4883332457
0.582552574 0.2494172533 0.7373257577
0.6025000296 0.249693209 0.2425833917
0.5924232142 0.2489030905 0.4909242427
0.6026288891 0.2498656813 0.7378798537
0.5925226201 0.2475024852 0.991515911
0.582405306 0.4997923824 0.7397998607
0.5823132635 0.5022590619 0.2367432936
0.5824752583 0.2492382726 0.2411005866
0.6124111684 0.5006729674 0.9894449543
0.6124590305 0.4986644785 0.4896604988
0.6223112622 0.4968915933 0.7407248881
0.6125179377 -0.0013099797 0.4908975503
0.6224585302 0.499062792 0.2373213206
0.6124921658 0.2496372368 0.491591551
0.6124627122 0.2495747563 0.9940746932
0.6224695753 -9.138790851e-04 0.7418726583
0.6224622119 0.2489857471 0.2431789068
0.6224180315 0.2477810442 0.740941188
0.6425238002 7.63462979e-04 0.2388400223
0.6526632045 1.6716436068e-04 0.491628368
0.632432258 0.4983449166 0.488673803
0.642538527 0.2480752234 0.2416445579
0.6525269815 0.2503180144 0.4925451115
0.6425827074 0.2487312691 0.7410884561
0.6325611175 -8.3786109927e-04 0.4913936595
0.6524938462 0.2511120378 0.9905126475
0.6425053917 0.4987484368 0.7394418153
0.6525637985 0.5009267946 0.4907530436
0.6324801201 0.2495148791 0.4907788155
0.6323107618 0.2487579535 0.9926940553
0.6823119419 0.5003006876 0.744092724
0.6624602106 -0.0012788045 0.2414678363
0.6824187112 0.4994611054 0.244850399
0.6626590224 5.9762922224e-04 0.7404487605
0.6725664796 0.5000683381 0.4930596292
0.6625669799 0.2476632424 0.2416694094
0.6625890701 0.2503329837 0.7435708429
0.6726253868 -1.6346181058e-04 0.9944520675
0.6624896642 0.5010608674 0.7398624496
0.662504391 0.5003748832 0.2393941183
0.6826764303 0.2498032008 0.2458739119
0.6725038907 0.2498559187 0.4919919359
0.6826469767 0.250048567 0.7460219353
0.6726916574 0.2501344778 0.9952804502
0.7025244799 0.2496378877 0.2474101016
0.6925470704 0.2516411699 0.4992209557
0.7023882569 0.2505575231 0.7498334161
0.6925176168 0.2496509045 0.9971028922
0.6924807998 0.5004790174 0.9968267646
0.692466073 0.5012151163 0.4978366361
0.7324198913 0.4977018878 0.9976183303
0.7325008887 0.4985121822 0.5013802733
0.7124613906 0.2503264753 0.497531055
0.7125202978 0.2499873882 0.9989989681
0.7223136223 -0.002967393 0.244346006
0.7323020768 -0.0011835216 0.4966207544
0.7324935253 -1.7485149167e-04 0.9978668451
0.7125350246 0.4983702993 0.9950963652
0.7224056648 0.2473736191 0.2520508856
0.7323683474 0.2502490254 0.4960169555
0.7224424818 0.2516613459 0.7520378346
0.7324861619 0.2481682934 0.9971673219
0.7124356187 0.4972007418 0.4969438237
0.7123914383 -8.0935435545e-05 0.4971288291
0.7123877566 -0.0020793884 0.9986492066
0.7524225723 0.4969098168 0.0018532607
0.7424083458 -0.0019590808 0.2482255983
0.7424451628 -0.002453393 0.7454613963
0.7424193909 0.250853004 0.2526344352
0.7424746164 0.2466407745 0.7517709112
0.762495706 -7.4056068076e-04 0.2498667165
0.7524225723 -1.640475656e-04 0.5026430967
0.7624736158 -6.298529805e-04 0.7533172256
0.7523378932 -0.0015184434 -0.0012841743
0.7624625707 0.2485444783 0.2475702556
0.7524225723 0.2483654976 0.4991086638
0.7624552073 0.2486004504 0.746757355
0.752463071 0.2483850228 0.0017385758
0.7825278406 2.5411644037e-04 0.2492353048
0.7825278406 -1.3183103907e-04 0.7453334572
0.7724215716 0.0012285525 -0.0052860083
0.7823916177 0.2498715389 0.2441821703
0.7724105265 0.2509721075 0.4951379494
0.7825131138 0.2489616661 0.7437834611
0.7724252533 0.2493990298 -0.0039914855
0.7926193828 -0.001207082 0.4980253233
0.7925089318 -4.5341054935e-04 -0.0027298034
0.8126404724 0.499086873 6.2805511166e-04
0.7925126135 0.2478793209 0.4964237834
0.7923911174 0.2502815674 -0.0038077594
0.8026188825 -2.1364149129e-04 0.2481271128
0.8124306154 -0.0021492104 0.498890523
0.8026520178 9.411420041e-04 0.7478094011
0.8125742018 -0.0010303142 -0.0031075827
0.8024826596 0.2501897991 0.2497176076
0.8124085252 0.2502718048 0.4973589354
0.8025121132 0.2494341751 0.7481656056
0.8124342971 0.2473287112 -0.0026519078
0.8325474292 0.0018617537 0.5020770352
0.8225737014 -5.7986855146e-04 0.74523129
0.8324480233 -9.1160114888e-04 -0.0050580834
0.8225626563 0.2503791932 0.2486094156
0.8323449356 0.2493918706 0.4985085465
0.822455887 0.2506538472 0.7489921475
0.8325179756 0.2499932457 -9.8950938705e-04
0.822529521 -5.4752185715e-04 0.2469701383
0.8424732948 -7.1198885218e-04 0.7470923898
0.8425101118 0.2505835566 0.2518060524
0.8424401595 0.2503486038 0.7485328553
0.8625312014 -7.4537688877e-04 0.252352785
0.8425027484 0.4973920884 0.7521261954
0.8524764762 -9.785724746e-05 0.4989595549
0.8625201563 3.5076601996e-04 0.753441483
0.8524764762 -0.0010473661 0.0019892996
0.8623618431 0.2478617483 0.2546078268
0.8424622497 -2.0817444437e-04 0.2471468599
0.8525427468 0.2493202783 0.5009826496
0.8624722942 0.2492473843 0.7556136866
0.852454386 0.2487019813 5.9691712622e-04
0.8725012475 -0.0030442701 0.5055645263
0.8925738808 -0.0022738851 0.5063496491
0.8725527913 -0.004897599 0.0044739875
0.8826075164 0.2478396198 0.2581634295
0.8925701991 -0.0020703287 0.0079406771
0.8724607487 0.2472798983 0.5052699903
0.8924781566 0.2480120921 0.5092259779
0.8824344765 0.2491569177 0.7547807017
0.8724681121 0.2485776711 0.0073169049
0.8924155677 0.2477667258 0.0078060189
0.9025034282 0.0017011266 0.2597005396
0.912561835 -9.6086965511e-04 0.5105605945
0.9025512903 6.4722314706e-05 0.7630654492
0.9025881073 0.2472916134 0.2568803567
0.9124808376 0.2490963897 0.5118988928
0.9025144733 0.2498214243 0.7587035541
0.9024850197 0.4977214129 0.75858666
0.9124035219 0.2489512526 0.0083326862
0.9225539713 -0.0010843338 0.263086784
0.9225907883 0.0011409496 0.7617704109
0.9225171543 0.2500967291 0.2671228487
0.9225245177 0.2499027791 0.7654318625
0.9426634217 2.2743204379e-05 0.2651135604
0.9325203357 -8.1755492497e-04 0.5160141139
0.942549289 3.4783724395e-05 0.765844213
0.9325497893 0.0011309917 0.0183466365
0.9425897877 0.2474888176 0.2663690204
0.9326491952 0.2482411874 0.5167274435
0.9426339681 0.2503427462 0.766385423
0.9325571527 0.2490931355 0.0145636888
0.9526629213 -0.0015039947 0.5161475756
0.9527365554 -2.4715969566e-04 0.018622672
0.9627176465 0.2505028526 0.2722891955
0.9525892873 0.2471751132 0.5182378613
0.972584605 0.2504032743 0.5228915312
0.9625998321 0.2501286202 0.7708209522
0.9526076958 0.2511016244 0.0201279355
0.9726324671 0.2503824474 0.0189141707
0.9626145589 0.0012776257 0.267069464
0.9826356484 0.5008031352 0.774872664
0.9826098765 0.4987386742 0.2714838234
0.982407383 -1.2128744857e-04 0.2747660597
0.9925246971 3.8220153978e-04 0.5224313186
0.9826430119 0.2499164467 0.2713687702
0.9925983311 2.7728630591e-04 0.0237061806
0.9924179278 0.2502054192 0.5228096134
0.9826356484 0.2487449367 0.773039177
0.9924473814 0.2494907981 0.0243805761
0.0124415932 0.7496227593 0.0202014774
0.0025898771 0.4998750389 0.7712434273
0.012563973 0.4979570166 0.02184775
0.0225028719 0.7483991821 0.2696503363
0.0025815196 0.7494144908 0.2734977138
0.0124567619 0.7498505529 0.5180896728
0.0225321782 0.7509830126 0.7713658439
0.0224816284 0.4970608114 0.268509009
0.0025536123 0.7492192392 0.7747171122
0.0124005423 1.000924683 0.0239848853
0.0524391869 0.998549121 0.519066244
0.052404579 0.9994407703 0.0210842573
0.0323746533 0.7493949657 0.0208793706
0.0425136895 0.4985258498 0.7658294862
0.0424923356 0.7505794925 0.2702458515
0.0324199382 0.7518941871 0.5207349749
0.0424978581 0.749199714 0.7694154628
0.0526011818 0.75067061 0.0212036364
0.05251503 0.7501434304 0.5188619096
0.0524690087 0.5002486205 0.5194712311
0.0423966114 0.9987053223 0.2687777732
0.0324070523 0.9993887032 0.5202379453
0.032516767 0.9968634482 0.0187901894
0.0724153597 0.9992390102 0.5157702013
0.0623451714 0.9995709381 0.7652974804
0.0723711793 1.0015234548 0.0134905651
0.0723785427 0.7527598029 0.0171408795
0.0624420001 0.7501889892 0.2695398853
0.0725386967 0.7528248868 0.517576996
0.0623812521 0.7501304137 0.7717524225
0.0625248384 0.9992650438 0.2681242713
0.0824266408 1.002864183 0.2633583095
0.1024422078 1.0012370857 0.7583906095
0.0823839331 1.001074376 0.7611951451
0.0925866627 1.0011069179 0.0096729173
0.0923495611 0.752961563 0.0125031329
0.0924537533 0.5013342198 0.0099688341
0.1024757113 0.7509960294 0.2615892522
0.0825153698 0.748379657 0.2667905751
0.0923248937 0.7487115848 0.5140490061
0.1025022196 0.7489523952 0.7595153691
0.0824417358 0.750286615 0.7658580193
0.0924452854 0.5015932537 0.5137406636
0.1125499495 0.9994017199 0.0050528429
0.1123463515 0.7466549338 0.0080130225
0.1225170502 0.4996771839 0.7540277939
0.1224021811 0.7503516989 0.2573286038
0.112332361 0.7476962761 0.5099825674
0.122317502 0.7484317241 0.7565893373
0.1125175505 1.0016926729 0.5034503096
0.1224975372 0.9997401562 0.7556781163
0.1524559057 1.0011980354 0.5032229646
0.1324027853 1.0021222266 0.5029109404
0.1424560378 1.0004105203 0.7548110758
0.1525858697 1.0008856327 1.6002808783e-04
0.1324977732 0.998985183 0.0040209542
0.1526083281 0.7500262794 0.0039310287
0.1324267164 0.7499221452 0.0081313892
0.1423879264 0.7480932878 0.2548876361
0.1525048723 0.7525905848 0.5029367123
0.1324572745 0.7485684002 0.5048576398
0.1424847551 0.5006254562 0.2542451793
0.1423754086 0.7495576754 0.7527566867
0.1725399523 0.7489589036 0.0026820116
0.1625319847 0.50165248 0.7518086487
0.172521912 0.4987992022 0.0040620972
0.1625367709 0.7504363079 0.251564901
0.1824790721 0.9994082283 0.7524336174
0.1724188243 0.7508007777 0.5034613547
0.1625386118 0.5003247686 0.2501446849
0.1624554053 0.7504753583 0.751792081
0.182634808 0.7508788784 0.2540702985
0.182561174 0.7495967257 0.7530677904
0.1624119613 0.9994668038 0.2529050402
0.1725741921 1.0021027015 0.5030213914
0.1724283968 1.0025517803 7.8843000326e-04
0.1924870397 0.9993106025 0.5030582084
0.2024486178 0.9989981998 0.7544217359
0.1925168614 0.7500458046 0.0030539555
0.2027803391 0.7514971754 0.2517664742
0.1926074313 0.7498310278 0.5039049997
0.2025656959 0.749050021 0.7527879811
0.2324467486 0.7532153901 1.0030396349
0.2324846702 0.4999056284 1.0007477761
0.2325564633 0.7504102744 0.5026872771
0.2325689811 0.4969286911 0.4993590195
0.2225021063 1.0007229229 0.2526169471
0.2124875117 1.0008140404 0.5028391472
0.2124308135 1.0005602132 0.0013427929
0.2126623925 0.7494795747 -5.8503772517e-04
0.2323731146 1.0024216125 1.0021836394
0.2224682347 0.7523302492 0.2535125208
0.2125950173 0.7508853868 0.5055829348
0.2226504789 0.5010179121 0.2502542155
0.222577213 0.7495576754 0.7486773621
0.2525915433 0.7499611955 0.9990726022
0.2524991326 0.4991532586 0.9996524701
0.2426170792 0.7524018415 0.2490364929
0.2525267454 0.7515492425 0.4998974682
0.2425401317 0.5004035201 0.2494184694
0.2426089795 0.7515167006 0.7501463607
0.2526710681 0.5005649282 0.5031539327
0.2625155681 0.5032522421 0.7485374574
0.2627044394 0.7526817022 0.2470143187
0.262532504 0.7526231267 0.7479483853
0.28255028 0.5005004951 0.7460900467
0.2824575011 0.752343266 0.2470769076
0.2824512422 0.5026495652 0.2487594449
0.2825326078 0.751373516 0.7471954774
0.2725581437 0.751106672 0.997572309
0.2725143315 0.5007510681 0.9965966583
0.2725445214 0.7505860009 0.4930909237
0.2824733324 1.0036386813 0.2477101602
0.2825789972 1.0012175605 0.747618873
0.3125646103 0.9988419985 0.9943784335
0.2925055992 0.7531763398 0.9938537911
0.3025150395 0.5043697325 0.7467840474
0.2924849817 0.5005590706 0.9946177441
0.3025430204 0.7490174791 0.242382739
0.2925059674 0.7494144908 0.4945608427
0.3025820465 0.5000182235 0.2460874505
0.3025235074 0.7518551368 0.7464738641
0.3024362511 1.0003194028 0.2456244766
0.3125763917 0.7517119522 0.9928045064
0.3124044563 0.5002095701 0.9909176346
0.3125090166 0.7512889069 0.4927485255
0.2924603143 1.0009832585 0.9951792035
0.3323655341 0.751373516 0.9889663332
0.3323670068 0.4988623336 0.9880459079
0.3224168419 0.7518941871 0.2385068283
0.3325242154 0.7513930412 0.4898344592
0.3225615328 0.7501499388 0.7394049983
0.3324428498 0.5001783299 0.4860404664
0.3525504594 1.0030724514 0.4891855594
0.342514879 1.001158985 0.7410571616
0.362530446 0.7534171502 0.2373774666
0.3525265283 1.0010483424 0.9876133081
0.3624420852 0.7498765865 0.738774507
0.3625598996 1.0019530085 0.2392109536
0.3524503171 0.7522196066 0.9873279763
0.3624715388 1.0026038474 0.7377555963
0.3525511957 0.5028949315 0.9872267295
0.3424504493 0.7508203029 0.2370313867
0.3524293314 0.7511587391 0.486556825
0.3424773257 0.7504558331 0.735506077
0.3925142182 0.9996425303 0.4838756263
0.3727029856 0.7509179287 0.9845667006
0.372710349 0.5022694753 0.9898591456
0.382522082 0.7498115026 0.2372752994
0.3726146248 0.75164036 0.4820844788
0.3826398964 0.5018164914 0.2344578778
0.3826251696 0.7497789606 0.7371241846
0.3826362147 0.9999484246 0.2356691574
0.3825773075 0.9997857149 0.7354738622
0.3726072614 1.0028902165 0.9863983468
0.3725115372 0.5014611334 0.4887695272
0.3926246692 0.7501954975 0.980351153
0.3927093484 0.7515167006 0.4796812485
0.4125095359 0.7501434304 0.9825325608
0.412594215 0.7483275898 0.479047996
0.4126089418 0.4986521126 0.4776876075
0.4026793944 0.9984580035 0.2349291355
0.4025763068 0.5012352923 0.7297718279
0.4025210813 0.7488873113 0.2288156711
0.4024953094 0.5004139336 0.2310697925
0.4025689434 0.7478915278 0.732674849
0.432523262 0.7495446586 0.9766510436
0.4225863512 0.7483145731 0.2288322388
0.4326815751 0.748815719 0.4730836405
0.4226121232 0.498460766 0.2262283558
0.4227814814 0.7481909137 0.726520886
0.4426037591 0.7491801888 0.2229774139
0.4426074408 0.7476051586 0.7262429176
0.4324164927 1.0002543189 0.4734481289
0.4224685368 1.0010158005 0.7273962104
0.4425779872 0.9995709381 0.2220846014
0.4526327124 0.9995774464 0.9729877512
0.4624518087 0.997195376 0.2242310331
0.4724954888 1.0003714699 0.474764337
0.4624812623 1.0015039296 0.7266184511
0.4526143039 0.7497203851 0.9722237983
0.4525443515 0.7476832593 0.4714977478
0.4726538019 0.747995662 0.9760895842
0.4625622597 0.7501824808 0.2253042489
0.4724697169 0.7503126486 0.475115019
0.4625475329 0.7500653298 0.7248825291
0.4726133032 0.5005532131 0.4756599107
0.4826128029 0.9985816629 0.2261574831
0.4924024456 0.9981716344 0.4726455181
0.4923656286 1.0014648793 0.973236266
0.4825170786 0.499341351 0.7263018248
0.4925276234 0.7516143264 0.472400685
0.4825354872 0.7506641016 0.2283195619
0.4924613528 0.7516663935 0.9732546745
0.4825391689 0.7500848549 0.7284786304
0.5124198534 1.0008856327 0.4709234025
0.5123793547 1.0004821125 0.9769087627
0.502343038 1.0019399917 0.2207527461
0.5223604459 0.750286615 0.7246864785
0.5223604459 1.0057343826 0.2225006336
0.5224119897 1.0016991813 0.7224673333
0.5024534891 0.7522911989 0.2232424964
0.5024866244 0.4995977815 0.2237514915
0.5025418499 0.7502215311 0.726501557
0.5024939878 0.5009586857 0.7235801274
0.5124677155 0.7521805563 0.9702724968
0.5125376679 0.4998106059 0.9744512273
0.5124419436 0.7531307811 0.4722359289
0.5225150773 0.500266844 0.2225843923
0.5223236289 0.7518811704 0.2264032366
0.5323562639 0.7517314774 0.4790608819
0.5324078077 0.5008779817 0.4782637937
0.5323194468 1.0011524766 0.9774886306
0.5423852171 1.0038599665 0.2286150184
0.552480441 1.0019465001 0.4803918168
0.552222722 0.7500978717 0.9824129055
0.5422747661 1.0010092921 0.7277082345
0.5424846231 0.7509699959 0.2288929868
0.5523773534 0.7518225948 0.480413907
0.5424036256 0.7523953331 0.7274026533
0.5324372613 0.7526361435 0.9754913078
0.5622369484 1.000690381 0.2303297706
0.5623547629 0.9999484246 0.7345700046
0.5623216276 0.7498115026 0.2338724873
0.5624946675 0.7515232089 0.7317719119
0.5723873978 1.0004105203 0.4864914748
0.5723800344 1.0035410555 0.9866192488
0.5724463051 0.7509244371 0.9875672868
0.5724647136 0.749785469 0.4851007123
0.6024889845 0.9989981998 0.240246432
0.5925594371 0.7509699959 0.9870518487
0.592474758 1.0013412199 0.4928193982
0.602433759 1.0001436763 0.7391123031
0.5924342593 0.9991544011 0.9903193583
0.6024668943 0.7503386821 0.2379656183
0.6024153505 0.4983227881 0.2410389181
0.5924084874 0.7516729019 0.485842575
0.6025258015 0.7528964791 0.7373073492
0.5822911733 1.001308678 0.2377060584
0.5823905792 0.9991674179 0.7385628092
0.5824936668 0.7500913633 0.2387912397
0.5825820277 0.7501108885 0.7373570522
0.6125473914 0.7520959472 0.9879354569
0.6124295769 0.7501824808 0.4878776352
0.6124884841 0.9980609918 0.9908163879
0.6224180315 1.0011004095 0.2400605061
0.6224916655 0.7499807207 0.2370203416
0.6226389335 0.7500848549 0.7370109723
0.6424428027 1.00057323 0.740603392
0.6526521594 0.9992390102 0.9928321191
0.6325942528 1.0012240689 0.991147741
0.6325022103 0.7515036838 0.989325299
0.6324948469 0.497535273 0.989251665
0.6325463907 0.7506575932 0.4869295972
0.652644796 0.7507161687 0.9887822481
0.6525122547 0.4995366027 0.9935868678
0.6425532538 0.7485098247 0.2402712835
0.6424317576 0.4982635618 0.2394309353
0.6526595228 0.7492908314 0.4877892743
0.6426637048 0.7511457224 0.7417401171
0.6724965273 0.7484121989 0.9926112171
0.6725554345 0.5005642773 0.9936512976
0.6826469767 0.9999093743 0.2451237653
0.672573843 0.9992455186 0.4943224526
0.682543889 0.9985881713 0.7436509199
0.6825770244 0.7499872291 0.2438692257
0.6724928456 0.7498765865 0.4919624823
0.6825254805 0.7507161687 0.7457697388
0.662614842 0.7507031519 0.2406026366
0.6626258871 0.7503126486 0.7397363514
0.7024029837 0.9996425303 0.2448319905
0.702498708 0.5006762216 0.7473823238
0.6923703488 0.7494275076 0.9957406628
0.6926207044 1.0011654934 0.4969364603
0.702425074 0.9996685639 0.7452515394
0.6925249802 0.9996750723 0.9971581177
0.7023919386 0.7496162509 0.2469287192
0.7023808935 0.500739353 0.2448881364
0.6924623913 0.7498245194 0.495364374
0.7024655727 0.7483536234 0.7479925657
0.722464572 0.498953451 0.747939181
0.7323941194 0.7499286536 0.998225811
0.7223320308 0.7476246838 0.2493411537
0.7225345243 0.497975891 0.2487373547
0.7323462572 0.752226115 0.5002739221
0.7223357125 0.7507096603 0.7478876372
0.7223983014 0.9992455186 0.7455534388
0.712505571 0.7494860831 0.9966426796
0.7123178043 0.7493233734 0.4973138346
0.7425850675 0.4996836923 0.7475498411
0.7424782981 0.7482755227 0.249534443
0.7424856615 0.4995541753 0.2505331044
0.7423052582 0.7474619741 0.7480873695
0.7525072514 0.4990354567 0.5024949082
0.7524446625 0.7492582895 -0.0014994618
0.7624846609 0.4994396277 0.7512030089
0.762458889 0.7484187073 0.2492767239
0.7624772975 0.4998333852 0.2504741971
0.7524004821 0.7484902996 0.4998201525
0.7625030694 0.7481518633 0.7497238855
0.7824910236 0.7502996318 0.2459070472
0.7825167955 0.4996784856 0.2448356722
0.7725541129 0.7495641838 0.4989908494
0.7825204772 0.7482364724 0.7451217594
0.7724804789 0.9992780605 0.4920517636
0.7724952057 0.4990914289 0.4956727164
0.772528341 0.7503126486 -0.0020966889
0.7824468432 0.4988649369 0.7468429546
0.7725136142 0.4994350718 -7.5276681434e-04
0.792604656 0.7502670898 0.4970432296
0.8125521115 0.5009280963 0.4976267792
0.812460069 0.7501889892 -0.0042330603
0.8025047498 0.4998763406 0.7460882059
0.8024642511 0.7483080647 0.2468983451
0.8024752962 0.5006143919 0.2477350117
0.7925236586 0.5014292423 0.4975292141
0.7925236586 0.7493624237 -0.0055584358
0.8125668384 0.7475921419 0.4998560491
0.7925531122 0.5004412688 -8.6136778691e-04
0.8025489302 0.7486334841 0.7466515061
0.8324811586 0.4991181133 0.4995348207
0.8325179756 0.7494795747 -0.0043629507
0.8224448419 0.498816124 0.7488982641
0.8325142939 0.4991708312 0.0032079426
0.8224264334 0.7515687677 0.2473898522
0.822455887 0.4994070857 0.2487842964
0.8324443416 0.750787761 0.4959516053
0.8223675262 0.7506445764 0.7471844323
0.8625643367 0.7478915278 0.7571673643
0.8625054295 0.4976856168 0.7564301037
0.8524727945 0.7508463365 -0.0021487573
0.8525685187 0.4980591983 0.0028419815
0.862523838 0.7483601318 0.2550487105
0.8625532916 0.497878916 0.2531563163
0.8525501102 0.7488808029 0.501210915
0.8424990667 0.7495121167 0.2474487594
0.8425137935 0.4996596112 0.250980431
0.8425395655 0.7484512492 0.7467619572
0.8526163808 0.4996478961 0.5005279595
0.8725343828 0.4957324492 0.5041581166
0.8823718876 0.7482755227 0.7553108667
0.892559154 0.4961190475 0.5107916212
0.8726816508 0.7482104388 0.0079456474
0.8925039285 0.7483145731 0.0134984807
0.8825670177 0.4970712249 0.7601651893
0.8724460219 0.4971825183 0.0061992325
0.8925002468 0.4960110083 0.0080371376
0.8825191556 0.7479435949 0.2608418669
0.882563336 0.4978209913 0.2575614714
0.8726926959 0.7479435949 0.5050352818
0.8926033344 0.7483601318 0.5127245142
0.8825706994 0.9987053223 0.259216396
0.8824786569 1.0003584532 0.7611150681
0.9126060155 0.750553459 0.5093631213
0.9125176546 0.9990502669 0.0089212981
0.9125397448 0.5000013017 0.5144328234
0.9026801498 0.7477548516 0.7598080643