POSCAR file written by Ovito 3.7.11
1
271.6049500048 0.0 0.0
0.0 15.3642961562 0.0
0.0 0.0 10.8641980002
Sr Ti O 
800 800 2400 
Direct
0.0224916592 0.5013518354 0.7642464763
0.0124795074 0.2482911055 0.5165549301
0.0226098824 0.2507513549 0.7654467489
0.0025880455 0.2510507503 0.7619646695
0.0124923201 0.2488443362 0.0165391904
0.0225702292 -0.0010907055 0.2632311229
0.0025794301 -4.3542000504e-04 0.2621726002
0.0024756028 0.4990796845 0.267184475
0.012668716 0.5005662479 0.5122131462
0.0123768215 -5.486695794e-04 0.5172664415
0.0224207474 -3.9239818398e-04 0.7652580558
0.0023778137 -0.001532509 0.7631833513
0.0226050224 0.25030096 0.2645777478
0.0024155892 0.2497288544 0.2621643161
0.0325674329 0.5018536482 0.012652019
0.0425142324 0.4997240355 0.2614233503
0.0323667738 0.5002648999 0.5124377371
0.0325357692 0.2495023553 0.5160993052
0.0425701961 0.2509466128 0.7615596696
0.0326373874 0.2510130005 0.0145869064
0.0524426229 0.5003924684 0.007753268
0.0424763097 0.0016630165 0.7638663286
0.0424729961 0.2519046781 0.2653490887
0.0524639775 0.2509798066 0.5096395554
0.0525280411 0.250481899 0.0093451021
0.0626265316 0.2541176009 0.2604108503
0.0625009816 0.50008331 0.7581733174
0.0724665584 0.5008695485 0.0049235147
0.0625499498 0.5025416068 0.2572951118
0.0723450584 0.5025403051 0.5077747146
0.072538722 0.2512590254 0.5091876123
0.0625731452 0.2517842691 0.7587532038
0.072603522 0.2519573978 0.0097168736
0.0925070621 0.2509602808 0.504083692
0.1024549662 0.25112625 0.7521314541
0.0823235216 0.2521832461 0.7568809993
0.092525103 0.24970282 0.0042959489
0.1023831708 -0.0026951005 0.2496387712
0.0924028666 4.6315679013e-04 0.4997106127
0.1023629208 0.2510006341 0.2509835553
0.0824630625 0.251501796 0.2569665095
0.102442448 0.499508601 0.7512027155
0.0824829443 0.5028279851 0.7529248858
0.1024895753 0.5010914916 0.2495301576
0.0825256534 0.4998984659 0.2569747936
0.1224413472 0.2511405689 0.2492871576
0.1124647249 0.4998834961 0.0015009888
0.112499334 0.2487421512 0.4999425672
0.1224163108 0.5001894002 0.2481365895
0.1125070658 0.4987568581 0.4998928627
0.1224840563 0.2479923609 0.7511419655
0.1123480112 0.2486744618 4.6214539077e-04
0.1223323654 -7.2453184946e-04 0.2492816349
0.1525037595 0.252276319 0.5004893172
0.132500074 0.2494307607 0.4984569537
0.1423750781 0.2510156039 0.7498616132
0.1524452186 0.2515681837 -0.0032276438
0.1324500013 0.2505216014 -6.6230944702e-04
0.1424030599 1.1286414116e-04 0.2468985782
0.142494369 0.2493057957 0.2493368621
0.1424748554 0.502086656 0.7455621703
0.1524698868 0.5012125515 -0.0010692516
0.132459574 0.5016948385 -0.0016648593
0.1524934504 0.5030375619 0.4981090218
0.1325070695 0.5010316125 0.5014116126
0.1823717719 0.2492869207 0.2403375784
0.1724949268 0.500078754 0.496932681
0.1825113128 0.4998652721 0.7450172612
0.1724396996 0.2478511244 0.4932563857
0.1623540954 0.2515792483 0.7449666362
0.1723649586 0.2485215098 -0.009246551
0.1825510764 0.499726639 0.2415148398
0.1624829591 -5.2601966453e-04 0.7450899771
0.1623261136 0.251933316 0.2481135781
0.1822624219 0.2481746016 0.7434386817
0.1825201491 -0.0012532251 0.2428320101
0.1924076714 0.0010681959 -0.0127565846
0.2022488028 0.2481036579 0.2427684988
0.2024778119 0.5020951171 0.740357
0.1924312351 0.4996973503 -0.0068156122
0.202459771 0.4995984196 0.2390737944
0.1924319714 0.4998125524 0.4924546698
0.192287276 0.248840431 0.4910666244
0.202273471 0.2489823184 0.7417247954
0.1923914714 0.2498115136 -0.0062681167
0.2024328937 -6.1436065808e-05 0.2383162603
0.2124452296 0.2486262982 0.4914568971
0.2223504247 0.2507096999 0.7420994204
0.2124271887 0.2503445676 -0.0033483246
0.222339011 7.7680604233e-04 0.7380567842
0.2222572747 0.2515362916 0.2440295215
0.2323848515 0.2497594448 0.4958042038
0.2324360288 0.2499221597 0.9944217731
0.2324176197 -0.0011611936 0.4898985677
0.2223463747 0.4988369139 0.7400035455
0.2124154069 0.4986331948 -0.0044059084
0.2123196796 0.5000136681 0.4953844765
0.2424601465 0.4990705725 0.7378662501
0.2624244366 0.2502645119 0.7451958294
0.2625231093 0.0013530772 0.2451773282
0.262471932 0.0013809339 0.7440167271
0.2525030415 0.2481472655 0.493200238
0.2423110329 0.2489165816 0.7456275225
0.2525255006 0.2493910583 0.9945138186
0.2623850411 0.2499325735 0.2474913509
0.2424638283 2.7375663991e-04 0.2398009535
0.2624491048 0.5002727102 0.2390360558
0.2526797688 -0.0014625416 0.490012704
0.2425010147 -7.6547091973e-04 0.7397909205
0.2524165188 0.0029247079 0.9907675687
0.2424667738 0.2501955208 0.2464503168
0.2725074634 0.2506511225 0.4973303173
0.2724139452 0.2492426623 0.9948267731
0.2724492907 -0.0010338203 0.495606306
0.2724551816 -0.0022429353 0.992764955
0.2824119221 0.2473004972 0.7458585566
0.2724934725 0.5009092509 0.4944759879
0.2824472675 0.2496592124 0.2494509985
0.312518148 5.0071139036e-04 0.4979414991
0.2925159353 0.500361878 0.5002564422
0.2924474535 0.2492289942 0.4985793741
0.302479303 0.2487792502 0.7481845451
0.2923734489 0.2491573997 1.0010490456
0.2925707944 0.0015651272 0.4972934992
0.3025139121 -3.1409977136e-04 0.7503457723
0.3125387662 0.4976178538 0.4974656241
0.3025102303 0.2494847821 0.2501615894
0.3126403844 0.2502417318 0.4965589765
0.3125247753 0.2484245317 0.9976065457
0.3225673022 6.3726173921e-04 0.2487689417
0.3325987835 -0.0017241221 0.4980473514
0.3225363749 0.0017896087 0.7487865224
0.3326013608 -0.0014137922 1.0003310911
0.3225868158 0.2486315051 0.247114885
0.3225367431 0.4979452362 0.7479507497
0.3223773203 0.4991148309 0.2484246917
0.332634129 0.2492328994 0.5001312604
0.322530484 0.2499937543 0.7473368065
0.3325844245 0.2501987751 0.9986650684
0.3627028004 0.2488065863 0.2444225555
0.3525240463 0.5009470008 0.4986981127
0.352602469 0.2497913369 0.4989595218
0.3426188513 0.249281063 0.7512450564
0.3624303459 0.501539283 0.747803477
0.3525406145 0.2483086787 0.9989135911
0.3624413913 0.4970802437 0.2412920898
0.342482624 -0.0016358004 0.2496995212
0.3425463195 0.2518142087 0.248611544
0.3624929368 0.2493428947 0.748550886
0.3427421922 0.499875035 0.7471361475
0.3424285013 0.5012249178 0.2485719644
0.3826287996 0.247848521 0.2430271465
0.3924960719 0.2493669765 0.488252795
0.3926359809 0.2482546574 0.9886137052
0.3925181628 3.5672189906e-05 0.9890371143
0.3825367541 0.4984639713 0.7350791139
0.3926691173 0.4974317079 0.9875367734
0.3724890727 0.2505333169 0.4919125221
0.3826435268 0.2472354112 0.7416253863
0.3724817091 0.2482234161 0.9922310914
0.3925881173 0.4972455621 0.4908098176
0.3722976182 -3.530211768e-04 0.4955538401
0.4125472528 0.4975781513 0.9868648416
0.4024664351 0.2475907806 0.7382160228
0.4025253442 -0.0027853552 0.7380291706
0.402407526 0.2475666988 0.2370626013
0.412543571 0.2477502412 0.4831820111
0.4125509346 0.2478355038 0.9817471146
0.4125803892 -0.0015194267 0.484014102
0.4125619801 -0.0022766824 0.985300069
0.4426203424 4.8359378228e-04 0.7280735346
0.4424841152 0.2482741832 0.2282262381
0.4224881615 0.499239796 0.7297257505
0.4324953429 0.5001490469 0.9794643874
0.4325432065 0.4997246864 0.4846206815
0.4425172515 0.4986253845 0.7306277959
0.4424730697 0.496299863 0.2326057606
0.4324806156 0.2502235077 0.4825128407
0.4225691615 0.2481843645 0.7337334094
0.4325579338 0.2483867819 0.9788845011
0.4224992069 -0.0017595939 0.233771056
0.4325873883 -0.001854704 0.9787096147
0.4225323433 0.2489022627 0.2316797834
0.4425614333 0.251835687 0.7305035345
0.4725240684 0.2517888251 0.4844310679
0.4626531143 0.250787803 0.732325114
0.4725387957 0.2486315051 0.9849134781
0.4724872502 0.0017523144 0.9840298418
0.4626531143 0.2516098387 0.2323185788
0.4524655238 0.5010836813 0.9812960919
0.4526091147 0.5006925146 0.482092193
0.4624101143 0.4988369139 0.7322523981
0.4725203866 0.5013140856 0.9829437055
0.4625868416 0.498840819 0.2305586698
0.4526091147 0.2509654877 0.4815969885
0.4525649329 0.2493142568 0.9804492737
0.4525796602 0.0014669776 0.478762909
0.4826122498 0.2482520539 0.7371179206
0.4824833862 7.0026495069e-04 0.7392561364
0.4925089766 0.4990914 0.9894605234
0.4925899766 0.5011071122 0.4886936927
0.4825975225 0.2488469396 0.2379931808
0.4924979312 0.2494112349 0.4903643176
0.4923580221 0.250514442 0.9910437051
0.4825017952 0.4980578349 0.2383871353
0.5024719762 0.2491723694 0.7408568068
0.5126301121 0.2489575858 0.4925531585
0.5123539758 0.2478843183 0.993372455
0.5025492944 -0.0018983767 0.7452326475
0.5024425217 0.2489634435 0.2441335328
0.5223574753 0.2492211839 0.2454451805
0.5224605662 0.2494977993 0.7443048294
0.5125049303 0.4989625298 0.493048363
0.5225710208 0.4974024192 0.7437985794
0.542474929 0.4992990242 0.7509044882
0.5525373377 0.5002115294 1.0015829092
0.5424417927 0.4994051143 0.2484164076
0.5524673831 0.4976347761 0.4998192263
0.5323720204 -3.4332336842e-04 0.4994538059
0.5324677476 0.2484264843 0.4978908741
0.5325045658 0.2477255085 0.9962718867
0.5324824749 0.4988753146 0.9993554093
0.5524931559 5.4854957263e-04 1.0008741592
0.542474929 0.249383248 0.2515579189
0.5523642922 0.2482976141 0.5003098286
0.5424822927 0.2490845034 0.7502021814
0.5526036104 0.2498368971 1.0016381365
0.572419155 0.2504142096 0.5048964534
0.5724522914 0.2491593523 1.0053199545
0.5624487918 0.5011624353 0.7539511926
0.5623530645 0.5005493255 0.2527618734
0.5724486095 0.4979810335 1.0052094999
0.5724154732 0.5012913055 0.5056061238
0.5625776554 0.2478804131 0.2508758621
0.5624929736 0.2481362009 0.7525281699
0.6024149264 0.5023567627 0.7646836922
0.5925476541 0.5002824731 1.0115790451
0.5924776996 0.5001516503 0.5137972484
0.5825331091 0.2498967762 0.7572657493
0.6025032901 0.2515154641 0.2605636457
0.5924813814 0.2502664645 0.5106640213
0.6024775173 0.2523127671 0.7597933174
0.5925145178 0.2519339668 1.0113857497
0.5824373818 0.4998509531 0.7615136468
0.5823711091 0.5014833091 0.2592602822
0.5825110182 0.2501024478 0.2592547594
0.6123816078 0.5023658747 1.0117907497
0.6123889715 0.5028136661 0.5117971008
0.6224108801 0.5017534158 0.7600602492
0.6124552442 0.0013893951 0.5115955213
0.6223225165 0.4999277546 0.2602617367
0.6125251987 0.2511906851 0.5117345099
0.6125509714 0.2508392209 1.0101063179
0.6223446074 0.0014384699 0.7602636696
0.6224808347 0.2505730194 0.2572573732
0.6224661074 0.2512831072 0.7593625447
0.6424105156 5.2399282211e-05 0.2548651119
0.6525134243 -4.8885558007e-04 0.5037182716
0.6324511979 0.5017787993 0.5070935783
0.6425062429 0.2489413143 0.2550722142
0.6522741061 0.2502209043 0.5039088057
0.642524652 0.2481583302 0.7596211924
0.632447516 -0.0021023496 0.5100859759
0.6523624697 0.248789664 1.005835409
0.6423773793 0.4996732685 0.756694147
0.6523882425 0.4994402607 0.5066370328
0.6324769706 0.2514764125 0.5081493396
0.632348107 0.249462002 1.008587568
0.6824097866 0.4965777801 0.7469354884
0.6623144238 -8.0777679521e-04 0.2525676575
0.6824318775 0.5002844257 0.248196419
0.662432242 -8.3094739778e-04 0.7531881358
0.6724431052 0.5000976289 0.4990957491
0.6623733329 0.2492381063 0.2501174076
0.6623549238 0.2485957078 0.7499775905
0.6723989234 -5.2120330332e-04 1.0007545001
0.6623991057 0.4996062299 0.7522161359
0.6623622875 0.4990204563 0.2534641801
0.6824760593 0.2523654868 0.2448027032
0.6725314689 0.2482143041 0.5001349422
0.682402423 0.2496208117 0.747621227
0.6724762416 0.2501519132 1.0006072274
0.7024609676 0.2481043088 0.2431541692
0.6923985589 0.2485221607 0.4980979764
0.7024499221 0.2485852941 0.7398673182
0.6925311044 0.250880876 0.9973672276
0.6924243316 0.4994617391 0.9954066595
0.692416968 0.4969481192 0.4961613401
0.7325487844 0.5008200831 0.9866071144
0.7324898754 0.5009535093 0.4868417382
0.7125565126 0.2486119793 0.4921628857
0.7124791944 0.250699937 0.9913842733
0.722482694 -0.001081984 0.2379729308
0.7326297844 0.0022255545 0.4872154428
0.7324456935 0.0016721285 0.9864782508
0.7125233762 0.5013648526 0.991126546
0.722685194 0.2517230883 0.2390627489
0.7325671935 0.2529232735 0.484935477
0.7225195122 0.2515942181 0.7397872387
0.7324604208 0.2505925451 0.9865702962
0.712387149 0.4989820556 0.4904545222
0.712468149 -6.3714074488e-05 0.4915544653
0.7124386944 2.9159019357e-04 0.9922310914
0.7525705109 0.5015972095 -0.0159497886
0.7426369658 0.0019054617 0.2340232605
0.7425007386 0.0021191389 0.7360354661
0.7424749658 0.2517042134 0.2348470673
0.7425007386 0.2504675801 0.7377880115
0.7625482377 0.0020978558 0.2358742945
0.7524747836 0.0025718769 0.4846206815
0.7625887377 0.0020557452 0.7360520343
0.752728829 0.003123936 -0.011505466
0.7626366013 0.2519821304 0.2360823173
0.7524674199 0.2538103951 0.4875495678
0.7626181922 0.251794032 0.7365076593
0.7525116018 0.2526746451 -0.0117452628
0.7824779187 -5.2217959275e-04 0.2370423513
0.7825626005 3.5426797524e-04 0.7389017614
0.7725517373 -7.8135189453e-04 -0.0149300538
0.7825736459 0.2499280175 0.2392219876
0.7725959191 0.2518760403 0.4875523291
0.7826178277 0.2494646054 0.7388750683
0.7725517373 0.2511028191 -0.0114931964
0.7925403273 8.9669438484e-04 0.4877640337
0.7925256 -0.001355345 -0.0107433665
0.8126430537 0.5028279851 -0.0082563864
0.7925845091 0.2494008212 0.4930502039
0.7925955546 0.2508301089 -0.0088633216
0.8024260087 5.8877269732e-04 0.2387958171
0.8125178719 0.0022649966 0.4920791244
0.8025327814 0.0012149647 0.7416557613
0.8124405537 -4.4648461863e-04 -0.0117470117
0.802643236 0.252044613 0.2398451353
0.8125068264 0.2510390348 0.4952988742
0.8026358723 0.2513280165 0.7421785795
0.8125252355 0.2498518669 -0.0093509582
0.8325322347 0.0011617244 0.4978945559
0.8225397806 0.001069042 0.7412222273
0.8323886438 -4.431845773e-05 -0.0064325927
0.822550826 0.2499312718 0.2460388736
0.8324880529 0.2507747858 0.4946379879
0.8224955987 0.25067195 0.7431643863
0.8324990983 0.2518519585 -0.0055831789
0.8225066442 -6.9869272244e-04 0.2427197147
0.8423810979 0.0021654801 0.7436485453
0.8425099615 0.2505261575 0.2486888622
0.8425394161 0.2524351287 0.7448239657
0.8623844152 0.001574044 0.2459560327
0.8425357342 0.5011272889 0.7443711021
0.8525208247 -2.3462981142e-04 0.4960656128
0.8625316879 -8.6505244202e-04 0.7442183067
0.852373552 0.0014981538 -0.0071912405
0.8625243243 0.2530495402 0.2475244872
0.8425136433 8.829612468e-04 0.2448846237
0.8524692793 0.2502469387 0.4947631697
0.8624764607 0.2496364324 0.7437249431
0.8524471884 0.2502059345 -0.0020299023
0.872524142 0.0012966476 0.4981311128
0.8926268684 -3.174842414e-04 0.4969658174
0.8725977784 -0.0016816209 -0.0029514982
0.8825755052 0.251381387 0.2475272486
0.8925605957 -8.1352370264e-05 -0.0010727217
0.8724320966 0.249169766 0.4964586469
0.8923286412 0.2485384322 0.4944621811
0.882560778 0.251678179 0.7463104998
0.8723915966 0.2497256001 -0.0060633616
0.892494323 0.2484954754 -0.0065067814
0.9025935498 -2.8734944086e-04 0.2514456234
0.9126375494 -0.0012353265 0.5015128626
0.9026450953 -0.0010677952 0.7533280449
0.9026377316 0.2461823203 0.2505104416
0.9126596403 0.2496527038 0.502101033
0.9025235953 0.2499612113 0.7520835904
0.9026193226 0.4975547204 0.7473616588
0.9125160494 0.2492680458 0.0033769671
0.9226300035 -0.0011460285 0.2541057369
0.9226852308 -8.3381118012e-04 0.7543479085
0.9226520944 0.2496071437 0.2559871459
0.9226336853 0.247519186 0.7527141018
0.942670139 2.5312438987e-04 0.2588304299
0.9326371849 5.441237272e-04 0.5047952034
0.9425118208 0.0015493764 0.7570347152
0.9326261394 0.0023709565 0.0082664214
0.9424897299 0.2497249493 0.2591148504
0.9326445485 0.2482930581 0.5079523623
0.9424713208 0.2477899436 0.7584273629
0.9324420485 0.2505300626 0.0098577952
0.9524306386 -2.1979021202e-04 0.50904126
0.9525190022 0.0018144715 0.0070182851
0.9625777291 0.2489159308 0.2563304755
0.952563184 0.2496344798 0.5093459305
0.9725554559 0.2515662311 0.5098098395
0.9625445927 0.249086456 0.7591710901
0.9525668659 0.251205004 0.0097036191
0.9724597286 0.2524403356 0.0088846907
0.9624967291 0.0011595766 0.264219691
0.9825368646 0.5024771717 0.7612246241
0.9825626373 0.5021686643 0.2620639866
0.9824190464 -0.0010834809 0.2628528161
0.9926287278 3.6956317638e-04 0.5151862143
0.9824337737 0.2507409411 0.2609714071
0.9924777732 -3.8981408823e-05 0.0152971291
0.9925403641 0.2485885484 0.5125500326
0.9825442282 0.2502664645 0.762036465
0.9925182732 0.2498167205 0.0136878985
0.0124245746 0.7523122414 0.0136638746
0.0026311596 0.5012698271 0.7679181693
0.012670741 0.5015334253 0.0167595472
0.022481976 0.7505874634 0.2643494751
0.0024251619 0.7472420449 0.2659740773
0.0124426892 0.7521625436 0.510993544
0.0225426892 0.7517069419 0.7654568739
0.0225571956 0.4997181778 0.2618311116
0.0025028114 0.750431257 0.7653675898
0.0125312001 1.0006932906 0.0143530189
0.0524161138 1.0007648851 0.5058666124
0.0524418866 1.0012204869 0.0074700442
0.0326193465 0.750496343 0.0109678633
0.0424976643 0.5003026497 0.7595263856
0.0426302097 0.7504247484 0.2630184979
0.0325225147 0.7528589634 0.5119738281
0.0425407415 0.7529435752 0.7605821469
0.0525571275 0.7534512457 0.0056343818
0.0525921047 0.7504442742 0.5077968055
0.0525313547 0.4994695494 0.5068238851
0.0424972961 0.9994371315 0.2623760207
0.0325449738 1.0000489396 0.5139021803
0.032492692 1.0020861302 0.013806361
0.0724790766 1.0014092362 0.5074046919
0.0622782316 1.0011358751 0.758737556
0.0725755402 0.9989359696 0.0028810262
0.0724488857 0.7510040135 0.007884893
0.0626140134 0.7525725852 0.2529303165
0.072451463 0.7502164734 0.5079376351
0.0624380225 0.7494419504 0.7552287835
0.0624361816 1.0026328523 0.2560239641
0.0824534898 1.0015394081 0.2569821573
0.1023632889 0.9995022175 0.7522593972
0.0824347125 1.0016956144 0.7547170108
0.0924908621 0.9995217433 0.0033826739
0.0924919666 0.7495395794 5.8266970374e-04
0.0924448394 0.500648907 0.0035133784
0.1024347162 0.750125353 0.2520991461
0.0824450216 0.750431257 0.2540173733
0.0924452076 0.7474568286 0.5031015671
0.1024498117 0.7494354418 0.7531890563
0.0824056262 0.7527092657 0.7541113517
0.0923516894 0.4994090195 0.5042880329
0.1125453567 0.9985779968 -6.5788206085e-04
0.1125081703 0.7507241439 -7.3982092095e-04
0.1224800063 0.4991102749 0.7485831019
0.1225407563 0.7492401839 0.2509605439
0.1124890249 0.7485047126 0.4984477491
0.1224910517 0.7507176353 0.7527748518
0.1124146521 0.9980117489 0.4999747831
0.1223268426 0.9990205814 0.7498993519
0.1524301231 1.0020015184 0.4977988287
0.1324257013 1.0007974281 0.4990699764
0.1425392872 1.0012139783 0.748318011
0.1524691504 1.0014482877 -0.0029336046
0.1324603104 1.0015068651 -3.6839911881e-04
0.1525781322 0.7525856024 0.001068007
0.1324032422 0.7510495737 6.7186174535e-04
0.1425514372 0.7507762126 0.2483979985
0.1525416822 0.7515832786 0.495729647
0.1324161286 0.7509844877 0.5010047717
0.1425941463 0.5007706178 0.2479037145
0.1424682281 0.7518631482 0.7462607952
0.1725512586 0.7484786782 -0.005744148
0.1624218409 0.5004145976 0.7457867611
0.1723789496 0.4997240355 -0.005483733
0.1626206591 0.7516353473 0.246001135
0.1824406218 0.9978880856 0.7386624433
0.1724676814 0.7469426495 0.4925457948
0.1624991591 0.501599813 0.2468286236
0.1624866409 0.748706479 0.7442321135
0.1825477628 0.7459273085 0.2408364648
0.18242074 0.7472095019 0.7391972273
0.1625904682 1.0003223006 0.2476321804
0.1723844723 1.0000879911 0.4931164766
0.1723741632 1.0017216488 -0.006850792
0.1923830032 1.0003548436 0.4874188632
0.2024752346 0.9999513106 0.7386486365
0.1925519987 0.7478603615 -0.010908358
0.2025021119 0.7493247957 0.2381422944
0.192560835 0.7511667284 0.4875063064
0.2025462937 0.7490254003 0.7385823637
0.2324209333 0.7494614762 0.9894237052
0.232363497 0.5009788929 0.9911633642
0.2323112151 0.7491295378 0.4903689199
0.2323885333 0.4987516512 0.4913179085
0.2223375383 1.0004719983 0.2389753058
0.2124721069 1.0006932906 0.4878303064
0.2124058342 1.0014678135 -0.011805976
0.2124923569 0.750593972 -0.011994752
0.2323719651 0.9992418736 0.9902245006
0.2223658883 0.7506590579 0.2398129194
0.2124290296 0.7496502255 0.4888685791
0.2223791428 0.500111297 0.2421720443
0.2223331201 0.7504572914 0.7392119546
0.2523914825 0.7485242384 0.9887241597
0.2523797006 0.4991961884 0.986432228
0.2424314283 0.7495200536 0.2400982603
0.2524757961 0.7499626381 0.4875827041
0.2424395283 0.4958820112 0.2408843284
0.2423806193 0.7510235393 0.7386790115
0.2524459734 0.498391075 0.4867837496
0.2626394547 0.4974323588 0.7407371477
0.262378782 0.749513545 0.2401479648
0.2624616229 0.7508738416 0.7411338636
0.2825868084 0.4978157151 0.7453375794
0.2823577993 0.7513359519 0.2458713509
0.2825923312 0.5021641082 0.2439365556
0.2824811403 0.7507631955 0.7471803293
0.272644427 0.7481467398 0.9947991595
0.2723808089 0.4994929804 0.9939707504
0.2726823498 0.7492401839 0.4941335788
0.2824531584 0.9995282519 0.249421544
0.2825477812 0.9999252762 0.7474555452
0.312572639 1.0003873866 1.0007729092
0.2926455353 0.7497738888 0.9993093866
0.3025422621 0.5003176195 0.7456569771
0.2925895716 0.4996758719 0.9982416593
0.3026192121 0.7513294433 0.248024294
0.2926359625 0.7500016897 0.4988315786
0.3026457212 0.5004927007 0.2504938735
0.3025024985 0.7480881624 0.748348386
0.3025477848 1.0009991946 0.2525382029
0.312582948 0.7497088029 1.0004599547
0.312568589 0.4983969327 0.9981404093
0.3125417117 0.7496372083 0.4997419081
0.2926109262 1.0009861774 0.9969162048
0.3325744835 0.7487780736 0.9965756367
0.3325984154 0.5002622964 0.9995487047
0.3225503658 0.7508282814 0.2495421235
0.3324596108 0.7497413458 0.499794374
0.3224770976 0.7499691467 0.7506439996
0.3325998881 0.5017163168 0.4998330331
0.3525549736 0.9992483822 0.4974481355
0.3425511058 0.9996193722 0.7488371474
0.3624377095 0.7481402312 0.2421932147
0.3524725009 0.9997235097 0.998692682
0.3625334368 0.7489863487 0.7443766248
0.3626438913 0.9963845999 0.2453890328
0.3525612327 0.7497153115 0.9980575684
0.3624524368 0.9972502432 0.7471637611
0.3525778009 0.5020573673 0.9981496139
0.342486674 0.7499886725 0.2497961689
0.352501219 0.7485958329 0.4956753401
0.3425389558 0.7501644046 0.7474555452
0.39257339 0.9988448493 0.4896389995
0.3724485727 0.7468189861 0.9900680233
0.3726326636 0.4972657387 0.9938879095
0.3824410268 0.7505223774 0.2397871466
0.3725038 0.748094671 0.4881607496
0.3826103905 0.4989143661 0.2378284195
0.3825293905 0.7510690995 0.7406322159
0.3824447087 0.9966709781 0.2418314761
0.3824631178 0.998317653 0.741480875
0.3724228 0.9979726974 0.9934552959
0.3725516636 0.4989364954 0.494059022
0.3924592537 0.7502945765 0.9873250689
0.3926102082 0.7462462297 0.4899565563
0.4125546165 0.7477952756 0.9888438188
0.4126466619 0.7487520392 0.484753227
0.4126098437 0.4971004204 0.4809591135
0.4025179805 0.9974975698 0.2380622149
0.402650526 0.4967378916 0.7336054662
0.4025363896 0.749786906 0.2358107832
0.402569526 0.4976692717 0.2321657833
0.4025032533 0.7484786782 0.7366328411
0.4325063883 0.7485632899 0.979574842
0.4224697524 0.7497934146 0.2358024991
0.4324437974 0.749044926 0.480868909
0.4225912524 0.4999075779 0.23533859
0.4224918433 0.7465846767 0.7347661594
0.4424178424 0.7495200536 0.2304997607
0.4424252061 0.7474242856 0.7327742958
0.4325505701 0.9986170484 0.4828745793
0.4226354342 0.9970159337 0.7342507048
0.4425393424 1.0000814825 0.231170772
0.4524360693 1.0018388035 0.9789857511
0.4626162961 0.9995542862 0.2290785789
0.4724577957 1.0002962662 0.482993318
0.4625794779 1.0006477304 0.73120308
0.4526385693 0.7498324662 0.9803940465
0.4524986602 0.7485047126 0.4761147614
0.4723804775 0.7488171252 0.9849779099
0.4624911143 0.7509714705 0.2301150107
0.4726382048 0.7490188917 0.4870203064
0.4625242507 0.7482834203 0.7293354778
0.4725167048 0.5010556943 0.4859470565
0.4824023862 0.9978750684 0.2381386126
0.4924574312 0.9988773922 0.4894337381
0.4924242948 0.9991963135 0.9917984778
0.4825422952 0.4977441205 0.7391254319
0.4924979312 0.7503466453 0.4921684085
0.4823434771 0.7483485063 0.2374749649
0.4923469766 0.750932419 0.9893960915
0.4823913407 0.750157896 0.7323297163
0.5124938849 0.9968206758 0.4972124992
0.5126301121 0.9974194667 0.9953238186
0.5025897944 0.9977318793 0.2401553284
0.5224642481 0.7517069419 0.7488794883
0.5225121117 1.0000229052 0.2455611578
0.5224163844 0.9960656787 0.7474886815
0.5023872944 0.751173237 0.2445937601
0.5024572489 0.4991187361 0.2422999874
0.5024093853 0.7486413931 0.7432868067
0.5025934762 0.4988948404 0.7422512954
0.5124828394 0.7482834203 0.9957472276
0.5125159758 0.4999004185 0.9947807504
0.5125491121 0.7498910436 0.493866647
0.5225010662 0.4972611827 0.2445790328
0.5224163844 0.7510886253 0.2475088395
0.5323941113 0.7507371611 0.4938436357
0.5325119295 0.5000162715 0.4996857604
0.5324051567 0.9988904094 0.9986006366
0.5423755199 1.0006607476 0.2477030554
0.5525262922 1.0018388035 0.5026468626
0.5523827013 0.7508933674 1.0017301819
0.5424602017 0.9992744166 0.7472659315
0.5425301563 0.7490188917 0.2488867599
0.5523937468 0.7499431123 0.4980455105
0.5425301563 0.7488236338 0.7505409087
0.5323941113 0.7492922527 0.9967965458
0.5623862009 0.9991507533 0.2546267142
0.56252611 1.0018062605 0.7561151812
0.5624009282 0.7513489691 0.2540146119
0.5624009282 0.751270866 0.7522198177
0.5724964732 1.0021316904 0.5052351806
0.5726327004 1.0024245772 1.0065717726
0.5725222459 0.7485372555 1.0069951817
0.5724559732 0.7531909018 0.5049811352
0.6024480628 1.0027109554 0.259051339
0.5923966996 0.7531453417 1.0114962042
0.5924740178 1.0021967763 0.511499794
0.6025032901 1.0017867348 0.7632220104
0.5924850632 1.0033813408 1.0123062042
0.6023486537 0.7503141023 0.263553282
0.6024370173 0.4990835897 0.2640567706
0.5922862451 0.7511472026 0.5135192712
0.6024922446 0.751511684 0.7631640218
0.5824373818 1.0009276001 0.2621670775
0.5824705182 1.0004915241 0.7590597151
0.5825367909 0.7524293961 0.2609668048
0.5825699273 0.7507111267 0.7575326811
0.6124552442 0.7514075465 1.0128400678
0.6124736533 0.7513619863 0.5115679076
0.612458926 1.0006932906 1.0129689314
0.622432971 1.0008755313 0.261104873
0.6225397437 0.7521039663 0.2632044297
0.6224661074 0.7518436224 0.7628243741
0.6423994702 0.9994892003 0.7560976925
0.6525023788 0.9996454066 1.0043902954
0.6325542888 0.9994566573 1.0065165453
0.6323223342 0.7507566869 1.0112752951
0.632510107 0.5003495116 1.0091030225
0.6323333797 0.7510625909 0.5112604758
0.6524876515 0.7481337226 1.0049517727
0.6523919243 0.5004211062 1.0068018862
0.6424583792 0.7479124303 0.2560819528
0.6424326065 0.4999453278 0.2592188617
0.652417697 0.7485567813 0.5069131692
0.6425430611 0.750496343 0.7585184879
0.6724320598 0.7488106166 1.0016657501
0.6725204234 0.5003169686 0.9984533639
0.6825607412 1.0016044941 0.2467531463
0.6724799234 1.000960143 0.4978531355
0.6825018321 0.9992288564 0.748166136
0.6824760593 0.7499756553 0.2451515555
0.6723584234 0.7492011324 0.4989134991
0.6825276048 0.7505484118 0.7441170567
0.6624248784 0.7492466925 0.2502039303
0.6625463784 0.7478278186 0.7505860109
0.7024867403 1.0008560055 0.2422963056
0.7024204676 0.5004835887 0.742775034
0.6924206498 0.7508282814 0.9960693867
0.6924316953 0.9996258808 0.4924261357
0.7024646494 1.0000163966 0.7417100681
0.6924243316 1.000315792 0.9949464322
0.7024167857 0.7495591052 0.2398212035
0.7024867403 0.4990529992 0.2433060442
0.692376468 0.7474242856 0.495729647
0.7024425585 0.7521495264 0.7449123294
0.7224458758 0.5005571358 0.7415931704
0.7325193299 0.7522341382 0.9832750691
0.7224606031 0.7524098703 0.2428062374
0.7224532394 0.5020241734 0.2419824306
0.7324236026 0.7493833731 0.4844853747
0.7223538303 0.7491620808 0.7401075568
0.7225379212 0.9998406645 0.7404720568
0.7124791944 0.7508933674 0.9936670004
0.7125344217 0.7521365093 0.4919511812
0.7425486022 0.49925802 0.7327071026
0.7424786477 0.7510951339 0.2363078286
0.7426038295 0.5003364944 0.2315242265
0.7426075113 0.7517004333 0.7366825456
0.7525336927 0.4999928405 0.480828409
0.7525889199 0.7503856969 -0.0143713564
0.7626623741 0.4999479312 0.7340472844
0.7625408741 0.7532885308 0.2375697717
0.7626586922 0.5009945135 0.2344319423
0.7526551927 0.749077469 0.4872136019
0.7625298286 0.7525465508 0.7340325571
0.7825699641 0.7522015952 0.2365296581
0.7825294641 0.5012236161 0.2368785104
0.7726732373 0.7503791883 0.4873958519
0.7825184187 0.7520323717 0.7372578297
0.7725296464 1.0012920814 0.4841917497
0.7726032827 0.5010693624 0.483730602
0.7725996009 0.749851992 -0.0127077913
0.7826215096 0.5005870754 0.7350202048
0.7726216918 0.5000097629 -0.0179087275
0.7926250091 0.7532624964 0.4901369654
0.8126025537 0.5023235689 0.4922319198
0.8125068264 0.7526702141 -0.0101039912
0.8024701905 0.5008070659 0.737716216
0.8026321905 0.7507827212 0.2406551352
0.8025953723 0.5018529973 0.2402409307
0.7925550546 0.5020651776 0.4883853405
0.7926876 0.749142555 -0.0112067049
0.8124074174 0.7501969476 0.4913952267
0.7925661 0.5030212904 -0.0083098104
0.8025659178 0.7512513402 0.7386909774
0.8324401892 0.4997780569 0.4887682495
0.8325616892 0.7511472026 -0.0066958979
0.8225029624 0.501159181 0.7433162613
0.8326021892 0.5013134347 -0.0085063169
0.8226575987 0.7499235865 0.2427178738
0.8225655533 0.5005909805 0.2426525215
0.8324659619 0.7513424605 0.4929388289
0.8226980987 0.7496957857 0.7385068865
0.8624801425 0.7500602671 0.7458880111
0.8625464152 0.5013101804 0.7457315339
0.852535552 0.7518306052 -0.0054721261
0.8524103702 0.499763738 -0.0056374121
0.8624470061 0.7505093602 0.2467310554
0.8623696879 0.5029418855 0.2451948169
0.852495052 0.7512318144 0.4984633968
0.842480507 0.7524033617 0.2441620669
0.842561507 0.4995736869 0.2432885556
0.8424105524 0.750496343 0.7459441589
0.8526239156 0.4994571831 0.4947861811
0.8725130966 0.5009632722 0.4949491015
0.8827043689 0.7502815593 0.7448046362
0.8925385048 0.5004686189 0.5003374422
0.8725204602 0.7501774218 -0.0034025025
0.892575323 0.7486218673 -0.0013364319
0.8825092325 0.4979901455 0.7466032043
0.8725720057 0.4993654119 -0.0038519052
0.8926415957 0.5001933053 -0.0010262664
0.8825350052 0.751544227 0.2473238281
0.8825276416 0.5004334725 0.242795192
0.8725977784 0.748836651 0.4957333288
0.8926047775 0.7482769117 0.4985674082
0.8825460507 1.0002637232 0.2482313963
0.8825975961 1.0003027748 0.7482498974
0.9126080949 0.7484721696 0.5021378512
0.9124902767 0.9990401071 0.0036397568
0.9125933676 0.49925802 0.5024038626
0.9026819135 0.75120578 0.7485241928
0.9126633221 0.7479710077 0.0047524023
0.9125528676 0.4973412384 0.0039040193