POSCAR file written by Ovito 3.7.11
1
271.6108596588 0.0 0.0
0.0 15.3646304567 0.0
0.0 0.0 10.8644343863
Sr Ti O 
800 800 2400 
Direct
0.0224831246 0.5011545998 0.7657612846
0.0123966722 0.2502569287 0.5172614636
0.0224125089 0.2504417688 0.7641357973
0.0025610198 0.2499536347 0.7670775059
0.0123945368 0.2511830818 0.0169688753
0.0223960147 0.0019217012 0.2635832783
0.0025453725 0.0014784754 0.2657205271
0.0025878965 0.5033329796 0.2686769627
0.0124999082 0.5012476707 0.5170571272
0.0126859096 4.9869265442e-04 0.5181119451
0.0226272278 0.001732956 0.7653747021
0.0026170559 1.6350724176e-04 0.7666927643
0.022453413 0.2520662791 0.2655419628
0.0026098765 0.251767541 0.2646095627
0.0325599308 0.5001496945 0.0115066489
0.0425554811 0.5003560125 0.2641116077
0.0325695033 0.5030049535 0.5146879288
0.0325440994 0.2521222518 0.514692531
0.0424295657 0.2525348878 0.7626962378
0.0324295973 0.2495780969 0.0168583311
0.0524906509 0.5015249309 0.0103801292
0.0425436995 -8.8930037673e-04 0.762525037
0.0425190319 0.2505823514 0.258241997
0.0525403543 0.2514967893 0.5068347818
0.0525050096 0.2524281491 0.0085159732
0.0624195617 0.2495637783 0.2586166138
0.0624445975 0.5004894358 0.7581971541
0.0724629745 0.5018366859 0.0046877942
0.0623433497 0.4983299305 0.257532342
0.0725586997 0.5002108739 0.502892561
0.072402594 0.2504085757 0.5044784696
0.0625244912 0.2532957261 0.756913148
0.0724876422 0.2522927733 0.0044842861
0.0925409641 0.2531733672 0.497484088
0.1025313599 0.2533751293 0.753239694
0.082564927 0.2490704374 0.7500770811
0.0925140874 0.2519009643 5.6082368334e-04
0.1023914539 0.0018570722 0.2520934947
0.0924069488 0.0022890383 0.5023347777
0.1025777498 0.2522257362 0.2493680882
0.0825049147 0.2528095446 0.2515522792
0.1025575002 0.5013641721 0.7507324304
0.0825089646 0.5000266847 0.7571478587
0.1024625114 0.5036753243 0.2495448116
0.0824747244 0.4987692512 0.2540273275
0.1224635526 0.2500603733 0.2527460827
0.1125567322 0.5025220262 0.002611386
0.1125648321 0.2503259183 0.5028041993
0.1224591345 0.5023859995 0.2499995062
0.1124385484 0.5012476707 0.5046910899
0.1224768069 0.2542856621 0.7483595503
0.1124900928 0.2527945751 0.0018431914
0.1224952156 0.0010887491 0.2514970531
0.1524299538 0.2482458162 0.4941116161
0.1323850999 0.2521352687 0.5008464351
0.1424285128 0.2507750017 0.7484433099
0.1524649304 0.246776858 -0.0040113978
0.1324200765 0.2494153855 -0.0012841872
0.1424101041 6.2638853396e-04 0.2505536078
0.1423828593 0.2501814306 0.25038885
0.1424774799 0.4973536624 0.7445507925
0.1523736233 0.4999752679 -0.0047669916
0.1324410624 0.499713628 -0.0022919801
0.1524417354 0.4991454399 0.4937940662
0.1323902544 0.4998633225 0.4991868918
0.1824339088 0.2512318952 0.2425108513
0.1723069205 0.5007784112 0.4902319847
0.1823654285 0.5039363134 0.7353547316
0.1723982276 0.2492500707 0.4929481869
0.1624081999 0.2499262992 0.7444771577
0.1725189886 0.2486578014 -0.0062630106
0.1823448108 0.5011162 0.2376113786
0.1623780097 9.3410826815e-04 0.7467598352
0.1622907525 0.248465802 0.2458538693
0.1824769851 0.2520090047 0.7413798957
0.1824600491 0.0022263619 0.2405521667
0.1924500768 7.2180247861e-04 -0.0073636662
0.2024684538 0.2510359907 0.2377494438
0.2023727287 0.497190951 0.7351872125
0.1925093528 0.5006000795 -0.0113116213
0.2024456271 0.498648194 0.236523425
0.1924324045 0.5002466704 0.4875875765
0.1925170844 0.2508316252 0.4919357089
0.2025203664 0.2496177984 0.7402643291
0.1925435929 0.2497538251 -0.0090835026
0.2024507815 -6.298339141e-06 0.2411007457
0.212578138 0.2495885104 0.4892830168
0.2224543999 0.2509683028 0.7384216193
0.2125339571 0.2491758744 -0.0081330076
0.2225041034 -0.0019655449 0.7422635128
0.2225088897 0.2496483882 0.2428762638
0.232655023 0.2497941776 0.4920921828
0.2325758656 0.2488855973 0.9931039986
0.2324584182 6.8873952917e-04 0.4967937621
0.2225110987 0.4996446384 0.740111537
0.2123708561 0.5001998096 -0.0114072913
0.2125008215 0.5000878641 0.4862492647
0.2425762022 0.4988089528 0.7446640059
0.2624255558 0.2492071149 0.7430633704
0.2624605323 -6.1620562109e-04 0.2465276274
0.2624443326 -2.6702703101e-04 0.7438264105
0.2524274283 0.2498019877 0.4954563708
0.2425084582 0.249568985 0.7427421387
0.2524948041 0.2483089482 0.9935458072
0.2625614119 0.2485055035 0.244903981
0.2425831975 9.1998492163e-04 0.2428072312
0.2625750343 0.4980520195 0.2472796224
0.2524741864 5.0630754632e-04 0.4940269361
0.2426089696 1.1098401302e-04 0.7445176568
0.2525754342 1.188592431e-04 0.9976417406
0.2425577935 0.2515312841 0.2421095419
0.2723323762 0.2493763348 0.4973312959
0.2724752276 0.247324219 0.9925885553
0.2725610121 2.4954901177e-04 0.4917801555
0.2724686005 1.2725514955e-04 0.9940612505
0.282398984 0.2503363318 0.7452153462
0.2725930432 0.4982010631 0.4940812417
0.2824589963 0.2492858672 0.2447401436
0.3125557311 -0.0017861654 0.4996342229
0.292457492 0.4980513687 0.4931037403
0.2926253792 0.2486942487 0.4974104532
0.3025498719 0.2505179177 0.7438705914
0.292569785 0.2509220927 0.9937483028
0.2924722189 -8.6261571281e-04 0.4960178359
0.3025594444 -7.3205611323e-04 0.7476683041
0.3125108139 0.4993250733 0.5010498512
0.3025495037 0.2497993843 0.2508904868
0.3124710511 0.2485796999 0.5009550464
0.3124695784 0.2494921853 1.0026028825
0.3226455338 -0.0011285512 0.250424747
0.332566713 -0.0025996376 0.5008804912
0.3225376589 -0.0025100292 0.7488022793
0.3325376272 -2.5030030265e-04 0.9996574921
0.3225822079 0.2499751126 0.250361237
0.3225207229 0.4998411937 0.7480788178
0.3225777898 0.5006423845 0.2473210419
0.3325961669 0.2490053529 0.4974527932
0.3224699149 0.2515228231 0.7485270694
0.3325052279 0.2484827239 0.9951841806
0.3625290643 0.2495807002 0.2450659774
0.3526093578 0.4979205488 0.494912394
0.3525887401 0.2491752235 0.4911735892
0.3425968716 0.2489832241 0.7479002535
0.3624885652 0.498066989 0.7443897164
0.3525695951 0.2482894228 0.9918706164
0.3624996104 0.5008363364 0.2430686346
0.3426749244 -0.0033486241 0.2430934863
0.34262743 0.2465022012 0.247018219
0.3627389233 0.2486389269 0.7435530415
0.3425081417 0.5004321614 0.7460446576
0.3425232368 0.4992645446 0.2443995829
0.3825172194 0.2491186 0.2387554786
0.3926272717 0.2493483484 0.4886101792
0.3925425918 0.2505641277 0.9869923137
0.3924505483 -7.6368720266e-04 0.9880968351
0.3825172194 0.4976764817 0.7414378831
0.3924063675 0.4993576155 0.9938495506
0.3726575253 0.2483109007 0.488001772
0.382649762 0.248208718 0.7421733102
0.3725618001 0.2498690248 0.9921743598
0.3925315466 0.5003521074 0.4921225571
0.3727974313 -0.0014684227 0.4921492497
0.4124239765 0.4976680207 0.9890264739
0.4025164198 0.25122018 0.7424549632
0.4024464668 8.5542105185e-04 0.7359456505
0.4026158267 0.2502614846 0.2387738873
0.4125123382 0.2507841135 0.4842252293
0.4124497487 0.2481599046 0.9878851352
0.4125528373 3.2947283443e-04 0.4877164373
0.4125197017 -3.2749057438e-04 0.9901954257
0.4424632762 -1.3471014869e-04 0.7353722199
0.4426252726 0.2483271719 0.235822054
0.4224972114 0.5004568935 0.7360607048
0.4325594012 0.4991480433 0.9866701616
0.4325078568 0.4975293906 0.482593299
0.4422975979 0.4973855538 0.7338838773
0.4424743214 0.4989690608 0.2360181065
0.4325483559 0.2481156471 0.4840457446
0.4226592079 0.2508713268 0.7369259133
0.4325152203 0.2483017889 0.988336148
0.422559801 -0.003070251 0.2386533104
0.4323569056 -8.002647176e-04 0.9842678277
0.422714434 0.249691344 0.2390178025
0.4425847735 0.2475943199 0.7356060102
0.472373715 0.2484976934 0.4846541518
0.4624772035 0.2497258388 0.7385836157
0.4724178958 0.2487287435 0.9846267971
0.4726424818 -8.2493176059e-04 0.988041609
0.4625213843 0.2475806521 0.2348463934
0.4525144207 0.4997552821 0.9800154204
0.4525291476 0.5000741964 0.4834327352
0.462455113 0.4979029759 0.7355415798
0.4724988941 0.4991102943 0.9865873225
0.4624403861 0.4991539009 0.2354400737
0.4524002868 0.2454283062 0.4864664873
0.4524591946 0.2474368153 0.9836143192
0.4525843737 -0.0044051611 0.4868254567
0.4826015829 0.2513646677 0.7350252161
0.4825647655 0.0017833314 0.7414507691
0.4923581884 0.5027263916 0.9919718642
0.4923360979 0.4990263352 0.491857472
0.4824138143 0.250023926 0.238946929
0.492560684 0.2517961782 0.4913687213
0.4926232735 0.251152492 0.989670778
0.4824579951 0.5017676963 0.2401747886
0.5026155102 0.2508068931 0.7434683615
0.5125746113 0.2488348313 0.495700286
0.5126887451 0.2499568889 0.9947975981
0.5024976946 -8.6482499995e-05 0.7401851717
0.5025934198 0.251123204 0.2413649104
0.5226036653 0.2507782559 0.2458465059
0.522566848 0.2497245371 0.7514531306
0.5124199783 0.4986195568 0.4952842496
0.5225079402 0.4993426461 0.7465573396
0.5425513214 0.5008474008 0.749256974
0.5525325128 0.4984308116 1.0001269137
0.5424519144 0.4994051272 0.2497693976
0.5525435581 0.4967659489 0.4992126639
0.5325738116 -6.8174575906e-04 0.5002076536
0.5324744047 0.2478084481 0.495566823
0.5325701299 0.2482249891 0.9973932233
0.5324449508 0.5006606081 0.9986634229
0.5524920137 -0.0013343485 0.9983780882
0.5425770935 0.2497779064 0.2498734067
0.5524699233 0.2506539444 0.4992816965
0.5425218675 0.247821465 0.7484617186
0.5524809685 0.2501658103 0.9996206748
0.572450715 0.2487931772 0.5050242872
0.5723218541 0.2527665888 1.0015904045
0.5624732052 0.5006495438 0.7507443961
0.5625836573 0.4988532103 0.2559998186
0.572435988 0.4996765298 1.0019585783
0.5724985776 0.4999388205 0.5029330601
0.5625578852 0.2499347602 0.2526052562
0.5624842504 0.2493132028 0.7519299157
0.6025489224 0.5002512263 0.7615512173
0.5923541901 0.5001933011 1.0054654337
0.5924278249 0.5021074376 0.5036878164
0.5825165864 0.2502361016 0.7511475464
0.6024347885 0.2513887489 0.2537852532
0.5922952823 0.2485640796 0.5040385019
0.6023869259 0.2513920032 0.7570005892
0.5922511015 0.2493639687 0.9998968051
0.5823656352 0.501179332 0.7536934681
0.5824282247 0.4994571949 0.2560504425
0.5824539969 0.2500642784 0.2512890349
0.6124601609 0.502362569 1.0095061411
0.6125374774 0.4990953248 0.5119450341
0.6223161733 0.5000364473 0.7601392708
0.6123938896 0.0010412374 0.5092766945
0.6224597611 0.5019108823 0.2622201148
0.6123018461 0.2498826925 0.5107392649
0.6123644357 0.2517707952 1.0071498288
0.6224671245 0.0018166547 0.7595851692
0.6224413524 0.2527470634 0.2582373948
0.6223713993 0.2495104089 0.76007392
0.6423337823 0.001594391 0.2585438995
0.6524548798 0.0014976103 0.5004460461
0.6324409525 0.5013648229 0.5099228395
0.6425730953 0.2500467056 0.2535726329
0.6526279215 0.2501228545 0.5014336723
0.6425178692 0.2507925745 0.7539603941
0.632378363 0.0023558802 0.5067050006
0.6525248329 0.2508179575 0.9983964969
0.6423926901 0.5019219466 0.7526874333
0.6524511981 0.49735952 0.5007543917
0.6325072238 0.2519562862 0.5083654644
0.6323746813 0.2508752319 1.0060268987
0.6823837274 0.5013003892 0.745365377
0.6624323896 -0.0021285817 0.2514418271
0.6825052247 0.4977200883 0.2470964559
0.66245448 -0.0037121083 0.7493978004
0.6725498054 0.4988297799 0.4984938046
0.6626348852 0.249568985 0.2488011005
0.6625538869 0.2504020672 0.7491382379
0.6723841272 -0.0011401362 0.9965004019
0.6624839339 0.5013374874 0.7505962061
0.6624434348 0.4994519881 0.2469860038
0.6823395465 0.2480492609 0.2447576319
0.6725718958 0.2494043211 0.4946611154
0.6824499986 0.2489630479 0.7445259407
0.6725939862 0.2484391173 0.995009298
0.7025228337 0.2499738109 0.240976487
0.6925048249 0.2496243069 0.4923535862
0.7024823346 0.2512305935 0.7406591955
0.692460644 0.2502959794 0.9925149206
0.692390691 0.4980656873 0.9902966735
0.6924311901 0.5000956743 0.49274293
0.732455363 0.5028689268 0.9900849736
0.7325289977 0.5006156998 0.4875148621
0.7124267087 0.2529162832 0.4895747945
0.712423027 0.2511908919 0.9895787346
0.7224373541 0.0011129606 0.2407408558
0.7323191387 -4.0741439705e-04 0.4912463035
0.7324884986 0.0010557513 0.9887503436
0.7125150704 0.5022096203 0.9881704698
0.7224778532 0.2513789863 0.238680003
0.7324222273 0.250925347 0.4907437463
0.7224042185 0.2529969881 0.7372637127
0.7324259091 0.250491233 0.9878667265
0.7124819348 0.5027641407 0.488878946
0.7124856165 0.0014698843 0.4911294083
0.7124414357 6.5652267883e-04 0.9921651555
0.7525539703 0.4995821572 -0.0142460309
0.7425212344 0.0014902557 0.2383983501
0.7424586449 9.1308595974e-04 0.7388422578
0.7424439179 0.2514675012 0.2375543117
0.7425249162 0.2490912645 0.7362659617
0.7624725722 3.866821505e-04 0.2368142823
0.7524287912 0.0020186771 0.4857798432
0.7625277983 -3.7018603665e-04 0.7347472448
0.7522778399 -8.166624358e-05 -0.0160081291
0.7624799357 0.2468621187 0.2347000443
0.7524656086 0.2499549364 0.4796525108
0.76253148 0.2485933677 0.7366617486
0.7524435181 0.2506702155 -0.0182327732
0.7825564525 0.0023545134 0.2379593028
0.782493863 0.001823814 0.7367593146
0.7726304871 6.1903398025e-04 -0.0147921247
0.7825490891 0.2504079248 0.2347930082
0.7724648089 0.2504463247 0.4855046332
0.7824975447 0.252849897 0.7350160117
0.7724574454 0.2520382927 -0.0147536781
0.7925486892 -8.2987818609e-04 0.4885181357
0.7925818249 0.0025719609 -0.0128568191
0.8124263922 0.4989833794 -0.0117781436
0.7925707797 0.2518866457 0.4875930991
0.7924713727 0.252449627 -0.0139986825
0.8025519711 0.001407338 0.2394421228
0.8126104791 -0.00132784 0.4907879271
0.8025703798 8.1038254592e-04 0.7369829802
0.8126141609 0.0010607628 -0.0082417627
0.8025298807 0.250124807 0.2397799222
0.8127540669 0.2491869387 0.4894717058
0.8024856999 0.2492708978 0.7361776
0.81265466 0.2497844149 -0.0097281335
0.8327054047 0.0015910066 0.4902218599
0.8226542602 -1.2338543766e-04 0.7407098194
0.8325949525 0.0013645775 -0.0097318152
0.8226689871 0.2498351808 0.2437828918
0.8327054047 0.2496457848 0.4909554462
0.8228346653 0.2521378721 0.7425166323
0.8326685873 0.2497369032 -0.0066819003
0.822628488 0.0022505083 0.2385741531
0.84280073 3.1346203608e-04 0.7467837665
0.8426497788 0.2511192989 0.2415563608
0.8426792327 0.2496770254 0.7430247121
0.86260848 -9.8913648309e-05 0.2466371591
0.842646097 0.5021575527 0.7428525909
0.8526641059 0.0016057808 0.4930991381
0.8626416156 0.0016476301 0.745948012
0.8527561493 -3.1082893057e-04 -0.004783854
0.8626968417 0.2506480868 0.2472538502
0.8426019162 1.7366043096e-04 0.2439927508
0.852619925 0.2503682233 0.4938723031
0.8626305704 0.252091662 0.747880004
0.852549972 0.2499660008 -0.0049778816
0.8726485793 -0.0015735993 0.4978458187
0.8925815084 -9.6811776211e-04 0.5015174319
0.8726338523 0.0010750814 -0.0023236155
0.8827181325 0.2501990034 0.2477223513
0.8926661883 7.0826848044e-05 -0.0016318077
0.8726448976 0.2507665407 0.4998210711
0.8925005101 0.2482139248 0.5029238557
0.8827586316 0.2489252989 0.750703897
0.8726412158 0.2511622547 -0.0020957067
0.8925005101 0.2481690164 5.3102001492e-04
0.9025442912 -0.0017783553 0.2490634244
0.912422394 -3.7806126674e-04 0.5020439204
0.9025516546 2.6380252737e-04 0.7498929942
0.9026657885 0.2484391173 0.256091862
0.9125512548 0.2489461259 0.4995642699
0.9026216077 0.2481599046 0.7535020178
0.9024227938 0.4993790934 0.7509192786
0.9125107557 0.249792225 7.4268312763e-04
0.9224735385 0.0012021915 0.2537797306
0.9225655819 -0.0022740847 0.7541067432
0.9223373142 0.2506929951 0.2509033729
0.9224440846 0.2475376963 0.7558813409
0.9424764206 -3.6172145823e-05 0.2596833974
0.9324105491 3.6748220938e-04 0.5046846469
0.9425242832 -6.7282917624e-04 0.7572978896
0.9324142309 7.1112861304e-04 0.0052934401
0.9424874658 0.249691344 0.25704083
0.9324436848 0.2476014792 0.501509148
0.9423696502 0.2500818512 0.7584438305
0.9325136378 0.2475123134 0.0035401044
0.9525717459 1.1241587303e-04 0.5071624565
0.9525202016 1.070138557e-04 0.0074829696
0.9624351218 0.2468621187 0.2590400137
0.9525165199 0.2477693973 0.5084252926
0.9724715394 0.2504573891 0.5135677601
0.9624498488 0.2493379349 0.7583784796
0.9525312468 0.2481449352 0.0116982834
0.9725304472 0.2482848669 0.0125210598
0.9625529374 -0.0019497099 0.2608864052
0.9826036821 0.5011031831 0.7623170188
0.9826368178 0.5003768395 0.2608044866
0.9826368178 -6.6111395793e-04 0.2631810484
0.992706371 0.0011885888 0.5149760248
0.9826515447 0.2497264896 0.2660666105
0.9927726422 -2.0630314945e-04 0.0165145488
0.992606964 0.2499653499 0.5186126614
0.9825190021 0.2482249891 0.7639489491
0.9925738284 0.2492936774 0.016779818
0.0122823911 0.7503477068 0.0159940431
0.0024378657 0.4995860623 0.7668409542
0.0125443836 0.4983175645 0.017271238
0.0223893139 0.7515712962 0.2719491072
0.0025312714 0.7501719785 0.2683520493
0.0123861793 0.7503477068 0.5158918571
0.0224296658 0.7491176088 0.7684958954
0.0225472237 0.4987386615 0.2685030006
0.0025118686 0.7494430316 0.7686505284
0.0126629355 1.001775817 0.0189190919
0.052558763 1.0008255826 0.5095261323
0.0523732034 1.0004806345 0.00699652
0.0324623648 0.7491826934 0.0149614997
0.0425598992 0.4991994601 0.764709228
0.0424122615 0.7523458023 0.2653459103
0.0325113319 0.751968312 0.5147229053
0.0423618217 0.7513500088 0.7647175119
0.0524114935 0.7512133312 0.0100207915
0.0524560425 0.748518831 0.5128562642
0.0525046415 0.5008584652 0.5107659575
0.042498046 1.0021988665 0.2608551105
0.0324214975 1.0022444257 0.5143473681
0.0324667829 0.99961501 0.0127113136
0.0724990556 0.999543417 0.5031226696
0.0625587314 0.999985992 0.7589298199
0.0724036985 1.000558736 0.0039991251
0.0726315981 0.7501849954 0.0069365076
0.0624681606 0.7512588904 0.2626748094
0.0724662881 0.7519032274 0.506551288
0.062498719 0.7512068228 0.7626345687
0.06257714 0.9990357576 0.2566450432
0.0825487274 1.0008060572 0.25301577
0.1024348984 1.0003830077 0.7530565275
0.0823882036 0.9998102637 0.7509238808
0.0925707861 1.0019385283 0.0042576751
0.0924106305 0.7513565172 0.0036890307
0.0925247644 0.5042701971 0.0036469669
0.102468034 0.7508488578 0.2514243388
0.0825273733 0.7512719073 0.254195767
0.0925045149 0.7537516285 0.503341733
0.1024466799 0.7520073627 0.7524260299
0.0825597726 0.7479656124 0.7549029191
0.0923752859 0.5018881027 0.5009127064
0.1125140241 1.0036307265 0.0049711959
0.1123678591 0.7529901393 0.0034020392
0.1224403577 0.503567284 0.7520707422
0.1222573753 0.7488442537 0.2498605206
0.1124208761 0.7512068228 0.5012090863
0.1224215808 0.7482845266 0.7498837898
0.1125081333 1.0015415126 0.5016324862
0.1223674593 1.001346259 0.7508309169
0.1522631711 0.9983003022 0.4966207204
0.1324016678 1.0003830077 0.4998947059
0.1424366126 0.9990292491 0.7480024218
0.1521674459 0.9993221296 -0.0053318255
0.1324038768 0.999185452 7.9290203278e-04
0.1523320196 0.7485318479 -0.0044924076
0.1324145539 0.7496903528 -0.0036375725
0.1423364694 0.7473473092 0.2494325186
0.1523051429 0.7503932659 0.5006770752
0.1324370125 0.7491566596 0.5011280881
0.1423784412 0.4986872447 0.2471774541
0.1423986907 0.7501849954 0.747831221
0.1722671577 0.7508814 -0.0090290856
0.1623522375 0.4984867843 0.7415869935
0.1723831325 0.500699008 -0.0100477728
0.1623625464 0.7480567307 0.2415600425
0.1824843486 1.0022379173 0.7414029066
0.172282621 0.7512068228 0.4929325395
0.1624590079 0.4991018333 0.243175405
0.1624133544 0.7483300858 0.7447173911
0.1823194068 0.750595028 0.2379289285
0.1823878871 0.751753533 0.7407797724
0.1623198382 0.9997256538 0.24244458
0.1723028706 1.0031425924 0.4920019802
0.1722008865 1.0037934379 -0.0043369278
0.192374233 1.000988294 0.4923572679
0.2025019577 1.0013918182 0.7424632471
0.1923819647 0.7503021476 -0.0094559886
0.2023263388 0.7481283237 0.2389533721
0.1923333657 0.7507577394 0.4884757957
0.2022862078 0.7493584217 0.7412896931
0.2325250577 0.7500027587 0.9926713944
0.2324297006 0.4991838398 0.9890080652
0.2325313166 0.7485058141 0.4922992806
0.2324742497 0.4991571551 0.4947246254
0.2225468116 0.9996085016 0.2423350483
0.2125074486 0.999113859 0.4890114886
0.2124227686 0.9997256538 -0.0108642258
0.2125207029 0.7485708986 -0.0109771262
0.2324768269 0.9990162322 0.9925885553
0.2224897446 0.7478940194 0.2404748503
0.2124805719 0.7492542864 0.485662948
0.2225810517 0.4993862527 0.2396980036
0.2224691269 0.7492217441 0.7422791602
0.2526855181 0.7496447937 0.995248611
0.252448046 0.4973224218 0.9968317583
0.2424580184 0.7501329278 0.2461953505
0.252422642 0.7472366655 0.4990672353
0.242497413 0.5020417022 0.2427400395
0.24246575 0.7492607948 0.7436717775
0.2525323578 0.4962947368 0.498284866
0.262540426 0.5000019525 0.7457749703
0.2623979427 0.7500613348 0.2440792717
0.2624211377 0.7507707563 0.741003438
0.2826975729 0.5004223987 0.7460722707
0.2824969182 0.7498205219 0.2445937945
0.2825237949 0.4979166437 0.247164568
0.2824814549 0.7500873686 0.7436883454
0.2724814865 0.7496578106 0.9972367495
0.272463446 0.4970282396 0.9933617203
0.2724693368 0.749377947 0.4964688488
0.2825491989 1.0007474812 0.2471636476
0.2825738665 0.9995043663 0.7471022368
0.3125351133 1.0002983978 1.0012498438
0.292487314 0.7486815424 0.9981019579
0.3026235067 0.5024452264 0.7473286637
0.2926515195 0.4993465512 0.9958929151
0.3024732918 0.7462603973 0.2514252592
0.29254659 0.748089273 0.4974859289
0.3025587081 0.4998450988 0.2473725862
0.3024939095 0.7512979411 0.749242247
0.3024405243 0.9970767127 0.2506612986
0.3124872507 0.7470023611 1.0030078736
0.3125067639 0.5008623702 0.999280114
0.3125251726 0.7482715097 0.5002426301
0.2924880504 0.9998818567 0.9988198968
0.3327544816 0.7503867575 0.9974668581
0.3325449907 0.4999381697 0.9976693537
0.3225869942 0.7495601837 0.2490100392
0.3325803354 0.7492542864 0.50049667
0.3225218274 0.747373343 0.7483724364
0.3325615585 0.4981021346 0.496443997
0.3524672427 1.0020491721 0.4969235434
0.3425836173 0.9988600293 0.7450413841
0.3624554295 0.750595028 0.2461953505
0.3525942627 0.9999794835 0.993380129
0.3624517478 0.7505169266 0.750191215
0.3625585182 1.0018278846 0.2421021784
0.352486756 0.7498986234 0.9977982145
0.3626468799 0.9981636247 0.7418861347
0.3526343936 0.5003143584 0.9953774718
0.3425051963 0.7487726607 0.2490532996
0.3525983126 0.750666621 0.4957619551
0.3426156484 0.7500092671 0.7503568932
0.3925794091 0.9993481634 0.4866340063
0.3725691636 0.7507251971 0.9956720108
0.3725544366 0.5011396304 0.9940244331
0.3824288577 0.7500353009 0.2428127538
0.3725507549 0.7514801779 0.494857168
0.382649762 0.4982772121 0.2421205871
0.382509856 0.7520789557 0.7442811052
0.3827233967 0.9987884363 0.241482726
0.3827160333 0.9986908095 0.7420067116
0.372605981 1.0011575138 0.9942637461
0.3726280714 0.4974825298 0.4960215176
0.3925462735 0.7471520555 0.988336148
0.3926199083 0.7484927972 0.4915877847
0.4124350217 0.7495276415 0.9874341223
0.4124092496 0.7499311657 0.4868806828
0.4125197017 0.4993127072 0.4919338681
0.4025311467 0.9979618626 0.237521176
0.4024869659 0.4994702118 0.7400912874
0.4024943294 0.749377947 0.2403809659
0.4025495554 0.5011227084 0.2394761788
0.4025164198 0.7477703587 0.7393070772
0.4324820847 0.7470479203 0.9853907577
0.4224493488 0.7478159179 0.2367608971
0.4325594012 0.7474774783 0.4849514521
0.4224935297 0.4988258748 0.2370664814
0.422559801 0.7492022187 0.7369203906
0.4425000935 0.7493388963 0.2360650487
0.4424890483 0.7493519132 0.7351089756
0.4325041751 0.999042266 0.4844222023
0.4224272584 0.9990813168 0.7349009574
0.4424780031 0.9967773238 0.2360328335
0.4525954189 0.9965950871 0.9847648623
0.4626281547 0.9989316223 0.2348473138
0.4724915306 1.0002268048 0.4879723181
0.4625140208 0.997037662 0.7372305771
0.4525917372 0.747373343 0.9820403762
0.4524481494 0.7487986946 0.4847692061
0.4725614836 0.7488247284 0.9859614271
0.4624256591 0.7487075762 0.2360862187
0.472443668 0.7489614059 0.4840623124
0.4624845669 0.7485318479 0.7381988741
0.4724731219 0.4990992299 0.4841626398
0.4826310368 0.9990292491 0.2402999677
0.4926784996 1.0003960246 0.4901187713
0.4926380004 1.0003764992 0.9878299091
0.4824101325 0.5019662041 0.7397102276
0.4926232735 0.7502305546 0.490613965
0.4824469499 0.749091575 0.2353213376
0.4925533205 0.7500418094 0.9934905811
0.4825132212 0.7514997032 0.7374257092
0.5125267487 1.0015675464 0.4931552846
0.5126372008 1.0008125657 0.9959021195
0.502534512 1.0023355441 0.2445809085
0.5224048515 0.7518576682 0.7473976963
0.5225926201 0.9965234941 0.2458483467
0.5226515279 1.0003114147 0.7456424278
0.5024756042 0.7499962502 0.2410326335
0.5024608772 0.5027088188 0.2416327568
0.5025529207 0.7516168554 0.7388330535
0.5024535137 0.4986000314 0.7424043393
0.5125709295 0.749879098 0.9910882471
0.5125157035 0.4989254541 0.9954879239
0.5125562026 0.7492282526 0.4899945126
0.5225815749 0.5004113343 0.2462965983
0.5224600776 0.751467161 0.2471010581
0.5324228604 0.7504127913 0.4968876464
0.5323970882 0.4984672589 0.4994022734
0.5325480394 1.0006173121 0.9992064792
0.542444551 0.9991724351 0.2485341745
0.5524551963 0.9978772527 0.5003852975
0.5525361946 0.748876796 1.0041308037
0.5424924136 0.9996410439 0.7525033464
0.5424371875 0.7531528507 0.2484200407
0.5524073338 0.7498856065 0.4998689337
0.5423561892 0.7495666922 0.7494751169
0.5324596777 0.7497554374 0.993380129
0.5622743914 0.999771213 0.2533765803
0.5623811618 1.0005196852 0.749937175
0.5626536104 0.7485253395 0.2496644681
0.5625578852 0.7506080449 0.7534661208
0.5723918072 1.0006954135 0.5027259623
0.5723328993 1.001059887 1.0005227005
0.5725280315 0.7496252683 1.0006791744
0.5724617602 0.7491371342 0.5027425302
0.6024126981 0.9985085728 0.2586792034
0.5924977779 0.7490134736 1.0025660651
0.592313691 1.0014308689 0.50723333
0.6024347885 1.0008190742 0.7575215551
0.5924499153 0.9988795547 1.0038822864
0.6026704198 0.7516754315 0.2576961793
0.602526832 0.5001295182 0.2594459253
0.5924315066 0.7502761138 0.5036546807
0.6026004667 0.7506926549 0.7599137644
0.5824319064 0.9994067395 0.2537079368
0.5823030456 0.9965430195 0.7551578794
0.5825055412 0.7489744228 0.2536932098
0.582494496 0.7470283949 0.7525401637
0.6124491157 0.7505755027 1.0123226706
0.6123828444 0.7515322455 0.5123757974
0.6123902079 1.0014308689 1.0094417106
0.6223161733 1.0026088992 0.2605467649
0.6223161733 0.7512979411 0.2603479511
0.6224634428 0.750666621 0.7618411542
0.6422785562 1.0013722928 0.7577304938
0.652550605 1.001704224 1.0035049083
0.6323305004 1.0040472676 1.0105370277
0.6323820447 0.7498921149 1.0085672979
0.6325366777 0.5012151285 1.0089538804
0.6323415456 0.7507512309 0.5070335957
0.6522597477 0.7502305546 1.0024740216
0.6525027424 0.5006664658 1.0015535872
0.6424810518 0.7519357697 0.2544267961
0.6423853266 0.5018620689 0.2558415039
0.6523149738 0.7511807889 0.5019850126
0.6425252327 0.7517600414 0.753976962
0.6724356715 0.7479981546 0.9981111622
0.6724688071 0.4980871652 0.9967121018
0.6823542734 0.9961525122 0.2460572854
0.6724393532 0.9996800946 0.499043304
0.6824831343 0.9987754194 0.7464073088
0.6824610438 0.7486685255 0.2450171944
0.6724025359 0.7503867575 0.4984569872
0.6826119951 0.7505559773 0.745744596
0.6625575687 0.7498140135 0.249960848
0.6624839339 0.7493388963 0.7488593463
0.7024639259 1.0018929692 0.244370129
0.7024896981 0.5018861501 0.7406389459
0.6924495988 0.7498009966 0.9951473632
0.692306011 1.0009622602 0.4942726921
0.7024565625 1.0005392106 0.7442185156
0.692475371 0.9995238917 0.9962242715
0.7024602442 0.7489939482 0.2437460744
0.7025007433 0.5020364954 0.2399814974
0.692460644 0.750380249 0.4958512372
0.7024860164 0.7479525955 0.7426252435
0.7224741715 0.5023059455 0.7358784588
0.7325547699 0.7511157044 0.9886859132
0.722481535 0.7508293324 0.2386054478
0.7225183524 0.4987952851 0.238540097
0.7324443178 0.7532244437 0.4899070714
0.722481535 0.7506731295 0.7397359997
0.7224704898 1.002778119 0.7411599119
0.7124267087 0.7523913615 0.9915668731
0.7124451174 0.7511742805 0.4916558969
0.7425285979 0.4992144295 0.7358416414
0.7424880988 0.7502826222 0.2400054287
0.7423997371 0.5003703311 0.2368612245
0.7423813284 0.752170074 0.7397415223
0.7523846103 0.501840591 0.4854411233
0.7524103825 0.7483235774 -0.0151307985
0.7625498887 0.5029209944 0.7340964977
0.7625093896 0.7503411983 0.2348022126
0.7625572522 0.5000787523 0.2370213801
0.7525061077 0.7493519132 0.4864241473
0.7625646157 0.7522351586 0.7347684148
0.7825012265 0.7526386828 0.2367121141
0.7824644091 0.4984561946 0.2361193543
0.772575261 0.7501915038 0.4854162715
0.7824165465 0.7507577394 0.7372572697
0.7726157602 1.0007474812 0.4872341296
0.772450082 0.5009704106 0.4860053496
0.7725494889 0.7519748204 -0.0132174177
0.7825196351 0.5005636322 0.7369240724
0.7724132646 0.5025975242 -0.0137137805
0.7924860997 0.7524173953 0.488626747
0.8125957522 0.4985538214 0.4905946359
0.8124779366 0.7495146246 -0.0086773425
0.8024157468 0.498424954 0.7403204756
0.8025372442 0.7503542152 0.2394467249
0.8024820181 0.5001490436 0.2350571729
0.7924492823 0.4998743868 0.4874716017
0.7924492823 0.7513304834 -0.0115651918
0.8124595279 0.7497684543 0.4901196917
0.792537644 0.5004894358 -0.0119779791
0.8025335625 0.7499571995 0.7389076087
0.8326391334 0.4985492655 0.4952069331
0.8325802256 0.7506470957 -0.0076783682
0.8225806254 0.4996609095 0.7384409484
0.8325691804 0.5006977063 -0.0092033855
0.822558535 0.752241667 0.2405043042
0.8225806254 0.5007380588 0.2403229786
0.8325839073 0.7510571283 0.4958852933
0.8225732619 0.7517665499 0.7397949075
0.8625422087 0.7487271016 0.7457970608
0.86260848 0.5005213272 0.7443906369
0.8525426085 0.7502305546 -0.0054751371
0.8526567424 0.5005714423 -0.0052270524
0.8625827078 0.7520008542 0.2453292217
0.8626894782 0.5001633622 0.2478420078
0.8524873825 0.7505820111 0.4913512331
0.842646097 0.7491826934 0.2440553404
0.8426350518 0.4994864829 0.2470651611
0.842660824 0.7513369919 0.742001189
0.8527303772 0.5017006592 0.4973349776
0.8726927602 0.5016609576 0.500721256
0.8825340456 0.7510310945 0.7510122425
0.8925078736 0.49973055 0.5001100875
0.8725344454 0.7501719785 -0.0058380092
0.8924968284 0.7495016077 0.0011312353
0.8824788195 0.499827526 0.7477732336
0.8726890784 0.5017488218 -5.4737022459e-04
0.892460011 0.4991734263 0.0014742813
0.8826592247 0.751239365 0.2486602741
0.8826113621 0.4979290097 0.2510230294
0.8725344454 0.7503477068 0.4983373307
0.8924636928 0.7484212042 0.5048889834
0.8826518612 1.0003699908 0.2515513588
0.8825487725 0.9990943337 0.746636497
0.9125954357 0.7487140846 0.5054384827
0.9125144374 1.0003374485 0.0022368612
0.9123561227 0.498424954 0.5002840497
0.9025074738 0.7503932659 0.7500991715
0.9124555296 0.7474709698 0.0040036352
0.912492347 0.4997468211 0.0020270022